<?xml version="1.0"?> 
<VTKFile type="UnstructuredGrid"> 
   <UnstructuredGrid> 
      <Piece NumberOfPoints="6000"  NumberOfCells="1500">  
          <Points>  
             <DataArray type="Float64" NumberOfComponents="3" format="ascii">   
-500.0   0.0   0.0
-450.0   0.0   0.0
-500.0   30.0   0.0
-500.0   0.0   16.666666666666668
-450.0   0.0   0.0
-450.0   30.0   0.0
-500.0   30.0   0.0
-450.0   30.0   16.666666666666668
-500.0   0.0   16.666666666666668
-500.0   30.0   16.666666666666668
-450.0   30.0   16.666666666666668
-500.0   30.0   0.0
-500.0   0.0   16.666666666666668
-450.0   30.0   16.666666666666668
-450.0   0.0   16.666666666666668
-450.0   0.0   0.0
-500.0   0.0   16.666666666666668
-450.0   30.0   16.666666666666668
-450.0   0.0   0.0
-500.0   30.0   0.0
-500.0   0.0   16.666666666666668
-450.0   0.0   16.666666666666668
-500.0   30.0   16.666666666666668
-500.0   0.0   33.333333333333336
-450.0   0.0   16.666666666666668
-450.0   30.0   16.666666666666668
-500.0   30.0   16.666666666666668
-450.0   30.0   33.333333333333336
-500.0   0.0   33.333333333333336
-500.0   30.0   33.333333333333336
-450.0   30.0   33.333333333333336
-500.0   30.0   16.666666666666668
-500.0   0.0   33.333333333333336
-450.0   30.0   33.333333333333336
-450.0   0.0   33.333333333333336
-450.0   0.0   16.666666666666668
-500.0   0.0   33.333333333333336
-450.0   30.0   33.333333333333336
-450.0   0.0   16.666666666666668
-500.0   30.0   16.666666666666668
-500.0   0.0   33.333333333333336
-450.0   0.0   33.333333333333336
-500.0   30.0   33.333333333333336
-500.0   0.0   50.0
-450.0   0.0   33.333333333333336
-450.0   30.0   33.333333333333336
-500.0   30.0   33.333333333333336
-450.0   30.0   50.0
-500.0   0.0   50.0
-500.0   30.0   50.0
-450.0   30.0   50.0
-500.0   30.0   33.333333333333336
-500.0   0.0   50.0
-450.0   30.0   50.0
-450.0   0.0   50.0
-450.0   0.0   33.333333333333336
-500.0   0.0   50.0
-450.0   30.0   50.0
-450.0   0.0   33.333333333333336
-500.0   30.0   33.333333333333336
-500.0   30.0   0.0
-450.0   30.0   0.0
-500.0   60.0   0.0
-500.0   30.0   16.666666666666668
-450.0   30.0   0.0
-450.0   60.0   0.0
-500.0   60.0   0.0
-450.0   60.0   16.666666666666668
-500.0   30.0   16.666666666666668
-500.0   60.0   16.666666666666668
-450.0   60.0   16.666666666666668
-500.0   60.0   0.0
-500.0   30.0   16.666666666666668
-450.0   60.0   16.666666666666668
-450.0   30.0   16.666666666666668
-450.0   30.0   0.0
-500.0   30.0   16.666666666666668
-450.0   60.0   16.666666666666668
-450.0   30.0   0.0
-500.0   60.0   0.0
-500.0   30.0   16.666666666666668
-450.0   30.0   16.666666666666668
-500.0   60.0   16.666666666666668
-500.0   30.0   33.333333333333336
-450.0   30.0   16.666666666666668
-450.0   60.0   16.666666666666668
-500.0   60.0   16.666666666666668
-450.0   60.0   33.333333333333336
-500.0   30.0   33.333333333333336
-500.0   60.0   33.333333333333336
-450.0   60.0   33.333333333333336
-500.0   60.0   16.666666666666668
-500.0   30.0   33.333333333333336
-450.0   60.0   33.333333333333336
-450.0   30.0   33.333333333333336
-450.0   30.0   16.666666666666668
-500.0   30.0   33.333333333333336
-450.0   60.0   33.333333333333336
-450.0   30.0   16.666666666666668
-500.0   60.0   16.666666666666668
-500.0   30.0   33.333333333333336
-450.0   30.0   33.333333333333336
-500.0   60.0   33.333333333333336
-500.0   30.0   50.0
-450.0   30.0   33.333333333333336
-450.0   60.0   33.333333333333336
-500.0   60.0   33.333333333333336
-450.0   60.0   50.0
-500.0   30.0   50.0
-500.0   60.0   50.0
-450.0   60.0   50.0
-500.0   60.0   33.333333333333336
-500.0   30.0   50.0
-450.0   60.0   50.0
-450.0   30.0   50.0
-450.0   30.0   33.333333333333336
-500.0   30.0   50.0
-450.0   60.0   50.0
-450.0   30.0   33.333333333333336
-500.0   60.0   33.333333333333336
-500.0   60.0   0.0
-450.0   60.0   0.0
-500.0   90.0   0.0
-500.0   60.0   16.666666666666668
-450.0   60.0   0.0
-450.0   90.0   0.0
-500.0   90.0   0.0
-450.0   90.0   16.666666666666668
-500.0   60.0   16.666666666666668
-500.0   90.0   16.666666666666668
-450.0   90.0   16.666666666666668
-500.0   90.0   0.0
-500.0   60.0   16.666666666666668
-450.0   90.0   16.666666666666668
-450.0   60.0   16.666666666666668
-450.0   60.0   0.0
-500.0   60.0   16.666666666666668
-450.0   90.0   16.666666666666668
-450.0   60.0   0.0
-500.0   90.0   0.0
-500.0   60.0   16.666666666666668
-450.0   60.0   16.666666666666668
-500.0   90.0   16.666666666666668
-500.0   60.0   33.333333333333336
-450.0   60.0   16.666666666666668
-450.0   90.0   16.666666666666668
-500.0   90.0   16.666666666666668
-450.0   90.0   33.333333333333336
-500.0   60.0   33.333333333333336
-500.0   90.0   33.333333333333336
-450.0   90.0   33.333333333333336
-500.0   90.0   16.666666666666668
-500.0   60.0   33.333333333333336
-450.0   90.0   33.333333333333336
-450.0   60.0   33.333333333333336
-450.0   60.0   16.666666666666668
-500.0   60.0   33.333333333333336
-450.0   90.0   33.333333333333336
-450.0   60.0   16.666666666666668
-500.0   90.0   16.666666666666668
-500.0   60.0   33.333333333333336
-450.0   60.0   33.333333333333336
-500.0   90.0   33.333333333333336
-500.0   60.0   50.0
-450.0   60.0   33.333333333333336
-450.0   90.0   33.333333333333336
-500.0   90.0   33.333333333333336
-450.0   90.0   50.0
-500.0   60.0   50.0
-500.0   90.0   50.0
-450.0   90.0   50.0
-500.0   90.0   33.333333333333336
-500.0   60.0   50.0
-450.0   90.0   50.0
-450.0   60.0   50.0
-450.0   60.0   33.333333333333336
-500.0   60.0   50.0
-450.0   90.0   50.0
-450.0   60.0   33.333333333333336
-500.0   90.0   33.333333333333336
-500.0   90.0   0.0
-450.0   90.0   0.0
-500.0   120.0   0.0
-500.0   90.0   16.666666666666668
-450.0   90.0   0.0
-450.0   120.0   0.0
-500.0   120.0   0.0
-450.0   120.0   16.666666666666668
-500.0   90.0   16.666666666666668
-500.0   120.0   16.666666666666668
-450.0   120.0   16.666666666666668
-500.0   120.0   0.0
-500.0   90.0   16.666666666666668
-450.0   120.0   16.666666666666668
-450.0   90.0   16.666666666666668
-450.0   90.0   0.0
-500.0   90.0   16.666666666666668
-450.0   120.0   16.666666666666668
-450.0   90.0   0.0
-500.0   120.0   0.0
-500.0   90.0   16.666666666666668
-450.0   90.0   16.666666666666668
-500.0   120.0   16.666666666666668
-500.0   90.0   33.333333333333336
-450.0   90.0   16.666666666666668
-450.0   120.0   16.666666666666668
-500.0   120.0   16.666666666666668
-450.0   120.0   33.333333333333336
-500.0   90.0   33.333333333333336
-500.0   120.0   33.333333333333336
-450.0   120.0   33.333333333333336
-500.0   120.0   16.666666666666668
-500.0   90.0   33.333333333333336
-450.0   120.0   33.333333333333336
-450.0   90.0   33.333333333333336
-450.0   90.0   16.666666666666668
-500.0   90.0   33.333333333333336
-450.0   120.0   33.333333333333336
-450.0   90.0   16.666666666666668
-500.0   120.0   16.666666666666668
-500.0   90.0   33.333333333333336
-450.0   90.0   33.333333333333336
-500.0   120.0   33.333333333333336
-500.0   90.0   50.0
-450.0   90.0   33.333333333333336
-450.0   120.0   33.333333333333336
-500.0   120.0   33.333333333333336
-450.0   120.0   50.0
-500.0   90.0   50.0
-500.0   120.0   50.0
-450.0   120.0   50.0
-500.0   120.0   33.333333333333336
-500.0   90.0   50.0
-450.0   120.0   50.0
-450.0   90.0   50.0
-450.0   90.0   33.333333333333336
-500.0   90.0   50.0
-450.0   120.0   50.0
-450.0   90.0   33.333333333333336
-500.0   120.0   33.333333333333336
-500.0   120.0   0.0
-450.0   120.0   0.0
-500.0   150.0   0.0
-500.0   120.0   16.666666666666668
-450.0   120.0   0.0
-450.0   150.0   0.0
-500.0   150.0   0.0
-450.0   150.0   16.666666666666668
-500.0   120.0   16.666666666666668
-500.0   150.0   16.666666666666668
-450.0   150.0   16.666666666666668
-500.0   150.0   0.0
-500.0   120.0   16.666666666666668
-450.0   150.0   16.666666666666668
-450.0   120.0   16.666666666666668
-450.0   120.0   0.0
-500.0   120.0   16.666666666666668
-450.0   150.0   16.666666666666668
-450.0   120.0   0.0
-500.0   150.0   0.0
-500.0   120.0   16.666666666666668
-450.0   120.0   16.666666666666668
-500.0   150.0   16.666666666666668
-500.0   120.0   33.333333333333336
-450.0   120.0   16.666666666666668
-450.0   150.0   16.666666666666668
-500.0   150.0   16.666666666666668
-450.0   150.0   33.333333333333336
-500.0   120.0   33.333333333333336
-500.0   150.0   33.333333333333336
-450.0   150.0   33.333333333333336
-500.0   150.0   16.666666666666668
-500.0   120.0   33.333333333333336
-450.0   150.0   33.333333333333336
-450.0   120.0   33.333333333333336
-450.0   120.0   16.666666666666668
-500.0   120.0   33.333333333333336
-450.0   150.0   33.333333333333336
-450.0   120.0   16.666666666666668
-500.0   150.0   16.666666666666668
-500.0   120.0   33.333333333333336
-450.0   120.0   33.333333333333336
-500.0   150.0   33.333333333333336
-500.0   120.0   50.0
-450.0   120.0   33.333333333333336
-450.0   150.0   33.333333333333336
-500.0   150.0   33.333333333333336
-450.0   150.0   50.0
-500.0   120.0   50.0
-500.0   150.0   50.0
-450.0   150.0   50.0
-500.0   150.0   33.333333333333336
-500.0   120.0   50.0
-450.0   150.0   50.0
-450.0   120.0   50.0
-450.0   120.0   33.333333333333336
-500.0   120.0   50.0
-450.0   150.0   50.0
-450.0   120.0   33.333333333333336
-500.0   150.0   33.333333333333336
-450.0   0.0   0.0
-400.0   0.0   0.0
-450.0   30.0   0.0
-450.0   0.0   16.666666666666668
-400.0   0.0   0.0
-400.0   30.0   0.0
-450.0   30.0   0.0
-400.0   30.0   16.666666666666668
-450.0   0.0   16.666666666666668
-450.0   30.0   16.666666666666668
-400.0   30.0   16.666666666666668
-450.0   30.0   0.0
-450.0   0.0   16.666666666666668
-400.0   30.0   16.666666666666668
-400.0   0.0   16.666666666666668
-400.0   0.0   0.0
-450.0   0.0   16.666666666666668
-400.0   30.0   16.666666666666668
-400.0   0.0   0.0
-450.0   30.0   0.0
-450.0   0.0   16.666666666666668
-400.0   0.0   16.666666666666668
-450.0   30.0   16.666666666666668
-450.0   0.0   33.333333333333336
-400.0   0.0   16.666666666666668
-400.0   30.0   16.666666666666668
-450.0   30.0   16.666666666666668
-400.0   30.0   33.333333333333336
-450.0   0.0   33.333333333333336
-450.0   30.0   33.333333333333336
-400.0   30.0   33.333333333333336
-450.0   30.0   16.666666666666668
-450.0   0.0   33.333333333333336
-400.0   30.0   33.333333333333336
-400.0   0.0   33.333333333333336
-400.0   0.0   16.666666666666668
-450.0   0.0   33.333333333333336
-400.0   30.0   33.333333333333336
-400.0   0.0   16.666666666666668
-450.0   30.0   16.666666666666668
-450.0   0.0   33.333333333333336
-400.0   0.0   33.333333333333336
-450.0   30.0   33.333333333333336
-450.0   0.0   50.0
-400.0   0.0   33.333333333333336
-400.0   30.0   33.333333333333336
-450.0   30.0   33.333333333333336
-400.0   30.0   50.0
-450.0   0.0   50.0
-450.0   30.0   50.0
-400.0   30.0   50.0
-450.0   30.0   33.333333333333336
-450.0   0.0   50.0
-400.0   30.0   50.0
-400.0   0.0   50.0
-400.0   0.0   33.333333333333336
-450.0   0.0   50.0
-400.0   30.0   50.0
-400.0   0.0   33.333333333333336
-450.0   30.0   33.333333333333336
-450.0   30.0   0.0
-400.0   30.0   0.0
-450.0   60.0   0.0
-450.0   30.0   16.666666666666668
-400.0   30.0   0.0
-400.0   60.0   0.0
-450.0   60.0   0.0
-400.0   60.0   16.666666666666668
-450.0   30.0   16.666666666666668
-450.0   60.0   16.666666666666668
-400.0   60.0   16.666666666666668
-450.0   60.0   0.0
-450.0   30.0   16.666666666666668
-400.0   60.0   16.666666666666668
-400.0   30.0   16.666666666666668
-400.0   30.0   0.0
-450.0   30.0   16.666666666666668
-400.0   60.0   16.666666666666668
-400.0   30.0   0.0
-450.0   60.0   0.0
-450.0   30.0   16.666666666666668
-400.0   30.0   16.666666666666668
-450.0   60.0   16.666666666666668
-450.0   30.0   33.333333333333336
-400.0   30.0   16.666666666666668
-400.0   60.0   16.666666666666668
-450.0   60.0   16.666666666666668
-400.0   60.0   33.333333333333336
-450.0   30.0   33.333333333333336
-450.0   60.0   33.333333333333336
-400.0   60.0   33.333333333333336
-450.0   60.0   16.666666666666668
-450.0   30.0   33.333333333333336
-400.0   60.0   33.333333333333336
-400.0   30.0   33.333333333333336
-400.0   30.0   16.666666666666668
-450.0   30.0   33.333333333333336
-400.0   60.0   33.333333333333336
-400.0   30.0   16.666666666666668
-450.0   60.0   16.666666666666668
-450.0   30.0   33.333333333333336
-400.0   30.0   33.333333333333336
-450.0   60.0   33.333333333333336
-450.0   30.0   50.0
-400.0   30.0   33.333333333333336
-400.0   60.0   33.333333333333336
-450.0   60.0   33.333333333333336
-400.0   60.0   50.0
-450.0   30.0   50.0
-450.0   60.0   50.0
-400.0   60.0   50.0
-450.0   60.0   33.333333333333336
-450.0   30.0   50.0
-400.0   60.0   50.0
-400.0   30.0   50.0
-400.0   30.0   33.333333333333336
-450.0   30.0   50.0
-400.0   60.0   50.0
-400.0   30.0   33.333333333333336
-450.0   60.0   33.333333333333336
-450.0   60.0   0.0
-400.0   60.0   0.0
-450.0   90.0   0.0
-450.0   60.0   16.666666666666668
-400.0   60.0   0.0
-400.0   90.0   0.0
-450.0   90.0   0.0
-400.0   90.0   16.666666666666668
-450.0   60.0   16.666666666666668
-450.0   90.0   16.666666666666668
-400.0   90.0   16.666666666666668
-450.0   90.0   0.0
-450.0   60.0   16.666666666666668
-400.0   90.0   16.666666666666668
-400.0   60.0   16.666666666666668
-400.0   60.0   0.0
-450.0   60.0   16.666666666666668
-400.0   90.0   16.666666666666668
-400.0   60.0   0.0
-450.0   90.0   0.0
-450.0   60.0   16.666666666666668
-400.0   60.0   16.666666666666668
-450.0   90.0   16.666666666666668
-450.0   60.0   33.333333333333336
-400.0   60.0   16.666666666666668
-400.0   90.0   16.666666666666668
-450.0   90.0   16.666666666666668
-400.0   90.0   33.333333333333336
-450.0   60.0   33.333333333333336
-450.0   90.0   33.333333333333336
-400.0   90.0   33.333333333333336
-450.0   90.0   16.666666666666668
-450.0   60.0   33.333333333333336
-400.0   90.0   33.333333333333336
-400.0   60.0   33.333333333333336
-400.0   60.0   16.666666666666668
-450.0   60.0   33.333333333333336
-400.0   90.0   33.333333333333336
-400.0   60.0   16.666666666666668
-450.0   90.0   16.666666666666668
-450.0   60.0   33.333333333333336
-400.0   60.0   33.333333333333336
-450.0   90.0   33.333333333333336
-450.0   60.0   50.0
-400.0   60.0   33.333333333333336
-400.0   90.0   33.333333333333336
-450.0   90.0   33.333333333333336
-400.0   90.0   50.0
-450.0   60.0   50.0
-450.0   90.0   50.0
-400.0   90.0   50.0
-450.0   90.0   33.333333333333336
-450.0   60.0   50.0
-400.0   90.0   50.0
-400.0   60.0   50.0
-400.0   60.0   33.333333333333336
-450.0   60.0   50.0
-400.0   90.0   50.0
-400.0   60.0   33.333333333333336
-450.0   90.0   33.333333333333336
-450.0   90.0   0.0
-400.0   90.0   0.0
-450.0   120.0   0.0
-450.0   90.0   16.666666666666668
-400.0   90.0   0.0
-400.0   120.0   0.0
-450.0   120.0   0.0
-400.0   120.0   16.666666666666668
-450.0   90.0   16.666666666666668
-450.0   120.0   16.666666666666668
-400.0   120.0   16.666666666666668
-450.0   120.0   0.0
-450.0   90.0   16.666666666666668
-400.0   120.0   16.666666666666668
-400.0   90.0   16.666666666666668
-400.0   90.0   0.0
-450.0   90.0   16.666666666666668
-400.0   120.0   16.666666666666668
-400.0   90.0   0.0
-450.0   120.0   0.0
-450.0   90.0   16.666666666666668
-400.0   90.0   16.666666666666668
-450.0   120.0   16.666666666666668
-450.0   90.0   33.333333333333336
-400.0   90.0   16.666666666666668
-400.0   120.0   16.666666666666668
-450.0   120.0   16.666666666666668
-400.0   120.0   33.333333333333336
-450.0   90.0   33.333333333333336
-450.0   120.0   33.333333333333336
-400.0   120.0   33.333333333333336
-450.0   120.0   16.666666666666668
-450.0   90.0   33.333333333333336
-400.0   120.0   33.333333333333336
-400.0   90.0   33.333333333333336
-400.0   90.0   16.666666666666668
-450.0   90.0   33.333333333333336
-400.0   120.0   33.333333333333336
-400.0   90.0   16.666666666666668
-450.0   120.0   16.666666666666668
-450.0   90.0   33.333333333333336
-400.0   90.0   33.333333333333336
-450.0   120.0   33.333333333333336
-450.0   90.0   50.0
-400.0   90.0   33.333333333333336
-400.0   120.0   33.333333333333336
-450.0   120.0   33.333333333333336
-400.0   120.0   50.0
-450.0   90.0   50.0
-450.0   120.0   50.0
-400.0   120.0   50.0
-450.0   120.0   33.333333333333336
-450.0   90.0   50.0
-400.0   120.0   50.0
-400.0   90.0   50.0
-400.0   90.0   33.333333333333336
-450.0   90.0   50.0
-400.0   120.0   50.0
-400.0   90.0   33.333333333333336
-450.0   120.0   33.333333333333336
-450.0   120.0   0.0
-400.0   120.0   0.0
-450.0   150.0   0.0
-450.0   120.0   16.666666666666668
-400.0   120.0   0.0
-400.0   150.0   0.0
-450.0   150.0   0.0
-400.0   150.0   16.666666666666668
-450.0   120.0   16.666666666666668
-450.0   150.0   16.666666666666668
-400.0   150.0   16.666666666666668
-450.0   150.0   0.0
-450.0   120.0   16.666666666666668
-400.0   150.0   16.666666666666668
-400.0   120.0   16.666666666666668
-400.0   120.0   0.0
-450.0   120.0   16.666666666666668
-400.0   150.0   16.666666666666668
-400.0   120.0   0.0
-450.0   150.0   0.0
-450.0   120.0   16.666666666666668
-400.0   120.0   16.666666666666668
-450.0   150.0   16.666666666666668
-450.0   120.0   33.333333333333336
-400.0   120.0   16.666666666666668
-400.0   150.0   16.666666666666668
-450.0   150.0   16.666666666666668
-400.0   150.0   33.333333333333336
-450.0   120.0   33.333333333333336
-450.0   150.0   33.333333333333336
-400.0   150.0   33.333333333333336
-450.0   150.0   16.666666666666668
-450.0   120.0   33.333333333333336
-400.0   150.0   33.333333333333336
-400.0   120.0   33.333333333333336
-400.0   120.0   16.666666666666668
-450.0   120.0   33.333333333333336
-400.0   150.0   33.333333333333336
-400.0   120.0   16.666666666666668
-450.0   150.0   16.666666666666668
-450.0   120.0   33.333333333333336
-400.0   120.0   33.333333333333336
-450.0   150.0   33.333333333333336
-450.0   120.0   50.0
-400.0   120.0   33.333333333333336
-400.0   150.0   33.333333333333336
-450.0   150.0   33.333333333333336
-400.0   150.0   50.0
-450.0   120.0   50.0
-450.0   150.0   50.0
-400.0   150.0   50.0
-450.0   150.0   33.333333333333336
-450.0   120.0   50.0
-400.0   150.0   50.0
-400.0   120.0   50.0
-400.0   120.0   33.333333333333336
-450.0   120.0   50.0
-400.0   150.0   50.0
-400.0   120.0   33.333333333333336
-450.0   150.0   33.333333333333336
-400.0   0.0   0.0
-350.0   0.0   0.0
-400.0   30.0   0.0
-400.0   0.0   16.666666666666668
-350.0   0.0   0.0
-350.0   30.0   0.0
-400.0   30.0   0.0
-350.0   30.0   16.666666666666668
-400.0   0.0   16.666666666666668
-400.0   30.0   16.666666666666668
-350.0   30.0   16.666666666666668
-400.0   30.0   0.0
-400.0   0.0   16.666666666666668
-350.0   30.0   16.666666666666668
-350.0   0.0   16.666666666666668
-350.0   0.0   0.0
-400.0   0.0   16.666666666666668
-350.0   30.0   16.666666666666668
-350.0   0.0   0.0
-400.0   30.0   0.0
-400.0   0.0   16.666666666666668
-350.0   0.0   16.666666666666668
-400.0   30.0   16.666666666666668
-400.0   0.0   33.333333333333336
-350.0   0.0   16.666666666666668
-350.0   30.0   16.666666666666668
-400.0   30.0   16.666666666666668
-350.0   30.0   33.333333333333336
-400.0   0.0   33.333333333333336
-400.0   30.0   33.333333333333336
-350.0   30.0   33.333333333333336
-400.0   30.0   16.666666666666668
-400.0   0.0   33.333333333333336
-350.0   30.0   33.333333333333336
-350.0   0.0   33.333333333333336
-350.0   0.0   16.666666666666668
-400.0   0.0   33.333333333333336
-350.0   30.0   33.333333333333336
-350.0   0.0   16.666666666666668
-400.0   30.0   16.666666666666668
-400.0   0.0   33.333333333333336
-350.0   0.0   33.333333333333336
-400.0   30.0   33.333333333333336
-400.0   0.0   50.0
-350.0   0.0   33.333333333333336
-350.0   30.0   33.333333333333336
-400.0   30.0   33.333333333333336
-350.0   30.0   50.0
-400.0   0.0   50.0
-400.0   30.0   50.0
-350.0   30.0   50.0
-400.0   30.0   33.333333333333336
-400.0   0.0   50.0
-350.0   30.0   50.0
-350.0   0.0   50.0
-350.0   0.0   33.333333333333336
-400.0   0.0   50.0
-350.0   30.0   50.0
-350.0   0.0   33.333333333333336
-400.0   30.0   33.333333333333336
-400.0   30.0   0.0
-350.0   30.0   0.0
-400.0   60.0   0.0
-400.0   30.0   16.666666666666668
-350.0   30.0   0.0
-350.0   60.0   0.0
-400.0   60.0   0.0
-350.0   60.0   16.666666666666668
-400.0   30.0   16.666666666666668
-400.0   60.0   16.666666666666668
-350.0   60.0   16.666666666666668
-400.0   60.0   0.0
-400.0   30.0   16.666666666666668
-350.0   60.0   16.666666666666668
-350.0   30.0   16.666666666666668
-350.0   30.0   0.0
-400.0   30.0   16.666666666666668
-350.0   60.0   16.666666666666668
-350.0   30.0   0.0
-400.0   60.0   0.0
-400.0   30.0   16.666666666666668
-350.0   30.0   16.666666666666668
-400.0   60.0   16.666666666666668
-400.0   30.0   33.333333333333336
-350.0   30.0   16.666666666666668
-350.0   60.0   16.666666666666668
-400.0   60.0   16.666666666666668
-350.0   60.0   33.333333333333336
-400.0   30.0   33.333333333333336
-400.0   60.0   33.333333333333336
-350.0   60.0   33.333333333333336
-400.0   60.0   16.666666666666668
-400.0   30.0   33.333333333333336
-350.0   60.0   33.333333333333336
-350.0   30.0   33.333333333333336
-350.0   30.0   16.666666666666668
-400.0   30.0   33.333333333333336
-350.0   60.0   33.333333333333336
-350.0   30.0   16.666666666666668
-400.0   60.0   16.666666666666668
-400.0   30.0   33.333333333333336
-350.0   30.0   33.333333333333336
-400.0   60.0   33.333333333333336
-400.0   30.0   50.0
-350.0   30.0   33.333333333333336
-350.0   60.0   33.333333333333336
-400.0   60.0   33.333333333333336
-350.0   60.0   50.0
-400.0   30.0   50.0
-400.0   60.0   50.0
-350.0   60.0   50.0
-400.0   60.0   33.333333333333336
-400.0   30.0   50.0
-350.0   60.0   50.0
-350.0   30.0   50.0
-350.0   30.0   33.333333333333336
-400.0   30.0   50.0
-350.0   60.0   50.0
-350.0   30.0   33.333333333333336
-400.0   60.0   33.333333333333336
-400.0   60.0   0.0
-350.0   60.0   0.0
-400.0   90.0   0.0
-400.0   60.0   16.666666666666668
-350.0   60.0   0.0
-350.0   90.0   0.0
-400.0   90.0   0.0
-350.0   90.0   16.666666666666668
-400.0   60.0   16.666666666666668
-400.0   90.0   16.666666666666668
-350.0   90.0   16.666666666666668
-400.0   90.0   0.0
-400.0   60.0   16.666666666666668
-350.0   90.0   16.666666666666668
-350.0   60.0   16.666666666666668
-350.0   60.0   0.0
-400.0   60.0   16.666666666666668
-350.0   90.0   16.666666666666668
-350.0   60.0   0.0
-400.0   90.0   0.0
-400.0   60.0   16.666666666666668
-350.0   60.0   16.666666666666668
-400.0   90.0   16.666666666666668
-400.0   60.0   33.333333333333336
-350.0   60.0   16.666666666666668
-350.0   90.0   16.666666666666668
-400.0   90.0   16.666666666666668
-350.0   90.0   33.333333333333336
-400.0   60.0   33.333333333333336
-400.0   90.0   33.333333333333336
-350.0   90.0   33.333333333333336
-400.0   90.0   16.666666666666668
-400.0   60.0   33.333333333333336
-350.0   90.0   33.333333333333336
-350.0   60.0   33.333333333333336
-350.0   60.0   16.666666666666668
-400.0   60.0   33.333333333333336
-350.0   90.0   33.333333333333336
-350.0   60.0   16.666666666666668
-400.0   90.0   16.666666666666668
-400.0   60.0   33.333333333333336
-350.0   60.0   33.333333333333336
-400.0   90.0   33.333333333333336
-400.0   60.0   50.0
-350.0   60.0   33.333333333333336
-350.0   90.0   33.333333333333336
-400.0   90.0   33.333333333333336
-350.0   90.0   50.0
-400.0   60.0   50.0
-400.0   90.0   50.0
-350.0   90.0   50.0
-400.0   90.0   33.333333333333336
-400.0   60.0   50.0
-350.0   90.0   50.0
-350.0   60.0   50.0
-350.0   60.0   33.333333333333336
-400.0   60.0   50.0
-350.0   90.0   50.0
-350.0   60.0   33.333333333333336
-400.0   90.0   33.333333333333336
-400.0   90.0   0.0
-350.0   90.0   0.0
-400.0   120.0   0.0
-400.0   90.0   16.666666666666668
-350.0   90.0   0.0
-350.0   120.0   0.0
-400.0   120.0   0.0
-350.0   120.0   16.666666666666668
-400.0   90.0   16.666666666666668
-400.0   120.0   16.666666666666668
-350.0   120.0   16.666666666666668
-400.0   120.0   0.0
-400.0   90.0   16.666666666666668
-350.0   120.0   16.666666666666668
-350.0   90.0   16.666666666666668
-350.0   90.0   0.0
-400.0   90.0   16.666666666666668
-350.0   120.0   16.666666666666668
-350.0   90.0   0.0
-400.0   120.0   0.0
-400.0   90.0   16.666666666666668
-350.0   90.0   16.666666666666668
-400.0   120.0   16.666666666666668
-400.0   90.0   33.333333333333336
-350.0   90.0   16.666666666666668
-350.0   120.0   16.666666666666668
-400.0   120.0   16.666666666666668
-350.0   120.0   33.333333333333336
-400.0   90.0   33.333333333333336
-400.0   120.0   33.333333333333336
-350.0   120.0   33.333333333333336
-400.0   120.0   16.666666666666668
-400.0   90.0   33.333333333333336
-350.0   120.0   33.333333333333336
-350.0   90.0   33.333333333333336
-350.0   90.0   16.666666666666668
-400.0   90.0   33.333333333333336
-350.0   120.0   33.333333333333336
-350.0   90.0   16.666666666666668
-400.0   120.0   16.666666666666668
-400.0   90.0   33.333333333333336
-350.0   90.0   33.333333333333336
-400.0   120.0   33.333333333333336
-400.0   90.0   50.0
-350.0   90.0   33.333333333333336
-350.0   120.0   33.333333333333336
-400.0   120.0   33.333333333333336
-350.0   120.0   50.0
-400.0   90.0   50.0
-400.0   120.0   50.0
-350.0   120.0   50.0
-400.0   120.0   33.333333333333336
-400.0   90.0   50.0
-350.0   120.0   50.0
-350.0   90.0   50.0
-350.0   90.0   33.333333333333336
-400.0   90.0   50.0
-350.0   120.0   50.0
-350.0   90.0   33.333333333333336
-400.0   120.0   33.333333333333336
-400.0   120.0   0.0
-350.0   120.0   0.0
-400.0   150.0   0.0
-400.0   120.0   16.666666666666668
-350.0   120.0   0.0
-350.0   150.0   0.0
-400.0   150.0   0.0
-350.0   150.0   16.666666666666668
-400.0   120.0   16.666666666666668
-400.0   150.0   16.666666666666668
-350.0   150.0   16.666666666666668
-400.0   150.0   0.0
-400.0   120.0   16.666666666666668
-350.0   150.0   16.666666666666668
-350.0   120.0   16.666666666666668
-350.0   120.0   0.0
-400.0   120.0   16.666666666666668
-350.0   150.0   16.666666666666668
-350.0   120.0   0.0
-400.0   150.0   0.0
-400.0   120.0   16.666666666666668
-350.0   120.0   16.666666666666668
-400.0   150.0   16.666666666666668
-400.0   120.0   33.333333333333336
-350.0   120.0   16.666666666666668
-350.0   150.0   16.666666666666668
-400.0   150.0   16.666666666666668
-350.0   150.0   33.333333333333336
-400.0   120.0   33.333333333333336
-400.0   150.0   33.333333333333336
-350.0   150.0   33.333333333333336
-400.0   150.0   16.666666666666668
-400.0   120.0   33.333333333333336
-350.0   150.0   33.333333333333336
-350.0   120.0   33.333333333333336
-350.0   120.0   16.666666666666668
-400.0   120.0   33.333333333333336
-350.0   150.0   33.333333333333336
-350.0   120.0   16.666666666666668
-400.0   150.0   16.666666666666668
-400.0   120.0   33.333333333333336
-350.0   120.0   33.333333333333336
-400.0   150.0   33.333333333333336
-400.0   120.0   50.0
-350.0   120.0   33.333333333333336
-350.0   150.0   33.333333333333336
-400.0   150.0   33.333333333333336
-350.0   150.0   50.0
-400.0   120.0   50.0
-400.0   150.0   50.0
-350.0   150.0   50.0
-400.0   150.0   33.333333333333336
-400.0   120.0   50.0
-350.0   150.0   50.0
-350.0   120.0   50.0
-350.0   120.0   33.333333333333336
-400.0   120.0   50.0
-350.0   150.0   50.0
-350.0   120.0   33.333333333333336
-400.0   150.0   33.333333333333336
-350.0   0.0   0.0
-300.0   0.0   0.0
-350.0   30.0   0.0
-350.0   0.0   16.666666666666668
-300.0   0.0   0.0
-300.0   30.0   0.0
-350.0   30.0   0.0
-300.0   30.0   16.666666666666668
-350.0   0.0   16.666666666666668
-350.0   30.0   16.666666666666668
-300.0   30.0   16.666666666666668
-350.0   30.0   0.0
-350.0   0.0   16.666666666666668
-300.0   30.0   16.666666666666668
-300.0   0.0   16.666666666666668
-300.0   0.0   0.0
-350.0   0.0   16.666666666666668
-300.0   30.0   16.666666666666668
-300.0   0.0   0.0
-350.0   30.0   0.0
-350.0   0.0   16.666666666666668
-300.0   0.0   16.666666666666668
-350.0   30.0   16.666666666666668
-350.0   0.0   33.333333333333336
-300.0   0.0   16.666666666666668
-300.0   30.0   16.666666666666668
-350.0   30.0   16.666666666666668
-300.0   30.0   33.333333333333336
-350.0   0.0   33.333333333333336
-350.0   30.0   33.333333333333336
-300.0   30.0   33.333333333333336
-350.0   30.0   16.666666666666668
-350.0   0.0   33.333333333333336
-300.0   30.0   33.333333333333336
-300.0   0.0   33.333333333333336
-300.0   0.0   16.666666666666668
-350.0   0.0   33.333333333333336
-300.0   30.0   33.333333333333336
-300.0   0.0   16.666666666666668
-350.0   30.0   16.666666666666668
-350.0   0.0   33.333333333333336
-300.0   0.0   33.333333333333336
-350.0   30.0   33.333333333333336
-350.0   0.0   50.0
-300.0   0.0   33.333333333333336
-300.0   30.0   33.333333333333336
-350.0   30.0   33.333333333333336
-300.0   30.0   50.0
-350.0   0.0   50.0
-350.0   30.0   50.0
-300.0   30.0   50.0
-350.0   30.0   33.333333333333336
-350.0   0.0   50.0
-300.0   30.0   50.0
-300.0   0.0   50.0
-300.0   0.0   33.333333333333336
-350.0   0.0   50.0
-300.0   30.0   50.0
-300.0   0.0   33.333333333333336
-350.0   30.0   33.333333333333336
-350.0   30.0   0.0
-300.0   30.0   0.0
-350.0   60.0   0.0
-350.0   30.0   16.666666666666668
-300.0   30.0   0.0
-300.0   60.0   0.0
-350.0   60.0   0.0
-300.0   60.0   16.666666666666668
-350.0   30.0   16.666666666666668
-350.0   60.0   16.666666666666668
-300.0   60.0   16.666666666666668
-350.0   60.0   0.0
-350.0   30.0   16.666666666666668
-300.0   60.0   16.666666666666668
-300.0   30.0   16.666666666666668
-300.0   30.0   0.0
-350.0   30.0   16.666666666666668
-300.0   60.0   16.666666666666668
-300.0   30.0   0.0
-350.0   60.0   0.0
-350.0   30.0   16.666666666666668
-300.0   30.0   16.666666666666668
-350.0   60.0   16.666666666666668
-350.0   30.0   33.333333333333336
-300.0   30.0   16.666666666666668
-300.0   60.0   16.666666666666668
-350.0   60.0   16.666666666666668
-300.0   60.0   33.333333333333336
-350.0   30.0   33.333333333333336
-350.0   60.0   33.333333333333336
-300.0   60.0   33.333333333333336
-350.0   60.0   16.666666666666668
-350.0   30.0   33.333333333333336
-300.0   60.0   33.333333333333336
-300.0   30.0   33.333333333333336
-300.0   30.0   16.666666666666668
-350.0   30.0   33.333333333333336
-300.0   60.0   33.333333333333336
-300.0   30.0   16.666666666666668
-350.0   60.0   16.666666666666668
-350.0   30.0   33.333333333333336
-300.0   30.0   33.333333333333336
-350.0   60.0   33.333333333333336
-350.0   30.0   50.0
-300.0   30.0   33.333333333333336
-300.0   60.0   33.333333333333336
-350.0   60.0   33.333333333333336
-300.0   60.0   50.0
-350.0   30.0   50.0
-350.0   60.0   50.0
-300.0   60.0   50.0
-350.0   60.0   33.333333333333336
-350.0   30.0   50.0
-300.0   60.0   50.0
-300.0   30.0   50.0
-300.0   30.0   33.333333333333336
-350.0   30.0   50.0
-300.0   60.0   50.0
-300.0   30.0   33.333333333333336
-350.0   60.0   33.333333333333336
-350.0   60.0   0.0
-300.0   60.0   0.0
-350.0   90.0   0.0
-350.0   60.0   16.666666666666668
-300.0   60.0   0.0
-300.0   90.0   0.0
-350.0   90.0   0.0
-300.0   90.0   16.666666666666668
-350.0   60.0   16.666666666666668
-350.0   90.0   16.666666666666668
-300.0   90.0   16.666666666666668
-350.0   90.0   0.0
-350.0   60.0   16.666666666666668
-300.0   90.0   16.666666666666668
-300.0   60.0   16.666666666666668
-300.0   60.0   0.0
-350.0   60.0   16.666666666666668
-300.0   90.0   16.666666666666668
-300.0   60.0   0.0
-350.0   90.0   0.0
-350.0   60.0   16.666666666666668
-300.0   60.0   16.666666666666668
-350.0   90.0   16.666666666666668
-350.0   60.0   33.333333333333336
-300.0   60.0   16.666666666666668
-300.0   90.0   16.666666666666668
-350.0   90.0   16.666666666666668
-300.0   90.0   33.333333333333336
-350.0   60.0   33.333333333333336
-350.0   90.0   33.333333333333336
-300.0   90.0   33.333333333333336
-350.0   90.0   16.666666666666668
-350.0   60.0   33.333333333333336
-300.0   90.0   33.333333333333336
-300.0   60.0   33.333333333333336
-300.0   60.0   16.666666666666668
-350.0   60.0   33.333333333333336
-300.0   90.0   33.333333333333336
-300.0   60.0   16.666666666666668
-350.0   90.0   16.666666666666668
-350.0   60.0   33.333333333333336
-300.0   60.0   33.333333333333336
-350.0   90.0   33.333333333333336
-350.0   60.0   50.0
-300.0   60.0   33.333333333333336
-300.0   90.0   33.333333333333336
-350.0   90.0   33.333333333333336
-300.0   90.0   50.0
-350.0   60.0   50.0
-350.0   90.0   50.0
-300.0   90.0   50.0
-350.0   90.0   33.333333333333336
-350.0   60.0   50.0
-300.0   90.0   50.0
-300.0   60.0   50.0
-300.0   60.0   33.333333333333336
-350.0   60.0   50.0
-300.0   90.0   50.0
-300.0   60.0   33.333333333333336
-350.0   90.0   33.333333333333336
-350.0   90.0   0.0
-300.0   90.0   0.0
-350.0   120.0   0.0
-350.0   90.0   16.666666666666668
-300.0   90.0   0.0
-300.0   120.0   0.0
-350.0   120.0   0.0
-300.0   120.0   16.666666666666668
-350.0   90.0   16.666666666666668
-350.0   120.0   16.666666666666668
-300.0   120.0   16.666666666666668
-350.0   120.0   0.0
-350.0   90.0   16.666666666666668
-300.0   120.0   16.666666666666668
-300.0   90.0   16.666666666666668
-300.0   90.0   0.0
-350.0   90.0   16.666666666666668
-300.0   120.0   16.666666666666668
-300.0   90.0   0.0
-350.0   120.0   0.0
-350.0   90.0   16.666666666666668
-300.0   90.0   16.666666666666668
-350.0   120.0   16.666666666666668
-350.0   90.0   33.333333333333336
-300.0   90.0   16.666666666666668
-300.0   120.0   16.666666666666668
-350.0   120.0   16.666666666666668
-300.0   120.0   33.333333333333336
-350.0   90.0   33.333333333333336
-350.0   120.0   33.333333333333336
-300.0   120.0   33.333333333333336
-350.0   120.0   16.666666666666668
-350.0   90.0   33.333333333333336
-300.0   120.0   33.333333333333336
-300.0   90.0   33.333333333333336
-300.0   90.0   16.666666666666668
-350.0   90.0   33.333333333333336
-300.0   120.0   33.333333333333336
-300.0   90.0   16.666666666666668
-350.0   120.0   16.666666666666668
-350.0   90.0   33.333333333333336
-300.0   90.0   33.333333333333336
-350.0   120.0   33.333333333333336
-350.0   90.0   50.0
-300.0   90.0   33.333333333333336
-300.0   120.0   33.333333333333336
-350.0   120.0   33.333333333333336
-300.0   120.0   50.0
-350.0   90.0   50.0
-350.0   120.0   50.0
-300.0   120.0   50.0
-350.0   120.0   33.333333333333336
-350.0   90.0   50.0
-300.0   120.0   50.0
-300.0   90.0   50.0
-300.0   90.0   33.333333333333336
-350.0   90.0   50.0
-300.0   120.0   50.0
-300.0   90.0   33.333333333333336
-350.0   120.0   33.333333333333336
-350.0   120.0   0.0
-300.0   120.0   0.0
-350.0   150.0   0.0
-350.0   120.0   16.666666666666668
-300.0   120.0   0.0
-300.0   150.0   0.0
-350.0   150.0   0.0
-300.0   150.0   16.666666666666668
-350.0   120.0   16.666666666666668
-350.0   150.0   16.666666666666668
-300.0   150.0   16.666666666666668
-350.0   150.0   0.0
-350.0   120.0   16.666666666666668
-300.0   150.0   16.666666666666668
-300.0   120.0   16.666666666666668
-300.0   120.0   0.0
-350.0   120.0   16.666666666666668
-300.0   150.0   16.666666666666668
-300.0   120.0   0.0
-350.0   150.0   0.0
-350.0   120.0   16.666666666666668
-300.0   120.0   16.666666666666668
-350.0   150.0   16.666666666666668
-350.0   120.0   33.333333333333336
-300.0   120.0   16.666666666666668
-300.0   150.0   16.666666666666668
-350.0   150.0   16.666666666666668
-300.0   150.0   33.333333333333336
-350.0   120.0   33.333333333333336
-350.0   150.0   33.333333333333336
-300.0   150.0   33.333333333333336
-350.0   150.0   16.666666666666668
-350.0   120.0   33.333333333333336
-300.0   150.0   33.333333333333336
-300.0   120.0   33.333333333333336
-300.0   120.0   16.666666666666668
-350.0   120.0   33.333333333333336
-300.0   150.0   33.333333333333336
-300.0   120.0   16.666666666666668
-350.0   150.0   16.666666666666668
-350.0   120.0   33.333333333333336
-300.0   120.0   33.333333333333336
-350.0   150.0   33.333333333333336
-350.0   120.0   50.0
-300.0   120.0   33.333333333333336
-300.0   150.0   33.333333333333336
-350.0   150.0   33.333333333333336
-300.0   150.0   50.0
-350.0   120.0   50.0
-350.0   150.0   50.0
-300.0   150.0   50.0
-350.0   150.0   33.333333333333336
-350.0   120.0   50.0
-300.0   150.0   50.0
-300.0   120.0   50.0
-300.0   120.0   33.333333333333336
-350.0   120.0   50.0
-300.0   150.0   50.0
-300.0   120.0   33.333333333333336
-350.0   150.0   33.333333333333336
-300.0   0.0   0.0
-250.0   0.0   0.0
-300.0   30.0   0.0
-300.0   0.0   16.666666666666668
-250.0   0.0   0.0
-250.0   30.0   0.0
-300.0   30.0   0.0
-250.0   30.0   16.666666666666668
-300.0   0.0   16.666666666666668
-300.0   30.0   16.666666666666668
-250.0   30.0   16.666666666666668
-300.0   30.0   0.0
-300.0   0.0   16.666666666666668
-250.0   30.0   16.666666666666668
-250.0   0.0   16.666666666666668
-250.0   0.0   0.0
-300.0   0.0   16.666666666666668
-250.0   30.0   16.666666666666668
-250.0   0.0   0.0
-300.0   30.0   0.0
-300.0   0.0   16.666666666666668
-250.0   0.0   16.666666666666668
-300.0   30.0   16.666666666666668
-300.0   0.0   33.333333333333336
-250.0   0.0   16.666666666666668
-250.0   30.0   16.666666666666668
-300.0   30.0   16.666666666666668
-250.0   30.0   33.333333333333336
-300.0   0.0   33.333333333333336
-300.0   30.0   33.333333333333336
-250.0   30.0   33.333333333333336
-300.0   30.0   16.666666666666668
-300.0   0.0   33.333333333333336
-250.0   30.0   33.333333333333336
-250.0   0.0   33.333333333333336
-250.0   0.0   16.666666666666668
-300.0   0.0   33.333333333333336
-250.0   30.0   33.333333333333336
-250.0   0.0   16.666666666666668
-300.0   30.0   16.666666666666668
-300.0   0.0   33.333333333333336
-250.0   0.0   33.333333333333336
-300.0   30.0   33.333333333333336
-300.0   0.0   50.0
-250.0   0.0   33.333333333333336
-250.0   30.0   33.333333333333336
-300.0   30.0   33.333333333333336
-250.0   30.0   50.0
-300.0   0.0   50.0
-300.0   30.0   50.0
-250.0   30.0   50.0
-300.0   30.0   33.333333333333336
-300.0   0.0   50.0
-250.0   30.0   50.0
-250.0   0.0   50.0
-250.0   0.0   33.333333333333336
-300.0   0.0   50.0
-250.0   30.0   50.0
-250.0   0.0   33.333333333333336
-300.0   30.0   33.333333333333336
-300.0   30.0   0.0
-250.0   30.0   0.0
-300.0   60.0   0.0
-300.0   30.0   16.666666666666668
-250.0   30.0   0.0
-250.0   60.0   0.0
-300.0   60.0   0.0
-250.0   60.0   16.666666666666668
-300.0   30.0   16.666666666666668
-300.0   60.0   16.666666666666668
-250.0   60.0   16.666666666666668
-300.0   60.0   0.0
-300.0   30.0   16.666666666666668
-250.0   60.0   16.666666666666668
-250.0   30.0   16.666666666666668
-250.0   30.0   0.0
-300.0   30.0   16.666666666666668
-250.0   60.0   16.666666666666668
-250.0   30.0   0.0
-300.0   60.0   0.0
-300.0   30.0   16.666666666666668
-250.0   30.0   16.666666666666668
-300.0   60.0   16.666666666666668
-300.0   30.0   33.333333333333336
-250.0   30.0   16.666666666666668
-250.0   60.0   16.666666666666668
-300.0   60.0   16.666666666666668
-250.0   60.0   33.333333333333336
-300.0   30.0   33.333333333333336
-300.0   60.0   33.333333333333336
-250.0   60.0   33.333333333333336
-300.0   60.0   16.666666666666668
-300.0   30.0   33.333333333333336
-250.0   60.0   33.333333333333336
-250.0   30.0   33.333333333333336
-250.0   30.0   16.666666666666668
-300.0   30.0   33.333333333333336
-250.0   60.0   33.333333333333336
-250.0   30.0   16.666666666666668
-300.0   60.0   16.666666666666668
-300.0   30.0   33.333333333333336
-250.0   30.0   33.333333333333336
-300.0   60.0   33.333333333333336
-300.0   30.0   50.0
-250.0   30.0   33.333333333333336
-250.0   60.0   33.333333333333336
-300.0   60.0   33.333333333333336
-250.0   60.0   50.0
-300.0   30.0   50.0
-300.0   60.0   50.0
-250.0   60.0   50.0
-300.0   60.0   33.333333333333336
-300.0   30.0   50.0
-250.0   60.0   50.0
-250.0   30.0   50.0
-250.0   30.0   33.333333333333336
-300.0   30.0   50.0
-250.0   60.0   50.0
-250.0   30.0   33.333333333333336
-300.0   60.0   33.333333333333336
-300.0   60.0   0.0
-250.0   60.0   0.0
-300.0   90.0   0.0
-300.0   60.0   16.666666666666668
-250.0   60.0   0.0
-250.0   90.0   0.0
-300.0   90.0   0.0
-250.0   90.0   16.666666666666668
-300.0   60.0   16.666666666666668
-300.0   90.0   16.666666666666668
-250.0   90.0   16.666666666666668
-300.0   90.0   0.0
-300.0   60.0   16.666666666666668
-250.0   90.0   16.666666666666668
-250.0   60.0   16.666666666666668
-250.0   60.0   0.0
-300.0   60.0   16.666666666666668
-250.0   90.0   16.666666666666668
-250.0   60.0   0.0
-300.0   90.0   0.0
-300.0   60.0   16.666666666666668
-250.0   60.0   16.666666666666668
-300.0   90.0   16.666666666666668
-300.0   60.0   33.333333333333336
-250.0   60.0   16.666666666666668
-250.0   90.0   16.666666666666668
-300.0   90.0   16.666666666666668
-250.0   90.0   33.333333333333336
-300.0   60.0   33.333333333333336
-300.0   90.0   33.333333333333336
-250.0   90.0   33.333333333333336
-300.0   90.0   16.666666666666668
-300.0   60.0   33.333333333333336
-250.0   90.0   33.333333333333336
-250.0   60.0   33.333333333333336
-250.0   60.0   16.666666666666668
-300.0   60.0   33.333333333333336
-250.0   90.0   33.333333333333336
-250.0   60.0   16.666666666666668
-300.0   90.0   16.666666666666668
-300.0   60.0   33.333333333333336
-250.0   60.0   33.333333333333336
-300.0   90.0   33.333333333333336
-300.0   60.0   50.0
-250.0   60.0   33.333333333333336
-250.0   90.0   33.333333333333336
-300.0   90.0   33.333333333333336
-250.0   90.0   50.0
-300.0   60.0   50.0
-300.0   90.0   50.0
-250.0   90.0   50.0
-300.0   90.0   33.333333333333336
-300.0   60.0   50.0
-250.0   90.0   50.0
-250.0   60.0   50.0
-250.0   60.0   33.333333333333336
-300.0   60.0   50.0
-250.0   90.0   50.0
-250.0   60.0   33.333333333333336
-300.0   90.0   33.333333333333336
-300.0   90.0   0.0
-250.0   90.0   0.0
-300.0   120.0   0.0
-300.0   90.0   16.666666666666668
-250.0   90.0   0.0
-250.0   120.0   0.0
-300.0   120.0   0.0
-250.0   120.0   16.666666666666668
-300.0   90.0   16.666666666666668
-300.0   120.0   16.666666666666668
-250.0   120.0   16.666666666666668
-300.0   120.0   0.0
-300.0   90.0   16.666666666666668
-250.0   120.0   16.666666666666668
-250.0   90.0   16.666666666666668
-250.0   90.0   0.0
-300.0   90.0   16.666666666666668
-250.0   120.0   16.666666666666668
-250.0   90.0   0.0
-300.0   120.0   0.0
-300.0   90.0   16.666666666666668
-250.0   90.0   16.666666666666668
-300.0   120.0   16.666666666666668
-300.0   90.0   33.333333333333336
-250.0   90.0   16.666666666666668
-250.0   120.0   16.666666666666668
-300.0   120.0   16.666666666666668
-250.0   120.0   33.333333333333336
-300.0   90.0   33.333333333333336
-300.0   120.0   33.333333333333336
-250.0   120.0   33.333333333333336
-300.0   120.0   16.666666666666668
-300.0   90.0   33.333333333333336
-250.0   120.0   33.333333333333336
-250.0   90.0   33.333333333333336
-250.0   90.0   16.666666666666668
-300.0   90.0   33.333333333333336
-250.0   120.0   33.333333333333336
-250.0   90.0   16.666666666666668
-300.0   120.0   16.666666666666668
-300.0   90.0   33.333333333333336
-250.0   90.0   33.333333333333336
-300.0   120.0   33.333333333333336
-300.0   90.0   50.0
-250.0   90.0   33.333333333333336
-250.0   120.0   33.333333333333336
-300.0   120.0   33.333333333333336
-250.0   120.0   50.0
-300.0   90.0   50.0
-300.0   120.0   50.0
-250.0   120.0   50.0
-300.0   120.0   33.333333333333336
-300.0   90.0   50.0
-250.0   120.0   50.0
-250.0   90.0   50.0
-250.0   90.0   33.333333333333336
-300.0   90.0   50.0
-250.0   120.0   50.0
-250.0   90.0   33.333333333333336
-300.0   120.0   33.333333333333336
-300.0   120.0   0.0
-250.0   120.0   0.0
-300.0   150.0   0.0
-300.0   120.0   16.666666666666668
-250.0   120.0   0.0
-250.0   150.0   0.0
-300.0   150.0   0.0
-250.0   150.0   16.666666666666668
-300.0   120.0   16.666666666666668
-300.0   150.0   16.666666666666668
-250.0   150.0   16.666666666666668
-300.0   150.0   0.0
-300.0   120.0   16.666666666666668
-250.0   150.0   16.666666666666668
-250.0   120.0   16.666666666666668
-250.0   120.0   0.0
-300.0   120.0   16.666666666666668
-250.0   150.0   16.666666666666668
-250.0   120.0   0.0
-300.0   150.0   0.0
-300.0   120.0   16.666666666666668
-250.0   120.0   16.666666666666668
-300.0   150.0   16.666666666666668
-300.0   120.0   33.333333333333336
-250.0   120.0   16.666666666666668
-250.0   150.0   16.666666666666668
-300.0   150.0   16.666666666666668
-250.0   150.0   33.333333333333336
-300.0   120.0   33.333333333333336
-300.0   150.0   33.333333333333336
-250.0   150.0   33.333333333333336
-300.0   150.0   16.666666666666668
-300.0   120.0   33.333333333333336
-250.0   150.0   33.333333333333336
-250.0   120.0   33.333333333333336
-250.0   120.0   16.666666666666668
-300.0   120.0   33.333333333333336
-250.0   150.0   33.333333333333336
-250.0   120.0   16.666666666666668
-300.0   150.0   16.666666666666668
-300.0   120.0   33.333333333333336
-250.0   120.0   33.333333333333336
-300.0   150.0   33.333333333333336
-300.0   120.0   50.0
-250.0   120.0   33.333333333333336
-250.0   150.0   33.333333333333336
-300.0   150.0   33.333333333333336
-250.0   150.0   50.0
-300.0   120.0   50.0
-300.0   150.0   50.0
-250.0   150.0   50.0
-300.0   150.0   33.333333333333336
-300.0   120.0   50.0
-250.0   150.0   50.0
-250.0   120.0   50.0
-250.0   120.0   33.333333333333336
-300.0   120.0   50.0
-250.0   150.0   50.0
-250.0   120.0   33.333333333333336
-300.0   150.0   33.333333333333336
-250.0   0.0   0.0
-200.0   0.0   0.0
-250.0   30.0   0.0
-250.0   0.0   16.666666666666668
-200.0   0.0   0.0
-200.0   30.0   0.0
-250.0   30.0   0.0
-200.0   30.0   16.666666666666668
-250.0   0.0   16.666666666666668
-250.0   30.0   16.666666666666668
-200.0   30.0   16.666666666666668
-250.0   30.0   0.0
-250.0   0.0   16.666666666666668
-200.0   30.0   16.666666666666668
-200.0   0.0   16.666666666666668
-200.0   0.0   0.0
-250.0   0.0   16.666666666666668
-200.0   30.0   16.666666666666668
-200.0   0.0   0.0
-250.0   30.0   0.0
-250.0   0.0   16.666666666666668
-200.0   0.0   16.666666666666668
-250.0   30.0   16.666666666666668
-250.0   0.0   33.333333333333336
-200.0   0.0   16.666666666666668
-200.0   30.0   16.666666666666668
-250.0   30.0   16.666666666666668
-200.0   30.0   33.333333333333336
-250.0   0.0   33.333333333333336
-250.0   30.0   33.333333333333336
-200.0   30.0   33.333333333333336
-250.0   30.0   16.666666666666668
-250.0   0.0   33.333333333333336
-200.0   30.0   33.333333333333336
-200.0   0.0   33.333333333333336
-200.0   0.0   16.666666666666668
-250.0   0.0   33.333333333333336
-200.0   30.0   33.333333333333336
-200.0   0.0   16.666666666666668
-250.0   30.0   16.666666666666668
-250.0   0.0   33.333333333333336
-200.0   0.0   33.333333333333336
-250.0   30.0   33.333333333333336
-250.0   0.0   50.0
-200.0   0.0   33.333333333333336
-200.0   30.0   33.333333333333336
-250.0   30.0   33.333333333333336
-200.0   30.0   50.0
-250.0   0.0   50.0
-250.0   30.0   50.0
-200.0   30.0   50.0
-250.0   30.0   33.333333333333336
-250.0   0.0   50.0
-200.0   30.0   50.0
-200.0   0.0   50.0
-200.0   0.0   33.333333333333336
-250.0   0.0   50.0
-200.0   30.0   50.0
-200.0   0.0   33.333333333333336
-250.0   30.0   33.333333333333336
-250.0   30.0   0.0
-200.0   30.0   0.0
-250.0   60.0   0.0
-250.0   30.0   16.666666666666668
-200.0   30.0   0.0
-200.0   60.0   0.0
-250.0   60.0   0.0
-200.0   60.0   16.666666666666668
-250.0   30.0   16.666666666666668
-250.0   60.0   16.666666666666668
-200.0   60.0   16.666666666666668
-250.0   60.0   0.0
-250.0   30.0   16.666666666666668
-200.0   60.0   16.666666666666668
-200.0   30.0   16.666666666666668
-200.0   30.0   0.0
-250.0   30.0   16.666666666666668
-200.0   60.0   16.666666666666668
-200.0   30.0   0.0
-250.0   60.0   0.0
-250.0   30.0   16.666666666666668
-200.0   30.0   16.666666666666668
-250.0   60.0   16.666666666666668
-250.0   30.0   33.333333333333336
-200.0   30.0   16.666666666666668
-200.0   60.0   16.666666666666668
-250.0   60.0   16.666666666666668
-200.0   60.0   33.333333333333336
-250.0   30.0   33.333333333333336
-250.0   60.0   33.333333333333336
-200.0   60.0   33.333333333333336
-250.0   60.0   16.666666666666668
-250.0   30.0   33.333333333333336
-200.0   60.0   33.333333333333336
-200.0   30.0   33.333333333333336
-200.0   30.0   16.666666666666668
-250.0   30.0   33.333333333333336
-200.0   60.0   33.333333333333336
-200.0   30.0   16.666666666666668
-250.0   60.0   16.666666666666668
-250.0   30.0   33.333333333333336
-200.0   30.0   33.333333333333336
-250.0   60.0   33.333333333333336
-250.0   30.0   50.0
-200.0   30.0   33.333333333333336
-200.0   60.0   33.333333333333336
-250.0   60.0   33.333333333333336
-200.0   60.0   50.0
-250.0   30.0   50.0
-250.0   60.0   50.0
-200.0   60.0   50.0
-250.0   60.0   33.333333333333336
-250.0   30.0   50.0
-200.0   60.0   50.0
-200.0   30.0   50.0
-200.0   30.0   33.333333333333336
-250.0   30.0   50.0
-200.0   60.0   50.0
-200.0   30.0   33.333333333333336
-250.0   60.0   33.333333333333336
-250.0   60.0   0.0
-200.0   60.0   0.0
-250.0   90.0   0.0
-250.0   60.0   16.666666666666668
-200.0   60.0   0.0
-200.0   90.0   0.0
-250.0   90.0   0.0
-200.0   90.0   16.666666666666668
-250.0   60.0   16.666666666666668
-250.0   90.0   16.666666666666668
-200.0   90.0   16.666666666666668
-250.0   90.0   0.0
-250.0   60.0   16.666666666666668
-200.0   90.0   16.666666666666668
-200.0   60.0   16.666666666666668
-200.0   60.0   0.0
-250.0   60.0   16.666666666666668
-200.0   90.0   16.666666666666668
-200.0   60.0   0.0
-250.0   90.0   0.0
-250.0   60.0   16.666666666666668
-200.0   60.0   16.666666666666668
-250.0   90.0   16.666666666666668
-250.0   60.0   33.333333333333336
-200.0   60.0   16.666666666666668
-200.0   90.0   16.666666666666668
-250.0   90.0   16.666666666666668
-200.0   90.0   33.333333333333336
-250.0   60.0   33.333333333333336
-250.0   90.0   33.333333333333336
-200.0   90.0   33.333333333333336
-250.0   90.0   16.666666666666668
-250.0   60.0   33.333333333333336
-200.0   90.0   33.333333333333336
-200.0   60.0   33.333333333333336
-200.0   60.0   16.666666666666668
-250.0   60.0   33.333333333333336
-200.0   90.0   33.333333333333336
-200.0   60.0   16.666666666666668
-250.0   90.0   16.666666666666668
-250.0   60.0   33.333333333333336
-200.0   60.0   33.333333333333336
-250.0   90.0   33.333333333333336
-250.0   60.0   50.0
-200.0   60.0   33.333333333333336
-200.0   90.0   33.333333333333336
-250.0   90.0   33.333333333333336
-200.0   90.0   50.0
-250.0   60.0   50.0
-250.0   90.0   50.0
-200.0   90.0   50.0
-250.0   90.0   33.333333333333336
-250.0   60.0   50.0
-200.0   90.0   50.0
-200.0   60.0   50.0
-200.0   60.0   33.333333333333336
-250.0   60.0   50.0
-200.0   90.0   50.0
-200.0   60.0   33.333333333333336
-250.0   90.0   33.333333333333336
-250.0   90.0   0.0
-200.0   90.0   0.0
-250.0   120.0   0.0
-250.0   90.0   16.666666666666668
-200.0   90.0   0.0
-200.0   120.0   0.0
-250.0   120.0   0.0
-200.0   120.0   16.666666666666668
-250.0   90.0   16.666666666666668
-250.0   120.0   16.666666666666668
-200.0   120.0   16.666666666666668
-250.0   120.0   0.0
-250.0   90.0   16.666666666666668
-200.0   120.0   16.666666666666668
-200.0   90.0   16.666666666666668
-200.0   90.0   0.0
-250.0   90.0   16.666666666666668
-200.0   120.0   16.666666666666668
-200.0   90.0   0.0
-250.0   120.0   0.0
-250.0   90.0   16.666666666666668
-200.0   90.0   16.666666666666668
-250.0   120.0   16.666666666666668
-250.0   90.0   33.333333333333336
-200.0   90.0   16.666666666666668
-200.0   120.0   16.666666666666668
-250.0   120.0   16.666666666666668
-200.0   120.0   33.333333333333336
-250.0   90.0   33.333333333333336
-250.0   120.0   33.333333333333336
-200.0   120.0   33.333333333333336
-250.0   120.0   16.666666666666668
-250.0   90.0   33.333333333333336
-200.0   120.0   33.333333333333336
-200.0   90.0   33.333333333333336
-200.0   90.0   16.666666666666668
-250.0   90.0   33.333333333333336
-200.0   120.0   33.333333333333336
-200.0   90.0   16.666666666666668
-250.0   120.0   16.666666666666668
-250.0   90.0   33.333333333333336
-200.0   90.0   33.333333333333336
-250.0   120.0   33.333333333333336
-250.0   90.0   50.0
-200.0   90.0   33.333333333333336
-200.0   120.0   33.333333333333336
-250.0   120.0   33.333333333333336
-200.0   120.0   50.0
-250.0   90.0   50.0
-250.0   120.0   50.0
-200.0   120.0   50.0
-250.0   120.0   33.333333333333336
-250.0   90.0   50.0
-200.0   120.0   50.0
-200.0   90.0   50.0
-200.0   90.0   33.333333333333336
-250.0   90.0   50.0
-200.0   120.0   50.0
-200.0   90.0   33.333333333333336
-250.0   120.0   33.333333333333336
-250.0   120.0   0.0
-200.0   120.0   0.0
-250.0   150.0   0.0
-250.0   120.0   16.666666666666668
-200.0   120.0   0.0
-200.0   150.0   0.0
-250.0   150.0   0.0
-200.0   150.0   16.666666666666668
-250.0   120.0   16.666666666666668
-250.0   150.0   16.666666666666668
-200.0   150.0   16.666666666666668
-250.0   150.0   0.0
-250.0   120.0   16.666666666666668
-200.0   150.0   16.666666666666668
-200.0   120.0   16.666666666666668
-200.0   120.0   0.0
-250.0   120.0   16.666666666666668
-200.0   150.0   16.666666666666668
-200.0   120.0   0.0
-250.0   150.0   0.0
-250.0   120.0   16.666666666666668
-200.0   120.0   16.666666666666668
-250.0   150.0   16.666666666666668
-250.0   120.0   33.333333333333336
-200.0   120.0   16.666666666666668
-200.0   150.0   16.666666666666668
-250.0   150.0   16.666666666666668
-200.0   150.0   33.333333333333336
-250.0   120.0   33.333333333333336
-250.0   150.0   33.333333333333336
-200.0   150.0   33.333333333333336
-250.0   150.0   16.666666666666668
-250.0   120.0   33.333333333333336
-200.0   150.0   33.333333333333336
-200.0   120.0   33.333333333333336
-200.0   120.0   16.666666666666668
-250.0   120.0   33.333333333333336
-200.0   150.0   33.333333333333336
-200.0   120.0   16.666666666666668
-250.0   150.0   16.666666666666668
-250.0   120.0   33.333333333333336
-200.0   120.0   33.333333333333336
-250.0   150.0   33.333333333333336
-250.0   120.0   50.0
-200.0   120.0   33.333333333333336
-200.0   150.0   33.333333333333336
-250.0   150.0   33.333333333333336
-200.0   150.0   50.0
-250.0   120.0   50.0
-250.0   150.0   50.0
-200.0   150.0   50.0
-250.0   150.0   33.333333333333336
-250.0   120.0   50.0
-200.0   150.0   50.0
-200.0   120.0   50.0
-200.0   120.0   33.333333333333336
-250.0   120.0   50.0
-200.0   150.0   50.0
-200.0   120.0   33.333333333333336
-250.0   150.0   33.333333333333336
-200.0   0.0   0.0
-150.0   0.0   0.0
-200.0   30.0   0.0
-200.0   0.0   16.666666666666668
-150.0   0.0   0.0
-150.0   30.0   0.0
-200.0   30.0   0.0
-150.0   30.0   16.666666666666668
-200.0   0.0   16.666666666666668
-200.0   30.0   16.666666666666668
-150.0   30.0   16.666666666666668
-200.0   30.0   0.0
-200.0   0.0   16.666666666666668
-150.0   30.0   16.666666666666668
-150.0   0.0   16.666666666666668
-150.0   0.0   0.0
-200.0   0.0   16.666666666666668
-150.0   30.0   16.666666666666668
-150.0   0.0   0.0
-200.0   30.0   0.0
-200.0   0.0   16.666666666666668
-150.0   0.0   16.666666666666668
-200.0   30.0   16.666666666666668
-200.0   0.0   33.333333333333336
-150.0   0.0   16.666666666666668
-150.0   30.0   16.666666666666668
-200.0   30.0   16.666666666666668
-150.0   30.0   33.333333333333336
-200.0   0.0   33.333333333333336
-200.0   30.0   33.333333333333336
-150.0   30.0   33.333333333333336
-200.0   30.0   16.666666666666668
-200.0   0.0   33.333333333333336
-150.0   30.0   33.333333333333336
-150.0   0.0   33.333333333333336
-150.0   0.0   16.666666666666668
-200.0   0.0   33.333333333333336
-150.0   30.0   33.333333333333336
-150.0   0.0   16.666666666666668
-200.0   30.0   16.666666666666668
-200.0   0.0   33.333333333333336
-150.0   0.0   33.333333333333336
-200.0   30.0   33.333333333333336
-200.0   0.0   50.0
-150.0   0.0   33.333333333333336
-150.0   30.0   33.333333333333336
-200.0   30.0   33.333333333333336
-150.0   30.0   50.0
-200.0   0.0   50.0
-200.0   30.0   50.0
-150.0   30.0   50.0
-200.0   30.0   33.333333333333336
-200.0   0.0   50.0
-150.0   30.0   50.0
-150.0   0.0   50.0
-150.0   0.0   33.333333333333336
-200.0   0.0   50.0
-150.0   30.0   50.0
-150.0   0.0   33.333333333333336
-200.0   30.0   33.333333333333336
-200.0   30.0   0.0
-150.0   30.0   0.0
-200.0   60.0   0.0
-200.0   30.0   16.666666666666668
-150.0   30.0   0.0
-150.0   60.0   0.0
-200.0   60.0   0.0
-150.0   60.0   16.666666666666668
-200.0   30.0   16.666666666666668
-200.0   60.0   16.666666666666668
-150.0   60.0   16.666666666666668
-200.0   60.0   0.0
-200.0   30.0   16.666666666666668
-150.0   60.0   16.666666666666668
-150.0   30.0   16.666666666666668
-150.0   30.0   0.0
-200.0   30.0   16.666666666666668
-150.0   60.0   16.666666666666668
-150.0   30.0   0.0
-200.0   60.0   0.0
-200.0   30.0   16.666666666666668
-150.0   30.0   16.666666666666668
-200.0   60.0   16.666666666666668
-200.0   30.0   33.333333333333336
-150.0   30.0   16.666666666666668
-150.0   60.0   16.666666666666668
-200.0   60.0   16.666666666666668
-150.0   60.0   33.333333333333336
-200.0   30.0   33.333333333333336
-200.0   60.0   33.333333333333336
-150.0   60.0   33.333333333333336
-200.0   60.0   16.666666666666668
-200.0   30.0   33.333333333333336
-150.0   60.0   33.333333333333336
-150.0   30.0   33.333333333333336
-150.0   30.0   16.666666666666668
-200.0   30.0   33.333333333333336
-150.0   60.0   33.333333333333336
-150.0   30.0   16.666666666666668
-200.0   60.0   16.666666666666668
-200.0   30.0   33.333333333333336
-150.0   30.0   33.333333333333336
-200.0   60.0   33.333333333333336
-200.0   30.0   50.0
-150.0   30.0   33.333333333333336
-150.0   60.0   33.333333333333336
-200.0   60.0   33.333333333333336
-150.0   60.0   50.0
-200.0   30.0   50.0
-200.0   60.0   50.0
-150.0   60.0   50.0
-200.0   60.0   33.333333333333336
-200.0   30.0   50.0
-150.0   60.0   50.0
-150.0   30.0   50.0
-150.0   30.0   33.333333333333336
-200.0   30.0   50.0
-150.0   60.0   50.0
-150.0   30.0   33.333333333333336
-200.0   60.0   33.333333333333336
-200.0   60.0   0.0
-150.0   60.0   0.0
-200.0   90.0   0.0
-200.0   60.0   16.666666666666668
-150.0   60.0   0.0
-150.0   90.0   0.0
-200.0   90.0   0.0
-150.0   90.0   16.666666666666668
-200.0   60.0   16.666666666666668
-200.0   90.0   16.666666666666668
-150.0   90.0   16.666666666666668
-200.0   90.0   0.0
-200.0   60.0   16.666666666666668
-150.0   90.0   16.666666666666668
-150.0   60.0   16.666666666666668
-150.0   60.0   0.0
-200.0   60.0   16.666666666666668
-150.0   90.0   16.666666666666668
-150.0   60.0   0.0
-200.0   90.0   0.0
-200.0   60.0   16.666666666666668
-150.0   60.0   16.666666666666668
-200.0   90.0   16.666666666666668
-200.0   60.0   33.333333333333336
-150.0   60.0   16.666666666666668
-150.0   90.0   16.666666666666668
-200.0   90.0   16.666666666666668
-150.0   90.0   33.333333333333336
-200.0   60.0   33.333333333333336
-200.0   90.0   33.333333333333336
-150.0   90.0   33.333333333333336
-200.0   90.0   16.666666666666668
-200.0   60.0   33.333333333333336
-150.0   90.0   33.333333333333336
-150.0   60.0   33.333333333333336
-150.0   60.0   16.666666666666668
-200.0   60.0   33.333333333333336
-150.0   90.0   33.333333333333336
-150.0   60.0   16.666666666666668
-200.0   90.0   16.666666666666668
-200.0   60.0   33.333333333333336
-150.0   60.0   33.333333333333336
-200.0   90.0   33.333333333333336
-200.0   60.0   50.0
-150.0   60.0   33.333333333333336
-150.0   90.0   33.333333333333336
-200.0   90.0   33.333333333333336
-150.0   90.0   50.0
-200.0   60.0   50.0
-200.0   90.0   50.0
-150.0   90.0   50.0
-200.0   90.0   33.333333333333336
-200.0   60.0   50.0
-150.0   90.0   50.0
-150.0   60.0   50.0
-150.0   60.0   33.333333333333336
-200.0   60.0   50.0
-150.0   90.0   50.0
-150.0   60.0   33.333333333333336
-200.0   90.0   33.333333333333336
-200.0   90.0   0.0
-150.0   90.0   0.0
-200.0   120.0   0.0
-200.0   90.0   16.666666666666668
-150.0   90.0   0.0
-150.0   120.0   0.0
-200.0   120.0   0.0
-150.0   120.0   16.666666666666668
-200.0   90.0   16.666666666666668
-200.0   120.0   16.666666666666668
-150.0   120.0   16.666666666666668
-200.0   120.0   0.0
-200.0   90.0   16.666666666666668
-150.0   120.0   16.666666666666668
-150.0   90.0   16.666666666666668
-150.0   90.0   0.0
-200.0   90.0   16.666666666666668
-150.0   120.0   16.666666666666668
-150.0   90.0   0.0
-200.0   120.0   0.0
-200.0   90.0   16.666666666666668
-150.0   90.0   16.666666666666668
-200.0   120.0   16.666666666666668
-200.0   90.0   33.333333333333336
-150.0   90.0   16.666666666666668
-150.0   120.0   16.666666666666668
-200.0   120.0   16.666666666666668
-150.0   120.0   33.333333333333336
-200.0   90.0   33.333333333333336
-200.0   120.0   33.333333333333336
-150.0   120.0   33.333333333333336
-200.0   120.0   16.666666666666668
-200.0   90.0   33.333333333333336
-150.0   120.0   33.333333333333336
-150.0   90.0   33.333333333333336
-150.0   90.0   16.666666666666668
-200.0   90.0   33.333333333333336
-150.0   120.0   33.333333333333336
-150.0   90.0   16.666666666666668
-200.0   120.0   16.666666666666668
-200.0   90.0   33.333333333333336
-150.0   90.0   33.333333333333336
-200.0   120.0   33.333333333333336
-200.0   90.0   50.0
-150.0   90.0   33.333333333333336
-150.0   120.0   33.333333333333336
-200.0   120.0   33.333333333333336
-150.0   120.0   50.0
-200.0   90.0   50.0
-200.0   120.0   50.0
-150.0   120.0   50.0
-200.0   120.0   33.333333333333336
-200.0   90.0   50.0
-150.0   120.0   50.0
-150.0   90.0   50.0
-150.0   90.0   33.333333333333336
-200.0   90.0   50.0
-150.0   120.0   50.0
-150.0   90.0   33.333333333333336
-200.0   120.0   33.333333333333336
-200.0   120.0   0.0
-150.0   120.0   0.0
-200.0   150.0   0.0
-200.0   120.0   16.666666666666668
-150.0   120.0   0.0
-150.0   150.0   0.0
-200.0   150.0   0.0
-150.0   150.0   16.666666666666668
-200.0   120.0   16.666666666666668
-200.0   150.0   16.666666666666668
-150.0   150.0   16.666666666666668
-200.0   150.0   0.0
-200.0   120.0   16.666666666666668
-150.0   150.0   16.666666666666668
-150.0   120.0   16.666666666666668
-150.0   120.0   0.0
-200.0   120.0   16.666666666666668
-150.0   150.0   16.666666666666668
-150.0   120.0   0.0
-200.0   150.0   0.0
-200.0   120.0   16.666666666666668
-150.0   120.0   16.666666666666668
-200.0   150.0   16.666666666666668
-200.0   120.0   33.333333333333336
-150.0   120.0   16.666666666666668
-150.0   150.0   16.666666666666668
-200.0   150.0   16.666666666666668
-150.0   150.0   33.333333333333336
-200.0   120.0   33.333333333333336
-200.0   150.0   33.333333333333336
-150.0   150.0   33.333333333333336
-200.0   150.0   16.666666666666668
-200.0   120.0   33.333333333333336
-150.0   150.0   33.333333333333336
-150.0   120.0   33.333333333333336
-150.0   120.0   16.666666666666668
-200.0   120.0   33.333333333333336
-150.0   150.0   33.333333333333336
-150.0   120.0   16.666666666666668
-200.0   150.0   16.666666666666668
-200.0   120.0   33.333333333333336
-150.0   120.0   33.333333333333336
-200.0   150.0   33.333333333333336
-200.0   120.0   50.0
-150.0   120.0   33.333333333333336
-150.0   150.0   33.333333333333336
-200.0   150.0   33.333333333333336
-150.0   150.0   50.0
-200.0   120.0   50.0
-200.0   150.0   50.0
-150.0   150.0   50.0
-200.0   150.0   33.333333333333336
-200.0   120.0   50.0
-150.0   150.0   50.0
-150.0   120.0   50.0
-150.0   120.0   33.333333333333336
-200.0   120.0   50.0
-150.0   150.0   50.0
-150.0   120.0   33.333333333333336
-200.0   150.0   33.333333333333336
-150.0   0.0   0.0
-100.0   0.0   0.0
-150.0   30.0   0.0
-150.0   0.0   16.666666666666668
-100.0   0.0   0.0
-100.0   30.0   0.0
-150.0   30.0   0.0
-100.0   30.0   16.666666666666668
-150.0   0.0   16.666666666666668
-150.0   30.0   16.666666666666668
-100.0   30.0   16.666666666666668
-150.0   30.0   0.0
-150.0   0.0   16.666666666666668
-100.0   30.0   16.666666666666668
-100.0   0.0   16.666666666666668
-100.0   0.0   0.0
-150.0   0.0   16.666666666666668
-100.0   30.0   16.666666666666668
-100.0   0.0   0.0
-150.0   30.0   0.0
-150.0   0.0   16.666666666666668
-100.0   0.0   16.666666666666668
-150.0   30.0   16.666666666666668
-150.0   0.0   33.333333333333336
-100.0   0.0   16.666666666666668
-100.0   30.0   16.666666666666668
-150.0   30.0   16.666666666666668
-100.0   30.0   33.333333333333336
-150.0   0.0   33.333333333333336
-150.0   30.0   33.333333333333336
-100.0   30.0   33.333333333333336
-150.0   30.0   16.666666666666668
-150.0   0.0   33.333333333333336
-100.0   30.0   33.333333333333336
-100.0   0.0   33.333333333333336
-100.0   0.0   16.666666666666668
-150.0   0.0   33.333333333333336
-100.0   30.0   33.333333333333336
-100.0   0.0   16.666666666666668
-150.0   30.0   16.666666666666668
-150.0   0.0   33.333333333333336
-100.0   0.0   33.333333333333336
-150.0   30.0   33.333333333333336
-150.0   0.0   50.0
-100.0   0.0   33.333333333333336
-100.0   30.0   33.333333333333336
-150.0   30.0   33.333333333333336
-100.0   30.0   50.0
-150.0   0.0   50.0
-150.0   30.0   50.0
-100.0   30.0   50.0
-150.0   30.0   33.333333333333336
-150.0   0.0   50.0
-100.0   30.0   50.0
-100.0   0.0   50.0
-100.0   0.0   33.333333333333336
-150.0   0.0   50.0
-100.0   30.0   50.0
-100.0   0.0   33.333333333333336
-150.0   30.0   33.333333333333336
-150.0   30.0   0.0
-100.0   30.0   0.0
-150.0   60.0   0.0
-150.0   30.0   16.666666666666668
-100.0   30.0   0.0
-100.0   60.0   0.0
-150.0   60.0   0.0
-100.0   60.0   16.666666666666668
-150.0   30.0   16.666666666666668
-150.0   60.0   16.666666666666668
-100.0   60.0   16.666666666666668
-150.0   60.0   0.0
-150.0   30.0   16.666666666666668
-100.0   60.0   16.666666666666668
-100.0   30.0   16.666666666666668
-100.0   30.0   0.0
-150.0   30.0   16.666666666666668
-100.0   60.0   16.666666666666668
-100.0   30.0   0.0
-150.0   60.0   0.0
-150.0   30.0   16.666666666666668
-100.0   30.0   16.666666666666668
-150.0   60.0   16.666666666666668
-150.0   30.0   33.333333333333336
-100.0   30.0   16.666666666666668
-100.0   60.0   16.666666666666668
-150.0   60.0   16.666666666666668
-100.0   60.0   33.333333333333336
-150.0   30.0   33.333333333333336
-150.0   60.0   33.333333333333336
-100.0   60.0   33.333333333333336
-150.0   60.0   16.666666666666668
-150.0   30.0   33.333333333333336
-100.0   60.0   33.333333333333336
-100.0   30.0   33.333333333333336
-100.0   30.0   16.666666666666668
-150.0   30.0   33.333333333333336
-100.0   60.0   33.333333333333336
-100.0   30.0   16.666666666666668
-150.0   60.0   16.666666666666668
-150.0   30.0   33.333333333333336
-100.0   30.0   33.333333333333336
-150.0   60.0   33.333333333333336
-150.0   30.0   50.0
-100.0   30.0   33.333333333333336
-100.0   60.0   33.333333333333336
-150.0   60.0   33.333333333333336
-100.0   60.0   50.0
-150.0   30.0   50.0
-150.0   60.0   50.0
-100.0   60.0   50.0
-150.0   60.0   33.333333333333336
-150.0   30.0   50.0
-100.0   60.0   50.0
-100.0   30.0   50.0
-100.0   30.0   33.333333333333336
-150.0   30.0   50.0
-100.0   60.0   50.0
-100.0   30.0   33.333333333333336
-150.0   60.0   33.333333333333336
-150.0   60.0   0.0
-100.0   60.0   0.0
-150.0   90.0   0.0
-150.0   60.0   16.666666666666668
-100.0   60.0   0.0
-100.0   90.0   0.0
-150.0   90.0   0.0
-100.0   90.0   16.666666666666668
-150.0   60.0   16.666666666666668
-150.0   90.0   16.666666666666668
-100.0   90.0   16.666666666666668
-150.0   90.0   0.0
-150.0   60.0   16.666666666666668
-100.0   90.0   16.666666666666668
-100.0   60.0   16.666666666666668
-100.0   60.0   0.0
-150.0   60.0   16.666666666666668
-100.0   90.0   16.666666666666668
-100.0   60.0   0.0
-150.0   90.0   0.0
-150.0   60.0   16.666666666666668
-100.0   60.0   16.666666666666668
-150.0   90.0   16.666666666666668
-150.0   60.0   33.333333333333336
-100.0   60.0   16.666666666666668
-100.0   90.0   16.666666666666668
-150.0   90.0   16.666666666666668
-100.0   90.0   33.333333333333336
-150.0   60.0   33.333333333333336
-150.0   90.0   33.333333333333336
-100.0   90.0   33.333333333333336
-150.0   90.0   16.666666666666668
-150.0   60.0   33.333333333333336
-100.0   90.0   33.333333333333336
-100.0   60.0   33.333333333333336
-100.0   60.0   16.666666666666668
-150.0   60.0   33.333333333333336
-100.0   90.0   33.333333333333336
-100.0   60.0   16.666666666666668
-150.0   90.0   16.666666666666668
-150.0   60.0   33.333333333333336
-100.0   60.0   33.333333333333336
-150.0   90.0   33.333333333333336
-150.0   60.0   50.0
-100.0   60.0   33.333333333333336
-100.0   90.0   33.333333333333336
-150.0   90.0   33.333333333333336
-100.0   90.0   50.0
-150.0   60.0   50.0
-150.0   90.0   50.0
-100.0   90.0   50.0
-150.0   90.0   33.333333333333336
-150.0   60.0   50.0
-100.0   90.0   50.0
-100.0   60.0   50.0
-100.0   60.0   33.333333333333336
-150.0   60.0   50.0
-100.0   90.0   50.0
-100.0   60.0   33.333333333333336
-150.0   90.0   33.333333333333336
-150.0   90.0   0.0
-100.0   90.0   0.0
-150.0   120.0   0.0
-150.0   90.0   16.666666666666668
-100.0   90.0   0.0
-100.0   120.0   0.0
-150.0   120.0   0.0
-100.0   120.0   16.666666666666668
-150.0   90.0   16.666666666666668
-150.0   120.0   16.666666666666668
-100.0   120.0   16.666666666666668
-150.0   120.0   0.0
-150.0   90.0   16.666666666666668
-100.0   120.0   16.666666666666668
-100.0   90.0   16.666666666666668
-100.0   90.0   0.0
-150.0   90.0   16.666666666666668
-100.0   120.0   16.666666666666668
-100.0   90.0   0.0
-150.0   120.0   0.0
-150.0   90.0   16.666666666666668
-100.0   90.0   16.666666666666668
-150.0   120.0   16.666666666666668
-150.0   90.0   33.333333333333336
-100.0   90.0   16.666666666666668
-100.0   120.0   16.666666666666668
-150.0   120.0   16.666666666666668
-100.0   120.0   33.333333333333336
-150.0   90.0   33.333333333333336
-150.0   120.0   33.333333333333336
-100.0   120.0   33.333333333333336
-150.0   120.0   16.666666666666668
-150.0   90.0   33.333333333333336
-100.0   120.0   33.333333333333336
-100.0   90.0   33.333333333333336
-100.0   90.0   16.666666666666668
-150.0   90.0   33.333333333333336
-100.0   120.0   33.333333333333336
-100.0   90.0   16.666666666666668
-150.0   120.0   16.666666666666668
-150.0   90.0   33.333333333333336
-100.0   90.0   33.333333333333336
-150.0   120.0   33.333333333333336
-150.0   90.0   50.0
-100.0   90.0   33.333333333333336
-100.0   120.0   33.333333333333336
-150.0   120.0   33.333333333333336
-100.0   120.0   50.0
-150.0   90.0   50.0
-150.0   120.0   50.0
-100.0   120.0   50.0
-150.0   120.0   33.333333333333336
-150.0   90.0   50.0
-100.0   120.0   50.0
-100.0   90.0   50.0
-100.0   90.0   33.333333333333336
-150.0   90.0   50.0
-100.0   120.0   50.0
-100.0   90.0   33.333333333333336
-150.0   120.0   33.333333333333336
-150.0   120.0   0.0
-100.0   120.0   0.0
-150.0   150.0   0.0
-150.0   120.0   16.666666666666668
-100.0   120.0   0.0
-100.0   150.0   0.0
-150.0   150.0   0.0
-100.0   150.0   16.666666666666668
-150.0   120.0   16.666666666666668
-150.0   150.0   16.666666666666668
-100.0   150.0   16.666666666666668
-150.0   150.0   0.0
-150.0   120.0   16.666666666666668
-100.0   150.0   16.666666666666668
-100.0   120.0   16.666666666666668
-100.0   120.0   0.0
-150.0   120.0   16.666666666666668
-100.0   150.0   16.666666666666668
-100.0   120.0   0.0
-150.0   150.0   0.0
-150.0   120.0   16.666666666666668
-100.0   120.0   16.666666666666668
-150.0   150.0   16.666666666666668
-150.0   120.0   33.333333333333336
-100.0   120.0   16.666666666666668
-100.0   150.0   16.666666666666668
-150.0   150.0   16.666666666666668
-100.0   150.0   33.333333333333336
-150.0   120.0   33.333333333333336
-150.0   150.0   33.333333333333336
-100.0   150.0   33.333333333333336
-150.0   150.0   16.666666666666668
-150.0   120.0   33.333333333333336
-100.0   150.0   33.333333333333336
-100.0   120.0   33.333333333333336
-100.0   120.0   16.666666666666668
-150.0   120.0   33.333333333333336
-100.0   150.0   33.333333333333336
-100.0   120.0   16.666666666666668
-150.0   150.0   16.666666666666668
-150.0   120.0   33.333333333333336
-100.0   120.0   33.333333333333336
-150.0   150.0   33.333333333333336
-150.0   120.0   50.0
-100.0   120.0   33.333333333333336
-100.0   150.0   33.333333333333336
-150.0   150.0   33.333333333333336
-100.0   150.0   50.0
-150.0   120.0   50.0
-150.0   150.0   50.0
-100.0   150.0   50.0
-150.0   150.0   33.333333333333336
-150.0   120.0   50.0
-100.0   150.0   50.0
-100.0   120.0   50.0
-100.0   120.0   33.333333333333336
-150.0   120.0   50.0
-100.0   150.0   50.0
-100.0   120.0   33.333333333333336
-150.0   150.0   33.333333333333336
-100.0   0.0   0.0
-50.0   0.0   0.0
-100.0   30.0   0.0
-100.0   0.0   16.666666666666668
-50.0   0.0   0.0
-50.0   30.0   0.0
-100.0   30.0   0.0
-50.0   30.0   16.666666666666668
-100.0   0.0   16.666666666666668
-100.0   30.0   16.666666666666668
-50.0   30.0   16.666666666666668
-100.0   30.0   0.0
-100.0   0.0   16.666666666666668
-50.0   30.0   16.666666666666668
-50.0   0.0   16.666666666666668
-50.0   0.0   0.0
-100.0   0.0   16.666666666666668
-50.0   30.0   16.666666666666668
-50.0   0.0   0.0
-100.0   30.0   0.0
-100.0   0.0   16.666666666666668
-50.0   0.0   16.666666666666668
-100.0   30.0   16.666666666666668
-100.0   0.0   33.333333333333336
-50.0   0.0   16.666666666666668
-50.0   30.0   16.666666666666668
-100.0   30.0   16.666666666666668
-50.0   30.0   33.333333333333336
-100.0   0.0   33.333333333333336
-100.0   30.0   33.333333333333336
-50.0   30.0   33.333333333333336
-100.0   30.0   16.666666666666668
-100.0   0.0   33.333333333333336
-50.0   30.0   33.333333333333336
-50.0   0.0   33.333333333333336
-50.0   0.0   16.666666666666668
-100.0   0.0   33.333333333333336
-50.0   30.0   33.333333333333336
-50.0   0.0   16.666666666666668
-100.0   30.0   16.666666666666668
-100.0   0.0   33.333333333333336
-50.0   0.0   33.333333333333336
-100.0   30.0   33.333333333333336
-100.0   0.0   50.0
-50.0   0.0   33.333333333333336
-50.0   30.0   33.333333333333336
-100.0   30.0   33.333333333333336
-50.0   30.0   50.0
-100.0   0.0   50.0
-100.0   30.0   50.0
-50.0   30.0   50.0
-100.0   30.0   33.333333333333336
-100.0   0.0   50.0
-50.0   30.0   50.0
-50.0   0.0   50.0
-50.0   0.0   33.333333333333336
-100.0   0.0   50.0
-50.0   30.0   50.0
-50.0   0.0   33.333333333333336
-100.0   30.0   33.333333333333336
-100.0   30.0   0.0
-50.0   30.0   0.0
-100.0   60.0   0.0
-100.0   30.0   16.666666666666668
-50.0   30.0   0.0
-50.0   60.0   0.0
-100.0   60.0   0.0
-50.0   60.0   16.666666666666668
-100.0   30.0   16.666666666666668
-100.0   60.0   16.666666666666668
-50.0   60.0   16.666666666666668
-100.0   60.0   0.0
-100.0   30.0   16.666666666666668
-50.0   60.0   16.666666666666668
-50.0   30.0   16.666666666666668
-50.0   30.0   0.0
-100.0   30.0   16.666666666666668
-50.0   60.0   16.666666666666668
-50.0   30.0   0.0
-100.0   60.0   0.0
-100.0   30.0   16.666666666666668
-50.0   30.0   16.666666666666668
-100.0   60.0   16.666666666666668
-100.0   30.0   33.333333333333336
-50.0   30.0   16.666666666666668
-50.0   60.0   16.666666666666668
-100.0   60.0   16.666666666666668
-50.0   60.0   33.333333333333336
-100.0   30.0   33.333333333333336
-100.0   60.0   33.333333333333336
-50.0   60.0   33.333333333333336
-100.0   60.0   16.666666666666668
-100.0   30.0   33.333333333333336
-50.0   60.0   33.333333333333336
-50.0   30.0   33.333333333333336
-50.0   30.0   16.666666666666668
-100.0   30.0   33.333333333333336
-50.0   60.0   33.333333333333336
-50.0   30.0   16.666666666666668
-100.0   60.0   16.666666666666668
-100.0   30.0   33.333333333333336
-50.0   30.0   33.333333333333336
-100.0   60.0   33.333333333333336
-100.0   30.0   50.0
-50.0   30.0   33.333333333333336
-50.0   60.0   33.333333333333336
-100.0   60.0   33.333333333333336
-50.0   60.0   50.0
-100.0   30.0   50.0
-100.0   60.0   50.0
-50.0   60.0   50.0
-100.0   60.0   33.333333333333336
-100.0   30.0   50.0
-50.0   60.0   50.0
-50.0   30.0   50.0
-50.0   30.0   33.333333333333336
-100.0   30.0   50.0
-50.0   60.0   50.0
-50.0   30.0   33.333333333333336
-100.0   60.0   33.333333333333336
-100.0   60.0   0.0
-50.0   60.0   0.0
-100.0   90.0   0.0
-100.0   60.0   16.666666666666668
-50.0   60.0   0.0
-50.0   90.0   0.0
-100.0   90.0   0.0
-50.0   90.0   16.666666666666668
-100.0   60.0   16.666666666666668
-100.0   90.0   16.666666666666668
-50.0   90.0   16.666666666666668
-100.0   90.0   0.0
-100.0   60.0   16.666666666666668
-50.0   90.0   16.666666666666668
-50.0   60.0   16.666666666666668
-50.0   60.0   0.0
-100.0   60.0   16.666666666666668
-50.0   90.0   16.666666666666668
-50.0   60.0   0.0
-100.0   90.0   0.0
-100.0   60.0   16.666666666666668
-50.0   60.0   16.666666666666668
-100.0   90.0   16.666666666666668
-100.0   60.0   33.333333333333336
-50.0   60.0   16.666666666666668
-50.0   90.0   16.666666666666668
-100.0   90.0   16.666666666666668
-50.0   90.0   33.333333333333336
-100.0   60.0   33.333333333333336
-100.0   90.0   33.333333333333336
-50.0   90.0   33.333333333333336
-100.0   90.0   16.666666666666668
-100.0   60.0   33.333333333333336
-50.0   90.0   33.333333333333336
-50.0   60.0   33.333333333333336
-50.0   60.0   16.666666666666668
-100.0   60.0   33.333333333333336
-50.0   90.0   33.333333333333336
-50.0   60.0   16.666666666666668
-100.0   90.0   16.666666666666668
-100.0   60.0   33.333333333333336
-50.0   60.0   33.333333333333336
-100.0   90.0   33.333333333333336
-100.0   60.0   50.0
-50.0   60.0   33.333333333333336
-50.0   90.0   33.333333333333336
-100.0   90.0   33.333333333333336
-50.0   90.0   50.0
-100.0   60.0   50.0
-100.0   90.0   50.0
-50.0   90.0   50.0
-100.0   90.0   33.333333333333336
-100.0   60.0   50.0
-50.0   90.0   50.0
-50.0   60.0   50.0
-50.0   60.0   33.333333333333336
-100.0   60.0   50.0
-50.0   90.0   50.0
-50.0   60.0   33.333333333333336
-100.0   90.0   33.333333333333336
-100.0   90.0   0.0
-50.0   90.0   0.0
-100.0   120.0   0.0
-100.0   90.0   16.666666666666668
-50.0   90.0   0.0
-50.0   120.0   0.0
-100.0   120.0   0.0
-50.0   120.0   16.666666666666668
-100.0   90.0   16.666666666666668
-100.0   120.0   16.666666666666668
-50.0   120.0   16.666666666666668
-100.0   120.0   0.0
-100.0   90.0   16.666666666666668
-50.0   120.0   16.666666666666668
-50.0   90.0   16.666666666666668
-50.0   90.0   0.0
-100.0   90.0   16.666666666666668
-50.0   120.0   16.666666666666668
-50.0   90.0   0.0
-100.0   120.0   0.0
-100.0   90.0   16.666666666666668
-50.0   90.0   16.666666666666668
-100.0   120.0   16.666666666666668
-100.0   90.0   33.333333333333336
-50.0   90.0   16.666666666666668
-50.0   120.0   16.666666666666668
-100.0   120.0   16.666666666666668
-50.0   120.0   33.333333333333336
-100.0   90.0   33.333333333333336
-100.0   120.0   33.333333333333336
-50.0   120.0   33.333333333333336
-100.0   120.0   16.666666666666668
-100.0   90.0   33.333333333333336
-50.0   120.0   33.333333333333336
-50.0   90.0   33.333333333333336
-50.0   90.0   16.666666666666668
-100.0   90.0   33.333333333333336
-50.0   120.0   33.333333333333336
-50.0   90.0   16.666666666666668
-100.0   120.0   16.666666666666668
-100.0   90.0   33.333333333333336
-50.0   90.0   33.333333333333336
-100.0   120.0   33.333333333333336
-100.0   90.0   50.0
-50.0   90.0   33.333333333333336
-50.0   120.0   33.333333333333336
-100.0   120.0   33.333333333333336
-50.0   120.0   50.0
-100.0   90.0   50.0
-100.0   120.0   50.0
-50.0   120.0   50.0
-100.0   120.0   33.333333333333336
-100.0   90.0   50.0
-50.0   120.0   50.0
-50.0   90.0   50.0
-50.0   90.0   33.333333333333336
-100.0   90.0   50.0
-50.0   120.0   50.0
-50.0   90.0   33.333333333333336
-100.0   120.0   33.333333333333336
-100.0   120.0   0.0
-50.0   120.0   0.0
-100.0   150.0   0.0
-100.0   120.0   16.666666666666668
-50.0   120.0   0.0
-50.0   150.0   0.0
-100.0   150.0   0.0
-50.0   150.0   16.666666666666668
-100.0   120.0   16.666666666666668
-100.0   150.0   16.666666666666668
-50.0   150.0   16.666666666666668
-100.0   150.0   0.0
-100.0   120.0   16.666666666666668
-50.0   150.0   16.666666666666668
-50.0   120.0   16.666666666666668
-50.0   120.0   0.0
-100.0   120.0   16.666666666666668
-50.0   150.0   16.666666666666668
-50.0   120.0   0.0
-100.0   150.0   0.0
-100.0   120.0   16.666666666666668
-50.0   120.0   16.666666666666668
-100.0   150.0   16.666666666666668
-100.0   120.0   33.333333333333336
-50.0   120.0   16.666666666666668
-50.0   150.0   16.666666666666668
-100.0   150.0   16.666666666666668
-50.0   150.0   33.333333333333336
-100.0   120.0   33.333333333333336
-100.0   150.0   33.333333333333336
-50.0   150.0   33.333333333333336
-100.0   150.0   16.666666666666668
-100.0   120.0   33.333333333333336
-50.0   150.0   33.333333333333336
-50.0   120.0   33.333333333333336
-50.0   120.0   16.666666666666668
-100.0   120.0   33.333333333333336
-50.0   150.0   33.333333333333336
-50.0   120.0   16.666666666666668
-100.0   150.0   16.666666666666668
-100.0   120.0   33.333333333333336
-50.0   120.0   33.333333333333336
-100.0   150.0   33.333333333333336
-100.0   120.0   50.0
-50.0   120.0   33.333333333333336
-50.0   150.0   33.333333333333336
-100.0   150.0   33.333333333333336
-50.0   150.0   50.0
-100.0   120.0   50.0
-100.0   150.0   50.0
-50.0   150.0   50.0
-100.0   150.0   33.333333333333336
-100.0   120.0   50.0
-50.0   150.0   50.0
-50.0   120.0   50.0
-50.0   120.0   33.333333333333336
-100.0   120.0   50.0
-50.0   150.0   50.0
-50.0   120.0   33.333333333333336
-100.0   150.0   33.333333333333336
-50.0   0.0   0.0
0.0   0.0   0.0
-50.0   30.0   0.0
-50.0   0.0   16.666666666666668
0.0   0.0   0.0
0.0   30.0   0.0
-50.0   30.0   0.0
0.0   30.0   16.666666666666668
-50.0   0.0   16.666666666666668
-50.0   30.0   16.666666666666668
0.0   30.0   16.666666666666668
-50.0   30.0   0.0
-50.0   0.0   16.666666666666668
0.0   30.0   16.666666666666668
0.0   0.0   16.666666666666668
0.0   0.0   0.0
-50.0   0.0   16.666666666666668
0.0   30.0   16.666666666666668
0.0   0.0   0.0
-50.0   30.0   0.0
-50.0   0.0   16.666666666666668
0.0   0.0   16.666666666666668
-50.0   30.0   16.666666666666668
-50.0   0.0   33.333333333333336
0.0   0.0   16.666666666666668
0.0   30.0   16.666666666666668
-50.0   30.0   16.666666666666668
0.0   30.0   33.333333333333336
-50.0   0.0   33.333333333333336
-50.0   30.0   33.333333333333336
0.0   30.0   33.333333333333336
-50.0   30.0   16.666666666666668
-50.0   0.0   33.333333333333336
0.0   30.0   33.333333333333336
0.0   0.0   33.333333333333336
0.0   0.0   16.666666666666668
-50.0   0.0   33.333333333333336
0.0   30.0   33.333333333333336
0.0   0.0   16.666666666666668
-50.0   30.0   16.666666666666668
-50.0   0.0   33.333333333333336
0.0   0.0   33.333333333333336
-50.0   30.0   33.333333333333336
-50.0   0.0   50.0
0.0   0.0   33.333333333333336
0.0   30.0   33.333333333333336
-50.0   30.0   33.333333333333336
0.0   30.0   50.0
-50.0   0.0   50.0
-50.0   30.0   50.0
0.0   30.0   50.0
-50.0   30.0   33.333333333333336
-50.0   0.0   50.0
0.0   30.0   50.0
0.0   0.0   50.0
0.0   0.0   33.333333333333336
-50.0   0.0   50.0
0.0   30.0   50.0
0.0   0.0   33.333333333333336
-50.0   30.0   33.333333333333336
-50.0   30.0   0.0
0.0   30.0   0.0
-50.0   60.0   0.0
-50.0   30.0   16.666666666666668
0.0   30.0   0.0
0.0   60.0   0.0
-50.0   60.0   0.0
0.0   60.0   16.666666666666668
-50.0   30.0   16.666666666666668
-50.0   60.0   16.666666666666668
0.0   60.0   16.666666666666668
-50.0   60.0   0.0
-50.0   30.0   16.666666666666668
0.0   60.0   16.666666666666668
0.0   30.0   16.666666666666668
0.0   30.0   0.0
-50.0   30.0   16.666666666666668
0.0   60.0   16.666666666666668
0.0   30.0   0.0
-50.0   60.0   0.0
-50.0   30.0   16.666666666666668
0.0   30.0   16.666666666666668
-50.0   60.0   16.666666666666668
-50.0   30.0   33.333333333333336
0.0   30.0   16.666666666666668
0.0   60.0   16.666666666666668
-50.0   60.0   16.666666666666668
0.0   60.0   33.333333333333336
-50.0   30.0   33.333333333333336
-50.0   60.0   33.333333333333336
0.0   60.0   33.333333333333336
-50.0   60.0   16.666666666666668
-50.0   30.0   33.333333333333336
0.0   60.0   33.333333333333336
0.0   30.0   33.333333333333336
0.0   30.0   16.666666666666668
-50.0   30.0   33.333333333333336
0.0   60.0   33.333333333333336
0.0   30.0   16.666666666666668
-50.0   60.0   16.666666666666668
-50.0   30.0   33.333333333333336
0.0   30.0   33.333333333333336
-50.0   60.0   33.333333333333336
-50.0   30.0   50.0
0.0   30.0   33.333333333333336
0.0   60.0   33.333333333333336
-50.0   60.0   33.333333333333336
0.0   60.0   50.0
-50.0   30.0   50.0
-50.0   60.0   50.0
0.0   60.0   50.0
-50.0   60.0   33.333333333333336
-50.0   30.0   50.0
0.0   60.0   50.0
0.0   30.0   50.0
0.0   30.0   33.333333333333336
-50.0   30.0   50.0
0.0   60.0   50.0
0.0   30.0   33.333333333333336
-50.0   60.0   33.333333333333336
-50.0   60.0   0.0
0.0   60.0   0.0
-50.0   90.0   0.0
-50.0   60.0   16.666666666666668
0.0   60.0   0.0
0.0   90.0   0.0
-50.0   90.0   0.0
0.0   90.0   16.666666666666668
-50.0   60.0   16.666666666666668
-50.0   90.0   16.666666666666668
0.0   90.0   16.666666666666668
-50.0   90.0   0.0
-50.0   60.0   16.666666666666668
0.0   90.0   16.666666666666668
0.0   60.0   16.666666666666668
0.0   60.0   0.0
-50.0   60.0   16.666666666666668
0.0   90.0   16.666666666666668
0.0   60.0   0.0
-50.0   90.0   0.0
-50.0   60.0   16.666666666666668
0.0   60.0   16.666666666666668
-50.0   90.0   16.666666666666668
-50.0   60.0   33.333333333333336
0.0   60.0   16.666666666666668
0.0   90.0   16.666666666666668
-50.0   90.0   16.666666666666668
0.0   90.0   33.333333333333336
-50.0   60.0   33.333333333333336
-50.0   90.0   33.333333333333336
0.0   90.0   33.333333333333336
-50.0   90.0   16.666666666666668
-50.0   60.0   33.333333333333336
0.0   90.0   33.333333333333336
0.0   60.0   33.333333333333336
0.0   60.0   16.666666666666668
-50.0   60.0   33.333333333333336
0.0   90.0   33.333333333333336
0.0   60.0   16.666666666666668
-50.0   90.0   16.666666666666668
-50.0   60.0   33.333333333333336
0.0   60.0   33.333333333333336
-50.0   90.0   33.333333333333336
-50.0   60.0   50.0
0.0   60.0   33.333333333333336
0.0   90.0   33.333333333333336
-50.0   90.0   33.333333333333336
0.0   90.0   50.0
-50.0   60.0   50.0
-50.0   90.0   50.0
0.0   90.0   50.0
-50.0   90.0   33.333333333333336
-50.0   60.0   50.0
0.0   90.0   50.0
0.0   60.0   50.0
0.0   60.0   33.333333333333336
-50.0   60.0   50.0
0.0   90.0   50.0
0.0   60.0   33.333333333333336
-50.0   90.0   33.333333333333336
-50.0   90.0   0.0
0.0   90.0   0.0
-50.0   120.0   0.0
-50.0   90.0   16.666666666666668
0.0   90.0   0.0
0.0   120.0   0.0
-50.0   120.0   0.0
0.0   120.0   16.666666666666668
-50.0   90.0   16.666666666666668
-50.0   120.0   16.666666666666668
0.0   120.0   16.666666666666668
-50.0   120.0   0.0
-50.0   90.0   16.666666666666668
0.0   120.0   16.666666666666668
0.0   90.0   16.666666666666668
0.0   90.0   0.0
-50.0   90.0   16.666666666666668
0.0   120.0   16.666666666666668
0.0   90.0   0.0
-50.0   120.0   0.0
-50.0   90.0   16.666666666666668
0.0   90.0   16.666666666666668
-50.0   120.0   16.666666666666668
-50.0   90.0   33.333333333333336
0.0   90.0   16.666666666666668
0.0   120.0   16.666666666666668
-50.0   120.0   16.666666666666668
0.0   120.0   33.333333333333336
-50.0   90.0   33.333333333333336
-50.0   120.0   33.333333333333336
0.0   120.0   33.333333333333336
-50.0   120.0   16.666666666666668
-50.0   90.0   33.333333333333336
0.0   120.0   33.333333333333336
0.0   90.0   33.333333333333336
0.0   90.0   16.666666666666668
-50.0   90.0   33.333333333333336
0.0   120.0   33.333333333333336
0.0   90.0   16.666666666666668
-50.0   120.0   16.666666666666668
-50.0   90.0   33.333333333333336
0.0   90.0   33.333333333333336
-50.0   120.0   33.333333333333336
-50.0   90.0   50.0
0.0   90.0   33.333333333333336
0.0   120.0   33.333333333333336
-50.0   120.0   33.333333333333336
0.0   120.0   50.0
-50.0   90.0   50.0
-50.0   120.0   50.0
0.0   120.0   50.0
-50.0   120.0   33.333333333333336
-50.0   90.0   50.0
0.0   120.0   50.0
0.0   90.0   50.0
0.0   90.0   33.333333333333336
-50.0   90.0   50.0
0.0   120.0   50.0
0.0   90.0   33.333333333333336
-50.0   120.0   33.333333333333336
-50.0   120.0   0.0
0.0   120.0   0.0
-50.0   150.0   0.0
-50.0   120.0   16.666666666666668
0.0   120.0   0.0
0.0   150.0   0.0
-50.0   150.0   0.0
0.0   150.0   16.666666666666668
-50.0   120.0   16.666666666666668
-50.0   150.0   16.666666666666668
0.0   150.0   16.666666666666668
-50.0   150.0   0.0
-50.0   120.0   16.666666666666668
0.0   150.0   16.666666666666668
0.0   120.0   16.666666666666668
0.0   120.0   0.0
-50.0   120.0   16.666666666666668
0.0   150.0   16.666666666666668
0.0   120.0   0.0
-50.0   150.0   0.0
-50.0   120.0   16.666666666666668
0.0   120.0   16.666666666666668
-50.0   150.0   16.666666666666668
-50.0   120.0   33.333333333333336
0.0   120.0   16.666666666666668
0.0   150.0   16.666666666666668
-50.0   150.0   16.666666666666668
0.0   150.0   33.333333333333336
-50.0   120.0   33.333333333333336
-50.0   150.0   33.333333333333336
0.0   150.0   33.333333333333336
-50.0   150.0   16.666666666666668
-50.0   120.0   33.333333333333336
0.0   150.0   33.333333333333336
0.0   120.0   33.333333333333336
0.0   120.0   16.666666666666668
-50.0   120.0   33.333333333333336
0.0   150.0   33.333333333333336
0.0   120.0   16.666666666666668
-50.0   150.0   16.666666666666668
-50.0   120.0   33.333333333333336
0.0   120.0   33.333333333333336
-50.0   150.0   33.333333333333336
-50.0   120.0   50.0
0.0   120.0   33.333333333333336
0.0   150.0   33.333333333333336
-50.0   150.0   33.333333333333336
0.0   150.0   50.0
-50.0   120.0   50.0
-50.0   150.0   50.0
0.0   150.0   50.0
-50.0   150.0   33.333333333333336
-50.0   120.0   50.0
0.0   150.0   50.0
0.0   120.0   50.0
0.0   120.0   33.333333333333336
-50.0   120.0   50.0
0.0   150.0   50.0
0.0   120.0   33.333333333333336
-50.0   150.0   33.333333333333336
0.0   0.0   0.0
50.0   0.0   0.0
0.0   30.0   0.0
0.0   0.0   16.666666666666668
50.0   0.0   0.0
50.0   30.0   0.0
0.0   30.0   0.0
50.0   30.0   16.666666666666668
0.0   0.0   16.666666666666668
0.0   30.0   16.666666666666668
50.0   30.0   16.666666666666668
0.0   30.0   0.0
0.0   0.0   16.666666666666668
50.0   30.0   16.666666666666668
50.0   0.0   16.666666666666668
50.0   0.0   0.0
0.0   0.0   16.666666666666668
50.0   30.0   16.666666666666668
50.0   0.0   0.0
0.0   30.0   0.0
0.0   0.0   16.666666666666668
50.0   0.0   16.666666666666668
0.0   30.0   16.666666666666668
0.0   0.0   33.333333333333336
50.0   0.0   16.666666666666668
50.0   30.0   16.666666666666668
0.0   30.0   16.666666666666668
50.0   30.0   33.333333333333336
0.0   0.0   33.333333333333336
0.0   30.0   33.333333333333336
50.0   30.0   33.333333333333336
0.0   30.0   16.666666666666668
0.0   0.0   33.333333333333336
50.0   30.0   33.333333333333336
50.0   0.0   33.333333333333336
50.0   0.0   16.666666666666668
0.0   0.0   33.333333333333336
50.0   30.0   33.333333333333336
50.0   0.0   16.666666666666668
0.0   30.0   16.666666666666668
0.0   0.0   33.333333333333336
50.0   0.0   33.333333333333336
0.0   30.0   33.333333333333336
0.0   0.0   50.0
50.0   0.0   33.333333333333336
50.0   30.0   33.333333333333336
0.0   30.0   33.333333333333336
50.0   30.0   50.0
0.0   0.0   50.0
0.0   30.0   50.0
50.0   30.0   50.0
0.0   30.0   33.333333333333336
0.0   0.0   50.0
50.0   30.0   50.0
50.0   0.0   50.0
50.0   0.0   33.333333333333336
0.0   0.0   50.0
50.0   30.0   50.0
50.0   0.0   33.333333333333336
0.0   30.0   33.333333333333336
0.0   30.0   0.0
50.0   30.0   0.0
0.0   60.0   0.0
0.0   30.0   16.666666666666668
50.0   30.0   0.0
50.0   60.0   0.0
0.0   60.0   0.0
50.0   60.0   16.666666666666668
0.0   30.0   16.666666666666668
0.0   60.0   16.666666666666668
50.0   60.0   16.666666666666668
0.0   60.0   0.0
0.0   30.0   16.666666666666668
50.0   60.0   16.666666666666668
50.0   30.0   16.666666666666668
50.0   30.0   0.0
0.0   30.0   16.666666666666668
50.0   60.0   16.666666666666668
50.0   30.0   0.0
0.0   60.0   0.0
0.0   30.0   16.666666666666668
50.0   30.0   16.666666666666668
0.0   60.0   16.666666666666668
0.0   30.0   33.333333333333336
50.0   30.0   16.666666666666668
50.0   60.0   16.666666666666668
0.0   60.0   16.666666666666668
50.0   60.0   33.333333333333336
0.0   30.0   33.333333333333336
0.0   60.0   33.333333333333336
50.0   60.0   33.333333333333336
0.0   60.0   16.666666666666668
0.0   30.0   33.333333333333336
50.0   60.0   33.333333333333336
50.0   30.0   33.333333333333336
50.0   30.0   16.666666666666668
0.0   30.0   33.333333333333336
50.0   60.0   33.333333333333336
50.0   30.0   16.666666666666668
0.0   60.0   16.666666666666668
0.0   30.0   33.333333333333336
50.0   30.0   33.333333333333336
0.0   60.0   33.333333333333336
0.0   30.0   50.0
50.0   30.0   33.333333333333336
50.0   60.0   33.333333333333336
0.0   60.0   33.333333333333336
50.0   60.0   50.0
0.0   30.0   50.0
0.0   60.0   50.0
50.0   60.0   50.0
0.0   60.0   33.333333333333336
0.0   30.0   50.0
50.0   60.0   50.0
50.0   30.0   50.0
50.0   30.0   33.333333333333336
0.0   30.0   50.0
50.0   60.0   50.0
50.0   30.0   33.333333333333336
0.0   60.0   33.333333333333336
0.0   60.0   0.0
50.0   60.0   0.0
0.0   90.0   0.0
0.0   60.0   16.666666666666668
50.0   60.0   0.0
50.0   90.0   0.0
0.0   90.0   0.0
50.0   90.0   16.666666666666668
0.0   60.0   16.666666666666668
0.0   90.0   16.666666666666668
50.0   90.0   16.666666666666668
0.0   90.0   0.0
0.0   60.0   16.666666666666668
50.0   90.0   16.666666666666668
50.0   60.0   16.666666666666668
50.0   60.0   0.0
0.0   60.0   16.666666666666668
50.0   90.0   16.666666666666668
50.0   60.0   0.0
0.0   90.0   0.0
0.0   60.0   16.666666666666668
50.0   60.0   16.666666666666668
0.0   90.0   16.666666666666668
0.0   60.0   33.333333333333336
50.0   60.0   16.666666666666668
50.0   90.0   16.666666666666668
0.0   90.0   16.666666666666668
50.0   90.0   33.333333333333336
0.0   60.0   33.333333333333336
0.0   90.0   33.333333333333336
50.0   90.0   33.333333333333336
0.0   90.0   16.666666666666668
0.0   60.0   33.333333333333336
50.0   90.0   33.333333333333336
50.0   60.0   33.333333333333336
50.0   60.0   16.666666666666668
0.0   60.0   33.333333333333336
50.0   90.0   33.333333333333336
50.0   60.0   16.666666666666668
0.0   90.0   16.666666666666668
0.0   60.0   33.333333333333336
50.0   60.0   33.333333333333336
0.0   90.0   33.333333333333336
0.0   60.0   50.0
50.0   60.0   33.333333333333336
50.0   90.0   33.333333333333336
0.0   90.0   33.333333333333336
50.0   90.0   50.0
0.0   60.0   50.0
0.0   90.0   50.0
50.0   90.0   50.0
0.0   90.0   33.333333333333336
0.0   60.0   50.0
50.0   90.0   50.0
50.0   60.0   50.0
50.0   60.0   33.333333333333336
0.0   60.0   50.0
50.0   90.0   50.0
50.0   60.0   33.333333333333336
0.0   90.0   33.333333333333336
0.0   90.0   0.0
50.0   90.0   0.0
0.0   120.0   0.0
0.0   90.0   16.666666666666668
50.0   90.0   0.0
50.0   120.0   0.0
0.0   120.0   0.0
50.0   120.0   16.666666666666668
0.0   90.0   16.666666666666668
0.0   120.0   16.666666666666668
50.0   120.0   16.666666666666668
0.0   120.0   0.0
0.0   90.0   16.666666666666668
50.0   120.0   16.666666666666668
50.0   90.0   16.666666666666668
50.0   90.0   0.0
0.0   90.0   16.666666666666668
50.0   120.0   16.666666666666668
50.0   90.0   0.0
0.0   120.0   0.0
0.0   90.0   16.666666666666668
50.0   90.0   16.666666666666668
0.0   120.0   16.666666666666668
0.0   90.0   33.333333333333336
50.0   90.0   16.666666666666668
50.0   120.0   16.666666666666668
0.0   120.0   16.666666666666668
50.0   120.0   33.333333333333336
0.0   90.0   33.333333333333336
0.0   120.0   33.333333333333336
50.0   120.0   33.333333333333336
0.0   120.0   16.666666666666668
0.0   90.0   33.333333333333336
50.0   120.0   33.333333333333336
50.0   90.0   33.333333333333336
50.0   90.0   16.666666666666668
0.0   90.0   33.333333333333336
50.0   120.0   33.333333333333336
50.0   90.0   16.666666666666668
0.0   120.0   16.666666666666668
0.0   90.0   33.333333333333336
50.0   90.0   33.333333333333336
0.0   120.0   33.333333333333336
0.0   90.0   50.0
50.0   90.0   33.333333333333336
50.0   120.0   33.333333333333336
0.0   120.0   33.333333333333336
50.0   120.0   50.0
0.0   90.0   50.0
0.0   120.0   50.0
50.0   120.0   50.0
0.0   120.0   33.333333333333336
0.0   90.0   50.0
50.0   120.0   50.0
50.0   90.0   50.0
50.0   90.0   33.333333333333336
0.0   90.0   50.0
50.0   120.0   50.0
50.0   90.0   33.333333333333336
0.0   120.0   33.333333333333336
0.0   120.0   0.0
50.0   120.0   0.0
0.0   150.0   0.0
0.0   120.0   16.666666666666668
50.0   120.0   0.0
50.0   150.0   0.0
0.0   150.0   0.0
50.0   150.0   16.666666666666668
0.0   120.0   16.666666666666668
0.0   150.0   16.666666666666668
50.0   150.0   16.666666666666668
0.0   150.0   0.0
0.0   120.0   16.666666666666668
50.0   150.0   16.666666666666668
50.0   120.0   16.666666666666668
50.0   120.0   0.0
0.0   120.0   16.666666666666668
50.0   150.0   16.666666666666668
50.0   120.0   0.0
0.0   150.0   0.0
0.0   120.0   16.666666666666668
50.0   120.0   16.666666666666668
0.0   150.0   16.666666666666668
0.0   120.0   33.333333333333336
50.0   120.0   16.666666666666668
50.0   150.0   16.666666666666668
0.0   150.0   16.666666666666668
50.0   150.0   33.333333333333336
0.0   120.0   33.333333333333336
0.0   150.0   33.333333333333336
50.0   150.0   33.333333333333336
0.0   150.0   16.666666666666668
0.0   120.0   33.333333333333336
50.0   150.0   33.333333333333336
50.0   120.0   33.333333333333336
50.0   120.0   16.666666666666668
0.0   120.0   33.333333333333336
50.0   150.0   33.333333333333336
50.0   120.0   16.666666666666668
0.0   150.0   16.666666666666668
0.0   120.0   33.333333333333336
50.0   120.0   33.333333333333336
0.0   150.0   33.333333333333336
0.0   120.0   50.0
50.0   120.0   33.333333333333336
50.0   150.0   33.333333333333336
0.0   150.0   33.333333333333336
50.0   150.0   50.0
0.0   120.0   50.0
0.0   150.0   50.0
50.0   150.0   50.0
0.0   150.0   33.333333333333336
0.0   120.0   50.0
50.0   150.0   50.0
50.0   120.0   50.0
50.0   120.0   33.333333333333336
0.0   120.0   50.0
50.0   150.0   50.0
50.0   120.0   33.333333333333336
0.0   150.0   33.333333333333336
50.0   0.0   0.0
100.0   0.0   0.0
50.0   30.0   0.0
50.0   0.0   16.666666666666668
100.0   0.0   0.0
100.0   30.0   0.0
50.0   30.0   0.0
100.0   30.0   16.666666666666668
50.0   0.0   16.666666666666668
50.0   30.0   16.666666666666668
100.0   30.0   16.666666666666668
50.0   30.0   0.0
50.0   0.0   16.666666666666668
100.0   30.0   16.666666666666668
100.0   0.0   16.666666666666668
100.0   0.0   0.0
50.0   0.0   16.666666666666668
100.0   30.0   16.666666666666668
100.0   0.0   0.0
50.0   30.0   0.0
50.0   0.0   16.666666666666668
100.0   0.0   16.666666666666668
50.0   30.0   16.666666666666668
50.0   0.0   33.333333333333336
100.0   0.0   16.666666666666668
100.0   30.0   16.666666666666668
50.0   30.0   16.666666666666668
100.0   30.0   33.333333333333336
50.0   0.0   33.333333333333336
50.0   30.0   33.333333333333336
100.0   30.0   33.333333333333336
50.0   30.0   16.666666666666668
50.0   0.0   33.333333333333336
100.0   30.0   33.333333333333336
100.0   0.0   33.333333333333336
100.0   0.0   16.666666666666668
50.0   0.0   33.333333333333336
100.0   30.0   33.333333333333336
100.0   0.0   16.666666666666668
50.0   30.0   16.666666666666668
50.0   0.0   33.333333333333336
100.0   0.0   33.333333333333336
50.0   30.0   33.333333333333336
50.0   0.0   50.0
100.0   0.0   33.333333333333336
100.0   30.0   33.333333333333336
50.0   30.0   33.333333333333336
100.0   30.0   50.0
50.0   0.0   50.0
50.0   30.0   50.0
100.0   30.0   50.0
50.0   30.0   33.333333333333336
50.0   0.0   50.0
100.0   30.0   50.0
100.0   0.0   50.0
100.0   0.0   33.333333333333336
50.0   0.0   50.0
100.0   30.0   50.0
100.0   0.0   33.333333333333336
50.0   30.0   33.333333333333336
50.0   30.0   0.0
100.0   30.0   0.0
50.0   60.0   0.0
50.0   30.0   16.666666666666668
100.0   30.0   0.0
100.0   60.0   0.0
50.0   60.0   0.0
100.0   60.0   16.666666666666668
50.0   30.0   16.666666666666668
50.0   60.0   16.666666666666668
100.0   60.0   16.666666666666668
50.0   60.0   0.0
50.0   30.0   16.666666666666668
100.0   60.0   16.666666666666668
100.0   30.0   16.666666666666668
100.0   30.0   0.0
50.0   30.0   16.666666666666668
100.0   60.0   16.666666666666668
100.0   30.0   0.0
50.0   60.0   0.0
50.0   30.0   16.666666666666668
100.0   30.0   16.666666666666668
50.0   60.0   16.666666666666668
50.0   30.0   33.333333333333336
100.0   30.0   16.666666666666668
100.0   60.0   16.666666666666668
50.0   60.0   16.666666666666668
100.0   60.0   33.333333333333336
50.0   30.0   33.333333333333336
50.0   60.0   33.333333333333336
100.0   60.0   33.333333333333336
50.0   60.0   16.666666666666668
50.0   30.0   33.333333333333336
100.0   60.0   33.333333333333336
100.0   30.0   33.333333333333336
100.0   30.0   16.666666666666668
50.0   30.0   33.333333333333336
100.0   60.0   33.333333333333336
100.0   30.0   16.666666666666668
50.0   60.0   16.666666666666668
50.0   30.0   33.333333333333336
100.0   30.0   33.333333333333336
50.0   60.0   33.333333333333336
50.0   30.0   50.0
100.0   30.0   33.333333333333336
100.0   60.0   33.333333333333336
50.0   60.0   33.333333333333336
100.0   60.0   50.0
50.0   30.0   50.0
50.0   60.0   50.0
100.0   60.0   50.0
50.0   60.0   33.333333333333336
50.0   30.0   50.0
100.0   60.0   50.0
100.0   30.0   50.0
100.0   30.0   33.333333333333336
50.0   30.0   50.0
100.0   60.0   50.0
100.0   30.0   33.333333333333336
50.0   60.0   33.333333333333336
50.0   60.0   0.0
100.0   60.0   0.0
50.0   90.0   0.0
50.0   60.0   16.666666666666668
100.0   60.0   0.0
100.0   90.0   0.0
50.0   90.0   0.0
100.0   90.0   16.666666666666668
50.0   60.0   16.666666666666668
50.0   90.0   16.666666666666668
100.0   90.0   16.666666666666668
50.0   90.0   0.0
50.0   60.0   16.666666666666668
100.0   90.0   16.666666666666668
100.0   60.0   16.666666666666668
100.0   60.0   0.0
50.0   60.0   16.666666666666668
100.0   90.0   16.666666666666668
100.0   60.0   0.0
50.0   90.0   0.0
50.0   60.0   16.666666666666668
100.0   60.0   16.666666666666668
50.0   90.0   16.666666666666668
50.0   60.0   33.333333333333336
100.0   60.0   16.666666666666668
100.0   90.0   16.666666666666668
50.0   90.0   16.666666666666668
100.0   90.0   33.333333333333336
50.0   60.0   33.333333333333336
50.0   90.0   33.333333333333336
100.0   90.0   33.333333333333336
50.0   90.0   16.666666666666668
50.0   60.0   33.333333333333336
100.0   90.0   33.333333333333336
100.0   60.0   33.333333333333336
100.0   60.0   16.666666666666668
50.0   60.0   33.333333333333336
100.0   90.0   33.333333333333336
100.0   60.0   16.666666666666668
50.0   90.0   16.666666666666668
50.0   60.0   33.333333333333336
100.0   60.0   33.333333333333336
50.0   90.0   33.333333333333336
50.0   60.0   50.0
100.0   60.0   33.333333333333336
100.0   90.0   33.333333333333336
50.0   90.0   33.333333333333336
100.0   90.0   50.0
50.0   60.0   50.0
50.0   90.0   50.0
100.0   90.0   50.0
50.0   90.0   33.333333333333336
50.0   60.0   50.0
100.0   90.0   50.0
100.0   60.0   50.0
100.0   60.0   33.333333333333336
50.0   60.0   50.0
100.0   90.0   50.0
100.0   60.0   33.333333333333336
50.0   90.0   33.333333333333336
50.0   90.0   0.0
100.0   90.0   0.0
50.0   120.0   0.0
50.0   90.0   16.666666666666668
100.0   90.0   0.0
100.0   120.0   0.0
50.0   120.0   0.0
100.0   120.0   16.666666666666668
50.0   90.0   16.666666666666668
50.0   120.0   16.666666666666668
100.0   120.0   16.666666666666668
50.0   120.0   0.0
50.0   90.0   16.666666666666668
100.0   120.0   16.666666666666668
100.0   90.0   16.666666666666668
100.0   90.0   0.0
50.0   90.0   16.666666666666668
100.0   120.0   16.666666666666668
100.0   90.0   0.0
50.0   120.0   0.0
50.0   90.0   16.666666666666668
100.0   90.0   16.666666666666668
50.0   120.0   16.666666666666668
50.0   90.0   33.333333333333336
100.0   90.0   16.666666666666668
100.0   120.0   16.666666666666668
50.0   120.0   16.666666666666668
100.0   120.0   33.333333333333336
50.0   90.0   33.333333333333336
50.0   120.0   33.333333333333336
100.0   120.0   33.333333333333336
50.0   120.0   16.666666666666668
50.0   90.0   33.333333333333336
100.0   120.0   33.333333333333336
100.0   90.0   33.333333333333336
100.0   90.0   16.666666666666668
50.0   90.0   33.333333333333336
100.0   120.0   33.333333333333336
100.0   90.0   16.666666666666668
50.0   120.0   16.666666666666668
50.0   90.0   33.333333333333336
100.0   90.0   33.333333333333336
50.0   120.0   33.333333333333336
50.0   90.0   50.0
100.0   90.0   33.333333333333336
100.0   120.0   33.333333333333336
50.0   120.0   33.333333333333336
100.0   120.0   50.0
50.0   90.0   50.0
50.0   120.0   50.0
100.0   120.0   50.0
50.0   120.0   33.333333333333336
50.0   90.0   50.0
100.0   120.0   50.0
100.0   90.0   50.0
100.0   90.0   33.333333333333336
50.0   90.0   50.0
100.0   120.0   50.0
100.0   90.0   33.333333333333336
50.0   120.0   33.333333333333336
50.0   120.0   0.0
100.0   120.0   0.0
50.0   150.0   0.0
50.0   120.0   16.666666666666668
100.0   120.0   0.0
100.0   150.0   0.0
50.0   150.0   0.0
100.0   150.0   16.666666666666668
50.0   120.0   16.666666666666668
50.0   150.0   16.666666666666668
100.0   150.0   16.666666666666668
50.0   150.0   0.0
50.0   120.0   16.666666666666668
100.0   150.0   16.666666666666668
100.0   120.0   16.666666666666668
100.0   120.0   0.0
50.0   120.0   16.666666666666668
100.0   150.0   16.666666666666668
100.0   120.0   0.0
50.0   150.0   0.0
50.0   120.0   16.666666666666668
100.0   120.0   16.666666666666668
50.0   150.0   16.666666666666668
50.0   120.0   33.333333333333336
100.0   120.0   16.666666666666668
100.0   150.0   16.666666666666668
50.0   150.0   16.666666666666668
100.0   150.0   33.333333333333336
50.0   120.0   33.333333333333336
50.0   150.0   33.333333333333336
100.0   150.0   33.333333333333336
50.0   150.0   16.666666666666668
50.0   120.0   33.333333333333336
100.0   150.0   33.333333333333336
100.0   120.0   33.333333333333336
100.0   120.0   16.666666666666668
50.0   120.0   33.333333333333336
100.0   150.0   33.333333333333336
100.0   120.0   16.666666666666668
50.0   150.0   16.666666666666668
50.0   120.0   33.333333333333336
100.0   120.0   33.333333333333336
50.0   150.0   33.333333333333336
50.0   120.0   50.0
100.0   120.0   33.333333333333336
100.0   150.0   33.333333333333336
50.0   150.0   33.333333333333336
100.0   150.0   50.0
50.0   120.0   50.0
50.0   150.0   50.0
100.0   150.0   50.0
50.0   150.0   33.333333333333336
50.0   120.0   50.0
100.0   150.0   50.0
100.0   120.0   50.0
100.0   120.0   33.333333333333336
50.0   120.0   50.0
100.0   150.0   50.0
100.0   120.0   33.333333333333336
50.0   150.0   33.333333333333336
100.0   0.0   0.0
150.0   0.0   0.0
100.0   30.0   0.0
100.0   0.0   16.666666666666668
150.0   0.0   0.0
150.0   30.0   0.0
100.0   30.0   0.0
150.0   30.0   16.666666666666668
100.0   0.0   16.666666666666668
100.0   30.0   16.666666666666668
150.0   30.0   16.666666666666668
100.0   30.0   0.0
100.0   0.0   16.666666666666668
150.0   30.0   16.666666666666668
150.0   0.0   16.666666666666668
150.0   0.0   0.0
100.0   0.0   16.666666666666668
150.0   30.0   16.666666666666668
150.0   0.0   0.0
100.0   30.0   0.0
100.0   0.0   16.666666666666668
150.0   0.0   16.666666666666668
100.0   30.0   16.666666666666668
100.0   0.0   33.333333333333336
150.0   0.0   16.666666666666668
150.0   30.0   16.666666666666668
100.0   30.0   16.666666666666668
150.0   30.0   33.333333333333336
100.0   0.0   33.333333333333336
100.0   30.0   33.333333333333336
150.0   30.0   33.333333333333336
100.0   30.0   16.666666666666668
100.0   0.0   33.333333333333336
150.0   30.0   33.333333333333336
150.0   0.0   33.333333333333336
150.0   0.0   16.666666666666668
100.0   0.0   33.333333333333336
150.0   30.0   33.333333333333336
150.0   0.0   16.666666666666668
100.0   30.0   16.666666666666668
100.0   0.0   33.333333333333336
150.0   0.0   33.333333333333336
100.0   30.0   33.333333333333336
100.0   0.0   50.0
150.0   0.0   33.333333333333336
150.0   30.0   33.333333333333336
100.0   30.0   33.333333333333336
150.0   30.0   50.0
100.0   0.0   50.0
100.0   30.0   50.0
150.0   30.0   50.0
100.0   30.0   33.333333333333336
100.0   0.0   50.0
150.0   30.0   50.0
150.0   0.0   50.0
150.0   0.0   33.333333333333336
100.0   0.0   50.0
150.0   30.0   50.0
150.0   0.0   33.333333333333336
100.0   30.0   33.333333333333336
100.0   30.0   0.0
150.0   30.0   0.0
100.0   60.0   0.0
100.0   30.0   16.666666666666668
150.0   30.0   0.0
150.0   60.0   0.0
100.0   60.0   0.0
150.0   60.0   16.666666666666668
100.0   30.0   16.666666666666668
100.0   60.0   16.666666666666668
150.0   60.0   16.666666666666668
100.0   60.0   0.0
100.0   30.0   16.666666666666668
150.0   60.0   16.666666666666668
150.0   30.0   16.666666666666668
150.0   30.0   0.0
100.0   30.0   16.666666666666668
150.0   60.0   16.666666666666668
150.0   30.0   0.0
100.0   60.0   0.0
100.0   30.0   16.666666666666668
150.0   30.0   16.666666666666668
100.0   60.0   16.666666666666668
100.0   30.0   33.333333333333336
150.0   30.0   16.666666666666668
150.0   60.0   16.666666666666668
100.0   60.0   16.666666666666668
150.0   60.0   33.333333333333336
100.0   30.0   33.333333333333336
100.0   60.0   33.333333333333336
150.0   60.0   33.333333333333336
100.0   60.0   16.666666666666668
100.0   30.0   33.333333333333336
150.0   60.0   33.333333333333336
150.0   30.0   33.333333333333336
150.0   30.0   16.666666666666668
100.0   30.0   33.333333333333336
150.0   60.0   33.333333333333336
150.0   30.0   16.666666666666668
100.0   60.0   16.666666666666668
100.0   30.0   33.333333333333336
150.0   30.0   33.333333333333336
100.0   60.0   33.333333333333336
100.0   30.0   50.0
150.0   30.0   33.333333333333336
150.0   60.0   33.333333333333336
100.0   60.0   33.333333333333336
150.0   60.0   50.0
100.0   30.0   50.0
100.0   60.0   50.0
150.0   60.0   50.0
100.0   60.0   33.333333333333336
100.0   30.0   50.0
150.0   60.0   50.0
150.0   30.0   50.0
150.0   30.0   33.333333333333336
100.0   30.0   50.0
150.0   60.0   50.0
150.0   30.0   33.333333333333336
100.0   60.0   33.333333333333336
100.0   60.0   0.0
150.0   60.0   0.0
100.0   90.0   0.0
100.0   60.0   16.666666666666668
150.0   60.0   0.0
150.0   90.0   0.0
100.0   90.0   0.0
150.0   90.0   16.666666666666668
100.0   60.0   16.666666666666668
100.0   90.0   16.666666666666668
150.0   90.0   16.666666666666668
100.0   90.0   0.0
100.0   60.0   16.666666666666668
150.0   90.0   16.666666666666668
150.0   60.0   16.666666666666668
150.0   60.0   0.0
100.0   60.0   16.666666666666668
150.0   90.0   16.666666666666668
150.0   60.0   0.0
100.0   90.0   0.0
100.0   60.0   16.666666666666668
150.0   60.0   16.666666666666668
100.0   90.0   16.666666666666668
100.0   60.0   33.333333333333336
150.0   60.0   16.666666666666668
150.0   90.0   16.666666666666668
100.0   90.0   16.666666666666668
150.0   90.0   33.333333333333336
100.0   60.0   33.333333333333336
100.0   90.0   33.333333333333336
150.0   90.0   33.333333333333336
100.0   90.0   16.666666666666668
100.0   60.0   33.333333333333336
150.0   90.0   33.333333333333336
150.0   60.0   33.333333333333336
150.0   60.0   16.666666666666668
100.0   60.0   33.333333333333336
150.0   90.0   33.333333333333336
150.0   60.0   16.666666666666668
100.0   90.0   16.666666666666668
100.0   60.0   33.333333333333336
150.0   60.0   33.333333333333336
100.0   90.0   33.333333333333336
100.0   60.0   50.0
150.0   60.0   33.333333333333336
150.0   90.0   33.333333333333336
100.0   90.0   33.333333333333336
150.0   90.0   50.0
100.0   60.0   50.0
100.0   90.0   50.0
150.0   90.0   50.0
100.0   90.0   33.333333333333336
100.0   60.0   50.0
150.0   90.0   50.0
150.0   60.0   50.0
150.0   60.0   33.333333333333336
100.0   60.0   50.0
150.0   90.0   50.0
150.0   60.0   33.333333333333336
100.0   90.0   33.333333333333336
100.0   90.0   0.0
150.0   90.0   0.0
100.0   120.0   0.0
100.0   90.0   16.666666666666668
150.0   90.0   0.0
150.0   120.0   0.0
100.0   120.0   0.0
150.0   120.0   16.666666666666668
100.0   90.0   16.666666666666668
100.0   120.0   16.666666666666668
150.0   120.0   16.666666666666668
100.0   120.0   0.0
100.0   90.0   16.666666666666668
150.0   120.0   16.666666666666668
150.0   90.0   16.666666666666668
150.0   90.0   0.0
100.0   90.0   16.666666666666668
150.0   120.0   16.666666666666668
150.0   90.0   0.0
100.0   120.0   0.0
100.0   90.0   16.666666666666668
150.0   90.0   16.666666666666668
100.0   120.0   16.666666666666668
100.0   90.0   33.333333333333336
150.0   90.0   16.666666666666668
150.0   120.0   16.666666666666668
100.0   120.0   16.666666666666668
150.0   120.0   33.333333333333336
100.0   90.0   33.333333333333336
100.0   120.0   33.333333333333336
150.0   120.0   33.333333333333336
100.0   120.0   16.666666666666668
100.0   90.0   33.333333333333336
150.0   120.0   33.333333333333336
150.0   90.0   33.333333333333336
150.0   90.0   16.666666666666668
100.0   90.0   33.333333333333336
150.0   120.0   33.333333333333336
150.0   90.0   16.666666666666668
100.0   120.0   16.666666666666668
100.0   90.0   33.333333333333336
150.0   90.0   33.333333333333336
100.0   120.0   33.333333333333336
100.0   90.0   50.0
150.0   90.0   33.333333333333336
150.0   120.0   33.333333333333336
100.0   120.0   33.333333333333336
150.0   120.0   50.0
100.0   90.0   50.0
100.0   120.0   50.0
150.0   120.0   50.0
100.0   120.0   33.333333333333336
100.0   90.0   50.0
150.0   120.0   50.0
150.0   90.0   50.0
150.0   90.0   33.333333333333336
100.0   90.0   50.0
150.0   120.0   50.0
150.0   90.0   33.333333333333336
100.0   120.0   33.333333333333336
100.0   120.0   0.0
150.0   120.0   0.0
100.0   150.0   0.0
100.0   120.0   16.666666666666668
150.0   120.0   0.0
150.0   150.0   0.0
100.0   150.0   0.0
150.0   150.0   16.666666666666668
100.0   120.0   16.666666666666668
100.0   150.0   16.666666666666668
150.0   150.0   16.666666666666668
100.0   150.0   0.0
100.0   120.0   16.666666666666668
150.0   150.0   16.666666666666668
150.0   120.0   16.666666666666668
150.0   120.0   0.0
100.0   120.0   16.666666666666668
150.0   150.0   16.666666666666668
150.0   120.0   0.0
100.0   150.0   0.0
100.0   120.0   16.666666666666668
150.0   120.0   16.666666666666668
100.0   150.0   16.666666666666668
100.0   120.0   33.333333333333336
150.0   120.0   16.666666666666668
150.0   150.0   16.666666666666668
100.0   150.0   16.666666666666668
150.0   150.0   33.333333333333336
100.0   120.0   33.333333333333336
100.0   150.0   33.333333333333336
150.0   150.0   33.333333333333336
100.0   150.0   16.666666666666668
100.0   120.0   33.333333333333336
150.0   150.0   33.333333333333336
150.0   120.0   33.333333333333336
150.0   120.0   16.666666666666668
100.0   120.0   33.333333333333336
150.0   150.0   33.333333333333336
150.0   120.0   16.666666666666668
100.0   150.0   16.666666666666668
100.0   120.0   33.333333333333336
150.0   120.0   33.333333333333336
100.0   150.0   33.333333333333336
100.0   120.0   50.0
150.0   120.0   33.333333333333336
150.0   150.0   33.333333333333336
100.0   150.0   33.333333333333336
150.0   150.0   50.0
100.0   120.0   50.0
100.0   150.0   50.0
150.0   150.0   50.0
100.0   150.0   33.333333333333336
100.0   120.0   50.0
150.0   150.0   50.0
150.0   120.0   50.0
150.0   120.0   33.333333333333336
100.0   120.0   50.0
150.0   150.0   50.0
150.0   120.0   33.333333333333336
100.0   150.0   33.333333333333336
150.0   0.0   0.0
200.0   0.0   0.0
150.0   30.0   0.0
150.0   0.0   16.666666666666668
200.0   0.0   0.0
200.0   30.0   0.0
150.0   30.0   0.0
200.0   30.0   16.666666666666668
150.0   0.0   16.666666666666668
150.0   30.0   16.666666666666668
200.0   30.0   16.666666666666668
150.0   30.0   0.0
150.0   0.0   16.666666666666668
200.0   30.0   16.666666666666668
200.0   0.0   16.666666666666668
200.0   0.0   0.0
150.0   0.0   16.666666666666668
200.0   30.0   16.666666666666668
200.0   0.0   0.0
150.0   30.0   0.0
150.0   0.0   16.666666666666668
200.0   0.0   16.666666666666668
150.0   30.0   16.666666666666668
150.0   0.0   33.333333333333336
200.0   0.0   16.666666666666668
200.0   30.0   16.666666666666668
150.0   30.0   16.666666666666668
200.0   30.0   33.333333333333336
150.0   0.0   33.333333333333336
150.0   30.0   33.333333333333336
200.0   30.0   33.333333333333336
150.0   30.0   16.666666666666668
150.0   0.0   33.333333333333336
200.0   30.0   33.333333333333336
200.0   0.0   33.333333333333336
200.0   0.0   16.666666666666668
150.0   0.0   33.333333333333336
200.0   30.0   33.333333333333336
200.0   0.0   16.666666666666668
150.0   30.0   16.666666666666668
150.0   0.0   33.333333333333336
200.0   0.0   33.333333333333336
150.0   30.0   33.333333333333336
150.0   0.0   50.0
200.0   0.0   33.333333333333336
200.0   30.0   33.333333333333336
150.0   30.0   33.333333333333336
200.0   30.0   50.0
150.0   0.0   50.0
150.0   30.0   50.0
200.0   30.0   50.0
150.0   30.0   33.333333333333336
150.0   0.0   50.0
200.0   30.0   50.0
200.0   0.0   50.0
200.0   0.0   33.333333333333336
150.0   0.0   50.0
200.0   30.0   50.0
200.0   0.0   33.333333333333336
150.0   30.0   33.333333333333336
150.0   30.0   0.0
200.0   30.0   0.0
150.0   60.0   0.0
150.0   30.0   16.666666666666668
200.0   30.0   0.0
200.0   60.0   0.0
150.0   60.0   0.0
200.0   60.0   16.666666666666668
150.0   30.0   16.666666666666668
150.0   60.0   16.666666666666668
200.0   60.0   16.666666666666668
150.0   60.0   0.0
150.0   30.0   16.666666666666668
200.0   60.0   16.666666666666668
200.0   30.0   16.666666666666668
200.0   30.0   0.0
150.0   30.0   16.666666666666668
200.0   60.0   16.666666666666668
200.0   30.0   0.0
150.0   60.0   0.0
150.0   30.0   16.666666666666668
200.0   30.0   16.666666666666668
150.0   60.0   16.666666666666668
150.0   30.0   33.333333333333336
200.0   30.0   16.666666666666668
200.0   60.0   16.666666666666668
150.0   60.0   16.666666666666668
200.0   60.0   33.333333333333336
150.0   30.0   33.333333333333336
150.0   60.0   33.333333333333336
200.0   60.0   33.333333333333336
150.0   60.0   16.666666666666668
150.0   30.0   33.333333333333336
200.0   60.0   33.333333333333336
200.0   30.0   33.333333333333336
200.0   30.0   16.666666666666668
150.0   30.0   33.333333333333336
200.0   60.0   33.333333333333336
200.0   30.0   16.666666666666668
150.0   60.0   16.666666666666668
150.0   30.0   33.333333333333336
200.0   30.0   33.333333333333336
150.0   60.0   33.333333333333336
150.0   30.0   50.0
200.0   30.0   33.333333333333336
200.0   60.0   33.333333333333336
150.0   60.0   33.333333333333336
200.0   60.0   50.0
150.0   30.0   50.0
150.0   60.0   50.0
200.0   60.0   50.0
150.0   60.0   33.333333333333336
150.0   30.0   50.0
200.0   60.0   50.0
200.0   30.0   50.0
200.0   30.0   33.333333333333336
150.0   30.0   50.0
200.0   60.0   50.0
200.0   30.0   33.333333333333336
150.0   60.0   33.333333333333336
150.0   60.0   0.0
200.0   60.0   0.0
150.0   90.0   0.0
150.0   60.0   16.666666666666668
200.0   60.0   0.0
200.0   90.0   0.0
150.0   90.0   0.0
200.0   90.0   16.666666666666668
150.0   60.0   16.666666666666668
150.0   90.0   16.666666666666668
200.0   90.0   16.666666666666668
150.0   90.0   0.0
150.0   60.0   16.666666666666668
200.0   90.0   16.666666666666668
200.0   60.0   16.666666666666668
200.0   60.0   0.0
150.0   60.0   16.666666666666668
200.0   90.0   16.666666666666668
200.0   60.0   0.0
150.0   90.0   0.0
150.0   60.0   16.666666666666668
200.0   60.0   16.666666666666668
150.0   90.0   16.666666666666668
150.0   60.0   33.333333333333336
200.0   60.0   16.666666666666668
200.0   90.0   16.666666666666668
150.0   90.0   16.666666666666668
200.0   90.0   33.333333333333336
150.0   60.0   33.333333333333336
150.0   90.0   33.333333333333336
200.0   90.0   33.333333333333336
150.0   90.0   16.666666666666668
150.0   60.0   33.333333333333336
200.0   90.0   33.333333333333336
200.0   60.0   33.333333333333336
200.0   60.0   16.666666666666668
150.0   60.0   33.333333333333336
200.0   90.0   33.333333333333336
200.0   60.0   16.666666666666668
150.0   90.0   16.666666666666668
150.0   60.0   33.333333333333336
200.0   60.0   33.333333333333336
150.0   90.0   33.333333333333336
150.0   60.0   50.0
200.0   60.0   33.333333333333336
200.0   90.0   33.333333333333336
150.0   90.0   33.333333333333336
200.0   90.0   50.0
150.0   60.0   50.0
150.0   90.0   50.0
200.0   90.0   50.0
150.0   90.0   33.333333333333336
150.0   60.0   50.0
200.0   90.0   50.0
200.0   60.0   50.0
200.0   60.0   33.333333333333336
150.0   60.0   50.0
200.0   90.0   50.0
200.0   60.0   33.333333333333336
150.0   90.0   33.333333333333336
150.0   90.0   0.0
200.0   90.0   0.0
150.0   120.0   0.0
150.0   90.0   16.666666666666668
200.0   90.0   0.0
200.0   120.0   0.0
150.0   120.0   0.0
200.0   120.0   16.666666666666668
150.0   90.0   16.666666666666668
150.0   120.0   16.666666666666668
200.0   120.0   16.666666666666668
150.0   120.0   0.0
150.0   90.0   16.666666666666668
200.0   120.0   16.666666666666668
200.0   90.0   16.666666666666668
200.0   90.0   0.0
150.0   90.0   16.666666666666668
200.0   120.0   16.666666666666668
200.0   90.0   0.0
150.0   120.0   0.0
150.0   90.0   16.666666666666668
200.0   90.0   16.666666666666668
150.0   120.0   16.666666666666668
150.0   90.0   33.333333333333336
200.0   90.0   16.666666666666668
200.0   120.0   16.666666666666668
150.0   120.0   16.666666666666668
200.0   120.0   33.333333333333336
150.0   90.0   33.333333333333336
150.0   120.0   33.333333333333336
200.0   120.0   33.333333333333336
150.0   120.0   16.666666666666668
150.0   90.0   33.333333333333336
200.0   120.0   33.333333333333336
200.0   90.0   33.333333333333336
200.0   90.0   16.666666666666668
150.0   90.0   33.333333333333336
200.0   120.0   33.333333333333336
200.0   90.0   16.666666666666668
150.0   120.0   16.666666666666668
150.0   90.0   33.333333333333336
200.0   90.0   33.333333333333336
150.0   120.0   33.333333333333336
150.0   90.0   50.0
200.0   90.0   33.333333333333336
200.0   120.0   33.333333333333336
150.0   120.0   33.333333333333336
200.0   120.0   50.0
150.0   90.0   50.0
150.0   120.0   50.0
200.0   120.0   50.0
150.0   120.0   33.333333333333336
150.0   90.0   50.0
200.0   120.0   50.0
200.0   90.0   50.0
200.0   90.0   33.333333333333336
150.0   90.0   50.0
200.0   120.0   50.0
200.0   90.0   33.333333333333336
150.0   120.0   33.333333333333336
150.0   120.0   0.0
200.0   120.0   0.0
150.0   150.0   0.0
150.0   120.0   16.666666666666668
200.0   120.0   0.0
200.0   150.0   0.0
150.0   150.0   0.0
200.0   150.0   16.666666666666668
150.0   120.0   16.666666666666668
150.0   150.0   16.666666666666668
200.0   150.0   16.666666666666668
150.0   150.0   0.0
150.0   120.0   16.666666666666668
200.0   150.0   16.666666666666668
200.0   120.0   16.666666666666668
200.0   120.0   0.0
150.0   120.0   16.666666666666668
200.0   150.0   16.666666666666668
200.0   120.0   0.0
150.0   150.0   0.0
150.0   120.0   16.666666666666668
200.0   120.0   16.666666666666668
150.0   150.0   16.666666666666668
150.0   120.0   33.333333333333336
200.0   120.0   16.666666666666668
200.0   150.0   16.666666666666668
150.0   150.0   16.666666666666668
200.0   150.0   33.333333333333336
150.0   120.0   33.333333333333336
150.0   150.0   33.333333333333336
200.0   150.0   33.333333333333336
150.0   150.0   16.666666666666668
150.0   120.0   33.333333333333336
200.0   150.0   33.333333333333336
200.0   120.0   33.333333333333336
200.0   120.0   16.666666666666668
150.0   120.0   33.333333333333336
200.0   150.0   33.333333333333336
200.0   120.0   16.666666666666668
150.0   150.0   16.666666666666668
150.0   120.0   33.333333333333336
200.0   120.0   33.333333333333336
150.0   150.0   33.333333333333336
150.0   120.0   50.0
200.0   120.0   33.333333333333336
200.0   150.0   33.333333333333336
150.0   150.0   33.333333333333336
200.0   150.0   50.0
150.0   120.0   50.0
150.0   150.0   50.0
200.0   150.0   50.0
150.0   150.0   33.333333333333336
150.0   120.0   50.0
200.0   150.0   50.0
200.0   120.0   50.0
200.0   120.0   33.333333333333336
150.0   120.0   50.0
200.0   150.0   50.0
200.0   120.0   33.333333333333336
150.0   150.0   33.333333333333336
200.0   0.0   0.0
250.0   0.0   0.0
200.0   30.0   0.0
200.0   0.0   16.666666666666668
250.0   0.0   0.0
250.0   30.0   0.0
200.0   30.0   0.0
250.0   30.0   16.666666666666668
200.0   0.0   16.666666666666668
200.0   30.0   16.666666666666668
250.0   30.0   16.666666666666668
200.0   30.0   0.0
200.0   0.0   16.666666666666668
250.0   30.0   16.666666666666668
250.0   0.0   16.666666666666668
250.0   0.0   0.0
200.0   0.0   16.666666666666668
250.0   30.0   16.666666666666668
250.0   0.0   0.0
200.0   30.0   0.0
200.0   0.0   16.666666666666668
250.0   0.0   16.666666666666668
200.0   30.0   16.666666666666668
200.0   0.0   33.333333333333336
250.0   0.0   16.666666666666668
250.0   30.0   16.666666666666668
200.0   30.0   16.666666666666668
250.0   30.0   33.333333333333336
200.0   0.0   33.333333333333336
200.0   30.0   33.333333333333336
250.0   30.0   33.333333333333336
200.0   30.0   16.666666666666668
200.0   0.0   33.333333333333336
250.0   30.0   33.333333333333336
250.0   0.0   33.333333333333336
250.0   0.0   16.666666666666668
200.0   0.0   33.333333333333336
250.0   30.0   33.333333333333336
250.0   0.0   16.666666666666668
200.0   30.0   16.666666666666668
200.0   0.0   33.333333333333336
250.0   0.0   33.333333333333336
200.0   30.0   33.333333333333336
200.0   0.0   50.0
250.0   0.0   33.333333333333336
250.0   30.0   33.333333333333336
200.0   30.0   33.333333333333336
250.0   30.0   50.0
200.0   0.0   50.0
200.0   30.0   50.0
250.0   30.0   50.0
200.0   30.0   33.333333333333336
200.0   0.0   50.0
250.0   30.0   50.0
250.0   0.0   50.0
250.0   0.0   33.333333333333336
200.0   0.0   50.0
250.0   30.0   50.0
250.0   0.0   33.333333333333336
200.0   30.0   33.333333333333336
200.0   30.0   0.0
250.0   30.0   0.0
200.0   60.0   0.0
200.0   30.0   16.666666666666668
250.0   30.0   0.0
250.0   60.0   0.0
200.0   60.0   0.0
250.0   60.0   16.666666666666668
200.0   30.0   16.666666666666668
200.0   60.0   16.666666666666668
250.0   60.0   16.666666666666668
200.0   60.0   0.0
200.0   30.0   16.666666666666668
250.0   60.0   16.666666666666668
250.0   30.0   16.666666666666668
250.0   30.0   0.0
200.0   30.0   16.666666666666668
250.0   60.0   16.666666666666668
250.0   30.0   0.0
200.0   60.0   0.0
200.0   30.0   16.666666666666668
250.0   30.0   16.666666666666668
200.0   60.0   16.666666666666668
200.0   30.0   33.333333333333336
250.0   30.0   16.666666666666668
250.0   60.0   16.666666666666668
200.0   60.0   16.666666666666668
250.0   60.0   33.333333333333336
200.0   30.0   33.333333333333336
200.0   60.0   33.333333333333336
250.0   60.0   33.333333333333336
200.0   60.0   16.666666666666668
200.0   30.0   33.333333333333336
250.0   60.0   33.333333333333336
250.0   30.0   33.333333333333336
250.0   30.0   16.666666666666668
200.0   30.0   33.333333333333336
250.0   60.0   33.333333333333336
250.0   30.0   16.666666666666668
200.0   60.0   16.666666666666668
200.0   30.0   33.333333333333336
250.0   30.0   33.333333333333336
200.0   60.0   33.333333333333336
200.0   30.0   50.0
250.0   30.0   33.333333333333336
250.0   60.0   33.333333333333336
200.0   60.0   33.333333333333336
250.0   60.0   50.0
200.0   30.0   50.0
200.0   60.0   50.0
250.0   60.0   50.0
200.0   60.0   33.333333333333336
200.0   30.0   50.0
250.0   60.0   50.0
250.0   30.0   50.0
250.0   30.0   33.333333333333336
200.0   30.0   50.0
250.0   60.0   50.0
250.0   30.0   33.333333333333336
200.0   60.0   33.333333333333336
200.0   60.0   0.0
250.0   60.0   0.0
200.0   90.0   0.0
200.0   60.0   16.666666666666668
250.0   60.0   0.0
250.0   90.0   0.0
200.0   90.0   0.0
250.0   90.0   16.666666666666668
200.0   60.0   16.666666666666668
200.0   90.0   16.666666666666668
250.0   90.0   16.666666666666668
200.0   90.0   0.0
200.0   60.0   16.666666666666668
250.0   90.0   16.666666666666668
250.0   60.0   16.666666666666668
250.0   60.0   0.0
200.0   60.0   16.666666666666668
250.0   90.0   16.666666666666668
250.0   60.0   0.0
200.0   90.0   0.0
200.0   60.0   16.666666666666668
250.0   60.0   16.666666666666668
200.0   90.0   16.666666666666668
200.0   60.0   33.333333333333336
250.0   60.0   16.666666666666668
250.0   90.0   16.666666666666668
200.0   90.0   16.666666666666668
250.0   90.0   33.333333333333336
200.0   60.0   33.333333333333336
200.0   90.0   33.333333333333336
250.0   90.0   33.333333333333336
200.0   90.0   16.666666666666668
200.0   60.0   33.333333333333336
250.0   90.0   33.333333333333336
250.0   60.0   33.333333333333336
250.0   60.0   16.666666666666668
200.0   60.0   33.333333333333336
250.0   90.0   33.333333333333336
250.0   60.0   16.666666666666668
200.0   90.0   16.666666666666668
200.0   60.0   33.333333333333336
250.0   60.0   33.333333333333336
200.0   90.0   33.333333333333336
200.0   60.0   50.0
250.0   60.0   33.333333333333336
250.0   90.0   33.333333333333336
200.0   90.0   33.333333333333336
250.0   90.0   50.0
200.0   60.0   50.0
200.0   90.0   50.0
250.0   90.0   50.0
200.0   90.0   33.333333333333336
200.0   60.0   50.0
250.0   90.0   50.0
250.0   60.0   50.0
250.0   60.0   33.333333333333336
200.0   60.0   50.0
250.0   90.0   50.0
250.0   60.0   33.333333333333336
200.0   90.0   33.333333333333336
200.0   90.0   0.0
250.0   90.0   0.0
200.0   120.0   0.0
200.0   90.0   16.666666666666668
250.0   90.0   0.0
250.0   120.0   0.0
200.0   120.0   0.0
250.0   120.0   16.666666666666668
200.0   90.0   16.666666666666668
200.0   120.0   16.666666666666668
250.0   120.0   16.666666666666668
200.0   120.0   0.0
200.0   90.0   16.666666666666668
250.0   120.0   16.666666666666668
250.0   90.0   16.666666666666668
250.0   90.0   0.0
200.0   90.0   16.666666666666668
250.0   120.0   16.666666666666668
250.0   90.0   0.0
200.0   120.0   0.0
200.0   90.0   16.666666666666668
250.0   90.0   16.666666666666668
200.0   120.0   16.666666666666668
200.0   90.0   33.333333333333336
250.0   90.0   16.666666666666668
250.0   120.0   16.666666666666668
200.0   120.0   16.666666666666668
250.0   120.0   33.333333333333336
200.0   90.0   33.333333333333336
200.0   120.0   33.333333333333336
250.0   120.0   33.333333333333336
200.0   120.0   16.666666666666668
200.0   90.0   33.333333333333336
250.0   120.0   33.333333333333336
250.0   90.0   33.333333333333336
250.0   90.0   16.666666666666668
200.0   90.0   33.333333333333336
250.0   120.0   33.333333333333336
250.0   90.0   16.666666666666668
200.0   120.0   16.666666666666668
200.0   90.0   33.333333333333336
250.0   90.0   33.333333333333336
200.0   120.0   33.333333333333336
200.0   90.0   50.0
250.0   90.0   33.333333333333336
250.0   120.0   33.333333333333336
200.0   120.0   33.333333333333336
250.0   120.0   50.0
200.0   90.0   50.0
200.0   120.0   50.0
250.0   120.0   50.0
200.0   120.0   33.333333333333336
200.0   90.0   50.0
250.0   120.0   50.0
250.0   90.0   50.0
250.0   90.0   33.333333333333336
200.0   90.0   50.0
250.0   120.0   50.0
250.0   90.0   33.333333333333336
200.0   120.0   33.333333333333336
200.0   120.0   0.0
250.0   120.0   0.0
200.0   150.0   0.0
200.0   120.0   16.666666666666668
250.0   120.0   0.0
250.0   150.0   0.0
200.0   150.0   0.0
250.0   150.0   16.666666666666668
200.0   120.0   16.666666666666668
200.0   150.0   16.666666666666668
250.0   150.0   16.666666666666668
200.0   150.0   0.0
200.0   120.0   16.666666666666668
250.0   150.0   16.666666666666668
250.0   120.0   16.666666666666668
250.0   120.0   0.0
200.0   120.0   16.666666666666668
250.0   150.0   16.666666666666668
250.0   120.0   0.0
200.0   150.0   0.0
200.0   120.0   16.666666666666668
250.0   120.0   16.666666666666668
200.0   150.0   16.666666666666668
200.0   120.0   33.333333333333336
250.0   120.0   16.666666666666668
250.0   150.0   16.666666666666668
200.0   150.0   16.666666666666668
250.0   150.0   33.333333333333336
200.0   120.0   33.333333333333336
200.0   150.0   33.333333333333336
250.0   150.0   33.333333333333336
200.0   150.0   16.666666666666668
200.0   120.0   33.333333333333336
250.0   150.0   33.333333333333336
250.0   120.0   33.333333333333336
250.0   120.0   16.666666666666668
200.0   120.0   33.333333333333336
250.0   150.0   33.333333333333336
250.0   120.0   16.666666666666668
200.0   150.0   16.666666666666668
200.0   120.0   33.333333333333336
250.0   120.0   33.333333333333336
200.0   150.0   33.333333333333336
200.0   120.0   50.0
250.0   120.0   33.333333333333336
250.0   150.0   33.333333333333336
200.0   150.0   33.333333333333336
250.0   150.0   50.0
200.0   120.0   50.0
200.0   150.0   50.0
250.0   150.0   50.0
200.0   150.0   33.333333333333336
200.0   120.0   50.0
250.0   150.0   50.0
250.0   120.0   50.0
250.0   120.0   33.333333333333336
200.0   120.0   50.0
250.0   150.0   50.0
250.0   120.0   33.333333333333336
200.0   150.0   33.333333333333336
250.0   0.0   0.0
300.0   0.0   0.0
250.0   30.0   0.0
250.0   0.0   16.666666666666668
300.0   0.0   0.0
300.0   30.0   0.0
250.0   30.0   0.0
300.0   30.0   16.666666666666668
250.0   0.0   16.666666666666668
250.0   30.0   16.666666666666668
300.0   30.0   16.666666666666668
250.0   30.0   0.0
250.0   0.0   16.666666666666668
300.0   30.0   16.666666666666668
300.0   0.0   16.666666666666668
300.0   0.0   0.0
250.0   0.0   16.666666666666668
300.0   30.0   16.666666666666668
300.0   0.0   0.0
250.0   30.0   0.0
250.0   0.0   16.666666666666668
300.0   0.0   16.666666666666668
250.0   30.0   16.666666666666668
250.0   0.0   33.333333333333336
300.0   0.0   16.666666666666668
300.0   30.0   16.666666666666668
250.0   30.0   16.666666666666668
300.0   30.0   33.333333333333336
250.0   0.0   33.333333333333336
250.0   30.0   33.333333333333336
300.0   30.0   33.333333333333336
250.0   30.0   16.666666666666668
250.0   0.0   33.333333333333336
300.0   30.0   33.333333333333336
300.0   0.0   33.333333333333336
300.0   0.0   16.666666666666668
250.0   0.0   33.333333333333336
300.0   30.0   33.333333333333336
300.0   0.0   16.666666666666668
250.0   30.0   16.666666666666668
250.0   0.0   33.333333333333336
300.0   0.0   33.333333333333336
250.0   30.0   33.333333333333336
250.0   0.0   50.0
300.0   0.0   33.333333333333336
300.0   30.0   33.333333333333336
250.0   30.0   33.333333333333336
300.0   30.0   50.0
250.0   0.0   50.0
250.0   30.0   50.0
300.0   30.0   50.0
250.0   30.0   33.333333333333336
250.0   0.0   50.0
300.0   30.0   50.0
300.0   0.0   50.0
300.0   0.0   33.333333333333336
250.0   0.0   50.0
300.0   30.0   50.0
300.0   0.0   33.333333333333336
250.0   30.0   33.333333333333336
250.0   30.0   0.0
300.0   30.0   0.0
250.0   60.0   0.0
250.0   30.0   16.666666666666668
300.0   30.0   0.0
300.0   60.0   0.0
250.0   60.0   0.0
300.0   60.0   16.666666666666668
250.0   30.0   16.666666666666668
250.0   60.0   16.666666666666668
300.0   60.0   16.666666666666668
250.0   60.0   0.0
250.0   30.0   16.666666666666668
300.0   60.0   16.666666666666668
300.0   30.0   16.666666666666668
300.0   30.0   0.0
250.0   30.0   16.666666666666668
300.0   60.0   16.666666666666668
300.0   30.0   0.0
250.0   60.0   0.0
250.0   30.0   16.666666666666668
300.0   30.0   16.666666666666668
250.0   60.0   16.666666666666668
250.0   30.0   33.333333333333336
300.0   30.0   16.666666666666668
300.0   60.0   16.666666666666668
250.0   60.0   16.666666666666668
300.0   60.0   33.333333333333336
250.0   30.0   33.333333333333336
250.0   60.0   33.333333333333336
300.0   60.0   33.333333333333336
250.0   60.0   16.666666666666668
250.0   30.0   33.333333333333336
300.0   60.0   33.333333333333336
300.0   30.0   33.333333333333336
300.0   30.0   16.666666666666668
250.0   30.0   33.333333333333336
300.0   60.0   33.333333333333336
300.0   30.0   16.666666666666668
250.0   60.0   16.666666666666668
250.0   30.0   33.333333333333336
300.0   30.0   33.333333333333336
250.0   60.0   33.333333333333336
250.0   30.0   50.0
300.0   30.0   33.333333333333336
300.0   60.0   33.333333333333336
250.0   60.0   33.333333333333336
300.0   60.0   50.0
250.0   30.0   50.0
250.0   60.0   50.0
300.0   60.0   50.0
250.0   60.0   33.333333333333336
250.0   30.0   50.0
300.0   60.0   50.0
300.0   30.0   50.0
300.0   30.0   33.333333333333336
250.0   30.0   50.0
300.0   60.0   50.0
300.0   30.0   33.333333333333336
250.0   60.0   33.333333333333336
250.0   60.0   0.0
300.0   60.0   0.0
250.0   90.0   0.0
250.0   60.0   16.666666666666668
300.0   60.0   0.0
300.0   90.0   0.0
250.0   90.0   0.0
300.0   90.0   16.666666666666668
250.0   60.0   16.666666666666668
250.0   90.0   16.666666666666668
300.0   90.0   16.666666666666668
250.0   90.0   0.0
250.0   60.0   16.666666666666668
300.0   90.0   16.666666666666668
300.0   60.0   16.666666666666668
300.0   60.0   0.0
250.0   60.0   16.666666666666668
300.0   90.0   16.666666666666668
300.0   60.0   0.0
250.0   90.0   0.0
250.0   60.0   16.666666666666668
300.0   60.0   16.666666666666668
250.0   90.0   16.666666666666668
250.0   60.0   33.333333333333336
300.0   60.0   16.666666666666668
300.0   90.0   16.666666666666668
250.0   90.0   16.666666666666668
300.0   90.0   33.333333333333336
250.0   60.0   33.333333333333336
250.0   90.0   33.333333333333336
300.0   90.0   33.333333333333336
250.0   90.0   16.666666666666668
250.0   60.0   33.333333333333336
300.0   90.0   33.333333333333336
300.0   60.0   33.333333333333336
300.0   60.0   16.666666666666668
250.0   60.0   33.333333333333336
300.0   90.0   33.333333333333336
300.0   60.0   16.666666666666668
250.0   90.0   16.666666666666668
250.0   60.0   33.333333333333336
300.0   60.0   33.333333333333336
250.0   90.0   33.333333333333336
250.0   60.0   50.0
300.0   60.0   33.333333333333336
300.0   90.0   33.333333333333336
250.0   90.0   33.333333333333336
300.0   90.0   50.0
250.0   60.0   50.0
250.0   90.0   50.0
300.0   90.0   50.0
250.0   90.0   33.333333333333336
250.0   60.0   50.0
300.0   90.0   50.0
300.0   60.0   50.0
300.0   60.0   33.333333333333336
250.0   60.0   50.0
300.0   90.0   50.0
300.0   60.0   33.333333333333336
250.0   90.0   33.333333333333336
250.0   90.0   0.0
300.0   90.0   0.0
250.0   120.0   0.0
250.0   90.0   16.666666666666668
300.0   90.0   0.0
300.0   120.0   0.0
250.0   120.0   0.0
300.0   120.0   16.666666666666668
250.0   90.0   16.666666666666668
250.0   120.0   16.666666666666668
300.0   120.0   16.666666666666668
250.0   120.0   0.0
250.0   90.0   16.666666666666668
300.0   120.0   16.666666666666668
300.0   90.0   16.666666666666668
300.0   90.0   0.0
250.0   90.0   16.666666666666668
300.0   120.0   16.666666666666668
300.0   90.0   0.0
250.0   120.0   0.0
250.0   90.0   16.666666666666668
300.0   90.0   16.666666666666668
250.0   120.0   16.666666666666668
250.0   90.0   33.333333333333336
300.0   90.0   16.666666666666668
300.0   120.0   16.666666666666668
250.0   120.0   16.666666666666668
300.0   120.0   33.333333333333336
250.0   90.0   33.333333333333336
250.0   120.0   33.333333333333336
300.0   120.0   33.333333333333336
250.0   120.0   16.666666666666668
250.0   90.0   33.333333333333336
300.0   120.0   33.333333333333336
300.0   90.0   33.333333333333336
300.0   90.0   16.666666666666668
250.0   90.0   33.333333333333336
300.0   120.0   33.333333333333336
300.0   90.0   16.666666666666668
250.0   120.0   16.666666666666668
250.0   90.0   33.333333333333336
300.0   90.0   33.333333333333336
250.0   120.0   33.333333333333336
250.0   90.0   50.0
300.0   90.0   33.333333333333336
300.0   120.0   33.333333333333336
250.0   120.0   33.333333333333336
300.0   120.0   50.0
250.0   90.0   50.0
250.0   120.0   50.0
300.0   120.0   50.0
250.0   120.0   33.333333333333336
250.0   90.0   50.0
300.0   120.0   50.0
300.0   90.0   50.0
300.0   90.0   33.333333333333336
250.0   90.0   50.0
300.0   120.0   50.0
300.0   90.0   33.333333333333336
250.0   120.0   33.333333333333336
250.0   120.0   0.0
300.0   120.0   0.0
250.0   150.0   0.0
250.0   120.0   16.666666666666668
300.0   120.0   0.0
300.0   150.0   0.0
250.0   150.0   0.0
300.0   150.0   16.666666666666668
250.0   120.0   16.666666666666668
250.0   150.0   16.666666666666668
300.0   150.0   16.666666666666668
250.0   150.0   0.0
250.0   120.0   16.666666666666668
300.0   150.0   16.666666666666668
300.0   120.0   16.666666666666668
300.0   120.0   0.0
250.0   120.0   16.666666666666668
300.0   150.0   16.666666666666668
300.0   120.0   0.0
250.0   150.0   0.0
250.0   120.0   16.666666666666668
300.0   120.0   16.666666666666668
250.0   150.0   16.666666666666668
250.0   120.0   33.333333333333336
300.0   120.0   16.666666666666668
300.0   150.0   16.666666666666668
250.0   150.0   16.666666666666668
300.0   150.0   33.333333333333336
250.0   120.0   33.333333333333336
250.0   150.0   33.333333333333336
300.0   150.0   33.333333333333336
250.0   150.0   16.666666666666668
250.0   120.0   33.333333333333336
300.0   150.0   33.333333333333336
300.0   120.0   33.333333333333336
300.0   120.0   16.666666666666668
250.0   120.0   33.333333333333336
300.0   150.0   33.333333333333336
300.0   120.0   16.666666666666668
250.0   150.0   16.666666666666668
250.0   120.0   33.333333333333336
300.0   120.0   33.333333333333336
250.0   150.0   33.333333333333336
250.0   120.0   50.0
300.0   120.0   33.333333333333336
300.0   150.0   33.333333333333336
250.0   150.0   33.333333333333336
300.0   150.0   50.0
250.0   120.0   50.0
250.0   150.0   50.0
300.0   150.0   50.0
250.0   150.0   33.333333333333336
250.0   120.0   50.0
300.0   150.0   50.0
300.0   120.0   50.0
300.0   120.0   33.333333333333336
250.0   120.0   50.0
300.0   150.0   50.0
300.0   120.0   33.333333333333336
250.0   150.0   33.333333333333336
300.0   0.0   0.0
350.0   0.0   0.0
300.0   30.0   0.0
300.0   0.0   16.666666666666668
350.0   0.0   0.0
350.0   30.0   0.0
300.0   30.0   0.0
350.0   30.0   16.666666666666668
300.0   0.0   16.666666666666668
300.0   30.0   16.666666666666668
350.0   30.0   16.666666666666668
300.0   30.0   0.0
300.0   0.0   16.666666666666668
350.0   30.0   16.666666666666668
350.0   0.0   16.666666666666668
350.0   0.0   0.0
300.0   0.0   16.666666666666668
350.0   30.0   16.666666666666668
350.0   0.0   0.0
300.0   30.0   0.0
300.0   0.0   16.666666666666668
350.0   0.0   16.666666666666668
300.0   30.0   16.666666666666668
300.0   0.0   33.333333333333336
350.0   0.0   16.666666666666668
350.0   30.0   16.666666666666668
300.0   30.0   16.666666666666668
350.0   30.0   33.333333333333336
300.0   0.0   33.333333333333336
300.0   30.0   33.333333333333336
350.0   30.0   33.333333333333336
300.0   30.0   16.666666666666668
300.0   0.0   33.333333333333336
350.0   30.0   33.333333333333336
350.0   0.0   33.333333333333336
350.0   0.0   16.666666666666668
300.0   0.0   33.333333333333336
350.0   30.0   33.333333333333336
350.0   0.0   16.666666666666668
300.0   30.0   16.666666666666668
300.0   0.0   33.333333333333336
350.0   0.0   33.333333333333336
300.0   30.0   33.333333333333336
300.0   0.0   50.0
350.0   0.0   33.333333333333336
350.0   30.0   33.333333333333336
300.0   30.0   33.333333333333336
350.0   30.0   50.0
300.0   0.0   50.0
300.0   30.0   50.0
350.0   30.0   50.0
300.0   30.0   33.333333333333336
300.0   0.0   50.0
350.0   30.0   50.0
350.0   0.0   50.0
350.0   0.0   33.333333333333336
300.0   0.0   50.0
350.0   30.0   50.0
350.0   0.0   33.333333333333336
300.0   30.0   33.333333333333336
300.0   30.0   0.0
350.0   30.0   0.0
300.0   60.0   0.0
300.0   30.0   16.666666666666668
350.0   30.0   0.0
350.0   60.0   0.0
300.0   60.0   0.0
350.0   60.0   16.666666666666668
300.0   30.0   16.666666666666668
300.0   60.0   16.666666666666668
350.0   60.0   16.666666666666668
300.0   60.0   0.0
300.0   30.0   16.666666666666668
350.0   60.0   16.666666666666668
350.0   30.0   16.666666666666668
350.0   30.0   0.0
300.0   30.0   16.666666666666668
350.0   60.0   16.666666666666668
350.0   30.0   0.0
300.0   60.0   0.0
300.0   30.0   16.666666666666668
350.0   30.0   16.666666666666668
300.0   60.0   16.666666666666668
300.0   30.0   33.333333333333336
350.0   30.0   16.666666666666668
350.0   60.0   16.666666666666668
300.0   60.0   16.666666666666668
350.0   60.0   33.333333333333336
300.0   30.0   33.333333333333336
300.0   60.0   33.333333333333336
350.0   60.0   33.333333333333336
300.0   60.0   16.666666666666668
300.0   30.0   33.333333333333336
350.0   60.0   33.333333333333336
350.0   30.0   33.333333333333336
350.0   30.0   16.666666666666668
300.0   30.0   33.333333333333336
350.0   60.0   33.333333333333336
350.0   30.0   16.666666666666668
300.0   60.0   16.666666666666668
300.0   30.0   33.333333333333336
350.0   30.0   33.333333333333336
300.0   60.0   33.333333333333336
300.0   30.0   50.0
350.0   30.0   33.333333333333336
350.0   60.0   33.333333333333336
300.0   60.0   33.333333333333336
350.0   60.0   50.0
300.0   30.0   50.0
300.0   60.0   50.0
350.0   60.0   50.0
300.0   60.0   33.333333333333336
300.0   30.0   50.0
350.0   60.0   50.0
350.0   30.0   50.0
350.0   30.0   33.333333333333336
300.0   30.0   50.0
350.0   60.0   50.0
350.0   30.0   33.333333333333336
300.0   60.0   33.333333333333336
300.0   60.0   0.0
350.0   60.0   0.0
300.0   90.0   0.0
300.0   60.0   16.666666666666668
350.0   60.0   0.0
350.0   90.0   0.0
300.0   90.0   0.0
350.0   90.0   16.666666666666668
300.0   60.0   16.666666666666668
300.0   90.0   16.666666666666668
350.0   90.0   16.666666666666668
300.0   90.0   0.0
300.0   60.0   16.666666666666668
350.0   90.0   16.666666666666668
350.0   60.0   16.666666666666668
350.0   60.0   0.0
300.0   60.0   16.666666666666668
350.0   90.0   16.666666666666668
350.0   60.0   0.0
300.0   90.0   0.0
300.0   60.0   16.666666666666668
350.0   60.0   16.666666666666668
300.0   90.0   16.666666666666668
300.0   60.0   33.333333333333336
350.0   60.0   16.666666666666668
350.0   90.0   16.666666666666668
300.0   90.0   16.666666666666668
350.0   90.0   33.333333333333336
300.0   60.0   33.333333333333336
300.0   90.0   33.333333333333336
350.0   90.0   33.333333333333336
300.0   90.0   16.666666666666668
300.0   60.0   33.333333333333336
350.0   90.0   33.333333333333336
350.0   60.0   33.333333333333336
350.0   60.0   16.666666666666668
300.0   60.0   33.333333333333336
350.0   90.0   33.333333333333336
350.0   60.0   16.666666666666668
300.0   90.0   16.666666666666668
300.0   60.0   33.333333333333336
350.0   60.0   33.333333333333336
300.0   90.0   33.333333333333336
300.0   60.0   50.0
350.0   60.0   33.333333333333336
350.0   90.0   33.333333333333336
300.0   90.0   33.333333333333336
350.0   90.0   50.0
300.0   60.0   50.0
300.0   90.0   50.0
350.0   90.0   50.0
300.0   90.0   33.333333333333336
300.0   60.0   50.0
350.0   90.0   50.0
350.0   60.0   50.0
350.0   60.0   33.333333333333336
300.0   60.0   50.0
350.0   90.0   50.0
350.0   60.0   33.333333333333336
300.0   90.0   33.333333333333336
300.0   90.0   0.0
350.0   90.0   0.0
300.0   120.0   0.0
300.0   90.0   16.666666666666668
350.0   90.0   0.0
350.0   120.0   0.0
300.0   120.0   0.0
350.0   120.0   16.666666666666668
300.0   90.0   16.666666666666668
300.0   120.0   16.666666666666668
350.0   120.0   16.666666666666668
300.0   120.0   0.0
300.0   90.0   16.666666666666668
350.0   120.0   16.666666666666668
350.0   90.0   16.666666666666668
350.0   90.0   0.0
300.0   90.0   16.666666666666668
350.0   120.0   16.666666666666668
350.0   90.0   0.0
300.0   120.0   0.0
300.0   90.0   16.666666666666668
350.0   90.0   16.666666666666668
300.0   120.0   16.666666666666668
300.0   90.0   33.333333333333336
350.0   90.0   16.666666666666668
350.0   120.0   16.666666666666668
300.0   120.0   16.666666666666668
350.0   120.0   33.333333333333336
300.0   90.0   33.333333333333336
300.0   120.0   33.333333333333336
350.0   120.0   33.333333333333336
300.0   120.0   16.666666666666668
300.0   90.0   33.333333333333336
350.0   120.0   33.333333333333336
350.0   90.0   33.333333333333336
350.0   90.0   16.666666666666668
300.0   90.0   33.333333333333336
350.0   120.0   33.333333333333336
350.0   90.0   16.666666666666668
300.0   120.0   16.666666666666668
300.0   90.0   33.333333333333336
350.0   90.0   33.333333333333336
300.0   120.0   33.333333333333336
300.0   90.0   50.0
350.0   90.0   33.333333333333336
350.0   120.0   33.333333333333336
300.0   120.0   33.333333333333336
350.0   120.0   50.0
300.0   90.0   50.0
300.0   120.0   50.0
350.0   120.0   50.0
300.0   120.0   33.333333333333336
300.0   90.0   50.0
350.0   120.0   50.0
350.0   90.0   50.0
350.0   90.0   33.333333333333336
300.0   90.0   50.0
350.0   120.0   50.0
350.0   90.0   33.333333333333336
300.0   120.0   33.333333333333336
300.0   120.0   0.0
350.0   120.0   0.0
300.0   150.0   0.0
300.0   120.0   16.666666666666668
350.0   120.0   0.0
350.0   150.0   0.0
300.0   150.0   0.0
350.0   150.0   16.666666666666668
300.0   120.0   16.666666666666668
300.0   150.0   16.666666666666668
350.0   150.0   16.666666666666668
300.0   150.0   0.0
300.0   120.0   16.666666666666668
350.0   150.0   16.666666666666668
350.0   120.0   16.666666666666668
350.0   120.0   0.0
300.0   120.0   16.666666666666668
350.0   150.0   16.666666666666668
350.0   120.0   0.0
300.0   150.0   0.0
300.0   120.0   16.666666666666668
350.0   120.0   16.666666666666668
300.0   150.0   16.666666666666668
300.0   120.0   33.333333333333336
350.0   120.0   16.666666666666668
350.0   150.0   16.666666666666668
300.0   150.0   16.666666666666668
350.0   150.0   33.333333333333336
300.0   120.0   33.333333333333336
300.0   150.0   33.333333333333336
350.0   150.0   33.333333333333336
300.0   150.0   16.666666666666668
300.0   120.0   33.333333333333336
350.0   150.0   33.333333333333336
350.0   120.0   33.333333333333336
350.0   120.0   16.666666666666668
300.0   120.0   33.333333333333336
350.0   150.0   33.333333333333336
350.0   120.0   16.666666666666668
300.0   150.0   16.666666666666668
300.0   120.0   33.333333333333336
350.0   120.0   33.333333333333336
300.0   150.0   33.333333333333336
300.0   120.0   50.0
350.0   120.0   33.333333333333336
350.0   150.0   33.333333333333336
300.0   150.0   33.333333333333336
350.0   150.0   50.0
300.0   120.0   50.0
300.0   150.0   50.0
350.0   150.0   50.0
300.0   150.0   33.333333333333336
300.0   120.0   50.0
350.0   150.0   50.0
350.0   120.0   50.0
350.0   120.0   33.333333333333336
300.0   120.0   50.0
350.0   150.0   50.0
350.0   120.0   33.333333333333336
300.0   150.0   33.333333333333336
350.0   0.0   0.0
400.0   0.0   0.0
350.0   30.0   0.0
350.0   0.0   16.666666666666668
400.0   0.0   0.0
400.0   30.0   0.0
350.0   30.0   0.0
400.0   30.0   16.666666666666668
350.0   0.0   16.666666666666668
350.0   30.0   16.666666666666668
400.0   30.0   16.666666666666668
350.0   30.0   0.0
350.0   0.0   16.666666666666668
400.0   30.0   16.666666666666668
400.0   0.0   16.666666666666668
400.0   0.0   0.0
350.0   0.0   16.666666666666668
400.0   30.0   16.666666666666668
400.0   0.0   0.0
350.0   30.0   0.0
350.0   0.0   16.666666666666668
400.0   0.0   16.666666666666668
350.0   30.0   16.666666666666668
350.0   0.0   33.333333333333336
400.0   0.0   16.666666666666668
400.0   30.0   16.666666666666668
350.0   30.0   16.666666666666668
400.0   30.0   33.333333333333336
350.0   0.0   33.333333333333336
350.0   30.0   33.333333333333336
400.0   30.0   33.333333333333336
350.0   30.0   16.666666666666668
350.0   0.0   33.333333333333336
400.0   30.0   33.333333333333336
400.0   0.0   33.333333333333336
400.0   0.0   16.666666666666668
350.0   0.0   33.333333333333336
400.0   30.0   33.333333333333336
400.0   0.0   16.666666666666668
350.0   30.0   16.666666666666668
350.0   0.0   33.333333333333336
400.0   0.0   33.333333333333336
350.0   30.0   33.333333333333336
350.0   0.0   50.0
400.0   0.0   33.333333333333336
400.0   30.0   33.333333333333336
350.0   30.0   33.333333333333336
400.0   30.0   50.0
350.0   0.0   50.0
350.0   30.0   50.0
400.0   30.0   50.0
350.0   30.0   33.333333333333336
350.0   0.0   50.0
400.0   30.0   50.0
400.0   0.0   50.0
400.0   0.0   33.333333333333336
350.0   0.0   50.0
400.0   30.0   50.0
400.0   0.0   33.333333333333336
350.0   30.0   33.333333333333336
350.0   30.0   0.0
400.0   30.0   0.0
350.0   60.0   0.0
350.0   30.0   16.666666666666668
400.0   30.0   0.0
400.0   60.0   0.0
350.0   60.0   0.0
400.0   60.0   16.666666666666668
350.0   30.0   16.666666666666668
350.0   60.0   16.666666666666668
400.0   60.0   16.666666666666668
350.0   60.0   0.0
350.0   30.0   16.666666666666668
400.0   60.0   16.666666666666668
400.0   30.0   16.666666666666668
400.0   30.0   0.0
350.0   30.0   16.666666666666668
400.0   60.0   16.666666666666668
400.0   30.0   0.0
350.0   60.0   0.0
350.0   30.0   16.666666666666668
400.0   30.0   16.666666666666668
350.0   60.0   16.666666666666668
350.0   30.0   33.333333333333336
400.0   30.0   16.666666666666668
400.0   60.0   16.666666666666668
350.0   60.0   16.666666666666668
400.0   60.0   33.333333333333336
350.0   30.0   33.333333333333336
350.0   60.0   33.333333333333336
400.0   60.0   33.333333333333336
350.0   60.0   16.666666666666668
350.0   30.0   33.333333333333336
400.0   60.0   33.333333333333336
400.0   30.0   33.333333333333336
400.0   30.0   16.666666666666668
350.0   30.0   33.333333333333336
400.0   60.0   33.333333333333336
400.0   30.0   16.666666666666668
350.0   60.0   16.666666666666668
350.0   30.0   33.333333333333336
400.0   30.0   33.333333333333336
350.0   60.0   33.333333333333336
350.0   30.0   50.0
400.0   30.0   33.333333333333336
400.0   60.0   33.333333333333336
350.0   60.0   33.333333333333336
400.0   60.0   50.0
350.0   30.0   50.0
350.0   60.0   50.0
400.0   60.0   50.0
350.0   60.0   33.333333333333336
350.0   30.0   50.0
400.0   60.0   50.0
400.0   30.0   50.0
400.0   30.0   33.333333333333336
350.0   30.0   50.0
400.0   60.0   50.0
400.0   30.0   33.333333333333336
350.0   60.0   33.333333333333336
350.0   60.0   0.0
400.0   60.0   0.0
350.0   90.0   0.0
350.0   60.0   16.666666666666668
400.0   60.0   0.0
400.0   90.0   0.0
350.0   90.0   0.0
400.0   90.0   16.666666666666668
350.0   60.0   16.666666666666668
350.0   90.0   16.666666666666668
400.0   90.0   16.666666666666668
350.0   90.0   0.0
350.0   60.0   16.666666666666668
400.0   90.0   16.666666666666668
400.0   60.0   16.666666666666668
400.0   60.0   0.0
350.0   60.0   16.666666666666668
400.0   90.0   16.666666666666668
400.0   60.0   0.0
350.0   90.0   0.0
350.0   60.0   16.666666666666668
400.0   60.0   16.666666666666668
350.0   90.0   16.666666666666668
350.0   60.0   33.333333333333336
400.0   60.0   16.666666666666668
400.0   90.0   16.666666666666668
350.0   90.0   16.666666666666668
400.0   90.0   33.333333333333336
350.0   60.0   33.333333333333336
350.0   90.0   33.333333333333336
400.0   90.0   33.333333333333336
350.0   90.0   16.666666666666668
350.0   60.0   33.333333333333336
400.0   90.0   33.333333333333336
400.0   60.0   33.333333333333336
400.0   60.0   16.666666666666668
350.0   60.0   33.333333333333336
400.0   90.0   33.333333333333336
400.0   60.0   16.666666666666668
350.0   90.0   16.666666666666668
350.0   60.0   33.333333333333336
400.0   60.0   33.333333333333336
350.0   90.0   33.333333333333336
350.0   60.0   50.0
400.0   60.0   33.333333333333336
400.0   90.0   33.333333333333336
350.0   90.0   33.333333333333336
400.0   90.0   50.0
350.0   60.0   50.0
350.0   90.0   50.0
400.0   90.0   50.0
350.0   90.0   33.333333333333336
350.0   60.0   50.0
400.0   90.0   50.0
400.0   60.0   50.0
400.0   60.0   33.333333333333336
350.0   60.0   50.0
400.0   90.0   50.0
400.0   60.0   33.333333333333336
350.0   90.0   33.333333333333336
350.0   90.0   0.0
400.0   90.0   0.0
350.0   120.0   0.0
350.0   90.0   16.666666666666668
400.0   90.0   0.0
400.0   120.0   0.0
350.0   120.0   0.0
400.0   120.0   16.666666666666668
350.0   90.0   16.666666666666668
350.0   120.0   16.666666666666668
400.0   120.0   16.666666666666668
350.0   120.0   0.0
350.0   90.0   16.666666666666668
400.0   120.0   16.666666666666668
400.0   90.0   16.666666666666668
400.0   90.0   0.0
350.0   90.0   16.666666666666668
400.0   120.0   16.666666666666668
400.0   90.0   0.0
350.0   120.0   0.0
350.0   90.0   16.666666666666668
400.0   90.0   16.666666666666668
350.0   120.0   16.666666666666668
350.0   90.0   33.333333333333336
400.0   90.0   16.666666666666668
400.0   120.0   16.666666666666668
350.0   120.0   16.666666666666668
400.0   120.0   33.333333333333336
350.0   90.0   33.333333333333336
350.0   120.0   33.333333333333336
400.0   120.0   33.333333333333336
350.0   120.0   16.666666666666668
350.0   90.0   33.333333333333336
400.0   120.0   33.333333333333336
400.0   90.0   33.333333333333336
400.0   90.0   16.666666666666668
350.0   90.0   33.333333333333336
400.0   120.0   33.333333333333336
400.0   90.0   16.666666666666668
350.0   120.0   16.666666666666668
350.0   90.0   33.333333333333336
400.0   90.0   33.333333333333336
350.0   120.0   33.333333333333336
350.0   90.0   50.0
400.0   90.0   33.333333333333336
400.0   120.0   33.333333333333336
350.0   120.0   33.333333333333336
400.0   120.0   50.0
350.0   90.0   50.0
350.0   120.0   50.0
400.0   120.0   50.0
350.0   120.0   33.333333333333336
350.0   90.0   50.0
400.0   120.0   50.0
400.0   90.0   50.0
400.0   90.0   33.333333333333336
350.0   90.0   50.0
400.0   120.0   50.0
400.0   90.0   33.333333333333336
350.0   120.0   33.333333333333336
350.0   120.0   0.0
400.0   120.0   0.0
350.0   150.0   0.0
350.0   120.0   16.666666666666668
400.0   120.0   0.0
400.0   150.0   0.0
350.0   150.0   0.0
400.0   150.0   16.666666666666668
350.0   120.0   16.666666666666668
350.0   150.0   16.666666666666668
400.0   150.0   16.666666666666668
350.0   150.0   0.0
350.0   120.0   16.666666666666668
400.0   150.0   16.666666666666668
400.0   120.0   16.666666666666668
400.0   120.0   0.0
350.0   120.0   16.666666666666668
400.0   150.0   16.666666666666668
400.0   120.0   0.0
350.0   150.0   0.0
350.0   120.0   16.666666666666668
400.0   120.0   16.666666666666668
350.0   150.0   16.666666666666668
350.0   120.0   33.333333333333336
400.0   120.0   16.666666666666668
400.0   150.0   16.666666666666668
350.0   150.0   16.666666666666668
400.0   150.0   33.333333333333336
350.0   120.0   33.333333333333336
350.0   150.0   33.333333333333336
400.0   150.0   33.333333333333336
350.0   150.0   16.666666666666668
350.0   120.0   33.333333333333336
400.0   150.0   33.333333333333336
400.0   120.0   33.333333333333336
400.0   120.0   16.666666666666668
350.0   120.0   33.333333333333336
400.0   150.0   33.333333333333336
400.0   120.0   16.666666666666668
350.0   150.0   16.666666666666668
350.0   120.0   33.333333333333336
400.0   120.0   33.333333333333336
350.0   150.0   33.333333333333336
350.0   120.0   50.0
400.0   120.0   33.333333333333336
400.0   150.0   33.333333333333336
350.0   150.0   33.333333333333336
400.0   150.0   50.0
350.0   120.0   50.0
350.0   150.0   50.0
400.0   150.0   50.0
350.0   150.0   33.333333333333336
350.0   120.0   50.0
400.0   150.0   50.0
400.0   120.0   50.0
400.0   120.0   33.333333333333336
350.0   120.0   50.0
400.0   150.0   50.0
400.0   120.0   33.333333333333336
350.0   150.0   33.333333333333336
400.0   0.0   0.0
450.0   0.0   0.0
400.0   30.0   0.0
400.0   0.0   16.666666666666668
450.0   0.0   0.0
450.0   30.0   0.0
400.0   30.0   0.0
450.0   30.0   16.666666666666668
400.0   0.0   16.666666666666668
400.0   30.0   16.666666666666668
450.0   30.0   16.666666666666668
400.0   30.0   0.0
400.0   0.0   16.666666666666668
450.0   30.0   16.666666666666668
450.0   0.0   16.666666666666668
450.0   0.0   0.0
400.0   0.0   16.666666666666668
450.0   30.0   16.666666666666668
450.0   0.0   0.0
400.0   30.0   0.0
400.0   0.0   16.666666666666668
450.0   0.0   16.666666666666668
400.0   30.0   16.666666666666668
400.0   0.0   33.333333333333336
450.0   0.0   16.666666666666668
450.0   30.0   16.666666666666668
400.0   30.0   16.666666666666668
450.0   30.0   33.333333333333336
400.0   0.0   33.333333333333336
400.0   30.0   33.333333333333336
450.0   30.0   33.333333333333336
400.0   30.0   16.666666666666668
400.0   0.0   33.333333333333336
450.0   30.0   33.333333333333336
450.0   0.0   33.333333333333336
450.0   0.0   16.666666666666668
400.0   0.0   33.333333333333336
450.0   30.0   33.333333333333336
450.0   0.0   16.666666666666668
400.0   30.0   16.666666666666668
400.0   0.0   33.333333333333336
450.0   0.0   33.333333333333336
400.0   30.0   33.333333333333336
400.0   0.0   50.0
450.0   0.0   33.333333333333336
450.0   30.0   33.333333333333336
400.0   30.0   33.333333333333336
450.0   30.0   50.0
400.0   0.0   50.0
400.0   30.0   50.0
450.0   30.0   50.0
400.0   30.0   33.333333333333336
400.0   0.0   50.0
450.0   30.0   50.0
450.0   0.0   50.0
450.0   0.0   33.333333333333336
400.0   0.0   50.0
450.0   30.0   50.0
450.0   0.0   33.333333333333336
400.0   30.0   33.333333333333336
400.0   30.0   0.0
450.0   30.0   0.0
400.0   60.0   0.0
400.0   30.0   16.666666666666668
450.0   30.0   0.0
450.0   60.0   0.0
400.0   60.0   0.0
450.0   60.0   16.666666666666668
400.0   30.0   16.666666666666668
400.0   60.0   16.666666666666668
450.0   60.0   16.666666666666668
400.0   60.0   0.0
400.0   30.0   16.666666666666668
450.0   60.0   16.666666666666668
450.0   30.0   16.666666666666668
450.0   30.0   0.0
400.0   30.0   16.666666666666668
450.0   60.0   16.666666666666668
450.0   30.0   0.0
400.0   60.0   0.0
400.0   30.0   16.666666666666668
450.0   30.0   16.666666666666668
400.0   60.0   16.666666666666668
400.0   30.0   33.333333333333336
450.0   30.0   16.666666666666668
450.0   60.0   16.666666666666668
400.0   60.0   16.666666666666668
450.0   60.0   33.333333333333336
400.0   30.0   33.333333333333336
400.0   60.0   33.333333333333336
450.0   60.0   33.333333333333336
400.0   60.0   16.666666666666668
400.0   30.0   33.333333333333336
450.0   60.0   33.333333333333336
450.0   30.0   33.333333333333336
450.0   30.0   16.666666666666668
400.0   30.0   33.333333333333336
450.0   60.0   33.333333333333336
450.0   30.0   16.666666666666668
400.0   60.0   16.666666666666668
400.0   30.0   33.333333333333336
450.0   30.0   33.333333333333336
400.0   60.0   33.333333333333336
400.0   30.0   50.0
450.0   30.0   33.333333333333336
450.0   60.0   33.333333333333336
400.0   60.0   33.333333333333336
450.0   60.0   50.0
400.0   30.0   50.0
400.0   60.0   50.0
450.0   60.0   50.0
400.0   60.0   33.333333333333336
400.0   30.0   50.0
450.0   60.0   50.0
450.0   30.0   50.0
450.0   30.0   33.333333333333336
400.0   30.0   50.0
450.0   60.0   50.0
450.0   30.0   33.333333333333336
400.0   60.0   33.333333333333336
400.0   60.0   0.0
450.0   60.0   0.0
400.0   90.0   0.0
400.0   60.0   16.666666666666668
450.0   60.0   0.0
450.0   90.0   0.0
400.0   90.0   0.0
450.0   90.0   16.666666666666668
400.0   60.0   16.666666666666668
400.0   90.0   16.666666666666668
450.0   90.0   16.666666666666668
400.0   90.0   0.0
400.0   60.0   16.666666666666668
450.0   90.0   16.666666666666668
450.0   60.0   16.666666666666668
450.0   60.0   0.0
400.0   60.0   16.666666666666668
450.0   90.0   16.666666666666668
450.0   60.0   0.0
400.0   90.0   0.0
400.0   60.0   16.666666666666668
450.0   60.0   16.666666666666668
400.0   90.0   16.666666666666668
400.0   60.0   33.333333333333336
450.0   60.0   16.666666666666668
450.0   90.0   16.666666666666668
400.0   90.0   16.666666666666668
450.0   90.0   33.333333333333336
400.0   60.0   33.333333333333336
400.0   90.0   33.333333333333336
450.0   90.0   33.333333333333336
400.0   90.0   16.666666666666668
400.0   60.0   33.333333333333336
450.0   90.0   33.333333333333336
450.0   60.0   33.333333333333336
450.0   60.0   16.666666666666668
400.0   60.0   33.333333333333336
450.0   90.0   33.333333333333336
450.0   60.0   16.666666666666668
400.0   90.0   16.666666666666668
400.0   60.0   33.333333333333336
450.0   60.0   33.333333333333336
400.0   90.0   33.333333333333336
400.0   60.0   50.0
450.0   60.0   33.333333333333336
450.0   90.0   33.333333333333336
400.0   90.0   33.333333333333336
450.0   90.0   50.0
400.0   60.0   50.0
400.0   90.0   50.0
450.0   90.0   50.0
400.0   90.0   33.333333333333336
400.0   60.0   50.0
450.0   90.0   50.0
450.0   60.0   50.0
450.0   60.0   33.333333333333336
400.0   60.0   50.0
450.0   90.0   50.0
450.0   60.0   33.333333333333336
400.0   90.0   33.333333333333336
400.0   90.0   0.0
450.0   90.0   0.0
400.0   120.0   0.0
400.0   90.0   16.666666666666668
450.0   90.0   0.0
450.0   120.0   0.0
400.0   120.0   0.0
450.0   120.0   16.666666666666668
400.0   90.0   16.666666666666668
400.0   120.0   16.666666666666668
450.0   120.0   16.666666666666668
400.0   120.0   0.0
400.0   90.0   16.666666666666668
450.0   120.0   16.666666666666668
450.0   90.0   16.666666666666668
450.0   90.0   0.0
400.0   90.0   16.666666666666668
450.0   120.0   16.666666666666668
450.0   90.0   0.0
400.0   120.0   0.0
400.0   90.0   16.666666666666668
450.0   90.0   16.666666666666668
400.0   120.0   16.666666666666668
400.0   90.0   33.333333333333336
450.0   90.0   16.666666666666668
450.0   120.0   16.666666666666668
400.0   120.0   16.666666666666668
450.0   120.0   33.333333333333336
400.0   90.0   33.333333333333336
400.0   120.0   33.333333333333336
450.0   120.0   33.333333333333336
400.0   120.0   16.666666666666668
400.0   90.0   33.333333333333336
450.0   120.0   33.333333333333336
450.0   90.0   33.333333333333336
450.0   90.0   16.666666666666668
400.0   90.0   33.333333333333336
450.0   120.0   33.333333333333336
450.0   90.0   16.666666666666668
400.0   120.0   16.666666666666668
400.0   90.0   33.333333333333336
450.0   90.0   33.333333333333336
400.0   120.0   33.333333333333336
400.0   90.0   50.0
450.0   90.0   33.333333333333336
450.0   120.0   33.333333333333336
400.0   120.0   33.333333333333336
450.0   120.0   50.0
400.0   90.0   50.0
400.0   120.0   50.0
450.0   120.0   50.0
400.0   120.0   33.333333333333336
400.0   90.0   50.0
450.0   120.0   50.0
450.0   90.0   50.0
450.0   90.0   33.333333333333336
400.0   90.0   50.0
450.0   120.0   50.0
450.0   90.0   33.333333333333336
400.0   120.0   33.333333333333336
400.0   120.0   0.0
450.0   120.0   0.0
400.0   150.0   0.0
400.0   120.0   16.666666666666668
450.0   120.0   0.0
450.0   150.0   0.0
400.0   150.0   0.0
450.0   150.0   16.666666666666668
400.0   120.0   16.666666666666668
400.0   150.0   16.666666666666668
450.0   150.0   16.666666666666668
400.0   150.0   0.0
400.0   120.0   16.666666666666668
450.0   150.0   16.666666666666668
450.0   120.0   16.666666666666668
450.0   120.0   0.0
400.0   120.0   16.666666666666668
450.0   150.0   16.666666666666668
450.0   120.0   0.0
400.0   150.0   0.0
400.0   120.0   16.666666666666668
450.0   120.0   16.666666666666668
400.0   150.0   16.666666666666668
400.0   120.0   33.333333333333336
450.0   120.0   16.666666666666668
450.0   150.0   16.666666666666668
400.0   150.0   16.666666666666668
450.0   150.0   33.333333333333336
400.0   120.0   33.333333333333336
400.0   150.0   33.333333333333336
450.0   150.0   33.333333333333336
400.0   150.0   16.666666666666668
400.0   120.0   33.333333333333336
450.0   150.0   33.333333333333336
450.0   120.0   33.333333333333336
450.0   120.0   16.666666666666668
400.0   120.0   33.333333333333336
450.0   150.0   33.333333333333336
450.0   120.0   16.666666666666668
400.0   150.0   16.666666666666668
400.0   120.0   33.333333333333336
450.0   120.0   33.333333333333336
400.0   150.0   33.333333333333336
400.0   120.0   50.0
450.0   120.0   33.333333333333336
450.0   150.0   33.333333333333336
400.0   150.0   33.333333333333336
450.0   150.0   50.0
400.0   120.0   50.0
400.0   150.0   50.0
450.0   150.0   50.0
400.0   150.0   33.333333333333336
400.0   120.0   50.0
450.0   150.0   50.0
450.0   120.0   50.0
450.0   120.0   33.333333333333336
400.0   120.0   50.0
450.0   150.0   50.0
450.0   120.0   33.333333333333336
400.0   150.0   33.333333333333336
450.0   0.0   0.0
500.0   0.0   0.0
450.0   30.0   0.0
450.0   0.0   16.666666666666668
500.0   0.0   0.0
500.0   30.0   0.0
450.0   30.0   0.0
500.0   30.0   16.666666666666668
450.0   0.0   16.666666666666668
450.0   30.0   16.666666666666668
500.0   30.0   16.666666666666668
450.0   30.0   0.0
450.0   0.0   16.666666666666668
500.0   30.0   16.666666666666668
500.0   0.0   16.666666666666668
500.0   0.0   0.0
450.0   0.0   16.666666666666668
500.0   30.0   16.666666666666668
500.0   0.0   0.0
450.0   30.0   0.0
450.0   0.0   16.666666666666668
500.0   0.0   16.666666666666668
450.0   30.0   16.666666666666668
450.0   0.0   33.333333333333336
500.0   0.0   16.666666666666668
500.0   30.0   16.666666666666668
450.0   30.0   16.666666666666668
500.0   30.0   33.333333333333336
450.0   0.0   33.333333333333336
450.0   30.0   33.333333333333336
500.0   30.0   33.333333333333336
450.0   30.0   16.666666666666668
450.0   0.0   33.333333333333336
500.0   30.0   33.333333333333336
500.0   0.0   33.333333333333336
500.0   0.0   16.666666666666668
450.0   0.0   33.333333333333336
500.0   30.0   33.333333333333336
500.0   0.0   16.666666666666668
450.0   30.0   16.666666666666668
450.0   0.0   33.333333333333336
500.0   0.0   33.333333333333336
450.0   30.0   33.333333333333336
450.0   0.0   50.0
500.0   0.0   33.333333333333336
500.0   30.0   33.333333333333336
450.0   30.0   33.333333333333336
500.0   30.0   50.0
450.0   0.0   50.0
450.0   30.0   50.0
500.0   30.0   50.0
450.0   30.0   33.333333333333336
450.0   0.0   50.0
500.0   30.0   50.0
500.0   0.0   50.0
500.0   0.0   33.333333333333336
450.0   0.0   50.0
500.0   30.0   50.0
500.0   0.0   33.333333333333336
450.0   30.0   33.333333333333336
450.0   30.0   0.0
500.0   30.0   0.0
450.0   60.0   0.0
450.0   30.0   16.666666666666668
500.0   30.0   0.0
500.0   60.0   0.0
450.0   60.0   0.0
500.0   60.0   16.666666666666668
450.0   30.0   16.666666666666668
450.0   60.0   16.666666666666668
500.0   60.0   16.666666666666668
450.0   60.0   0.0
450.0   30.0   16.666666666666668
500.0   60.0   16.666666666666668
500.0   30.0   16.666666666666668
500.0   30.0   0.0
450.0   30.0   16.666666666666668
500.0   60.0   16.666666666666668
500.0   30.0   0.0
450.0   60.0   0.0
450.0   30.0   16.666666666666668
500.0   30.0   16.666666666666668
450.0   60.0   16.666666666666668
450.0   30.0   33.333333333333336
500.0   30.0   16.666666666666668
500.0   60.0   16.666666666666668
450.0   60.0   16.666666666666668
500.0   60.0   33.333333333333336
450.0   30.0   33.333333333333336
450.0   60.0   33.333333333333336
500.0   60.0   33.333333333333336
450.0   60.0   16.666666666666668
450.0   30.0   33.333333333333336
500.0   60.0   33.333333333333336
500.0   30.0   33.333333333333336
500.0   30.0   16.666666666666668
450.0   30.0   33.333333333333336
500.0   60.0   33.333333333333336
500.0   30.0   16.666666666666668
450.0   60.0   16.666666666666668
450.0   30.0   33.333333333333336
500.0   30.0   33.333333333333336
450.0   60.0   33.333333333333336
450.0   30.0   50.0
500.0   30.0   33.333333333333336
500.0   60.0   33.333333333333336
450.0   60.0   33.333333333333336
500.0   60.0   50.0
450.0   30.0   50.0
450.0   60.0   50.0
500.0   60.0   50.0
450.0   60.0   33.333333333333336
450.0   30.0   50.0
500.0   60.0   50.0
500.0   30.0   50.0
500.0   30.0   33.333333333333336
450.0   30.0   50.0
500.0   60.0   50.0
500.0   30.0   33.333333333333336
450.0   60.0   33.333333333333336
450.0   60.0   0.0
500.0   60.0   0.0
450.0   90.0   0.0
450.0   60.0   16.666666666666668
500.0   60.0   0.0
500.0   90.0   0.0
450.0   90.0   0.0
500.0   90.0   16.666666666666668
450.0   60.0   16.666666666666668
450.0   90.0   16.666666666666668
500.0   90.0   16.666666666666668
450.0   90.0   0.0
450.0   60.0   16.666666666666668
500.0   90.0   16.666666666666668
500.0   60.0   16.666666666666668
500.0   60.0   0.0
450.0   60.0   16.666666666666668
500.0   90.0   16.666666666666668
500.0   60.0   0.0
450.0   90.0   0.0
450.0   60.0   16.666666666666668
500.0   60.0   16.666666666666668
450.0   90.0   16.666666666666668
450.0   60.0   33.333333333333336
500.0   60.0   16.666666666666668
500.0   90.0   16.666666666666668
450.0   90.0   16.666666666666668
500.0   90.0   33.333333333333336
450.0   60.0   33.333333333333336
450.0   90.0   33.333333333333336
500.0   90.0   33.333333333333336
450.0   90.0   16.666666666666668
450.0   60.0   33.333333333333336
500.0   90.0   33.333333333333336
500.0   60.0   33.333333333333336
500.0   60.0   16.666666666666668
450.0   60.0   33.333333333333336
500.0   90.0   33.333333333333336
500.0   60.0   16.666666666666668
450.0   90.0   16.666666666666668
450.0   60.0   33.333333333333336
500.0   60.0   33.333333333333336
450.0   90.0   33.333333333333336
450.0   60.0   50.0
500.0   60.0   33.333333333333336
500.0   90.0   33.333333333333336
450.0   90.0   33.333333333333336
500.0   90.0   50.0
450.0   60.0   50.0
450.0   90.0   50.0
500.0   90.0   50.0
450.0   90.0   33.333333333333336
450.0   60.0   50.0
500.0   90.0   50.0
500.0   60.0   50.0
500.0   60.0   33.333333333333336
450.0   60.0   50.0
500.0   90.0   50.0
500.0   60.0   33.333333333333336
450.0   90.0   33.333333333333336
450.0   90.0   0.0
500.0   90.0   0.0
450.0   120.0   0.0
450.0   90.0   16.666666666666668
500.0   90.0   0.0
500.0   120.0   0.0
450.0   120.0   0.0
500.0   120.0   16.666666666666668
450.0   90.0   16.666666666666668
450.0   120.0   16.666666666666668
500.0   120.0   16.666666666666668
450.0   120.0   0.0
450.0   90.0   16.666666666666668
500.0   120.0   16.666666666666668
500.0   90.0   16.666666666666668
500.0   90.0   0.0
450.0   90.0   16.666666666666668
500.0   120.0   16.666666666666668
500.0   90.0   0.0
450.0   120.0   0.0
450.0   90.0   16.666666666666668
500.0   90.0   16.666666666666668
450.0   120.0   16.666666666666668
450.0   90.0   33.333333333333336
500.0   90.0   16.666666666666668
500.0   120.0   16.666666666666668
450.0   120.0   16.666666666666668
500.0   120.0   33.333333333333336
450.0   90.0   33.333333333333336
450.0   120.0   33.333333333333336
500.0   120.0   33.333333333333336
450.0   120.0   16.666666666666668
450.0   90.0   33.333333333333336
500.0   120.0   33.333333333333336
500.0   90.0   33.333333333333336
500.0   90.0   16.666666666666668
450.0   90.0   33.333333333333336
500.0   120.0   33.333333333333336
500.0   90.0   16.666666666666668
450.0   120.0   16.666666666666668
450.0   90.0   33.333333333333336
500.0   90.0   33.333333333333336
450.0   120.0   33.333333333333336
450.0   90.0   50.0
500.0   90.0   33.333333333333336
500.0   120.0   33.333333333333336
450.0   120.0   33.333333333333336
500.0   120.0   50.0
450.0   90.0   50.0
450.0   120.0   50.0
500.0   120.0   50.0
450.0   120.0   33.333333333333336
450.0   90.0   50.0
500.0   120.0   50.0
500.0   90.0   50.0
500.0   90.0   33.333333333333336
450.0   90.0   50.0
500.0   120.0   50.0
500.0   90.0   33.333333333333336
450.0   120.0   33.333333333333336
450.0   120.0   0.0
500.0   120.0   0.0
450.0   150.0   0.0
450.0   120.0   16.666666666666668
500.0   120.0   0.0
500.0   150.0   0.0
450.0   150.0   0.0
500.0   150.0   16.666666666666668
450.0   120.0   16.666666666666668
450.0   150.0   16.666666666666668
500.0   150.0   16.666666666666668
450.0   150.0   0.0
450.0   120.0   16.666666666666668
500.0   150.0   16.666666666666668
500.0   120.0   16.666666666666668
500.0   120.0   0.0
450.0   120.0   16.666666666666668
500.0   150.0   16.666666666666668
500.0   120.0   0.0
450.0   150.0   0.0
450.0   120.0   16.666666666666668
500.0   120.0   16.666666666666668
450.0   150.0   16.666666666666668
450.0   120.0   33.333333333333336
500.0   120.0   16.666666666666668
500.0   150.0   16.666666666666668
450.0   150.0   16.666666666666668
500.0   150.0   33.333333333333336
450.0   120.0   33.333333333333336
450.0   150.0   33.333333333333336
500.0   150.0   33.333333333333336
450.0   150.0   16.666666666666668
450.0   120.0   33.333333333333336
500.0   150.0   33.333333333333336
500.0   120.0   33.333333333333336
500.0   120.0   16.666666666666668
450.0   120.0   33.333333333333336
500.0   150.0   33.333333333333336
500.0   120.0   16.666666666666668
450.0   150.0   16.666666666666668
450.0   120.0   33.333333333333336
500.0   120.0   33.333333333333336
450.0   150.0   33.333333333333336
450.0   120.0   50.0
500.0   120.0   33.333333333333336
500.0   150.0   33.333333333333336
450.0   150.0   33.333333333333336
500.0   150.0   50.0
450.0   120.0   50.0
450.0   150.0   50.0
500.0   150.0   50.0
450.0   150.0   33.333333333333336
450.0   120.0   50.0
500.0   150.0   50.0
500.0   120.0   50.0
500.0   120.0   33.333333333333336
450.0   120.0   50.0
500.0   150.0   50.0
500.0   120.0   33.333333333333336
450.0   150.0   33.333333333333336
             </DataArray>   
          </Points>  
          <Cells>  
             <DataArray type="Int32" Name="connectivity" format="ascii">   
0   1   2   3
4   5   6   7
8   9   10   11
12   13   14   15
16   17   18   19
20   21   22   23
24   25   26   27
28   29   30   31
32   33   34   35
36   37   38   39
40   41   42   43
44   45   46   47
48   49   50   51
52   53   54   55
56   57   58   59
60   61   62   63
64   65   66   67
68   69   70   71
72   73   74   75
76   77   78   79
80   81   82   83
84   85   86   87
88   89   90   91
92   93   94   95
96   97   98   99
100   101   102   103
104   105   106   107
108   109   110   111
112   113   114   115
116   117   118   119
120   121   122   123
124   125   126   127
128   129   130   131
132   133   134   135
136   137   138   139
140   141   142   143
144   145   146   147
148   149   150   151
152   153   154   155
156   157   158   159
160   161   162   163
164   165   166   167
168   169   170   171
172   173   174   175
176   177   178   179
180   181   182   183
184   185   186   187
188   189   190   191
192   193   194   195
196   197   198   199
200   201   202   203
204   205   206   207
208   209   210   211
212   213   214   215
216   217   218   219
220   221   222   223
224   225   226   227
228   229   230   231
232   233   234   235
236   237   238   239
240   241   242   243
244   245   246   247
248   249   250   251
252   253   254   255
256   257   258   259
260   261   262   263
264   265   266   267
268   269   270   271
272   273   274   275
276   277   278   279
280   281   282   283
284   285   286   287
288   289   290   291
292   293   294   295
296   297   298   299
300   301   302   303
304   305   306   307
308   309   310   311
312   313   314   315
316   317   318   319
320   321   322   323
324   325   326   327
328   329   330   331
332   333   334   335
336   337   338   339
340   341   342   343
344   345   346   347
348   349   350   351
352   353   354   355
356   357   358   359
360   361   362   363
364   365   366   367
368   369   370   371
372   373   374   375
376   377   378   379
380   381   382   383
384   385   386   387
388   389   390   391
392   393   394   395
396   397   398   399
400   401   402   403
404   405   406   407
408   409   410   411
412   413   414   415
416   417   418   419
420   421   422   423
424   425   426   427
428   429   430   431
432   433   434   435
436   437   438   439
440   441   442   443
444   445   446   447
448   449   450   451
452   453   454   455
456   457   458   459
460   461   462   463
464   465   466   467
468   469   470   471
472   473   474   475
476   477   478   479
480   481   482   483
484   485   486   487
488   489   490   491
492   493   494   495
496   497   498   499
500   501   502   503
504   505   506   507
508   509   510   511
512   513   514   515
516   517   518   519
520   521   522   523
524   525   526   527
528   529   530   531
532   533   534   535
536   537   538   539
540   541   542   543
544   545   546   547
548   549   550   551
552   553   554   555
556   557   558   559
560   561   562   563
564   565   566   567
568   569   570   571
572   573   574   575
576   577   578   579
580   581   582   583
584   585   586   587
588   589   590   591
592   593   594   595
596   597   598   599
600   601   602   603
604   605   606   607
608   609   610   611
612   613   614   615
616   617   618   619
620   621   622   623
624   625   626   627
628   629   630   631
632   633   634   635
636   637   638   639
640   641   642   643
644   645   646   647
648   649   650   651
652   653   654   655
656   657   658   659
660   661   662   663
664   665   666   667
668   669   670   671
672   673   674   675
676   677   678   679
680   681   682   683
684   685   686   687
688   689   690   691
692   693   694   695
696   697   698   699
700   701   702   703
704   705   706   707
708   709   710   711
712   713   714   715
716   717   718   719
720   721   722   723
724   725   726   727
728   729   730   731
732   733   734   735
736   737   738   739
740   741   742   743
744   745   746   747
748   749   750   751
752   753   754   755
756   757   758   759
760   761   762   763
764   765   766   767
768   769   770   771
772   773   774   775
776   777   778   779
780   781   782   783
784   785   786   787
788   789   790   791
792   793   794   795
796   797   798   799
800   801   802   803
804   805   806   807
808   809   810   811
812   813   814   815
816   817   818   819
820   821   822   823
824   825   826   827
828   829   830   831
832   833   834   835
836   837   838   839
840   841   842   843
844   845   846   847
848   849   850   851
852   853   854   855
856   857   858   859
860   861   862   863
864   865   866   867
868   869   870   871
872   873   874   875
876   877   878   879
880   881   882   883
884   885   886   887
888   889   890   891
892   893   894   895
896   897   898   899
900   901   902   903
904   905   906   907
908   909   910   911
912   913   914   915
916   917   918   919
920   921   922   923
924   925   926   927
928   929   930   931
932   933   934   935
936   937   938   939
940   941   942   943
944   945   946   947
948   949   950   951
952   953   954   955
956   957   958   959
960   961   962   963
964   965   966   967
968   969   970   971
972   973   974   975
976   977   978   979
980   981   982   983
984   985   986   987
988   989   990   991
992   993   994   995
996   997   998   999
1000   1001   1002   1003
1004   1005   1006   1007
1008   1009   1010   1011
1012   1013   1014   1015
1016   1017   1018   1019
1020   1021   1022   1023
1024   1025   1026   1027
1028   1029   1030   1031
1032   1033   1034   1035
1036   1037   1038   1039
1040   1041   1042   1043
1044   1045   1046   1047
1048   1049   1050   1051
1052   1053   1054   1055
1056   1057   1058   1059
1060   1061   1062   1063
1064   1065   1066   1067
1068   1069   1070   1071
1072   1073   1074   1075
1076   1077   1078   1079
1080   1081   1082   1083
1084   1085   1086   1087
1088   1089   1090   1091
1092   1093   1094   1095
1096   1097   1098   1099
1100   1101   1102   1103
1104   1105   1106   1107
1108   1109   1110   1111
1112   1113   1114   1115
1116   1117   1118   1119
1120   1121   1122   1123
1124   1125   1126   1127
1128   1129   1130   1131
1132   1133   1134   1135
1136   1137   1138   1139
1140   1141   1142   1143
1144   1145   1146   1147
1148   1149   1150   1151
1152   1153   1154   1155
1156   1157   1158   1159
1160   1161   1162   1163
1164   1165   1166   1167
1168   1169   1170   1171
1172   1173   1174   1175
1176   1177   1178   1179
1180   1181   1182   1183
1184   1185   1186   1187
1188   1189   1190   1191
1192   1193   1194   1195
1196   1197   1198   1199
1200   1201   1202   1203
1204   1205   1206   1207
1208   1209   1210   1211
1212   1213   1214   1215
1216   1217   1218   1219
1220   1221   1222   1223
1224   1225   1226   1227
1228   1229   1230   1231
1232   1233   1234   1235
1236   1237   1238   1239
1240   1241   1242   1243
1244   1245   1246   1247
1248   1249   1250   1251
1252   1253   1254   1255
1256   1257   1258   1259
1260   1261   1262   1263
1264   1265   1266   1267
1268   1269   1270   1271
1272   1273   1274   1275
1276   1277   1278   1279
1280   1281   1282   1283
1284   1285   1286   1287
1288   1289   1290   1291
1292   1293   1294   1295
1296   1297   1298   1299
1300   1301   1302   1303
1304   1305   1306   1307
1308   1309   1310   1311
1312   1313   1314   1315
1316   1317   1318   1319
1320   1321   1322   1323
1324   1325   1326   1327
1328   1329   1330   1331
1332   1333   1334   1335
1336   1337   1338   1339
1340   1341   1342   1343
1344   1345   1346   1347
1348   1349   1350   1351
1352   1353   1354   1355
1356   1357   1358   1359
1360   1361   1362   1363
1364   1365   1366   1367
1368   1369   1370   1371
1372   1373   1374   1375
1376   1377   1378   1379
1380   1381   1382   1383
1384   1385   1386   1387
1388   1389   1390   1391
1392   1393   1394   1395
1396   1397   1398   1399
1400   1401   1402   1403
1404   1405   1406   1407
1408   1409   1410   1411
1412   1413   1414   1415
1416   1417   1418   1419
1420   1421   1422   1423
1424   1425   1426   1427
1428   1429   1430   1431
1432   1433   1434   1435
1436   1437   1438   1439
1440   1441   1442   1443
1444   1445   1446   1447
1448   1449   1450   1451
1452   1453   1454   1455
1456   1457   1458   1459
1460   1461   1462   1463
1464   1465   1466   1467
1468   1469   1470   1471
1472   1473   1474   1475
1476   1477   1478   1479
1480   1481   1482   1483
1484   1485   1486   1487
1488   1489   1490   1491
1492   1493   1494   1495
1496   1497   1498   1499
1500   1501   1502   1503
1504   1505   1506   1507
1508   1509   1510   1511
1512   1513   1514   1515
1516   1517   1518   1519
1520   1521   1522   1523
1524   1525   1526   1527
1528   1529   1530   1531
1532   1533   1534   1535
1536   1537   1538   1539
1540   1541   1542   1543
1544   1545   1546   1547
1548   1549   1550   1551
1552   1553   1554   1555
1556   1557   1558   1559
1560   1561   1562   1563
1564   1565   1566   1567
1568   1569   1570   1571
1572   1573   1574   1575
1576   1577   1578   1579
1580   1581   1582   1583
1584   1585   1586   1587
1588   1589   1590   1591
1592   1593   1594   1595
1596   1597   1598   1599
1600   1601   1602   1603
1604   1605   1606   1607
1608   1609   1610   1611
1612   1613   1614   1615
1616   1617   1618   1619
1620   1621   1622   1623
1624   1625   1626   1627
1628   1629   1630   1631
1632   1633   1634   1635
1636   1637   1638   1639
1640   1641   1642   1643
1644   1645   1646   1647
1648   1649   1650   1651
1652   1653   1654   1655
1656   1657   1658   1659
1660   1661   1662   1663
1664   1665   1666   1667
1668   1669   1670   1671
1672   1673   1674   1675
1676   1677   1678   1679
1680   1681   1682   1683
1684   1685   1686   1687
1688   1689   1690   1691
1692   1693   1694   1695
1696   1697   1698   1699
1700   1701   1702   1703
1704   1705   1706   1707
1708   1709   1710   1711
1712   1713   1714   1715
1716   1717   1718   1719
1720   1721   1722   1723
1724   1725   1726   1727
1728   1729   1730   1731
1732   1733   1734   1735
1736   1737   1738   1739
1740   1741   1742   1743
1744   1745   1746   1747
1748   1749   1750   1751
1752   1753   1754   1755
1756   1757   1758   1759
1760   1761   1762   1763
1764   1765   1766   1767
1768   1769   1770   1771
1772   1773   1774   1775
1776   1777   1778   1779
1780   1781   1782   1783
1784   1785   1786   1787
1788   1789   1790   1791
1792   1793   1794   1795
1796   1797   1798   1799
1800   1801   1802   1803
1804   1805   1806   1807
1808   1809   1810   1811
1812   1813   1814   1815
1816   1817   1818   1819
1820   1821   1822   1823
1824   1825   1826   1827
1828   1829   1830   1831
1832   1833   1834   1835
1836   1837   1838   1839
1840   1841   1842   1843
1844   1845   1846   1847
1848   1849   1850   1851
1852   1853   1854   1855
1856   1857   1858   1859
1860   1861   1862   1863
1864   1865   1866   1867
1868   1869   1870   1871
1872   1873   1874   1875
1876   1877   1878   1879
1880   1881   1882   1883
1884   1885   1886   1887
1888   1889   1890   1891
1892   1893   1894   1895
1896   1897   1898   1899
1900   1901   1902   1903
1904   1905   1906   1907
1908   1909   1910   1911
1912   1913   1914   1915
1916   1917   1918   1919
1920   1921   1922   1923
1924   1925   1926   1927
1928   1929   1930   1931
1932   1933   1934   1935
1936   1937   1938   1939
1940   1941   1942   1943
1944   1945   1946   1947
1948   1949   1950   1951
1952   1953   1954   1955
1956   1957   1958   1959
1960   1961   1962   1963
1964   1965   1966   1967
1968   1969   1970   1971
1972   1973   1974   1975
1976   1977   1978   1979
1980   1981   1982   1983
1984   1985   1986   1987
1988   1989   1990   1991
1992   1993   1994   1995
1996   1997   1998   1999
2000   2001   2002   2003
2004   2005   2006   2007
2008   2009   2010   2011
2012   2013   2014   2015
2016   2017   2018   2019
2020   2021   2022   2023
2024   2025   2026   2027
2028   2029   2030   2031
2032   2033   2034   2035
2036   2037   2038   2039
2040   2041   2042   2043
2044   2045   2046   2047
2048   2049   2050   2051
2052   2053   2054   2055
2056   2057   2058   2059
2060   2061   2062   2063
2064   2065   2066   2067
2068   2069   2070   2071
2072   2073   2074   2075
2076   2077   2078   2079
2080   2081   2082   2083
2084   2085   2086   2087
2088   2089   2090   2091
2092   2093   2094   2095
2096   2097   2098   2099
2100   2101   2102   2103
2104   2105   2106   2107
2108   2109   2110   2111
2112   2113   2114   2115
2116   2117   2118   2119
2120   2121   2122   2123
2124   2125   2126   2127
2128   2129   2130   2131
2132   2133   2134   2135
2136   2137   2138   2139
2140   2141   2142   2143
2144   2145   2146   2147
2148   2149   2150   2151
2152   2153   2154   2155
2156   2157   2158   2159
2160   2161   2162   2163
2164   2165   2166   2167
2168   2169   2170   2171
2172   2173   2174   2175
2176   2177   2178   2179
2180   2181   2182   2183
2184   2185   2186   2187
2188   2189   2190   2191
2192   2193   2194   2195
2196   2197   2198   2199
2200   2201   2202   2203
2204   2205   2206   2207
2208   2209   2210   2211
2212   2213   2214   2215
2216   2217   2218   2219
2220   2221   2222   2223
2224   2225   2226   2227
2228   2229   2230   2231
2232   2233   2234   2235
2236   2237   2238   2239
2240   2241   2242   2243
2244   2245   2246   2247
2248   2249   2250   2251
2252   2253   2254   2255
2256   2257   2258   2259
2260   2261   2262   2263
2264   2265   2266   2267
2268   2269   2270   2271
2272   2273   2274   2275
2276   2277   2278   2279
2280   2281   2282   2283
2284   2285   2286   2287
2288   2289   2290   2291
2292   2293   2294   2295
2296   2297   2298   2299
2300   2301   2302   2303
2304   2305   2306   2307
2308   2309   2310   2311
2312   2313   2314   2315
2316   2317   2318   2319
2320   2321   2322   2323
2324   2325   2326   2327
2328   2329   2330   2331
2332   2333   2334   2335
2336   2337   2338   2339
2340   2341   2342   2343
2344   2345   2346   2347
2348   2349   2350   2351
2352   2353   2354   2355
2356   2357   2358   2359
2360   2361   2362   2363
2364   2365   2366   2367
2368   2369   2370   2371
2372   2373   2374   2375
2376   2377   2378   2379
2380   2381   2382   2383
2384   2385   2386   2387
2388   2389   2390   2391
2392   2393   2394   2395
2396   2397   2398   2399
2400   2401   2402   2403
2404   2405   2406   2407
2408   2409   2410   2411
2412   2413   2414   2415
2416   2417   2418   2419
2420   2421   2422   2423
2424   2425   2426   2427
2428   2429   2430   2431
2432   2433   2434   2435
2436   2437   2438   2439
2440   2441   2442   2443
2444   2445   2446   2447
2448   2449   2450   2451
2452   2453   2454   2455
2456   2457   2458   2459
2460   2461   2462   2463
2464   2465   2466   2467
2468   2469   2470   2471
2472   2473   2474   2475
2476   2477   2478   2479
2480   2481   2482   2483
2484   2485   2486   2487
2488   2489   2490   2491
2492   2493   2494   2495
2496   2497   2498   2499
2500   2501   2502   2503
2504   2505   2506   2507
2508   2509   2510   2511
2512   2513   2514   2515
2516   2517   2518   2519
2520   2521   2522   2523
2524   2525   2526   2527
2528   2529   2530   2531
2532   2533   2534   2535
2536   2537   2538   2539
2540   2541   2542   2543
2544   2545   2546   2547
2548   2549   2550   2551
2552   2553   2554   2555
2556   2557   2558   2559
2560   2561   2562   2563
2564   2565   2566   2567
2568   2569   2570   2571
2572   2573   2574   2575
2576   2577   2578   2579
2580   2581   2582   2583
2584   2585   2586   2587
2588   2589   2590   2591
2592   2593   2594   2595
2596   2597   2598   2599
2600   2601   2602   2603
2604   2605   2606   2607
2608   2609   2610   2611
2612   2613   2614   2615
2616   2617   2618   2619
2620   2621   2622   2623
2624   2625   2626   2627
2628   2629   2630   2631
2632   2633   2634   2635
2636   2637   2638   2639
2640   2641   2642   2643
2644   2645   2646   2647
2648   2649   2650   2651
2652   2653   2654   2655
2656   2657   2658   2659
2660   2661   2662   2663
2664   2665   2666   2667
2668   2669   2670   2671
2672   2673   2674   2675
2676   2677   2678   2679
2680   2681   2682   2683
2684   2685   2686   2687
2688   2689   2690   2691
2692   2693   2694   2695
2696   2697   2698   2699
2700   2701   2702   2703
2704   2705   2706   2707
2708   2709   2710   2711
2712   2713   2714   2715
2716   2717   2718   2719
2720   2721   2722   2723
2724   2725   2726   2727
2728   2729   2730   2731
2732   2733   2734   2735
2736   2737   2738   2739
2740   2741   2742   2743
2744   2745   2746   2747
2748   2749   2750   2751
2752   2753   2754   2755
2756   2757   2758   2759
2760   2761   2762   2763
2764   2765   2766   2767
2768   2769   2770   2771
2772   2773   2774   2775
2776   2777   2778   2779
2780   2781   2782   2783
2784   2785   2786   2787
2788   2789   2790   2791
2792   2793   2794   2795
2796   2797   2798   2799
2800   2801   2802   2803
2804   2805   2806   2807
2808   2809   2810   2811
2812   2813   2814   2815
2816   2817   2818   2819
2820   2821   2822   2823
2824   2825   2826   2827
2828   2829   2830   2831
2832   2833   2834   2835
2836   2837   2838   2839
2840   2841   2842   2843
2844   2845   2846   2847
2848   2849   2850   2851
2852   2853   2854   2855
2856   2857   2858   2859
2860   2861   2862   2863
2864   2865   2866   2867
2868   2869   2870   2871
2872   2873   2874   2875
2876   2877   2878   2879
2880   2881   2882   2883
2884   2885   2886   2887
2888   2889   2890   2891
2892   2893   2894   2895
2896   2897   2898   2899
2900   2901   2902   2903
2904   2905   2906   2907
2908   2909   2910   2911
2912   2913   2914   2915
2916   2917   2918   2919
2920   2921   2922   2923
2924   2925   2926   2927
2928   2929   2930   2931
2932   2933   2934   2935
2936   2937   2938   2939
2940   2941   2942   2943
2944   2945   2946   2947
2948   2949   2950   2951
2952   2953   2954   2955
2956   2957   2958   2959
2960   2961   2962   2963
2964   2965   2966   2967
2968   2969   2970   2971
2972   2973   2974   2975
2976   2977   2978   2979
2980   2981   2982   2983
2984   2985   2986   2987
2988   2989   2990   2991
2992   2993   2994   2995
2996   2997   2998   2999
3000   3001   3002   3003
3004   3005   3006   3007
3008   3009   3010   3011
3012   3013   3014   3015
3016   3017   3018   3019
3020   3021   3022   3023
3024   3025   3026   3027
3028   3029   3030   3031
3032   3033   3034   3035
3036   3037   3038   3039
3040   3041   3042   3043
3044   3045   3046   3047
3048   3049   3050   3051
3052   3053   3054   3055
3056   3057   3058   3059
3060   3061   3062   3063
3064   3065   3066   3067
3068   3069   3070   3071
3072   3073   3074   3075
3076   3077   3078   3079
3080   3081   3082   3083
3084   3085   3086   3087
3088   3089   3090   3091
3092   3093   3094   3095
3096   3097   3098   3099
3100   3101   3102   3103
3104   3105   3106   3107
3108   3109   3110   3111
3112   3113   3114   3115
3116   3117   3118   3119
3120   3121   3122   3123
3124   3125   3126   3127
3128   3129   3130   3131
3132   3133   3134   3135
3136   3137   3138   3139
3140   3141   3142   3143
3144   3145   3146   3147
3148   3149   3150   3151
3152   3153   3154   3155
3156   3157   3158   3159
3160   3161   3162   3163
3164   3165   3166   3167
3168   3169   3170   3171
3172   3173   3174   3175
3176   3177   3178   3179
3180   3181   3182   3183
3184   3185   3186   3187
3188   3189   3190   3191
3192   3193   3194   3195
3196   3197   3198   3199
3200   3201   3202   3203
3204   3205   3206   3207
3208   3209   3210   3211
3212   3213   3214   3215
3216   3217   3218   3219
3220   3221   3222   3223
3224   3225   3226   3227
3228   3229   3230   3231
3232   3233   3234   3235
3236   3237   3238   3239
3240   3241   3242   3243
3244   3245   3246   3247
3248   3249   3250   3251
3252   3253   3254   3255
3256   3257   3258   3259
3260   3261   3262   3263
3264   3265   3266   3267
3268   3269   3270   3271
3272   3273   3274   3275
3276   3277   3278   3279
3280   3281   3282   3283
3284   3285   3286   3287
3288   3289   3290   3291
3292   3293   3294   3295
3296   3297   3298   3299
3300   3301   3302   3303
3304   3305   3306   3307
3308   3309   3310   3311
3312   3313   3314   3315
3316   3317   3318   3319
3320   3321   3322   3323
3324   3325   3326   3327
3328   3329   3330   3331
3332   3333   3334   3335
3336   3337   3338   3339
3340   3341   3342   3343
3344   3345   3346   3347
3348   3349   3350   3351
3352   3353   3354   3355
3356   3357   3358   3359
3360   3361   3362   3363
3364   3365   3366   3367
3368   3369   3370   3371
3372   3373   3374   3375
3376   3377   3378   3379
3380   3381   3382   3383
3384   3385   3386   3387
3388   3389   3390   3391
3392   3393   3394   3395
3396   3397   3398   3399
3400   3401   3402   3403
3404   3405   3406   3407
3408   3409   3410   3411
3412   3413   3414   3415
3416   3417   3418   3419
3420   3421   3422   3423
3424   3425   3426   3427
3428   3429   3430   3431
3432   3433   3434   3435
3436   3437   3438   3439
3440   3441   3442   3443
3444   3445   3446   3447
3448   3449   3450   3451
3452   3453   3454   3455
3456   3457   3458   3459
3460   3461   3462   3463
3464   3465   3466   3467
3468   3469   3470   3471
3472   3473   3474   3475
3476   3477   3478   3479
3480   3481   3482   3483
3484   3485   3486   3487
3488   3489   3490   3491
3492   3493   3494   3495
3496   3497   3498   3499
3500   3501   3502   3503
3504   3505   3506   3507
3508   3509   3510   3511
3512   3513   3514   3515
3516   3517   3518   3519
3520   3521   3522   3523
3524   3525   3526   3527
3528   3529   3530   3531
3532   3533   3534   3535
3536   3537   3538   3539
3540   3541   3542   3543
3544   3545   3546   3547
3548   3549   3550   3551
3552   3553   3554   3555
3556   3557   3558   3559
3560   3561   3562   3563
3564   3565   3566   3567
3568   3569   3570   3571
3572   3573   3574   3575
3576   3577   3578   3579
3580   3581   3582   3583
3584   3585   3586   3587
3588   3589   3590   3591
3592   3593   3594   3595
3596   3597   3598   3599
3600   3601   3602   3603
3604   3605   3606   3607
3608   3609   3610   3611
3612   3613   3614   3615
3616   3617   3618   3619
3620   3621   3622   3623
3624   3625   3626   3627
3628   3629   3630   3631
3632   3633   3634   3635
3636   3637   3638   3639
3640   3641   3642   3643
3644   3645   3646   3647
3648   3649   3650   3651
3652   3653   3654   3655
3656   3657   3658   3659
3660   3661   3662   3663
3664   3665   3666   3667
3668   3669   3670   3671
3672   3673   3674   3675
3676   3677   3678   3679
3680   3681   3682   3683
3684   3685   3686   3687
3688   3689   3690   3691
3692   3693   3694   3695
3696   3697   3698   3699
3700   3701   3702   3703
3704   3705   3706   3707
3708   3709   3710   3711
3712   3713   3714   3715
3716   3717   3718   3719
3720   3721   3722   3723
3724   3725   3726   3727
3728   3729   3730   3731
3732   3733   3734   3735
3736   3737   3738   3739
3740   3741   3742   3743
3744   3745   3746   3747
3748   3749   3750   3751
3752   3753   3754   3755
3756   3757   3758   3759
3760   3761   3762   3763
3764   3765   3766   3767
3768   3769   3770   3771
3772   3773   3774   3775
3776   3777   3778   3779
3780   3781   3782   3783
3784   3785   3786   3787
3788   3789   3790   3791
3792   3793   3794   3795
3796   3797   3798   3799
3800   3801   3802   3803
3804   3805   3806   3807
3808   3809   3810   3811
3812   3813   3814   3815
3816   3817   3818   3819
3820   3821   3822   3823
3824   3825   3826   3827
3828   3829   3830   3831
3832   3833   3834   3835
3836   3837   3838   3839
3840   3841   3842   3843
3844   3845   3846   3847
3848   3849   3850   3851
3852   3853   3854   3855
3856   3857   3858   3859
3860   3861   3862   3863
3864   3865   3866   3867
3868   3869   3870   3871
3872   3873   3874   3875
3876   3877   3878   3879
3880   3881   3882   3883
3884   3885   3886   3887
3888   3889   3890   3891
3892   3893   3894   3895
3896   3897   3898   3899
3900   3901   3902   3903
3904   3905   3906   3907
3908   3909   3910   3911
3912   3913   3914   3915
3916   3917   3918   3919
3920   3921   3922   3923
3924   3925   3926   3927
3928   3929   3930   3931
3932   3933   3934   3935
3936   3937   3938   3939
3940   3941   3942   3943
3944   3945   3946   3947
3948   3949   3950   3951
3952   3953   3954   3955
3956   3957   3958   3959
3960   3961   3962   3963
3964   3965   3966   3967
3968   3969   3970   3971
3972   3973   3974   3975
3976   3977   3978   3979
3980   3981   3982   3983
3984   3985   3986   3987
3988   3989   3990   3991
3992   3993   3994   3995
3996   3997   3998   3999
4000   4001   4002   4003
4004   4005   4006   4007
4008   4009   4010   4011
4012   4013   4014   4015
4016   4017   4018   4019
4020   4021   4022   4023
4024   4025   4026   4027
4028   4029   4030   4031
4032   4033   4034   4035
4036   4037   4038   4039
4040   4041   4042   4043
4044   4045   4046   4047
4048   4049   4050   4051
4052   4053   4054   4055
4056   4057   4058   4059
4060   4061   4062   4063
4064   4065   4066   4067
4068   4069   4070   4071
4072   4073   4074   4075
4076   4077   4078   4079
4080   4081   4082   4083
4084   4085   4086   4087
4088   4089   4090   4091
4092   4093   4094   4095
4096   4097   4098   4099
4100   4101   4102   4103
4104   4105   4106   4107
4108   4109   4110   4111
4112   4113   4114   4115
4116   4117   4118   4119
4120   4121   4122   4123
4124   4125   4126   4127
4128   4129   4130   4131
4132   4133   4134   4135
4136   4137   4138   4139
4140   4141   4142   4143
4144   4145   4146   4147
4148   4149   4150   4151
4152   4153   4154   4155
4156   4157   4158   4159
4160   4161   4162   4163
4164   4165   4166   4167
4168   4169   4170   4171
4172   4173   4174   4175
4176   4177   4178   4179
4180   4181   4182   4183
4184   4185   4186   4187
4188   4189   4190   4191
4192   4193   4194   4195
4196   4197   4198   4199
4200   4201   4202   4203
4204   4205   4206   4207
4208   4209   4210   4211
4212   4213   4214   4215
4216   4217   4218   4219
4220   4221   4222   4223
4224   4225   4226   4227
4228   4229   4230   4231
4232   4233   4234   4235
4236   4237   4238   4239
4240   4241   4242   4243
4244   4245   4246   4247
4248   4249   4250   4251
4252   4253   4254   4255
4256   4257   4258   4259
4260   4261   4262   4263
4264   4265   4266   4267
4268   4269   4270   4271
4272   4273   4274   4275
4276   4277   4278   4279
4280   4281   4282   4283
4284   4285   4286   4287
4288   4289   4290   4291
4292   4293   4294   4295
4296   4297   4298   4299
4300   4301   4302   4303
4304   4305   4306   4307
4308   4309   4310   4311
4312   4313   4314   4315
4316   4317   4318   4319
4320   4321   4322   4323
4324   4325   4326   4327
4328   4329   4330   4331
4332   4333   4334   4335
4336   4337   4338   4339
4340   4341   4342   4343
4344   4345   4346   4347
4348   4349   4350   4351
4352   4353   4354   4355
4356   4357   4358   4359
4360   4361   4362   4363
4364   4365   4366   4367
4368   4369   4370   4371
4372   4373   4374   4375
4376   4377   4378   4379
4380   4381   4382   4383
4384   4385   4386   4387
4388   4389   4390   4391
4392   4393   4394   4395
4396   4397   4398   4399
4400   4401   4402   4403
4404   4405   4406   4407
4408   4409   4410   4411
4412   4413   4414   4415
4416   4417   4418   4419
4420   4421   4422   4423
4424   4425   4426   4427
4428   4429   4430   4431
4432   4433   4434   4435
4436   4437   4438   4439
4440   4441   4442   4443
4444   4445   4446   4447
4448   4449   4450   4451
4452   4453   4454   4455
4456   4457   4458   4459
4460   4461   4462   4463
4464   4465   4466   4467
4468   4469   4470   4471
4472   4473   4474   4475
4476   4477   4478   4479
4480   4481   4482   4483
4484   4485   4486   4487
4488   4489   4490   4491
4492   4493   4494   4495
4496   4497   4498   4499
4500   4501   4502   4503
4504   4505   4506   4507
4508   4509   4510   4511
4512   4513   4514   4515
4516   4517   4518   4519
4520   4521   4522   4523
4524   4525   4526   4527
4528   4529   4530   4531
4532   4533   4534   4535
4536   4537   4538   4539
4540   4541   4542   4543
4544   4545   4546   4547
4548   4549   4550   4551
4552   4553   4554   4555
4556   4557   4558   4559
4560   4561   4562   4563
4564   4565   4566   4567
4568   4569   4570   4571
4572   4573   4574   4575
4576   4577   4578   4579
4580   4581   4582   4583
4584   4585   4586   4587
4588   4589   4590   4591
4592   4593   4594   4595
4596   4597   4598   4599
4600   4601   4602   4603
4604   4605   4606   4607
4608   4609   4610   4611
4612   4613   4614   4615
4616   4617   4618   4619
4620   4621   4622   4623
4624   4625   4626   4627
4628   4629   4630   4631
4632   4633   4634   4635
4636   4637   4638   4639
4640   4641   4642   4643
4644   4645   4646   4647
4648   4649   4650   4651
4652   4653   4654   4655
4656   4657   4658   4659
4660   4661   4662   4663
4664   4665   4666   4667
4668   4669   4670   4671
4672   4673   4674   4675
4676   4677   4678   4679
4680   4681   4682   4683
4684   4685   4686   4687
4688   4689   4690   4691
4692   4693   4694   4695
4696   4697   4698   4699
4700   4701   4702   4703
4704   4705   4706   4707
4708   4709   4710   4711
4712   4713   4714   4715
4716   4717   4718   4719
4720   4721   4722   4723
4724   4725   4726   4727
4728   4729   4730   4731
4732   4733   4734   4735
4736   4737   4738   4739
4740   4741   4742   4743
4744   4745   4746   4747
4748   4749   4750   4751
4752   4753   4754   4755
4756   4757   4758   4759
4760   4761   4762   4763
4764   4765   4766   4767
4768   4769   4770   4771
4772   4773   4774   4775
4776   4777   4778   4779
4780   4781   4782   4783
4784   4785   4786   4787
4788   4789   4790   4791
4792   4793   4794   4795
4796   4797   4798   4799
4800   4801   4802   4803
4804   4805   4806   4807
4808   4809   4810   4811
4812   4813   4814   4815
4816   4817   4818   4819
4820   4821   4822   4823
4824   4825   4826   4827
4828   4829   4830   4831
4832   4833   4834   4835
4836   4837   4838   4839
4840   4841   4842   4843
4844   4845   4846   4847
4848   4849   4850   4851
4852   4853   4854   4855
4856   4857   4858   4859
4860   4861   4862   4863
4864   4865   4866   4867
4868   4869   4870   4871
4872   4873   4874   4875
4876   4877   4878   4879
4880   4881   4882   4883
4884   4885   4886   4887
4888   4889   4890   4891
4892   4893   4894   4895
4896   4897   4898   4899
4900   4901   4902   4903
4904   4905   4906   4907
4908   4909   4910   4911
4912   4913   4914   4915
4916   4917   4918   4919
4920   4921   4922   4923
4924   4925   4926   4927
4928   4929   4930   4931
4932   4933   4934   4935
4936   4937   4938   4939
4940   4941   4942   4943
4944   4945   4946   4947
4948   4949   4950   4951
4952   4953   4954   4955
4956   4957   4958   4959
4960   4961   4962   4963
4964   4965   4966   4967
4968   4969   4970   4971
4972   4973   4974   4975
4976   4977   4978   4979
4980   4981   4982   4983
4984   4985   4986   4987
4988   4989   4990   4991
4992   4993   4994   4995
4996   4997   4998   4999
5000   5001   5002   5003
5004   5005   5006   5007
5008   5009   5010   5011
5012   5013   5014   5015
5016   5017   5018   5019
5020   5021   5022   5023
5024   5025   5026   5027
5028   5029   5030   5031
5032   5033   5034   5035
5036   5037   5038   5039
5040   5041   5042   5043
5044   5045   5046   5047
5048   5049   5050   5051
5052   5053   5054   5055
5056   5057   5058   5059
5060   5061   5062   5063
5064   5065   5066   5067
5068   5069   5070   5071
5072   5073   5074   5075
5076   5077   5078   5079
5080   5081   5082   5083
5084   5085   5086   5087
5088   5089   5090   5091
5092   5093   5094   5095
5096   5097   5098   5099
5100   5101   5102   5103
5104   5105   5106   5107
5108   5109   5110   5111
5112   5113   5114   5115
5116   5117   5118   5119
5120   5121   5122   5123
5124   5125   5126   5127
5128   5129   5130   5131
5132   5133   5134   5135
5136   5137   5138   5139
5140   5141   5142   5143
5144   5145   5146   5147
5148   5149   5150   5151
5152   5153   5154   5155
5156   5157   5158   5159
5160   5161   5162   5163
5164   5165   5166   5167
5168   5169   5170   5171
5172   5173   5174   5175
5176   5177   5178   5179
5180   5181   5182   5183
5184   5185   5186   5187
5188   5189   5190   5191
5192   5193   5194   5195
5196   5197   5198   5199
5200   5201   5202   5203
5204   5205   5206   5207
5208   5209   5210   5211
5212   5213   5214   5215
5216   5217   5218   5219
5220   5221   5222   5223
5224   5225   5226   5227
5228   5229   5230   5231
5232   5233   5234   5235
5236   5237   5238   5239
5240   5241   5242   5243
5244   5245   5246   5247
5248   5249   5250   5251
5252   5253   5254   5255
5256   5257   5258   5259
5260   5261   5262   5263
5264   5265   5266   5267
5268   5269   5270   5271
5272   5273   5274   5275
5276   5277   5278   5279
5280   5281   5282   5283
5284   5285   5286   5287
5288   5289   5290   5291
5292   5293   5294   5295
5296   5297   5298   5299
5300   5301   5302   5303
5304   5305   5306   5307
5308   5309   5310   5311
5312   5313   5314   5315
5316   5317   5318   5319
5320   5321   5322   5323
5324   5325   5326   5327
5328   5329   5330   5331
5332   5333   5334   5335
5336   5337   5338   5339
5340   5341   5342   5343
5344   5345   5346   5347
5348   5349   5350   5351
5352   5353   5354   5355
5356   5357   5358   5359
5360   5361   5362   5363
5364   5365   5366   5367
5368   5369   5370   5371
5372   5373   5374   5375
5376   5377   5378   5379
5380   5381   5382   5383
5384   5385   5386   5387
5388   5389   5390   5391
5392   5393   5394   5395
5396   5397   5398   5399
5400   5401   5402   5403
5404   5405   5406   5407
5408   5409   5410   5411
5412   5413   5414   5415
5416   5417   5418   5419
5420   5421   5422   5423
5424   5425   5426   5427
5428   5429   5430   5431
5432   5433   5434   5435
5436   5437   5438   5439
5440   5441   5442   5443
5444   5445   5446   5447
5448   5449   5450   5451
5452   5453   5454   5455
5456   5457   5458   5459
5460   5461   5462   5463
5464   5465   5466   5467
5468   5469   5470   5471
5472   5473   5474   5475
5476   5477   5478   5479
5480   5481   5482   5483
5484   5485   5486   5487
5488   5489   5490   5491
5492   5493   5494   5495
5496   5497   5498   5499
5500   5501   5502   5503
5504   5505   5506   5507
5508   5509   5510   5511
5512   5513   5514   5515
5516   5517   5518   5519
5520   5521   5522   5523
5524   5525   5526   5527
5528   5529   5530   5531
5532   5533   5534   5535
5536   5537   5538   5539
5540   5541   5542   5543
5544   5545   5546   5547
5548   5549   5550   5551
5552   5553   5554   5555
5556   5557   5558   5559
5560   5561   5562   5563
5564   5565   5566   5567
5568   5569   5570   5571
5572   5573   5574   5575
5576   5577   5578   5579
5580   5581   5582   5583
5584   5585   5586   5587
5588   5589   5590   5591
5592   5593   5594   5595
5596   5597   5598   5599
5600   5601   5602   5603
5604   5605   5606   5607
5608   5609   5610   5611
5612   5613   5614   5615
5616   5617   5618   5619
5620   5621   5622   5623
5624   5625   5626   5627
5628   5629   5630   5631
5632   5633   5634   5635
5636   5637   5638   5639
5640   5641   5642   5643
5644   5645   5646   5647
5648   5649   5650   5651
5652   5653   5654   5655
5656   5657   5658   5659
5660   5661   5662   5663
5664   5665   5666   5667
5668   5669   5670   5671
5672   5673   5674   5675
5676   5677   5678   5679
5680   5681   5682   5683
5684   5685   5686   5687
5688   5689   5690   5691
5692   5693   5694   5695
5696   5697   5698   5699
5700   5701   5702   5703
5704   5705   5706   5707
5708   5709   5710   5711
5712   5713   5714   5715
5716   5717   5718   5719
5720   5721   5722   5723
5724   5725   5726   5727
5728   5729   5730   5731
5732   5733   5734   5735
5736   5737   5738   5739
5740   5741   5742   5743
5744   5745   5746   5747
5748   5749   5750   5751
5752   5753   5754   5755
5756   5757   5758   5759
5760   5761   5762   5763
5764   5765   5766   5767
5768   5769   5770   5771
5772   5773   5774   5775
5776   5777   5778   5779
5780   5781   5782   5783
5784   5785   5786   5787
5788   5789   5790   5791
5792   5793   5794   5795
5796   5797   5798   5799
5800   5801   5802   5803
5804   5805   5806   5807
5808   5809   5810   5811
5812   5813   5814   5815
5816   5817   5818   5819
5820   5821   5822   5823
5824   5825   5826   5827
5828   5829   5830   5831
5832   5833   5834   5835
5836   5837   5838   5839
5840   5841   5842   5843
5844   5845   5846   5847
5848   5849   5850   5851
5852   5853   5854   5855
5856   5857   5858   5859
5860   5861   5862   5863
5864   5865   5866   5867
5868   5869   5870   5871
5872   5873   5874   5875
5876   5877   5878   5879
5880   5881   5882   5883
5884   5885   5886   5887
5888   5889   5890   5891
5892   5893   5894   5895
5896   5897   5898   5899
5900   5901   5902   5903
5904   5905   5906   5907
5908   5909   5910   5911
5912   5913   5914   5915
5916   5917   5918   5919
5920   5921   5922   5923
5924   5925   5926   5927
5928   5929   5930   5931
5932   5933   5934   5935
5936   5937   5938   5939
5940   5941   5942   5943
5944   5945   5946   5947
5948   5949   5950   5951
5952   5953   5954   5955
5956   5957   5958   5959
5960   5961   5962   5963
5964   5965   5966   5967
5968   5969   5970   5971
5972   5973   5974   5975
5976   5977   5978   5979
5980   5981   5982   5983
5984   5985   5986   5987
5988   5989   5990   5991
5992   5993   5994   5995
5996   5997   5998   5999
              </DataArray>   
              <DataArray type="Int32" Name="offsets" format="ascii">   
4
8
12
16
20
24
28
32
36
40
44
48
52
56
60
64
68
72
76
80
84
88
92
96
100
104
108
112
116
120
124
128
132
136
140
144
148
152
156
160
164
168
172
176
180
184
188
192
196
200
204
208
212
216
220
224
228
232
236
240
244
248
252
256
260
264
268
272
276
280
284
288
292
296
300
304
308
312
316
320
324
328
332
336
340
344
348
352
356
360
364
368
372
376
380
384
388
392
396
400
404
408
412
416
420
424
428
432
436
440
444
448
452
456
460
464
468
472
476
480
484
488
492
496
500
504
508
512
516
520
524
528
532
536
540
544
548
552
556
560
564
568
572
576
580
584
588
592
596
600
604
608
612
616
620
624
628
632
636
640
644
648
652
656
660
664
668
672
676
680
684
688
692
696
700
704
708
712
716
720
724
728
732
736
740
744
748
752
756
760
764
768
772
776
780
784
788
792
796
800
804
808
812
816
820
824
828
832
836
840
844
848
852
856
860
864
868
872
876
880
884
888
892
896
900
904
908
912
916
920
924
928
932
936
940
944
948
952
956
960
964
968
972
976
980
984
988
992
996
1000
1004
1008
1012
1016
1020
1024
1028
1032
1036
1040
1044
1048
1052
1056
1060
1064
1068
1072
1076
1080
1084
1088
1092
1096
1100
1104
1108
1112
1116
1120
1124
1128
1132
1136
1140
1144
1148
1152
1156
1160
1164
1168
1172
1176
1180
1184
1188
1192
1196
1200
1204
1208
1212
1216
1220
1224
1228
1232
1236
1240
1244
1248
1252
1256
1260
1264
1268
1272
1276
1280
1284
1288
1292
1296
1300
1304
1308
1312
1316
1320
1324
1328
1332
1336
1340
1344
1348
1352
1356
1360
1364
1368
1372
1376
1380
1384
1388
1392
1396
1400
1404
1408
1412
1416
1420
1424
1428
1432
1436
1440
1444
1448
1452
1456
1460
1464
1468
1472
1476
1480
1484
1488
1492
1496
1500
1504
1508
1512
1516
1520
1524
1528
1532
1536
1540
1544
1548
1552
1556
1560
1564
1568
1572
1576
1580
1584
1588
1592
1596
1600
1604
1608
1612
1616
1620
1624
1628
1632
1636
1640
1644
1648
1652
1656
1660
1664
1668
1672
1676
1680
1684
1688
1692
1696
1700
1704
1708
1712
1716
1720
1724
1728
1732
1736
1740
1744
1748
1752
1756
1760
1764
1768
1772
1776
1780
1784
1788
1792
1796
1800
1804
1808
1812
1816
1820
1824
1828
1832
1836
1840
1844
1848
1852
1856
1860
1864
1868
1872
1876
1880
1884
1888
1892
1896
1900
1904
1908
1912
1916
1920
1924
1928
1932
1936
1940
1944
1948
1952
1956
1960
1964
1968
1972
1976
1980
1984
1988
1992
1996
2000
2004
2008
2012
2016
2020
2024
2028
2032
2036
2040
2044
2048
2052
2056
2060
2064
2068
2072
2076
2080
2084
2088
2092
2096
2100
2104
2108
2112
2116
2120
2124
2128
2132
2136
2140
2144
2148
2152
2156
2160
2164
2168
2172
2176
2180
2184
2188
2192
2196
2200
2204
2208
2212
2216
2220
2224
2228
2232
2236
2240
2244
2248
2252
2256
2260
2264
2268
2272
2276
2280
2284
2288
2292
2296
2300
2304
2308
2312
2316
2320
2324
2328
2332
2336
2340
2344
2348
2352
2356
2360
2364
2368
2372
2376
2380
2384
2388
2392
2396
2400
2404
2408
2412
2416
2420
2424
2428
2432
2436
2440
2444
2448
2452
2456
2460
2464
2468
2472
2476
2480
2484
2488
2492
2496
2500
2504
2508
2512
2516
2520
2524
2528
2532
2536
2540
2544
2548
2552
2556
2560
2564
2568
2572
2576
2580
2584
2588
2592
2596
2600
2604
2608
2612
2616
2620
2624
2628
2632
2636
2640
2644
2648
2652
2656
2660
2664
2668
2672
2676
2680
2684
2688
2692
2696
2700
2704
2708
2712
2716
2720
2724
2728
2732
2736
2740
2744
2748
2752
2756
2760
2764
2768
2772
2776
2780
2784
2788
2792
2796
2800
2804
2808
2812
2816
2820
2824
2828
2832
2836
2840
2844
2848
2852
2856
2860
2864
2868
2872
2876
2880
2884
2888
2892
2896
2900
2904
2908
2912
2916
2920
2924
2928
2932
2936
2940
2944
2948
2952
2956
2960
2964
2968
2972
2976
2980
2984
2988
2992
2996
3000
3004
3008
3012
3016
3020
3024
3028
3032
3036
3040
3044
3048
3052
3056
3060
3064
3068
3072
3076
3080
3084
3088
3092
3096
3100
3104
3108
3112
3116
3120
3124
3128
3132
3136
3140
3144
3148
3152
3156
3160
3164
3168
3172
3176
3180
3184
3188
3192
3196
3200
3204
3208
3212
3216
3220
3224
3228
3232
3236
3240
3244
3248
3252
3256
3260
3264
3268
3272
3276
3280
3284
3288
3292
3296
3300
3304
3308
3312
3316
3320
3324
3328
3332
3336
3340
3344
3348
3352
3356
3360
3364
3368
3372
3376
3380
3384
3388
3392
3396
3400
3404
3408
3412
3416
3420
3424
3428
3432
3436
3440
3444
3448
3452
3456
3460
3464
3468
3472
3476
3480
3484
3488
3492
3496
3500
3504
3508
3512
3516
3520
3524
3528
3532
3536
3540
3544
3548
3552
3556
3560
3564
3568
3572
3576
3580
3584
3588
3592
3596
3600
3604
3608
3612
3616
3620
3624
3628
3632
3636
3640
3644
3648
3652
3656
3660
3664
3668
3672
3676
3680
3684
3688
3692
3696
3700
3704
3708
3712
3716
3720
3724
3728
3732
3736
3740
3744
3748
3752
3756
3760
3764
3768
3772
3776
3780
3784
3788
3792
3796
3800
3804
3808
3812
3816
3820
3824
3828
3832
3836
3840
3844
3848
3852
3856
3860
3864
3868
3872
3876
3880
3884
3888
3892
3896
3900
3904
3908
3912
3916
3920
3924
3928
3932
3936
3940
3944
3948
3952
3956
3960
3964
3968
3972
3976
3980
3984
3988
3992
3996
4000
4004
4008
4012
4016
4020
4024
4028
4032
4036
4040
4044
4048
4052
4056
4060
4064
4068
4072
4076
4080
4084
4088
4092
4096
4100
4104
4108
4112
4116
4120
4124
4128
4132
4136
4140
4144
4148
4152
4156
4160
4164
4168
4172
4176
4180
4184
4188
4192
4196
4200
4204
4208
4212
4216
4220
4224
4228
4232
4236
4240
4244
4248
4252
4256
4260
4264
4268
4272
4276
4280
4284
4288
4292
4296
4300
4304
4308
4312
4316
4320
4324
4328
4332
4336
4340
4344
4348
4352
4356
4360
4364
4368
4372
4376
4380
4384
4388
4392
4396
4400
4404
4408
4412
4416
4420
4424
4428
4432
4436
4440
4444
4448
4452
4456
4460
4464
4468
4472
4476
4480
4484
4488
4492
4496
4500
4504
4508
4512
4516
4520
4524
4528
4532
4536
4540
4544
4548
4552
4556
4560
4564
4568
4572
4576
4580
4584
4588
4592
4596
4600
4604
4608
4612
4616
4620
4624
4628
4632
4636
4640
4644
4648
4652
4656
4660
4664
4668
4672
4676
4680
4684
4688
4692
4696
4700
4704
4708
4712
4716
4720
4724
4728
4732
4736
4740
4744
4748
4752
4756
4760
4764
4768
4772
4776
4780
4784
4788
4792
4796
4800
4804
4808
4812
4816
4820
4824
4828
4832
4836
4840
4844
4848
4852
4856
4860
4864
4868
4872
4876
4880
4884
4888
4892
4896
4900
4904
4908
4912
4916
4920
4924
4928
4932
4936
4940
4944
4948
4952
4956
4960
4964
4968
4972
4976
4980
4984
4988
4992
4996
5000
5004
5008
5012
5016
5020
5024
5028
5032
5036
5040
5044
5048
5052
5056
5060
5064
5068
5072
5076
5080
5084
5088
5092
5096
5100
5104
5108
5112
5116
5120
5124
5128
5132
5136
5140
5144
5148
5152
5156
5160
5164
5168
5172
5176
5180
5184
5188
5192
5196
5200
5204
5208
5212
5216
5220
5224
5228
5232
5236
5240
5244
5248
5252
5256
5260
5264
5268
5272
5276
5280
5284
5288
5292
5296
5300
5304
5308
5312
5316
5320
5324
5328
5332
5336
5340
5344
5348
5352
5356
5360
5364
5368
5372
5376
5380
5384
5388
5392
5396
5400
5404
5408
5412
5416
5420
5424
5428
5432
5436
5440
5444
5448
5452
5456
5460
5464
5468
5472
5476
5480
5484
5488
5492
5496
5500
5504
5508
5512
5516
5520
5524
5528
5532
5536
5540
5544
5548
5552
5556
5560
5564
5568
5572
5576
5580
5584
5588
5592
5596
5600
5604
5608
5612
5616
5620
5624
5628
5632
5636
5640
5644
5648
5652
5656
5660
5664
5668
5672
5676
5680
5684
5688
5692
5696
5700
5704
5708
5712
5716
5720
5724
5728
5732
5736
5740
5744
5748
5752
5756
5760
5764
5768
5772
5776
5780
5784
5788
5792
5796
5800
5804
5808
5812
5816
5820
5824
5828
5832
5836
5840
5844
5848
5852
5856
5860
5864
5868
5872
5876
5880
5884
5888
5892
5896
5900
5904
5908
5912
5916
5920
5924
5928
5932
5936
5940
5944
5948
5952
5956
5960
5964
5968
5972
5976
5980
5984
5988
5992
5996
6000
              </DataArray>   
              <DataArray type="UInt8" Name="types" format="ascii">   
10
10
10
10
10
10
10
10
10
10
10
10
10
10
10
10
10
10
10
10
10
10
10
10
10
10
10
10
10
10
10
10
10
10
10
10
10
10
10
10
10
10
10
10
10
10
10
10
10
10
10
10
10
10
10
10
10
10
10
10
10
10
10
10
10
10
10
10
10
10
10
10
10
10
10
10
10
10
10
10
10
10
10
10
10
10
10
10
10
10
10
10
10
10
10
10
10
10
10
10
10
10
10
10
10
10
10
10
10
10
10
10
10
10
10
10
10
10
10
10
10
10
10
10
10
10
10
10
10
10
10
10
10
10
10
10
10
10
10
10
10
10
10
10
10
10
10
10
10
10
10
10
10
10
10
10
10
10
10
10
10
10
10
10
10
10
10
10
10
10
10
10
10
10
10
10
10
10
10
10
10
10
10
10
10
10
10
10
10
10
10
10
10
10
10
10
10
10
10
10
10
10
10
10
10
10
10
10
10
10
10
10
10
10
10
10
10
10
10
10
10
10
10
10
10
10
10
10
10
10
10
10
10
10
10
10
10
10
10
10
10
10
10
10
10
10
10
10
10
10
10
10
10
10
10
10
10
10
10
10
10
10
10
10
10
10
10
10
10
10
10
10
10
10
10
10
10
10
10
10
10
10
10
10
10
10
10
10
10
10
10
10
10
10
10
10
10
10
10
10
10
10
10
10
10
10
10
10
10
10
10
10
10
10
10
10
10
10
10
10
10
10
10
10
10
10
10
10
10
10
10
10
10
10
10
10
10
10
10
10
10
10
10
10
10
10
10
10
10
10
10
10
10
10
10
10
10
10
10
10
10
10
10
10
10
10
10
10
10
10
10
10
10
10
10
10
10
10
10
10
10
10
10
10
10
10
10
10
10
10
10
10
10
10
10
10
10
10
10
10
10
10
10
10
10
10
10
10
10
10
10
10
10
10
10
10
10
10
10
10
10
10
10
10
10
10
10
10
10
10
10
10
10
10
10
10
10
10
10
10
10
10
10
10
10
10
10
10
10
10
10
10
10
10
10
10
10
10
10
10
10
10
10
10
10
10
10
10
10
10
10
10
10
10
10
10
10
10
10
10
10
10
10
10
10
10
10
10
10
10
10
10
10
10
10
10
10
10
10
10
10
10
10
10
10
10
10
10
10
10
10
10
10
10
10
10
10
10
10
10
10
10
10
10
10
10
10
10
10
10
10
10
10
10
10
10
10
10
10
10
10
10
10
10
10
10
10
10
10
10
10
10
10
10
10
10
10
10
10
10
10
10
10
10
10
10
10
10
10
10
10
10
10
10
10
10
10
10
10
10
10
10
10
10
10
10
10
10
10
10
10
10
10
10
10
10
10
10
10
10
10
10
10
10
10
10
10
10
10
10
10
10
10
10
10
10
10
10
10
10
10
10
10
10
10
10
10
10
10
10
10
10
10
10
10
10
10
10
10
10
10
10
10
10
10
10
10
10
10
10
10
10
10
10
10
10
10
10
10
10
10
10
10
10
10
10
10
10
10
10
10
10
10
10
10
10
10
10
10
10
10
10
10
10
10
10
10
10
10
10
10
10
10
10
10
10
10
10
10
10
10
10
10
10
10
10
10
10
10
10
10
10
10
10
10
10
10
10
10
10
10
10
10
10
10
10
10
10
10
10
10
10
10
10
10
10
10
10
10
10
10
10
10
10
10
10
10
10
10
10
10
10
10
10
10
10
10
10
10
10
10
10
10
10
10
10
10
10
10
10
10
10
10
10
10
10
10
10
10
10
10
10
10
10
10
10
10
10
10
10
10
10
10
10
10
10
10
10
10
10
10
10
10
10
10
10
10
10
10
10
10
10
10
10
10
10
10
10
10
10
10
10
10
10
10
10
10
10
10
10
10
10
10
10
10
10
10
10
10
10
10
10
10
10
10
10
10
10
10
10
10
10
10
10
10
10
10
10
10
10
10
10
10
10
10
10
10
10
10
10
10
10
10
10
10
10
10
10
10
10
10
10
10
10
10
10
10
10
10
10
10
10
10
10
10
10
10
10
10
10
10
10
10
10
10
10
10
10
10
10
10
10
10
10
10
10
10
10
10
10
10
10
10
10
10
10
10
10
10
10
10
10
10
10
10
10
10
10
10
10
10
10
10
10
10
10
10
10
10
10
10
10
10
10
10
10
10
10
10
10
10
10
10
10
10
10
10
10
10
10
10
10
10
10
10
10
10
10
10
10
10
10
10
10
10
10
10
10
10
10
10
10
10
10
10
10
10
10
10
10
10
10
10
10
10
10
10
10
10
10
10
10
10
10
10
10
10
10
10
10
10
10
10
10
10
10
10
10
10
10
10
10
10
10
10
10
10
10
10
10
10
10
10
10
10
10
10
10
10
10
10
10
10
10
10
10
10
10
10
10
10
10
10
10
10
10
10
10
10
10
10
10
10
10
10
10
10
10
10
10
10
10
10
10
10
10
10
10
10
10
10
10
10
10
10
10
10
10
10
10
10
10
10
10
10
10
10
10
10
10
10
10
10
10
10
10
10
10
10
10
10
10
10
10
10
10
10
10
10
10
10
10
10
10
10
10
10
10
10
10
10
10
10
10
10
10
10
10
10
10
10
10
10
10
10
10
10
10
10
10
10
10
10
10
10
10
10
10
10
10
10
10
10
10
10
10
10
10
10
10
10
10
10
10
10
10
10
10
10
10
10
10
10
10
10
10
10
10
10
10
10
10
10
10
10
10
10
10
10
10
10
10
10
10
10
10
10
10
10
10
10
10
10
10
10
10
10
10
10
10
10
10
10
10
10
10
10
10
10
10
10
10
10
10
10
10
10
10
10
10
10
10
10
10
10
10
10
10
10
10
10
10
10
10
10
10
10
10
10
10
10
10
10
10
10
10
10
10
10
10
10
10
10
10
10
10
10
10
10
10
10
10
10
10
10
10
10
10
10
10
10
10
10
10
10
10
10
10
10
10
10
10
10
10
10
10
10
10
10
10
10
10
10
10
10
10
10
10
10
10
10
10
10
10
10
10
10
10
10
10
10
10
10
10
10
10
10
10
10
10
10
10
10
10
10
10
10
10
10
10
10
10
10
10
10
10
10
10
10
10
10
10
10
10
10
10
10
10
10
10
10
10
10
10
10
10
10
10
10
10
10
10
10
10
10
10
10
10
10
10
10
10
10
10
10
10
10
10
10
10
10
10
10
10
10
10
10
10
10
10
10
10
10
10
10
10
10
10
10
10
10
10
10
10
10
10
10
10
10
10
10
10
10
10
10
10
10
10
10
10
10
10
10
10
10
10
10
10
10
10
10
10
10
10
10
10
10
10
10
10
10
10
10
10
10
10
10
10
10
10
10
10
10
10
10
10
10
10
10
10
10
10
10
10
10
10
10
10
10
10
              </DataArray>   
          </Cells>  
          <PointData>  
             <DataArray type="Float64" NumberOfComponents="3" Name="Strains" format="ascii">   
-8.811470777282581e-05   0.0   -5.784762011345338e-05
-8.811470777282581e-05   0.0   -5.784762011345338e-05
-8.811470777282581e-05   0.0   -5.784762011345338e-05
-8.811470777282581e-05   0.0   -5.784762011345338e-05
-5.606733686609988e-05   9.759060494663735e-06   1.4201010278879698e-06
-5.606733686609988e-05   9.759060494663735e-06   1.4201010278879698e-06
-5.606733686609988e-05   9.759060494663735e-06   1.4201010278879698e-06
-5.606733686609988e-05   9.759060494663735e-06   1.4201010278879698e-06
-5.495745030111076e-05   0.0   -5.459908309714204e-05
-5.495745030111076e-05   0.0   -5.459908309714204e-05
-5.495745030111076e-05   0.0   -5.459908309714204e-05
-5.495745030111076e-05   0.0   -5.459908309714204e-05
-9.221490587969132e-05   1.1712495372744302e-05   4.6917897684591535e-07
-9.221490587969132e-05   1.1712495372744302e-05   4.6917897684591535e-07
-9.221490587969132e-05   1.1712495372744302e-05   4.6917897684591535e-07
-9.221490587969132e-05   1.1712495372744302e-05   4.6917897684591535e-07
-7.153607903696816e-05   2.7071141802594446e-06   -2.8592303712201764e-05
-7.153607903696816e-05   2.7071141802594446e-06   -2.8592303712201764e-05
-7.153607903696816e-05   2.7071141802594446e-06   -2.8592303712201764e-05
-7.153607903696816e-05   2.7071141802594446e-06   -2.8592303712201764e-05
-9.221490587969149e-05   0.0   -6.162658032078864e-05
-9.221490587969149e-05   0.0   -6.162658032078864e-05
-9.221490587969149e-05   0.0   -6.162658032078864e-05
-9.221490587969149e-05   0.0   -6.162658032078864e-05
-5.495745030111076e-05   1.1712495372744316e-05   7.496676200492502e-06
-5.495745030111076e-05   1.1712495372744316e-05   7.496676200492502e-06
-5.495745030111076e-05   1.1712495372744316e-05   7.496676200492502e-06
-5.495745030111076e-05   1.1712495372744316e-05   7.496676200492502e-06
-5.511129806235458e-05   0.0   -5.5935169433819757e-05
-5.511129806235458e-05   0.0   -5.5935169433819757e-05
-5.511129806235458e-05   0.0   -5.5935169433819757e-05
-5.511129806235458e-05   0.0   -5.5935169433819757e-05
-9.509391057787916e-05   1.2548479668886888e-05   3.1734302907226813e-06
-9.509391057787916e-05   1.2548479668886888e-05   3.1734302907226813e-06
-9.509391057787916e-05   1.2548479668886888e-05   3.1734302907226813e-06
-9.509391057787916e-05   1.2548479668886888e-05   3.1734302907226813e-06
-7.36631019710229e-05   4.742842405807393e-06   -2.7861201696190033e-05
-7.36631019710229e-05   4.742842405807393e-06   -2.7861201696190033e-05
-7.36631019710229e-05   4.742842405807393e-06   -2.7861201696190033e-05
-7.36631019710229e-05   4.742842405807393e-06   -2.7861201696190033e-05
-9.509391057787933e-05   0.0   -6.34642572351519e-05
-9.509391057787933e-05   0.0   -6.34642572351519e-05
-9.509391057787933e-05   0.0   -6.34642572351519e-05
-9.509391057787933e-05   0.0   -6.34642572351519e-05
-5.511129806235458e-05   1.2548479668886915e-05   1.0702518092054806e-05
-5.511129806235458e-05   1.2548479668886915e-05   1.0702518092054806e-05
-5.511129806235458e-05   1.2548479668886915e-05   1.0702518092054806e-05
-5.511129806235458e-05   1.2548479668886915e-05   1.0702518092054806e-05
-5.508104302366178e-05   0.0   -5.6278670412889387e-05
-5.508104302366178e-05   0.0   -5.6278670412889387e-05
-5.508104302366178e-05   0.0   -5.6278670412889387e-05
-5.508104302366178e-05   0.0   -5.6278670412889387e-05
-0.00010129721312654369   1.4296246229895956e-05   1.217053202064313e-05
-0.00010129721312654369   1.4296246229895956e-05   1.217053202064313e-05
-0.00010129721312654369   1.4296246229895956e-05   1.217053202064313e-05
-0.00010129721312654369   1.4296246229895956e-05   1.217053202064313e-05
-7.508747680077042e-05   5.987989018552089e-06   -2.6527407528839287e-05
-7.508747680077042e-05   5.987989018552089e-06   -2.6527407528839287e-05
-7.508747680077042e-05   5.987989018552089e-06   -2.6527407528839287e-05
-7.508747680077042e-05   5.987989018552089e-06   -2.6527407528839287e-05
-5.6067336866099973e-05   0.0   -5.1992183816655134e-05
-5.6067336866099973e-05   0.0   -5.1992183816655134e-05
-5.6067336866099973e-05   0.0   -5.1992183816655134e-05
-5.6067336866099973e-05   0.0   -5.1992183816655134e-05
-2.5534689006917492e-05   3.578784418787587e-06   1.0428332665881837e-06
-2.5534689006917492e-05   3.578784418787587e-06   1.0428332665881837e-06
-2.5534689006917492e-05   3.578784418787587e-06   1.0428332665881837e-06
-2.5534689006917492e-05   3.578784418787587e-06   1.0428332665881837e-06
-2.4557789629965342e-05   0.0   -5.154156849151253e-05
-2.4557789629965342e-05   0.0   -5.154156849151253e-05
-2.4557789629965342e-05   0.0   -5.154156849151253e-05
-2.4557789629965342e-05   0.0   -5.154156849151253e-05
-5.495745030111076e-05   5.0958576760491914e-06   -3.932981978566348e-06
-5.495745030111076e-05   5.0958576760491914e-06   -3.932981978566348e-06
-5.495745030111076e-05   5.0958576760491914e-06   -3.932981978566348e-06
-5.495745030111076e-05   5.0958576760491914e-06   -3.932981978566348e-06
-4.031256324803259e-05   3.7551277095216625e-07   -2.550892012397158e-05
-4.031256324803259e-05   3.7551277095216625e-07   -2.550892012397158e-05
-4.031256324803259e-05   3.7551277095216625e-07   -2.550892012397158e-05
-4.031256324803259e-05   3.7551277095216625e-07   -2.550892012397158e-05
-5.495745030111071e-05   0.0   -5.459908309714199e-05
-5.495745030111071e-05   0.0   -5.459908309714199e-05
-5.495745030111071e-05   0.0   -5.459908309714199e-05
-5.495745030111071e-05   0.0   -5.459908309714199e-05
-2.4557789629965342e-05   5.0958576760491914e-06   -8.754673729368415e-07
-2.4557789629965342e-05   5.0958576760491914e-06   -8.754673729368415e-07
-2.4557789629965342e-05   5.0958576760491914e-06   -8.754673729368415e-07
-2.4557789629965342e-05   5.0958576760491914e-06   -8.754673729368415e-07
-2.4008666051393805e-05   0.0   -5.218831806579233e-05
-2.4008666051393805e-05   0.0   -5.218831806579233e-05
-2.4008666051393805e-05   0.0   -5.218831806579233e-05
-2.4008666051393805e-05   0.0   -5.218831806579233e-05
-5.511129806235458e-05   6.244752280045701e-06   -4.097449415551823e-06
-5.511129806235458e-05   6.244752280045701e-06   -4.097449415551823e-06
-5.511129806235458e-05   6.244752280045701e-06   -4.097449415551823e-06
-5.511129806235458e-05   6.244752280045701e-06   -4.097449415551823e-06
-3.94830581762522e-05   2.0089708594580924e-06   -2.76030470400363e-05
-3.94830581762522e-05   2.0089708594580924e-06   -2.76030470400363e-05
-3.94830581762522e-05   2.0089708594580924e-06   -2.76030470400363e-05
-3.94830581762522e-05   2.0089708594580924e-06   -2.76030470400363e-05
-5.511129806235458e-05   0.0   -5.5935169433819757e-05
-5.511129806235458e-05   0.0   -5.5935169433819757e-05
-5.511129806235458e-05   0.0   -5.5935169433819757e-05
-5.511129806235458e-05   0.0   -5.5935169433819757e-05
-2.4008666051393805e-05   6.244752280045701e-06   -3.5059804752438697e-07
-2.4008666051393805e-05   6.244752280045701e-06   -3.5059804752438697e-07
-2.4008666051393805e-05   6.244752280045701e-06   -3.5059804752438697e-07
-2.4008666051393805e-05   6.244752280045701e-06   -3.5059804752438697e-07
-2.350845737362469e-05   0.0   -5.191860902473577e-05
-2.350845737362469e-05   0.0   -5.191860902473577e-05
-2.350845737362469e-05   0.0   -5.191860902473577e-05
-2.350845737362469e-05   0.0   -5.191860902473577e-05
-5.5081043023661636e-05   7.266768980255945e-06   -3.6576943294942317e-06
-5.5081043023661636e-05   7.266768980255945e-06   -3.6576943294942317e-06
-5.5081043023661636e-05   7.266768980255945e-06   -3.6576943294942317e-06
-5.5081043023661636e-05   7.266768980255945e-06   -3.6576943294942317e-06
-3.9309877717989624e-05   3.3471336742366242e-06   -2.759118865533618e-05
-3.9309877717989624e-05   3.3471336742366242e-06   -2.759118865533618e-05
-3.9309877717989624e-05   3.3471336742366242e-06   -2.759118865533618e-05
-3.9309877717989624e-05   3.3471336742366242e-06   -2.759118865533618e-05
-2.5534689006917536e-05   0.0   -4.984491316538257e-05
-2.5534689006917536e-05   0.0   -4.984491316538257e-05
-2.5534689006917536e-05   0.0   -4.984491316538257e-05
-2.5534689006917536e-05   0.0   -4.984491316538257e-05
3.3119515204484274e-06   -4.5883749773851926e-07   -2.0424814517490288e-06
3.3119515204484274e-06   -4.5883749773851926e-07   -2.0424814517490288e-06
3.3119515204484274e-06   -4.5883749773851926e-07   -2.0424814517490288e-06
3.3119515204484274e-06   -4.5883749773851926e-07   -2.0424814517490288e-06
3.936034150392167e-06   0.0   -5.099942451445749e-05
3.936034150392167e-06   0.0   -5.099942451445749e-05
3.936034150392167e-06   0.0   -5.099942451445749e-05
3.936034150392167e-06   0.0   -5.099942451445749e-05
-2.4557789629965342e-05   9.035732950914274e-07   -4.05186219091667e-06
-2.4557789629965342e-05   9.035732950914274e-07   -4.05186219091667e-06
-2.4557789629965342e-05   9.035732950914274e-07   -4.05186219091667e-06
-2.4557789629965342e-05   9.035732950914274e-07   -4.05186219091667e-06
-1.0799327428262659e-05   -9.620927908959135e-07   -2.5863232875495295e-05
-1.0799327428262659e-05   -9.620927908959135e-07   -2.5863232875495295e-05
-1.0799327428262659e-05   -9.620927908959135e-07   -2.5863232875495295e-05
-1.0799327428262659e-05   -9.620927908959135e-07   -2.5863232875495295e-05
-2.4557789629965342e-05   0.0   -5.154156849151253e-05
-2.4557789629965342e-05   0.0   -5.154156849151253e-05
-2.4557789629965342e-05   0.0   -5.154156849151253e-05
-2.4557789629965342e-05   0.0   -5.154156849151253e-05
3.936034150392173e-06   9.035732950914409e-07   -3.5097182138617996e-06
3.936034150392173e-06   9.035732950914409e-07   -3.5097182138617996e-06
3.936034150392173e-06   9.035732950914409e-07   -3.5097182138617996e-06
3.936034150392173e-06   9.035732950914409e-07   -3.5097182138617996e-06
4.428750660908866e-06   0.0   -5.092637444946619e-05
4.428750660908866e-06   0.0   -5.092637444946619e-05
4.428750660908866e-06   0.0   -5.092637444946619e-05
4.428750660908866e-06   0.0   -5.092637444946619e-05
-2.4008666051393764e-05   2.1032393605434065e-06   -4.792623545287856e-06
-2.4008666051393764e-05   2.1032393605434065e-06   -4.792623545287856e-06
-2.4008666051393764e-05   2.1032393605434065e-06   -4.792623545287856e-06
-2.4008666051393764e-05   2.1032393605434065e-06   -4.792623545287856e-06
-1.0064519484528233e-05   5.126617017052134e-07   -2.707852122809421e-05
-1.0064519484528233e-05   5.126617017052134e-07   -2.707852122809421e-05
-1.0064519484528233e-05   5.126617017052134e-07   -2.707852122809421e-05
-1.0064519484528233e-05   5.126617017052134e-07   -2.707852122809421e-05
-2.4008666051393805e-05   0.0   -5.218831806579233e-05
-2.4008666051393805e-05   0.0   -5.218831806579233e-05
-2.4008666051393805e-05   0.0   -5.218831806579233e-05
-2.4008666051393805e-05   0.0   -5.218831806579233e-05
4.428750660908874e-06   2.10323936054342e-06   -3.530679928961823e-06
4.428750660908874e-06   2.10323936054342e-06   -3.530679928961823e-06
4.428750660908874e-06   2.10323936054342e-06   -3.530679928961823e-06
4.428750660908874e-06   2.10323936054342e-06   -3.530679928961823e-06
5.091323994773598e-06   0.0   -4.982299471603122e-05
5.091323994773598e-06   0.0   -4.982299471603122e-05
5.091323994773598e-06   0.0   -4.982299471603122e-05
5.091323994773598e-06   0.0   -4.982299471603122e-05
-2.350845737362467e-05   3.492690514507498e-06   -4.252306744071942e-06
-2.350845737362467e-05   3.492690514507498e-06   -4.252306744071942e-06
-2.350845737362467e-05   3.492690514507498e-06   -4.252306744071942e-06
-2.350845737362467e-05   3.492690514507498e-06   -4.252306744071942e-06
-9.458671028310083e-06   1.9711027914675157e-06   -2.6755664685772243e-05
-9.458671028310083e-06   1.9711027914675157e-06   -2.6755664685772243e-05
-9.458671028310083e-06   1.9711027914675157e-06   -2.6755664685772243e-05
-9.458671028310083e-06   1.9711027914675157e-06   -2.6755664685772243e-05
3.3119515204484333e-06   0.0   -5.012021566402568e-05
3.3119515204484333e-06   0.0   -5.012021566402568e-05
3.3119515204484333e-06   0.0   -5.012021566402568e-05
3.3119515204484333e-06   0.0   -5.012021566402568e-05
3.462551490354597e-05   -4.061225247405567e-06   -3.676785073064226e-07
3.462551490354597e-05   -4.061225247405567e-06   -3.676785073064226e-07
3.462551490354597e-05   -4.061225247405567e-06   -3.676785073064226e-07
3.462551490354597e-05   -4.061225247405567e-06   -3.676785073064226e-07
3.468799026798489e-05   0.0   -5.283620722424017e-05
3.468799026798489e-05   0.0   -5.283620722424017e-05
3.468799026798489e-05   0.0   -5.283620722424017e-05
3.468799026798489e-05   0.0   -5.283620722424017e-05
3.93603415039218e-06   -3.061304516304171e-06   2.53835681530175e-07
3.93603415039218e-06   -3.061304516304171e-06   2.53835681530175e-07
3.93603415039218e-06   -3.061304516304171e-06   2.53835681530175e-07
3.93603415039218e-06   -3.061304516304171e-06   2.53835681530175e-07
1.8999970894216662e-05   -2.2633263001787393e-06   -2.5331512487852528e-05
1.8999970894216662e-05   -2.2633263001787393e-06   -2.5331512487852528e-05
1.8999970894216662e-05   -2.2633263001787393e-06   -2.5331512487852528e-05
1.8999970894216662e-05   -2.2633263001787393e-06   -2.5331512487852528e-05
3.93603415039218e-06   0.0   -5.099942451445767e-05
3.93603415039218e-06   0.0   -5.099942451445767e-05
3.93603415039218e-06   0.0   -5.099942451445767e-05
3.93603415039218e-06   0.0   -5.099942451445767e-05
3.468799026798489e-05   -3.061304516304171e-06   -1.5829470282523265e-06
3.468799026798489e-05   -3.061304516304171e-06   -1.5829470282523265e-06
3.468799026798489e-05   -3.061304516304171e-06   -1.5829470282523265e-06
3.468799026798489e-05   -3.061304516304171e-06   -1.5829470282523265e-06
3.454020686997757e-05   0.0   -5.208173262048836e-05
3.454020686997757e-05   0.0   -5.208173262048836e-05
3.454020686997757e-05   0.0   -5.208173262048836e-05
3.454020686997757e-05   0.0   -5.208173262048836e-05
4.428750660908874e-06   -1.9255969517034747e-06   -7.406141010184682e-07
4.428750660908874e-06   -1.9255969517034747e-06   -7.406141010184682e-07
4.428750660908874e-06   -1.9255969517034747e-06   -7.406141010184682e-07
4.428750660908874e-06   -1.9255969517034747e-06   -7.406141010184682e-07
1.9238120510184874e-05   -9.019234216922444e-07   -2.6037101301151842e-05
1.9238120510184874e-05   -9.019234216922444e-07   -2.6037101301151842e-05
1.9238120510184874e-05   -9.019234216922444e-07   -2.6037101301151842e-05
1.9238120510184874e-05   -9.019234216922444e-07   -2.6037101301151842e-05
4.42875066090887e-06   0.0   -5.092637444946624e-05
4.42875066090887e-06   0.0   -5.092637444946624e-05
4.42875066090887e-06   0.0   -5.092637444946624e-05
4.42875066090887e-06   0.0   -5.092637444946624e-05
3.454020686997757e-05   -1.9255969517034747e-06   -1.8959722720405487e-06
3.454020686997757e-05   -1.9255969517034747e-06   -1.8959722720405487e-06
3.454020686997757e-05   -1.9255969517034747e-06   -1.8959722720405487e-06
3.454020686997757e-05   -1.9255969517034747e-06   -1.8959722720405487e-06
3.520989644507439e-05   0.0   -5.0062698983997354e-05
3.520989644507439e-05   0.0   -5.0062698983997354e-05
3.520989644507439e-05   0.0   -5.0062698983997354e-05
3.520989644507439e-05   0.0   -5.0062698983997354e-05
5.0913239947736065e-06   -3.995071132767528e-07   3.7462603446998976e-07
5.0913239947736065e-06   -3.995071132767528e-07   3.7462603446998976e-07
5.0913239947736065e-06   -3.995071132767528e-07   3.7462603446998976e-07
5.0913239947736065e-06   -3.995071132767528e-07   3.7462603446998976e-07
1.9819323552991614e-05   7.197295545574361e-07   -2.484358189659385e-05
1.9819323552991614e-05   7.197295545574361e-07   -2.484358189659385e-05
1.9819323552991614e-05   7.197295545574361e-07   -2.484358189659385e-05
1.9819323552991614e-05   7.197295545574361e-07   -2.484358189659385e-05
3.462551490354597e-05   0.0   -5.2556950812469024e-05
3.462551490354597e-05   0.0   -5.2556950812469024e-05
3.462551490354597e-05   0.0   -5.2556950812469024e-05
3.462551490354597e-05   0.0   -5.2556950812469024e-05
7.817683139686293e-05   -1.0295796335177429e-05   1.3851098875286525e-05
7.817683139686293e-05   -1.0295796335177429e-05   1.3851098875286525e-05
7.817683139686293e-05   -1.0295796335177429e-05   1.3851098875286525e-05
7.817683139686293e-05   -1.0295796335177429e-05   1.3851098875286525e-05
7.342183676005354e-05   0.0   -5.809197091334377e-05
7.342183676005354e-05   0.0   -5.809197091334377e-05
7.342183676005354e-05   0.0   -5.809197091334377e-05
7.342183676005354e-05   0.0   -5.809197091334377e-05
3.468799026798489e-05   -8.759606148505997e-06   1.1720203595874226e-05
3.468799026798489e-05   -8.759606148505997e-06   1.1720203595874226e-05
3.468799026798489e-05   -8.759606148505997e-06   1.1720203595874226e-05
3.468799026798489e-05   -8.759606148505997e-06   1.1720203595874226e-05
5.402367583179975e-05   -4.612516750728961e-06   -2.299419264915006e-05
5.402367583179975e-05   -4.612516750728961e-06   -2.299419264915006e-05
5.402367583179975e-05   -4.612516750728961e-06   -2.299419264915006e-05
5.402367583179975e-05   -4.612516750728961e-06   -2.299419264915006e-05
3.468799026798486e-05   0.0   -5.283620722424013e-05
3.468799026798486e-05   0.0   -5.283620722424013e-05
3.468799026798486e-05   0.0   -5.283620722424013e-05
3.468799026798486e-05   0.0   -5.283620722424013e-05
7.342183676005328e-05   -8.75960614850597e-06   6.464439906770595e-06
7.342183676005328e-05   -8.75960614850597e-06   6.464439906770595e-06
7.342183676005328e-05   -8.75960614850597e-06   6.464439906770595e-06
7.342183676005328e-05   -8.75960614850597e-06   6.464439906770595e-06
7.122947103040686e-05   0.0   -5.688421559955556e-05
7.122947103040686e-05   0.0   -5.688421559955556e-05
7.122947103040686e-05   0.0   -5.688421559955556e-05
7.122947103040686e-05   0.0   -5.688421559955556e-05
3.454020686997757e-05   -8.004138298445328e-06   9.067040980227132e-06
3.454020686997757e-05   -8.004138298445328e-06   9.067040980227132e-06
3.454020686997757e-05   -8.004138298445328e-06   9.067040980227132e-06
3.454020686997757e-05   -8.004138298445328e-06   9.067040980227132e-06
5.295873064919585e-05   -3.3733403127628295e-06   -2.4408977443212842e-05
5.295873064919585e-05   -3.3733403127628295e-06   -2.4408977443212842e-05
5.295873064919585e-05   -3.3733403127628295e-06   -2.4408977443212842e-05
5.295873064919585e-05   -3.3733403127628295e-06   -2.4408977443212842e-05
3.454020686997757e-05   0.0   -5.208173262048836e-05
3.454020686997757e-05   0.0   -5.208173262048836e-05
3.454020686997757e-05   0.0   -5.208173262048836e-05
3.454020686997757e-05   0.0   -5.208173262048836e-05
7.122947103040662e-05   -8.0041382984453e-06   4.2645580011599116e-06
7.122947103040662e-05   -8.0041382984453e-06   4.2645580011599116e-06
7.122947103040662e-05   -8.0041382984453e-06   4.2645580011599116e-06
7.122947103040662e-05   -8.0041382984453e-06   4.2645580011599116e-06
6.796510978901098e-05   0.0   -5.37949672495573e-05
6.796510978901098e-05   0.0   -5.37949672495573e-05
6.796510978901098e-05   0.0   -5.37949672495573e-05
6.796510978901098e-05   0.0   -5.37949672495573e-05
3.520989644507439e-05   -6.220447109266729e-06   4.5293232558971444e-06
3.520989644507439e-05   -6.220447109266729e-06   4.5293232558971444e-06
3.520989644507439e-05   -6.220447109266729e-06   4.5293232558971444e-06
3.520989644507439e-05   -6.220447109266729e-06   4.5293232558971444e-06
5.125265832949433e-05   -1.427695524224198e-06   -2.5084264169161575e-05
5.125265832949433e-05   -1.427695524224198e-06   -2.5084264169161575e-05
5.125265832949433e-05   -1.427695524224198e-06   -2.5084264169161575e-05
5.125265832949433e-05   -1.427695524224198e-06   -2.5084264169161575e-05
-7.643886827158262e-05   9.759060494663721e-06   -5.0165597483217454e-05
-7.643886827158262e-05   9.759060494663721e-06   -5.0165597483217454e-05
-7.643886827158262e-05   9.759060494663721e-06   -5.0165597483217454e-05
-7.643886827158262e-05   9.759060494663721e-06   -5.0165597483217454e-05
-4.8959655016756556e-05   8.77535871754171e-06   -4.957129791447216e-06
-4.8959655016756556e-05   8.77535871754171e-06   -4.957129791447216e-06
-4.8959655016756556e-05   8.77535871754171e-06   -4.957129791447216e-06
-4.8959655016756556e-05   8.77535871754171e-06   -4.957129791447216e-06
-5.019106276975228e-05   1.1712495372744289e-05   -4.213216676480304e-05
-5.019106276975228e-05   1.1712495372744289e-05   -4.213216676480304e-05
-5.019106276975228e-05   1.1712495372744289e-05   -4.213216676480304e-05
-5.019106276975228e-05   1.1712495372744289e-05   -4.213216676480304e-05
-7.726540999114627e-05   1.0533150461824927e-05   3.6993522174053267e-06
-7.726540999114627e-05   1.0533150461824927e-05   3.6993522174053267e-06
-7.726540999114627e-05   1.0533150461824927e-05   3.6993522174053267e-06
-7.726540999114627e-05   1.0533150461824927e-05   3.6993522174053267e-06
-6.070992318474011e-05   1.0194074821473091e-05   -2.3689680409060877e-05
-6.070992318474011e-05   1.0194074821473091e-05   -2.3689680409060877e-05
-6.070992318474011e-05   1.0194074821473091e-05   -2.3689680409060877e-05
-6.070992318474011e-05   1.0194074821473091e-05   -2.3689680409060877e-05
-7.726540999114627e-05   1.1712495372744289e-05   -4.142455981825146e-05
-7.726540999114627e-05   1.1712495372744289e-05   -4.142455981825146e-05
-7.726540999114627e-05   1.1712495372744289e-05   -4.142455981825146e-05
-7.726540999114627e-05   1.1712495372744289e-05   -4.142455981825146e-05
-5.019106276975245e-05   1.0533150461824981e-05   2.991745270853737e-06
-5.019106276975245e-05   1.0533150461824981e-05   2.991745270853737e-06
-5.019106276975245e-05   1.0533150461824981e-05   2.991745270853737e-06
-5.019106276975245e-05   1.0533150461824981e-05   2.991745270853737e-06
-5.0448580519229e-05   1.2548479668886875e-05   -3.7880049813186436e-05
-5.0448580519229e-05   1.2548479668886875e-05   -3.7880049813186436e-05
-5.0448580519229e-05   1.2548479668886875e-05   -3.7880049813186436e-05
-5.0448580519229e-05   1.2548479668886875e-05   -3.7880049813186436e-05
-7.780838548764166e-05   1.1326518162862911e-05   8.452802037782047e-06
-7.780838548764166e-05   1.1326518162862911e-05   8.452802037782047e-06
-7.780838548764166e-05   1.1326518162862911e-05   8.452802037782047e-06
-7.780838548764166e-05   1.1326518162862911e-05   8.452802037782047e-06
-6.249441678671575e-05   1.1299305668169908e-05   -1.705415163361169e-05
-6.249441678671575e-05   1.1299305668169908e-05   -1.705415163361169e-05
-6.249441678671575e-05   1.1299305668169908e-05   -1.705415163361169e-05
-6.249441678671575e-05   1.1299305668169908e-05   -1.705415163361169e-05
-7.780838548764152e-05   1.2548479668886875e-05   -3.7146872909572044e-05
-7.780838548764152e-05   1.2548479668886875e-05   -3.7146872909572044e-05
-7.780838548764152e-05   1.2548479668886875e-05   -3.7146872909572044e-05
-7.780838548764152e-05   1.2548479668886875e-05   -3.7146872909572044e-05
-5.04485805192291e-05   1.1326518162862911e-05   7.71962513416771e-06
-5.04485805192291e-05   1.1326518162862911e-05   7.71962513416771e-06
-5.04485805192291e-05   1.1326518162862911e-05   7.71962513416771e-06
-5.04485805192291e-05   1.1326518162862911e-05   7.71962513416771e-06
-5.01614893780131e-05   1.4296246229895943e-05   -2.799142202909594e-05
-5.01614893780131e-05   1.4296246229895943e-05   -2.799142202909594e-05
-5.01614893780131e-05   1.4296246229895943e-05   -2.799142202909594e-05
-5.01614893780131e-05   1.4296246229895943e-05   -2.799142202909594e-05
-7.564960996353242e-05   1.195777041540307e-05   1.589186443546513e-05
-7.564960996353242e-05   1.195777041540307e-05   1.589186443546513e-05
-7.564960996353242e-05   1.195777041540307e-05   1.589186443546513e-05
-7.564960996353242e-05   1.195777041540307e-05   1.589186443546513e-05
-6.086815863914876e-05   1.239418647845856e-05   -9.00573740967431e-06
-6.086815863914876e-05   1.239418647845856e-05   -9.00573740967431e-06
-6.086815863914876e-05   1.239418647845856e-05   -9.00573740967431e-06
-6.086815863914876e-05   1.239418647845856e-05   -9.00573740967431e-06
-4.8959655016756556e-05   3.578784418787587e-06   -5.3280356962063e-05
-4.8959655016756556e-05   3.578784418787587e-06   -5.3280356962063e-05
-4.8959655016756556e-05   3.578784418787587e-06   -5.3280356962063e-05
-4.8959655016756556e-05   3.578784418787587e-06   -5.3280356962063e-05
-2.3201972640583512e-05   4.08333458397158e-06   -1.0048156235997422e-05
-2.3201972640583512e-05   4.08333458397158e-06   -1.0048156235997422e-05
-2.3201972640583512e-05   4.08333458397158e-06   -1.0048156235997422e-05
-2.3201972640583512e-05   4.08333458397158e-06   -1.0048156235997422e-05
-2.3755845600971875e-05   5.095857676049178e-06   -5.319950683434975e-05
-2.3755845600971875e-05   5.095857676049178e-06   -5.319950683434975e-05
-2.3755845600971875e-05   5.095857676049178e-06   -5.319950683434975e-05
-2.3755845600971875e-05   5.095857676049178e-06   -5.319950683434975e-05
-5.019106276975228e-05   5.699721191902761e-06   -9.503129662561077e-06
-5.019106276975228e-05   5.699721191902761e-06   -9.503129662561077e-06
-5.019106276975228e-05   5.699721191902761e-06   -9.503129662561077e-06
-5.019106276975228e-05   5.699721191902761e-06   -9.503129662561077e-06
-3.642424390288279e-05   4.589400581675245e-06   -3.1781635407874035e-05
-3.642424390288279e-05   4.589400581675245e-06   -3.1781635407874035e-05
-3.642424390288279e-05   4.589400581675245e-06   -3.1781635407874035e-05
-3.642424390288279e-05   4.589400581675245e-06   -3.1781635407874035e-05
-5.019106276975225e-05   5.095857676049178e-06   -5.3561824943861815e-05
-5.019106276975225e-05   5.095857676049178e-06   -5.3561824943861815e-05
-5.019106276975225e-05   5.095857676049178e-06   -5.3561824943861815e-05
-5.019106276975225e-05   5.095857676049178e-06   -5.3561824943861815e-05
-2.3755845600971913e-05   5.699721191902761e-06   -9.140811553048939e-06
-2.3755845600971913e-05   5.699721191902761e-06   -9.140811553048939e-06
-2.3755845600971913e-05   5.699721191902761e-06   -9.140811553048939e-06
-2.3755845600971913e-05   5.699721191902761e-06   -9.140811553048939e-06
-2.3929811246649644e-05   6.244752280045701e-06   -5.220422647992591e-05
-2.3929811246649644e-05   6.244752280045701e-06   -5.220422647992591e-05
-2.3929811246649644e-05   6.244752280045701e-06   -5.220422647992591e-05
-2.3929811246649644e-05   6.244752280045701e-06   -5.220422647992591e-05
-5.0448580519229e-05   7.037737014824218e-06   -8.482068533160786e-06
-5.0448580519229e-05   7.037737014824218e-06   -8.482068533160786e-06
-5.0448580519229e-05   7.037737014824218e-06   -8.482068533160786e-06
-5.0448580519229e-05   7.037737014824218e-06   -8.482068533160786e-06
-3.670895133829333e-05   5.825287948250631e-06   -3.065398106144266e-05
-3.670895133829333e-05   5.825287948250631e-06   -3.065398106144266e-05
-3.670895133829333e-05   5.825287948250631e-06   -3.065398106144266e-05
-3.670895133829333e-05   5.825287948250631e-06   -3.065398106144266e-05
-5.0448580519229e-05   6.244752280045701e-06   -5.2680017320793004e-05
-5.0448580519229e-05   6.244752280045701e-06   -5.2680017320793004e-05
-5.0448580519229e-05   6.244752280045701e-06   -5.2680017320793004e-05
-5.0448580519229e-05   6.244752280045701e-06   -5.2680017320793004e-05
-2.3929811246649732e-05   7.037737014824218e-06   -8.006277692293701e-06
-2.3929811246649732e-05   7.037737014824218e-06   -8.006277692293701e-06
-2.3929811246649732e-05   7.037737014824218e-06   -8.006277692293701e-06
-2.3929811246649732e-05   7.037737014824218e-06   -8.006277692293701e-06
-2.3871365875746667e-05   7.266768980255931e-06   -5.1670985033147035e-05
-2.3871365875746667e-05   7.266768980255931e-06   -5.1670985033147035e-05
-2.3871365875746667e-05   7.266768980255931e-06   -5.1670985033147035e-05
-2.3871365875746667e-05   7.266768980255931e-06   -5.1670985033147035e-05
-5.0161489378013065e-05   8.477454120295574e-06   -8.580523613393532e-06
-5.0161489378013065e-05   8.477454120295574e-06   -8.580523613393532e-06
-5.0161489378013065e-05   8.477454120295574e-06   -8.580523613393532e-06
-5.0161489378013065e-05   8.477454120295574e-06   -8.580523613393532e-06
-3.6924996377949725e-05   6.943907482249751e-06   -2.9721217297338376e-05
-3.6924996377949725e-05   6.943907482249751e-06   -2.9721217297338376e-05
-3.6924996377949725e-05   6.943907482249751e-06   -2.9721217297338376e-05
-3.6924996377949725e-05   6.943907482249751e-06   -2.9721217297338376e-05
-2.3201972640583468e-05   -4.5883749773851926e-07   -5.5787639082646707e-05
-2.3201972640583468e-05   -4.5883749773851926e-07   -5.5787639082646707e-05
-2.3201972640583468e-05   -4.5883749773851926e-07   -5.5787639082646707e-05
-2.3201972640583468e-05   -4.5883749773851926e-07   -5.5787639082646707e-05
2.2307147609562806e-06   -1.2183230463174398e-07   -1.3197623630883034e-05
2.2307147609562806e-06   -1.2183230463174398e-07   -1.3197623630883034e-05
2.2307147609562806e-06   -1.2183230463174398e-07   -1.3197623630883034e-05
2.2307147609562806e-06   -1.2183230463174398e-07   -1.3197623630883034e-05
2.1261459701941496e-06   9.035732950914274e-07   -5.6097561690480045e-05
2.1261459701941496e-06   9.035732950914274e-07   -5.6097561690480045e-05
2.1261459701941496e-06   9.035732950914274e-07   -5.6097561690480045e-05
2.1261459701941496e-06   9.035732950914274e-07   -5.6097561690480045e-05
-2.3755845600971875e-05   1.3674732315074227e-06   -1.3239249033719386e-05
-2.3755845600971875e-05   1.3674732315074227e-06   -1.3239249033719386e-05
-2.3755845600971875e-05   1.3674732315074227e-06   -1.3239249033719386e-05
-2.3755845600971875e-05   1.3674732315074227e-06   -1.3239249033719386e-05
-1.0714321708698886e-05   4.541223185492978e-07   -3.4427111639732995e-05
-1.0714321708698886e-05   4.541223185492978e-07   -3.4427111639732995e-05
-1.0714321708698886e-05   4.541223185492978e-07   -3.4427111639732995e-05
-1.0714321708698886e-05   4.541223185492978e-07   -3.4427111639732995e-05
-2.3755845600971875e-05   9.035732950914274e-07   -5.6375901652329556e-05
-2.3755845600971875e-05   9.035732950914274e-07   -5.6375901652329556e-05
-2.3755845600971875e-05   9.035732950914274e-07   -5.6375901652329556e-05
-2.3755845600971875e-05   9.035732950914274e-07   -5.6375901652329556e-05
2.1261459701941496e-06   1.3674732315074227e-06   -1.2960909071869849e-05
2.1261459701941496e-06   1.3674732315074227e-06   -1.2960909071869849e-05
2.1261459701941496e-06   1.3674732315074227e-06   -1.2960909071869849e-05
2.1261459701941496e-06   1.3674732315074227e-06   -1.2960909071869849e-05
1.983798570554217e-06   2.1032393605434065e-06   -5.6214602834567774e-05
1.983798570554217e-06   2.1032393605434065e-06   -5.6214602834567774e-05
1.983798570554217e-06   2.1032393605434065e-06   -5.6214602834567774e-05
1.983798570554217e-06   2.1032393605434065e-06   -5.6214602834567774e-05
-2.3929811246649644e-05   2.8226545990793495e-06   -1.3456902282349667e-05
-2.3929811246649644e-05   2.8226545990793495e-06   -1.3456902282349667e-05
-2.3929811246649644e-05   2.8226545990793495e-06   -1.3456902282349667e-05
-2.3929811246649644e-05   2.8226545990793495e-06   -1.3456902282349667e-05
-1.0914227049236248e-05   1.716165159361822e-06   -3.448564894754132e-05
-1.0914227049236248e-05   1.716165159361822e-06   -3.448564894754132e-05
-1.0914227049236248e-05   1.716165159361822e-06   -3.448564894754132e-05
-1.0914227049236248e-05   1.716165159361822e-06   -3.448564894754132e-05
-2.3929811246649644e-05   2.1032393605434065e-06   -5.6646251977689385e-05
-2.3929811246649644e-05   2.1032393605434065e-06   -5.6646251977689385e-05
-2.3929811246649644e-05   2.1032393605434065e-06   -5.6646251977689385e-05
-2.3929811246649644e-05   2.1032393605434065e-06   -5.6646251977689385e-05
1.9837985705542197e-06   2.8226545990794037e-06   -1.3025253139228076e-05
1.9837985705542197e-06   2.8226545990794037e-06   -1.3025253139228076e-05
1.9837985705542197e-06   2.8226545990794037e-06   -1.3025253139228076e-05
1.9837985705542197e-06   2.8226545990794037e-06   -1.3025253139228076e-05
1.6969284311141429e-06   3.492690514507498e-06   -5.6117999681641115e-05
1.6969284311141429e-06   3.492690514507498e-06   -5.6117999681641115e-05
1.6969284311141429e-06   3.492690514507498e-06   -5.6117999681641115e-05
1.6969284311141429e-06   3.492690514507498e-06   -5.6117999681641115e-05
-2.3871365875746687e-05   4.338789104902947e-06   -1.4011834991110365e-05
-2.3871365875746687e-05   4.338789104902947e-06   -1.4011834991110365e-05
-2.3871365875746687e-05   4.338789104902947e-06   -1.4011834991110365e-05
-2.3871365875746687e-05   4.338789104902947e-06   -1.4011834991110365e-05
-1.1035259079719933e-05   3.0126687174328456e-06   -3.4609674085339536e-05
-1.1035259079719933e-05   3.0126687174328456e-06   -3.4609674085339536e-05
-1.1035259079719933e-05   3.0126687174328456e-06   -3.4609674085339536e-05
-1.1035259079719933e-05   3.0126687174328456e-06   -3.4609674085339536e-05
2.2307147609562806e-06   -4.061225247405553e-06   -5.1473897873896706e-05
2.2307147609562806e-06   -4.061225247405553e-06   -5.1473897873896706e-05
2.2307147609562806e-06   -4.061225247405553e-06   -5.1473897873896706e-05
2.2307147609562806e-06   -4.061225247405553e-06   -5.1473897873896706e-05
2.843946621550124e-05   -4.17529370843803e-06   -7.861086526274547e-06
2.843946621550124e-05   -4.17529370843803e-06   -7.861086526274547e-06
2.843946621550124e-05   -4.17529370843803e-06   -7.861086526274547e-06
2.843946621550124e-05   -4.17529370843803e-06   -7.861086526274547e-06
2.8672671253075076e-05   -3.0613045163041573e-06   -5.219039144530441e-05
2.8672671253075076e-05   -3.0613045163041573e-06   -5.219039144530441e-05
2.8672671253075076e-05   -3.0613045163041573e-06   -5.219039144530441e-05
2.8672671253075076e-05   -3.0613045163041573e-06   -5.219039144530441e-05
2.1261459701941496e-06   -2.8219439333316914e-06   -8.089798990286257e-06
2.1261459701941496e-06   -2.8219439333316914e-06   -8.089798990286257e-06
2.1261459701941496e-06   -2.8219439333316914e-06   -8.089798990286257e-06
2.1261459701941496e-06   -2.8219439333316914e-06   -8.089798990286257e-06
1.517088937426329e-05   -3.3783327670491663e-06   -2.9497204696837777e-05
1.517088937426329e-05   -3.3783327670491663e-06   -2.9497204696837777e-05
1.517088937426329e-05   -3.3783327670491663e-06   -2.9497204696837777e-05
1.517088937426329e-05   -3.3783327670491663e-06   -2.9497204696837777e-05
2.1261459701941454e-06   -3.0613045163041573e-06   -5.2334007795088004e-05
2.1261459701941454e-06   -3.0613045163041573e-06   -5.2334007795088004e-05
2.1261459701941454e-06   -3.0613045163041573e-06   -5.2334007795088004e-05
2.1261459701941454e-06   -3.0613045163041573e-06   -5.2334007795088004e-05
2.867267125307513e-05   -2.8219439333316914e-06   -7.946182640502733e-06
2.867267125307513e-05   -2.8219439333316914e-06   -7.946182640502733e-06
2.867267125307513e-05   -2.8219439333316914e-06   -7.946182640502733e-06
2.867267125307513e-05   -2.8219439333316914e-06   -7.946182640502733e-06
2.853102393095852e-05   -1.925596951703461e-06   -5.316700459756014e-05
2.853102393095852e-05   -1.925596951703461e-06   -5.316700459756014e-05
2.853102393095852e-05   -1.925596951703461e-06   -5.316700459756014e-05
2.853102393095852e-05   -1.925596951703461e-06   -5.316700459756014e-05
1.983798570554217e-06   -1.496376269929738e-06   -9.179161405950572e-06
1.983798570554217e-06   -1.496376269929738e-06   -9.179161405950572e-06
1.983798570554217e-06   -1.496376269929738e-06   -9.179161405950572e-06
1.983798570554217e-06   -1.496376269929738e-06   -9.179161405950572e-06
1.500833499631435e-05   -2.298031529780574e-06   -3.040572895964024e-05
1.500833499631435e-05   -2.298031529780574e-06   -3.040572895964024e-05
1.500833499631435e-05   -2.298031529780574e-06   -3.040572895964024e-05
1.500833499631435e-05   -2.298031529780574e-06   -3.040572895964024e-05
1.9837985705542146e-06   -1.925596951703461e-06   -5.342453700662435e-05
1.9837985705542146e-06   -1.925596951703461e-06   -5.342453700662435e-05
1.9837985705542146e-06   -1.925596951703461e-06   -5.342453700662435e-05
1.9837985705542146e-06   -1.925596951703461e-06   -5.342453700662435e-05
2.8531023930958616e-05   -1.4963762699297923e-06   -8.921628996886373e-06
2.8531023930958616e-05   -1.4963762699297923e-06   -8.921628996886373e-06
2.8531023930958616e-05   -1.4963762699297923e-06   -8.921628996886373e-06
2.8531023930958616e-05   -1.4963762699297923e-06   -8.921628996886373e-06
2.769669054902437e-05   -3.9950711327673923e-07   -5.326114319575406e-05
2.769669054902437e-05   -3.9950711327673923e-07   -5.326114319575406e-05
2.769669054902437e-05   -3.9950711327673923e-07   -5.326114319575406e-05
2.769669054902437e-05   -3.9950711327673923e-07   -5.326114319575406e-05
1.6969284311141429e-06   1.430562468057446e-07   -1.025374434861995e-05
1.6969284311141429e-06   1.430562468057446e-07   -1.025374434861995e-05
1.6969284311141429e-06   1.430562468057446e-07   -1.025374434861995e-05
1.6969284311141429e-06   1.430562468057446e-07   -1.025374434861995e-05
1.484380268040536e-05   -1.036274191809416e-06   -3.145760316760277e-05
1.484380268040536e-05   -1.036274191809416e-06   -3.145760316760277e-05
1.484380268040536e-05   -1.036274191809416e-06   -3.145760316760277e-05
1.484380268040536e-05   -1.036274191809416e-06   -3.145760316760277e-05
2.843946621550124e-05   -1.0295796335177429e-05   -3.1146083766816796e-05
2.843946621550124e-05   -1.0295796335177429e-05   -3.1146083766816796e-05
2.843946621550124e-05   -1.0295796335177429e-05   -3.1146083766816796e-05
2.843946621550124e-05   -1.0295796335177429e-05   -3.1146083766816796e-05
5.4305551188595325e-05   -7.759839568672049e-06   1.3485631914909814e-05
5.4305551188595325e-05   -7.759839568672049e-06   1.3485631914909814e-05
5.4305551188595325e-05   -7.759839568672049e-06   1.3485631914909814e-05
5.4305551188595325e-05   -7.759839568672049e-06   1.3485631914909814e-05
5.6370459871567195e-05   -8.759606148505997e-06   -3.7854943752726366e-05
5.6370459871567195e-05   -8.759606148505997e-06   -3.7854943752726366e-05
5.6370459871567195e-05   -8.759606148505997e-06   -3.7854943752726366e-05
5.6370459871567195e-05   -8.759606148505997e-06   -3.7854943752726366e-05
2.8672671253075177e-05   -7.0391110344198565e-06   7.27574020964213e-06
2.8672671253075177e-05   -7.0391110344198565e-06   7.27574020964213e-06
2.8672671253075177e-05   -7.0391110344198565e-06   7.27574020964213e-06
2.8672671253075177e-05   -7.0391110344198565e-06   7.27574020964213e-06
3.9996228042909956e-05   -8.427487339476722e-06   -1.0763828657048489e-05
3.9996228042909956e-05   -8.427487339476722e-06   -1.0763828657048489e-05
3.9996228042909956e-05   -8.427487339476722e-06   -1.0763828657048489e-05
3.9996228042909956e-05   -8.427487339476722e-06   -1.0763828657048489e-05
2.8672671253075103e-05   -8.759606148505983e-06   -3.888724082117787e-05
2.8672671253075103e-05   -8.759606148505983e-06   -3.888724082117787e-05
2.8672671253075103e-05   -8.759606148505983e-06   -3.888724082117787e-05
2.8672671253075103e-05   -8.759606148505983e-06   -3.888724082117787e-05
5.6370459871567195e-05   -7.0391110344198565e-06   8.308037278093809e-06
5.6370459871567195e-05   -7.0391110344198565e-06   8.308037278093809e-06
5.6370459871567195e-05   -7.0391110344198565e-06   8.308037278093809e-06
5.6370459871567195e-05   -7.0391110344198565e-06   8.308037278093809e-06
5.61582972809335e-05   -8.004138298445328e-06   -4.1167286748946684e-05
5.61582972809335e-05   -8.004138298445328e-06   -4.1167286748946684e-05
5.61582972809335e-05   -8.004138298445328e-06   -4.1167286748946684e-05
5.61582972809335e-05   -8.004138298445328e-06   -4.1167286748946684e-05
2.8531023930958616e-05   -6.2762973045354204e-06   3.841464237998771e-06
2.8531023930958616e-05   -6.2762973045354204e-06   3.841464237998771e-06
2.8531023930958616e-05   -6.2762973045354204e-06   3.841464237998771e-06
2.8531023930958616e-05   -6.2762973045354204e-06   3.841464237998771e-06
4.1393193101184614e-05   -7.442212813783686e-06   -1.6895935073495556e-05
4.1393193101184614e-05   -7.442212813783686e-06   -1.6895935073495556e-05
4.1393193101184614e-05   -7.442212813783686e-06   -1.6895935073495556e-05
4.1393193101184614e-05   -7.442212813783686e-06   -1.6895935073495556e-05
2.853102393095857e-05   -8.004138298445314e-06   -4.2203991345292574e-05
2.853102393095857e-05   -8.004138298445314e-06   -4.2203991345292574e-05
2.853102393095857e-05   -8.004138298445314e-06   -4.2203991345292574e-05
2.853102393095857e-05   -8.004138298445314e-06   -4.2203991345292574e-05
5.61582972809335e-05   -6.2762973045354204e-06   4.878168834344715e-06
5.61582972809335e-05   -6.2762973045354204e-06   4.878168834344715e-06
5.61582972809335e-05   -6.2762973045354204e-06   4.878168834344715e-06
5.61582972809335e-05   -6.2762973045354204e-06   4.878168834344715e-06
5.5817337608479677e-05   -6.220447109266729e-06   -4.7915357220828714e-05
5.5817337608479677e-05   -6.220447109266729e-06   -4.7915357220828714e-05
5.5817337608479677e-05   -6.220447109266729e-06   -4.7915357220828714e-05
5.5817337608479677e-05   -6.220447109266729e-06   -4.7915357220828714e-05
2.7696690549024464e-05   -4.634806300046149e-06   -1.9989966072690582e-06
2.7696690549024464e-05   -4.634806300046149e-06   -1.9989966072690582e-06
2.7696690549024464e-05   -4.634806300046149e-06   -1.9989966072690582e-06
2.7696690549024464e-05   -4.634806300046149e-06   -1.9989966072690582e-06
4.020715536147285e-05   -6.407804799451929e-06   -2.1785972195039556e-05
4.020715536147285e-05   -6.407804799451929e-06   -2.1785972195039556e-05
4.020715536147285e-05   -6.407804799451929e-06   -2.1785972195039556e-05
4.020715536147285e-05   -6.407804799451929e-06   -2.1785972195039556e-05
-6.087965485787627e-05   8.77535871754171e-06   -4.20294426189462e-05
-6.087965485787627e-05   8.77535871754171e-06   -4.20294426189462e-05
-6.087965485787627e-05   8.77535871754171e-06   -4.20294426189462e-05
-6.087965485787627e-05   8.77535871754171e-06   -4.20294426189462e-05
-3.991479164493893e-05   6.70430968860707e-06   -8.330633348078122e-06
-3.991479164493893e-05   6.70430968860707e-06   -8.330633348078122e-06
-3.991479164493893e-05   6.70430968860707e-06   -8.330633348078122e-06
-3.991479164493893e-05   6.70430968860707e-06   -8.330633348078122e-06
-4.010766598336915e-05   1.0533150461824927e-05   -3.4897640341714753e-05
-4.010766598336915e-05   1.0533150461824927e-05   -3.4897640341714753e-05
-4.010766598336915e-05   1.0533150461824927e-05   -3.4897640341714753e-05
-4.010766598336915e-05   1.0533150461824927e-05   -3.4897640341714753e-05
-5.995690694920273e-05   8.110807860672972e-06   -3.621665046341983e-07
-5.995690694920273e-05   8.110807860672972e-06   -3.621665046341983e-07
-5.995690694920273e-05   8.110807860672972e-06   -3.621665046341983e-07
-5.995690694920273e-05   8.110807860672972e-06   -3.621665046341983e-07
-4.809105110141139e-05   8.923508378455526e-06   -2.0626213228289614e-05
-4.809105110141139e-05   8.923508378455526e-06   -2.0626213228289614e-05
-4.809105110141139e-05   8.923508378455526e-06   -2.0626213228289614e-05
-4.809105110141139e-05   8.923508378455526e-06   -2.0626213228289614e-05
-5.995690694920273e-05   1.0533150461824927e-05   -3.344423478102352e-05
-5.995690694920273e-05   1.0533150461824927e-05   -3.344423478102352e-05
-5.995690694920273e-05   1.0533150461824927e-05   -3.344423478102352e-05
-5.995690694920273e-05   1.0533150461824927e-05   -3.344423478102352e-05
-4.010766598336915e-05   8.110807860672972e-06   -1.8155720653253494e-06
-4.010766598336915e-05   8.110807860672972e-06   -1.8155720653253494e-06
-4.010766598336915e-05   8.110807860672972e-06   -1.8155720653253494e-06
-4.010766598336915e-05   8.110807860672972e-06   -1.8155720653253494e-06
-4.006694052424244e-05   1.1326518162862911e-05   -2.9855715525310027e-05
-4.006694052424244e-05   1.1326518162862911e-05   -2.9855715525310027e-05
-4.006694052424244e-05   1.1326518162862911e-05   -2.9855715525310027e-05
-4.006694052424244e-05   1.1326518162862911e-05   -2.9855715525310027e-05
-5.905753241620916e-05   8.728857552047658e-06   3.353867327790202e-06
-5.905753241620916e-05   8.728857552047658e-06   3.353867327790202e-06
-5.905753241620916e-05   8.728857552047658e-06   3.353867327790202e-06
-5.905753241620916e-05   8.728857552047658e-06   3.353867327790202e-06
-4.850661639474132e-05   9.738857742157595e-06   -1.4836992822054933e-05
-4.850661639474132e-05   9.738857742157595e-06   -1.4836992822054933e-05
-4.850661639474132e-05   9.738857742157595e-06   -1.4836992822054933e-05
-4.850661639474132e-05   9.738857742157595e-06   -1.4836992822054933e-05
-5.905753241620916e-05   1.1326518162862911e-05   -2.8297119158820876e-05
-5.905753241620916e-05   1.1326518162862911e-05   -2.8297119158820876e-05
-5.905753241620916e-05   1.1326518162862911e-05   -2.8297119158820876e-05
-5.905753241620916e-05   1.1326518162862911e-05   -2.8297119158820876e-05
-4.0066940524242505e-05   8.728857552047766e-06   1.7952709613013214e-06
-4.0066940524242505e-05   8.728857552047766e-06   1.7952709613013214e-06
-4.0066940524242505e-05   8.728857552047766e-06   1.7952709613013214e-06
-4.0066940524242505e-05   8.728857552047766e-06   1.7952709613013214e-06
-4.010770589938189e-05   1.195777041540307e-05   -2.2796118739086004e-05
-4.010770589938189e-05   1.195777041540307e-05   -2.2796118739086004e-05
-4.010770589938189e-05   1.195777041540307e-05   -2.2796118739086004e-05
-4.010770589938189e-05   1.195777041540307e-05   -2.2796118739086004e-05
-5.7883216622544556e-05   9.337514455769213e-06   8.401886041965116e-06
-5.7883216622544556e-05   9.337514455769213e-06   8.401886041965116e-06
-5.7883216622544556e-05   9.337514455769213e-06   8.401886041965116e-06
-5.7883216622544556e-05   9.337514455769213e-06   8.401886041965116e-06
-4.7401682555563524e-05   1.0168154077156647e-05   -9.565721175835149e-06
-4.7401682555563524e-05   1.0168154077156647e-05   -9.565721175835149e-06
-4.7401682555563524e-05   1.0168154077156647e-05   -9.565721175835149e-06
-4.7401682555563524e-05   1.0168154077156647e-05   -9.565721175835149e-06
-3.991479164493893e-05   4.08333458397158e-06   -4.8665828579967614e-05
-3.991479164493893e-05   4.08333458397158e-06   -4.8665828579967614e-05
-3.991479164493893e-05   4.08333458397158e-06   -4.8665828579967614e-05
-3.991479164493893e-05   4.08333458397158e-06   -4.8665828579967614e-05
-2.031803977146099e-05   3.343336677525755e-06   -1.644857420137185e-05
-2.031803977146099e-05   3.343336677525755e-06   -1.644857420137185e-05
-2.031803977146099e-05   3.343336677525755e-06   -1.644857420137185e-05
-2.031803977146099e-05   3.343336677525755e-06   -1.644857420137185e-05
-2.0564794697027736e-05   5.699721191902761e-06   -4.79763318601003e-05
-2.0564794697027736e-05   5.699721191902761e-06   -4.79763318601003e-05
-2.0564794697027736e-05   5.699721191902761e-06   -4.79763318601003e-05
-2.0564794697027736e-05   5.699721191902761e-06   -4.79763318601003e-05
-4.0107665983369093e-05   4.726693550284838e-06   -1.4821063131227174e-05
-4.0107665983369093e-05   4.726693550284838e-06   -1.4821063131227174e-05
-4.0107665983369093e-05   4.726693550284838e-06   -1.4821063131227174e-05
-4.0107665983369093e-05   4.726693550284838e-06   -1.4821063131227174e-05
-2.996751936869818e-05   4.7097923703678175e-06   -3.171116678106194e-05
-2.996751936869818e-05   4.7097923703678175e-06   -3.171116678106194e-05
-2.996751936869818e-05   4.7097923703678175e-06   -3.171116678106194e-05
-2.996751936869818e-05   4.7097923703678175e-06   -3.171116678106194e-05
-4.0107665983369134e-05   5.699721191902761e-06   -4.739251527512947e-05
-4.0107665983369134e-05   5.699721191902761e-06   -4.739251527512947e-05
-4.0107665983369134e-05   5.699721191902761e-06   -4.739251527512947e-05
-4.0107665983369134e-05   5.699721191902761e-06   -4.739251527512947e-05
-2.056479469702777e-05   4.726693550284838e-06   -1.5404879716197915e-05
-2.056479469702777e-05   4.726693550284838e-06   -1.5404879716197915e-05
-2.056479469702777e-05   4.726693550284838e-06   -1.5404879716197915e-05
-2.056479469702777e-05   4.726693550284838e-06   -1.5404879716197915e-05
-2.0724802500269735e-05   7.037737014824218e-06   -4.6706564301738946e-05
-2.0724802500269735e-05   7.037737014824218e-06   -4.6706564301738946e-05
-2.0724802500269735e-05   7.037737014824218e-06   -4.6706564301738946e-05
-2.0724802500269735e-05   7.037737014824218e-06   -4.6706564301738946e-05
-4.006694052424244e-05   5.955811832990027e-06   -1.3820512486017517e-05
-4.006694052424244e-05   5.955811832990027e-06   -1.3820512486017517e-05
-4.006694052424244e-05   5.955811832990027e-06   -1.3820512486017517e-05
-4.006694052424244e-05   5.955811832990027e-06   -1.3820512486017517e-05
-3.0022972520012273e-05   5.847961242835939e-06   -3.0495748805641447e-05
-3.0022972520012273e-05   5.847961242835939e-06   -3.0495748805641447e-05
-3.0022972520012273e-05   5.847961242835939e-06   -3.0495748805641447e-05
-3.0022972520012273e-05   5.847961242835939e-06   -3.0495748805641447e-05
-4.006694052424244e-05   7.037737014824218e-06   -4.6057409192638496e-05
-4.006694052424244e-05   7.037737014824218e-06   -4.6057409192638496e-05
-4.006694052424244e-05   7.037737014824218e-06   -4.6057409192638496e-05
-4.006694052424244e-05   7.037737014824218e-06   -4.6057409192638496e-05
-2.0724802500269796e-05   5.9558118329899185e-06   -1.4469667595117825e-05
-2.0724802500269796e-05   5.9558118329899185e-06   -1.4469667595117825e-05
-2.0724802500269796e-05   5.9558118329899185e-06   -1.4469667595117825e-05
-2.0724802500269796e-05   5.9558118329899185e-06   -1.4469667595117825e-05
-2.093185917564384e-05   8.477454120295628e-06   -4.659384469483474e-05
-2.093185917564384e-05   8.477454120295628e-06   -4.659384469483474e-05
-2.093185917564384e-05   8.477454120295628e-06   -4.659384469483474e-05
-2.093185917564384e-05   8.477454120295628e-06   -4.659384469483474e-05
-4.010770589938185e-05   7.2634151276527135e-06   -1.3905676759685547e-05
-4.010770589938185e-05   7.2634151276527135e-06   -1.3905676759685547e-05
-4.010770589938185e-05   7.2634151276527135e-06   -1.3905676759685547e-05
-4.010770589938185e-05   7.2634151276527135e-06   -1.3905676759685547e-05
-3.037874591556141e-05   6.975416164669776e-06   -2.9947810688262834e-05
-3.037874591556141e-05   6.975416164669776e-06   -2.9947810688262834e-05
-3.037874591556141e-05   6.975416164669776e-06   -2.9947810688262834e-05
-3.037874591556141e-05   6.975416164669776e-06   -2.9947810688262834e-05
-2.031803977146095e-05   -1.2183230463174398e-07   -5.246149783458479e-05
-2.031803977146095e-05   -1.2183230463174398e-07   -5.246149783458479e-05
-2.031803977146095e-05   -1.2183230463174398e-07   -5.246149783458479e-05
-2.031803977146095e-05   -1.2183230463174398e-07   -5.246149783458479e-05
-9.404881290683354e-07   1.780705170359876e-07   -1.998563673759644e-05
-9.404881290683354e-07   1.780705170359876e-07   -1.998563673759644e-05
-9.404881290683354e-07   1.780705170359876e-07   -1.998563673759644e-05
-9.404881290683354e-07   1.780705170359876e-07   -1.998563673759644e-05
-1.1384732348948982e-06   1.3674732315074227e-06   -5.197131520179803e-05
-1.1384732348948982e-06   1.3674732315074227e-06   -5.197131520179803e-05
-1.1384732348948982e-06   1.3674732315074227e-06   -5.197131520179803e-05
-1.1384732348948982e-06   1.3674732315074227e-06   -5.197131520179803e-05
-2.0564794697027736e-05   1.5398967964619066e-06   -1.9697566903882803e-05
-2.0564794697027736e-05   1.5398967964619066e-06   -1.9697566903882803e-05
-2.0564794697027736e-05   1.5398967964619066e-06   -1.9697566903882803e-05
-2.0564794697027736e-05   1.5398967964619066e-06   -1.9697566903882803e-05
-1.0680012791869017e-05   8.97295681568668e-07   -3.578664274354465e-05
-1.0680012791869017e-05   8.97295681568668e-07   -3.578664274354465e-05
-1.0680012791869017e-05   8.97295681568668e-07   -3.578664274354465e-05
-1.0680012791869017e-05   8.97295681568668e-07   -3.578664274354465e-05
-2.0564794697027736e-05   1.3674732315074227e-06   -5.207476934077082e-05
-2.0564794697027736e-05   1.3674732315074227e-06   -5.207476934077082e-05
-2.0564794697027736e-05   1.3674732315074227e-06   -5.207476934077082e-05
-2.0564794697027736e-05   1.3674732315074227e-06   -5.207476934077082e-05
-1.1384732348949008e-06   1.5398967964619066e-06   -1.9594112764909988e-05
-1.1384732348949008e-06   1.5398967964619066e-06   -1.9594112764909988e-05
-1.1384732348949008e-06   1.5398967964619066e-06   -1.9594112764909988e-05
-1.1384732348949008e-06   1.5398967964619066e-06   -1.9594112764909988e-05
-1.2815264222939559e-06   2.8226545990793495e-06   -5.211217598982988e-05
-1.2815264222939559e-06   2.8226545990793495e-06   -5.211217598982988e-05
-1.2815264222939559e-06   2.8226545990793495e-06   -5.211217598982988e-05
-1.2815264222939559e-06   2.8226545990793495e-06   -5.211217598982988e-05
-2.0724802500269762e-05   2.897676102354518e-06   -1.9751728761835445e-05
-2.0724802500269762e-05   2.897676102354518e-06   -1.9751728761835445e-05
-2.0724802500269762e-05   2.897676102354518e-06   -1.9751728761835445e-05
-2.0724802500269762e-05   2.897676102354518e-06   -1.9751728761835445e-05
-1.0935554970669346e-05   2.098320627212408e-06   -3.5587528026083954e-05
-1.0935554970669346e-05   2.098320627212408e-06   -3.5587528026083954e-05
-1.0935554970669346e-05   2.098320627212408e-06   -3.5587528026083954e-05
-1.0935554970669346e-05   2.098320627212408e-06   -3.5587528026083954e-05
-2.0724802500269762e-05   2.8226545990794037e-06   -5.215718889179502e-05
-2.0724802500269762e-05   2.8226545990794037e-06   -5.215718889179502e-05
-2.0724802500269762e-05   2.8226545990794037e-06   -5.215718889179502e-05
-2.0724802500269762e-05   2.8226545990794037e-06   -5.215718889179502e-05
-1.2815264222939575e-06   2.897676102354518e-06   -1.9706715859870165e-05
-1.2815264222939575e-06   2.897676102354518e-06   -1.9706715859870165e-05
-1.2815264222939575e-06   2.897676102354518e-06   -1.9706715859870165e-05
-1.2815264222939575e-06   2.897676102354518e-06   -1.9706715859870165e-05
-1.5063047002965191e-06   4.338789104902947e-06   -5.2782636533326804e-05
-1.5063047002965191e-06   4.338789104902947e-06   -5.2782636533326804e-05
-1.5063047002965191e-06   4.338789104902947e-06   -5.2782636533326804e-05
-1.5063047002965191e-06   4.338789104902947e-06   -5.2782636533326804e-05
-2.0931859175643825e-05   4.287006810316913e-06   -2.0375643030996608e-05
-2.0931859175643825e-05   4.287006810316913e-06   -2.0375643030996608e-05
-2.0931859175643825e-05   4.287006810316913e-06   -2.0375643030996608e-05
-2.0931859175643825e-05   4.287006810316913e-06   -2.0375643030996608e-05
-1.1207029027406838e-05   3.3136138927250796e-06   -3.5999657527502815e-05
-1.1207029027406838e-05   3.3136138927250796e-06   -3.5999657527502815e-05
-1.1207029027406838e-05   3.3136138927250796e-06   -3.5999657527502815e-05
-1.1207029027406838e-05   3.3136138927250796e-06   -3.5999657527502815e-05
-9.404881290683363e-07   -4.17529370843803e-06   -4.68765779603562e-05
-9.404881290683363e-07   -4.17529370843803e-06   -4.68765779603562e-05
-9.404881290683363e-07   -4.17529370843803e-06   -4.68765779603562e-05
-9.404881290683363e-07   -4.17529370843803e-06   -4.68765779603562e-05
1.833878868125793e-05   -2.7989918694091252e-06   -1.3918668839728472e-05
1.833878868125793e-05   -2.7989918694091252e-06   -1.3918668839728472e-05
1.833878868125793e-05   -2.7989918694091252e-06   -1.3918668839728472e-05
1.833878868125793e-05   -2.7989918694091252e-06   -1.3918668839728472e-05
1.8324739728591393e-05   -2.8219439333316914e-06   -4.6337359866085634e-05
1.8324739728591393e-05   -2.8219439333316914e-06   -4.6337359866085634e-05
1.8324739728591393e-05   -2.8219439333316914e-06   -4.6337359866085634e-05
1.8324739728591393e-05   -2.8219439333316914e-06   -4.6337359866085634e-05
-1.1384732348949008e-06   -1.5505351764500417e-06   -1.4661516847737442e-05
-1.1384732348949008e-06   -1.5505351764500417e-06   -1.4661516847737442e-05
-1.1384732348949008e-06   -1.5505351764500417e-06   -1.4661516847737442e-05
-1.1384732348949008e-06   -1.5505351764500417e-06   -1.4661516847737442e-05
8.580209081177104e-06   -2.738390635147127e-06   -3.0146607432639214e-05
8.580209081177104e-06   -2.738390635147127e-06   -3.0146607432639214e-05
8.580209081177104e-06   -2.738390635147127e-06   -3.0146607432639214e-05
8.580209081177104e-06   -2.738390635147127e-06   -3.0146607432639214e-05
-1.1384732348949008e-06   -2.8219439333316914e-06   -4.710020512021455e-05
-1.1384732348949008e-06   -2.8219439333316914e-06   -4.710020512021455e-05
-1.1384732348949008e-06   -2.8219439333316914e-06   -4.710020512021455e-05
-1.1384732348949008e-06   -2.8219439333316914e-06   -4.710020512021455e-05
1.8324739728591393e-05   -1.5505351764500417e-06   -1.3898671593608398e-05
1.8324739728591393e-05   -1.5505351764500417e-06   -1.3898671593608398e-05
1.8324739728591393e-05   -1.5505351764500417e-06   -1.3898671593608398e-05
1.8324739728591393e-05   -1.5505351764500417e-06   -1.3898671593608398e-05
1.84114794700694e-05   -1.4963762699297923e-06   -4.75626067017059e-05
1.84114794700694e-05   -1.4963762699297923e-06   -4.75626067017059e-05
1.84114794700694e-05   -1.4963762699297923e-06   -4.75626067017059e-05
1.84114794700694e-05   -1.4963762699297923e-06   -4.75626067017059e-05
-1.28152642229396e-06   -3.2391367851868427e-07   -1.544440776928038e-05
-1.28152642229396e-06   -3.2391367851868427e-07   -1.544440776928038e-05
-1.28152642229396e-06   -3.2391367851868427e-07   -1.544440776928038e-05
-1.28152642229396e-06   -3.2391367851868427e-07   -1.544440776928038e-05
8.316603202086905e-06   -1.6558838764834348e-06   -3.0642108357802774e-05
8.316603202086905e-06   -1.6558838764834348e-06   -3.0642108357802774e-05
8.316603202086905e-06   -1.6558838764834348e-06   -3.0642108357802774e-05
8.316603202086905e-06   -1.6558838764834348e-06   -3.0642108357802774e-05
-1.2815264222939567e-06   -1.4963762699297923e-06   -4.82660842565523e-05
-1.2815264222939567e-06   -1.4963762699297923e-06   -4.82660842565523e-05
-1.2815264222939567e-06   -1.4963762699297923e-06   -4.82660842565523e-05
-1.2815264222939567e-06   -1.4963762699297923e-06   -4.82660842565523e-05
1.84114794700694e-05   -3.2391367851868427e-07   -1.4740930214433541e-05
1.84114794700694e-05   -3.2391367851868427e-07   -1.4740930214433541e-05
1.84114794700694e-05   -3.2391367851868427e-07   -1.4740930214433541e-05
1.84114794700694e-05   -3.2391367851868427e-07   -1.4740930214433541e-05
1.8270156770850533e-05   1.430562468057988e-07   -4.8951960338524536e-05
1.8270156770850533e-05   1.430562468057988e-07   -4.8951960338524536e-05
1.8270156770850533e-05   1.430562468057988e-07   -4.8951960338524536e-05
1.8270156770850533e-05   1.430562468057988e-07   -4.8951960338524536e-05
-1.5063047002965217e-06   1.1101307577212954e-06   -1.657143592649546e-05
-1.5063047002965217e-06   1.1101307577212954e-06   -1.657143592649546e-05
-1.5063047002965217e-06   1.1101307577212954e-06   -1.657143592649546e-05
-1.5063047002965217e-06   1.1101307577212954e-06   -1.657143592649546e-05
8.224141673647258e-06   -4.977414670078199e-07   -3.182412321489738e-05
8.224141673647258e-06   -4.977414670078199e-07   -3.182412321489738e-05
8.224141673647258e-06   -4.977414670078199e-07   -3.182412321489738e-05
8.224141673647258e-06   -4.977414670078199e-07   -3.182412321489738e-05
1.83387886812579e-05   -7.759839568671995e-06   -2.6225652475657678e-05
1.83387886812579e-05   -7.759839568671995e-06   -2.6225652475657678e-05
1.83387886812579e-05   -7.759839568671995e-06   -2.6225652475657678e-05
1.83387886812579e-05   -7.759839568671995e-06   -2.6225652475657678e-05
3.6389080315693014e-05   -5.075316537518529e-06   5.468880733759587e-06
3.6389080315693014e-05   -5.075316537518529e-06   5.468880733759587e-06
3.6389080315693014e-05   -5.075316537518529e-06   5.468880733759587e-06
3.6389080315693014e-05   -5.075316537518529e-06   5.468880733759587e-06
3.761678795614356e-05   -7.039111034419802e-06   -2.950533259080789e-05
3.761678795614356e-05   -7.039111034419802e-06   -2.950533259080789e-05
3.761678795614356e-05   -7.039111034419802e-06   -2.950533259080789e-05
3.761678795614356e-05   -7.039111034419802e-06   -2.950533259080789e-05
1.8324739728591352e-05   -4.355603659198632e-06   1.0379766966464219e-06
1.8324739728591352e-05   -4.355603659198632e-06   1.0379766966464219e-06
1.8324739728591352e-05   -4.355603659198632e-06   1.0379766966464219e-06
1.8324739728591352e-05   -4.355603659198632e-06   1.0379766966464219e-06
2.6484905140775427e-05   -5.9856443477119235e-06   -1.1584274577219065e-05
2.6484905140775427e-05   -5.9856443477119235e-06   -1.1584274577219065e-05
2.6484905140775427e-05   -5.9856443477119235e-06   -1.1584274577219065e-05
2.6484905140775427e-05   -5.9856443477119235e-06   -1.1584274577219065e-05
1.832473972859134e-05   -7.0391110344198565e-06   -3.111543701594057e-05
1.832473972859134e-05   -7.0391110344198565e-06   -3.111543701594057e-05
1.832473972859134e-05   -7.0391110344198565e-06   -3.111543701594057e-05
1.832473972859134e-05   -7.0391110344198565e-06   -3.111543701594057e-05
3.761678795614356e-05   -4.355603659198632e-06   2.648081121779276e-06
3.761678795614356e-05   -4.355603659198632e-06   2.648081121779276e-06
3.761678795614356e-05   -4.355603659198632e-06   2.648081121779276e-06
3.761678795614356e-05   -4.355603659198632e-06   2.648081121779276e-06
3.856061775605365e-05   -6.2762973045354204e-06   -3.3276942419685914e-05
3.856061775605365e-05   -6.2762973045354204e-06   -3.3276942419685914e-05
3.856061775605365e-05   -6.2762973045354204e-06   -3.3276942419685914e-05
3.856061775605365e-05   -6.2762973045354204e-06   -3.3276942419685914e-05
1.841147947006933e-05   -3.738678892644125e-06   -1.2176163235136535e-06
1.841147947006933e-05   -3.738678892644125e-06   -1.2176163235136535e-06
1.841147947006933e-05   -3.738678892644125e-06   -1.2176163235136535e-06
1.841147947006933e-05   -3.738678892644125e-06   -1.2176163235136535e-06
2.7385129942244196e-05   -5.5213231168254814e-06   -1.5104113909296082e-05
2.7385129942244196e-05   -5.5213231168254814e-06   -1.5104113909296082e-05
2.7385129942244196e-05   -5.5213231168254814e-06   -1.5104113909296082e-05
2.7385129942244196e-05   -5.5213231168254814e-06   -1.5104113909296082e-05
1.8411479470069358e-05   -6.2762973045354204e-06   -3.479951346682065e-05
1.8411479470069358e-05   -6.2762973045354204e-06   -3.479951346682065e-05
1.8411479470069358e-05   -6.2762973045354204e-06   -3.479951346682065e-05
1.8411479470069358e-05   -6.2762973045354204e-06   -3.479951346682065e-05
3.85606177560536e-05   -3.738678892644125e-06   3.049547236213569e-07
3.85606177560536e-05   -3.738678892644125e-06   3.049547236213569e-07
3.85606177560536e-05   -3.738678892644125e-06   3.049547236213569e-07
3.85606177560536e-05   -3.738678892644125e-06   3.049547236213569e-07
3.956656598219928e-05   -4.634806300046149e-06   -3.9694530459056404e-05
3.956656598219928e-05   -4.634806300046149e-06   -3.9694530459056404e-05
3.956656598219928e-05   -4.634806300046149e-06   -3.9694530459056404e-05
3.956656598219928e-05   -4.634806300046149e-06   -3.9694530459056404e-05
1.827015677085048e-05   -2.4211060431017723e-06   -5.528735260975265e-06
1.827015677085048e-05   -2.4211060431017723e-06   -5.528735260975265e-06
1.827015677085048e-05   -2.4211060431017723e-06   -5.528735260975265e-06
1.827015677085048e-05   -2.4211060431017723e-06   -5.528735260975265e-06
2.726868417262819e-05   -4.7560144249699735e-06   -1.9125335901483648e-05
2.726868417262819e-05   -4.7560144249699735e-06   -1.9125335901483648e-05
2.726868417262819e-05   -4.7560144249699735e-06   -1.9125335901483648e-05
2.726868417262819e-05   -4.7560144249699735e-06   -1.9125335901483648e-05
-4.3738474496076335e-05   6.70430968860707e-06   -3.328292188876713e-05
-4.3738474496076335e-05   6.70430968860707e-06   -3.328292188876713e-05
-4.3738474496076335e-05   6.70430968860707e-06   -3.328292188876713e-05
-4.3738474496076335e-05   6.70430968860707e-06   -3.328292188876713e-05
-2.9785753936592573e-05   4.263841170902907e-06   -1.1492668733583231e-05
-2.9785753936592573e-05   4.263841170902907e-06   -1.1492668733583231e-05
-2.9785753936592573e-05   4.263841170902907e-06   -1.1492668733583231e-05
-2.9785753936592573e-05   4.263841170902907e-06   -1.1492668733583231e-05
-2.967724647334104e-05   8.110807860672972e-06   -2.8275421358650468e-05
-2.967724647334104e-05   8.110807860672972e-06   -2.8275421358650468e-05
-2.967724647334104e-05   8.110807860672972e-06   -2.8275421358650468e-05
-2.967724647334104e-05   8.110807860672972e-06   -2.8275421358650468e-05
-4.2429225243927835e-05   5.427816631431545e-06   -5.41232867012773e-06
-4.2429225243927835e-05   5.427816631431545e-06   -5.41232867012773e-06
-4.2429225243927835e-05   5.427816631431545e-06   -5.41232867012773e-06
-4.2429225243927835e-05   5.427816631431545e-06   -5.41232867012773e-06
-3.4863062289049144e-05   6.45603645068292e-06   -1.863953215314293e-05
-3.4863062289049144e-05   6.45603645068292e-06   -1.863953215314293e-05
-3.4863062289049144e-05   6.45603645068292e-06   -1.863953215314293e-05
-3.4863062289049144e-05   6.45603645068292e-06   -1.863953215314293e-05
-4.2429225243927835e-05   8.110807860672972e-06   -2.6665626621105688e-05
-4.2429225243927835e-05   8.110807860672972e-06   -2.6665626621105688e-05
-4.2429225243927835e-05   8.110807860672972e-06   -2.6665626621105688e-05
-4.2429225243927835e-05   8.110807860672972e-06   -2.6665626621105688e-05
-2.9677246473341066e-05   5.427816631431545e-06   -7.022123407672554e-06
-2.9677246473341066e-05   5.427816631431545e-06   -7.022123407672554e-06
-2.9677246473341066e-05   5.427816631431545e-06   -7.022123407672554e-06
-2.9677246473341066e-05   5.427816631431545e-06   -7.022123407672554e-06
-2.945212319973805e-05   8.728857552047658e-06   -2.4656135139653553e-05
-2.945212319973805e-05   8.728857552047658e-06   -2.4656135139653553e-05
-2.945212319973805e-05   8.728857552047658e-06   -2.4656135139653553e-05
-2.945212319973805e-05   8.728857552047658e-06   -2.4656135139653553e-05
-4.145071722916238e-05   5.9703177857037834e-06   -3.00335456414005e-06
-4.145071722916238e-05   5.9703177857037834e-06   -3.00335456414005e-06
-4.145071722916238e-05   5.9703177857037834e-06   -3.00335456414005e-06
-4.145071722916238e-05   5.9703177857037834e-06   -3.00335456414005e-06
-3.486469141678515e-05   7.1055678157708364e-06   -1.4661214269475712e-05
-3.486469141678515e-05   7.1055678157708364e-06   -1.4661214269475712e-05
-3.486469141678515e-05   7.1055678157708364e-06   -1.4661214269475712e-05
-3.486469141678515e-05   7.1055678157708364e-06   -1.4661214269475712e-05
-4.145071722916238e-05   8.728857552047658e-06   -2.3001011279847315e-05
-4.145071722916238e-05   8.728857552047658e-06   -2.3001011279847315e-05
-4.145071722916238e-05   8.728857552047658e-06   -2.3001011279847315e-05
-4.145071722916238e-05   8.728857552047658e-06   -2.3001011279847315e-05
-2.9452123199738133e-05   5.9703177857037834e-06   -4.658478423946313e-06
-2.9452123199738133e-05   5.9703177857037834e-06   -4.658478423946313e-06
-2.9452123199738133e-05   5.9703177857037834e-06   -4.658478423946313e-06
-2.9452123199738133e-05   5.9703177857037834e-06   -4.658478423946313e-06
-2.9362130386910613e-05   9.337514455769213e-06   -1.964675642881521e-05
-2.9362130386910613e-05   9.337514455769213e-06   -1.964675642881521e-05
-2.9362130386910613e-05   9.337514455769213e-06   -1.964675642881521e-05
-2.9362130386910613e-05   9.337514455769213e-06   -1.964675642881521e-05
-4.017064275279401e-05   6.652772561666553e-06   -2.1724015881162146e-08
-4.017064275279401e-05   6.652772561666553e-06   -2.1724015881162146e-08
-4.017064275279401e-05   6.652772561666553e-06   -2.1724015881162146e-08
-4.017064275279401e-05   6.652772561666553e-06   -2.1724015881162146e-08
-3.3833027790206564e-05   7.457853885796482e-06   -1.1067464414671563e-05
-3.3833027790206564e-05   7.457853885796482e-06   -1.1067464414671563e-05
-3.3833027790206564e-05   7.457853885796482e-06   -1.1067464414671563e-05
-3.3833027790206564e-05   7.457853885796482e-06   -1.1067464414671563e-05
-2.978575393659252e-05   3.3433366775256464e-06   -4.242114510881581e-05
-2.978575393659252e-05   3.3433366775256464e-06   -4.242114510881581e-05
-2.978575393659252e-05   3.3433366775256464e-06   -4.242114510881581e-05
-2.978575393659252e-05   3.3433366775256464e-06   -4.242114510881581e-05
-1.7137542387340697e-05   2.2051564206905516e-06   -2.2023700680830525e-05
-1.7137542387340697e-05   2.2051564206905516e-06   -2.2023700680830525e-05
-1.7137542387340697e-05   2.2051564206905516e-06   -2.2023700680830525e-05
-1.7137542387340697e-05   2.2051564206905516e-06   -2.2023700680830525e-05
-1.7145909326959528e-05   4.726693550284838e-06   -4.2056457461136306e-05
-1.7145909326959528e-05   4.726693550284838e-06   -4.2056457461136306e-05
-1.7145909326959528e-05   4.726693550284838e-06   -4.2056457461136306e-05
-1.7145909326959528e-05   4.726693550284838e-06   -4.2056457461136306e-05
-2.967724647334104e-05   3.4341184893115374e-06   -2.0395350513916378e-05
-2.967724647334104e-05   3.4341184893115374e-06   -2.0395350513916378e-05
-2.967724647334104e-05   3.4341184893115374e-06   -2.0395350513916378e-05
-2.967724647334104e-05   3.4341184893115374e-06   -2.0395350513916378e-05
-2.322049812305917e-05   3.6574395183136803e-06   -3.129059038178749e-05
-2.322049812305917e-05   3.6574395183136803e-06   -3.129059038178749e-05
-2.322049812305917e-05   3.6574395183136803e-06   -3.129059038178749e-05
-2.322049812305917e-05   3.6574395183136803e-06   -3.129059038178749e-05
-2.9677246473340985e-05   4.726693550284838e-06   -4.1280912424552076e-05
-2.9677246473340985e-05   4.726693550284838e-06   -4.1280912424552076e-05
-2.9677246473340985e-05   4.726693550284838e-06   -4.1280912424552076e-05
-2.9677246473340985e-05   4.726693550284838e-06   -4.1280912424552076e-05
-1.7145909326959528e-05   3.4341184893115374e-06   -2.1170895550500418e-05
-1.7145909326959528e-05   3.4341184893115374e-06   -2.1170895550500418e-05
-1.7145909326959528e-05   3.4341184893115374e-06   -2.1170895550500418e-05
-1.7145909326959528e-05   3.4341184893115374e-06   -2.1170895550500418e-05
-1.7133277285757466e-05   5.955811832990027e-06   -4.111386586900113e-05
-1.7133277285757466e-05   5.955811832990027e-06   -4.111386586900113e-05
-1.7133277285757466e-05   5.955811832990027e-06   -4.111386586900113e-05
-1.7133277285757466e-05   5.955811832990027e-06   -4.111386586900113e-05
-2.945212319973805e-05   4.552566362941578e-06   -1.974050873033783e-05
-2.945212319973805e-05   4.552566362941578e-06   -1.974050873033783e-05
-2.945212319973805e-05   4.552566362941578e-06   -1.974050873033783e-05
-2.945212319973805e-05   4.552566362941578e-06   -1.974050873033783e-05
-2.3112366788926432e-05   4.666860680644443e-06   -3.0375346005645352e-05
-2.3112366788926432e-05   4.666860680644443e-06   -3.0375346005645352e-05
-2.3112366788926432e-05   4.666860680644443e-06   -3.0375346005645352e-05
-2.3112366788926432e-05   4.666860680644443e-06   -3.0375346005645352e-05
-2.945212319973805e-05   5.955811832990027e-06   -4.027191858697215e-05
-2.945212319973805e-05   5.955811832990027e-06   -4.027191858697215e-05
-2.945212319973805e-05   5.955811832990027e-06   -4.027191858697215e-05
-2.945212319973805e-05   5.955811832990027e-06   -4.027191858697215e-05
-1.7133277285757493e-05   4.552566362941578e-06   -2.058245601236681e-05
-1.7133277285757493e-05   4.552566362941578e-06   -2.058245601236681e-05
-1.7133277285757493e-05   4.552566362941578e-06   -2.058245601236681e-05
-1.7133277285757493e-05   4.552566362941578e-06   -2.058245601236681e-05
-1.7147050783792146e-05   7.263415127652605e-06   -4.127964346994852e-05
-1.7147050783792146e-05   7.263415127652605e-06   -4.127964346994852e-05
-1.7147050783792146e-05   7.263415127652605e-06   -4.127964346994852e-05
-1.7147050783792146e-05   7.263415127652605e-06   -4.127964346994852e-05
-2.936213038691064e-05   5.767618768881132e-06   -2.002369964948812e-05
-2.936213038691064e-05   5.767618768881132e-06   -2.002369964948812e-05
-2.936213038691064e-05   5.767618768881132e-06   -2.002369964948812e-05
-2.936213038691064e-05   5.767618768881132e-06   -2.002369964948812e-05
-2.3262078707500676e-05   5.665653065995454e-06   -3.0129273026773223e-05
-2.3262078707500676e-05   5.665653065995454e-06   -3.0129273026773223e-05
-2.3262078707500676e-05   5.665653065995454e-06   -3.0129273026773223e-05
-2.3262078707500676e-05   5.665653065995454e-06   -3.0129273026773223e-05
-1.713754238734067e-05   1.7807051703609602e-07   -4.6821057492142236e-05
-1.713754238734067e-05   1.7807051703609602e-07   -4.6821057492142236e-05
-1.713754238734067e-05   1.7807051703609602e-07   -4.6821057492142236e-05
-1.713754238734067e-05   1.7807051703609602e-07   -4.6821057492142236e-05
-4.6643993045514335e-06   3.801100208245022e-07   -2.5911261985220346e-05
-4.6643993045514335e-06   3.801100208245022e-07   -2.5911261985220346e-05
-4.6643993045514335e-06   3.801100208245022e-07   -2.5911261985220346e-05
-4.6643993045514335e-06   3.801100208245022e-07   -2.5911261985220346e-05
-4.6733261134304985e-06   1.5398967964619066e-06   -4.630352876417636e-05
-4.6733261134304985e-06   1.5398967964619066e-06   -4.630352876417636e-05
-4.6733261134304985e-06   1.5398967964619066e-06   -4.630352876417636e-05
-4.6733261134304985e-06   1.5398967964619066e-06   -4.630352876417636e-05
-1.71459093269595e-05   1.6159232708696462e-06   -2.556150595960606e-05
-1.71459093269595e-05   1.6159232708696462e-06   -2.556150595960606e-05
-1.71459093269595e-05   1.6159232708696462e-06   -2.556150595960606e-05
-1.71459093269595e-05   1.6159232708696462e-06   -2.556150595960606e-05
-1.0832805629206566e-05   1.088511426778748e-06   -3.5766898349406375e-05
-1.0832805629206566e-05   1.088511426778748e-06   -3.5766898349406375e-05
-1.0832805629206566e-05   1.088511426778748e-06   -3.5766898349406375e-05
-1.0832805629206566e-05   1.088511426778748e-06   -3.5766898349406375e-05
-1.71459093269595e-05   1.5398967964619066e-06   -4.634914464882108e-05
-1.71459093269595e-05   1.5398967964619066e-06   -4.634914464882108e-05
-1.71459093269595e-05   1.5398967964619066e-06   -4.634914464882108e-05
-1.71459093269595e-05   1.5398967964619066e-06   -4.634914464882108e-05
-4.6733261134304985e-06   1.6159232708696462e-06   -2.5515890074961423e-05
-4.6733261134304985e-06   1.6159232708696462e-06   -2.5515890074961423e-05
-4.6733261134304985e-06   1.6159232708696462e-06   -2.5515890074961423e-05
-4.6733261134304985e-06   1.6159232708696462e-06   -2.5515890074961423e-05
-4.656937528939807e-06   2.8976761023544097e-06   -4.64211186238314e-05
-4.656937528939807e-06   2.8976761023544097e-06   -4.64211186238314e-05
-4.656937528939807e-06   2.8976761023544097e-06   -4.64211186238314e-05
-4.656937528939807e-06   2.8976761023544097e-06   -4.64211186238314e-05
-1.7133277285757466e-05   2.855690122166403e-06   -2.5602027441022575e-05
-1.7133277285757466e-05   2.855690122166403e-06   -2.5602027441022575e-05
-1.7133277285757466e-05   2.855690122166403e-06   -2.5602027441022575e-05
-1.7133277285757466e-05   2.855690122166403e-06   -2.5602027441022575e-05
-1.0905340531036672e-05   2.169688978807924e-06   -3.5570321346208744e-05
-1.0905340531036672e-05   2.169688978807924e-06   -3.5570321346208744e-05
-1.0905340531036672e-05   2.169688978807924e-06   -3.5570321346208744e-05
-1.0905340531036672e-05   2.169688978807924e-06   -3.5570321346208744e-05
-1.7133277285757466e-05   2.897676102354518e-06   -4.639592703571861e-05
-1.7133277285757466e-05   2.897676102354518e-06   -4.639592703571861e-05
-1.7133277285757466e-05   2.897676102354518e-06   -4.639592703571861e-05
-1.7133277285757466e-05   2.897676102354518e-06   -4.639592703571861e-05
-4.656937528939815e-06   2.855690122166403e-06   -2.5627219029135287e-05
-4.656937528939815e-06   2.855690122166403e-06   -2.5627219029135287e-05
-4.656937528939815e-06   2.855690122166403e-06   -2.5627219029135287e-05
-4.656937528939815e-06   2.855690122166403e-06   -2.5627219029135287e-05
-4.66426669123675e-06   4.287006810317021e-06   -4.712311065577316e-05
-4.66426669123675e-06   4.287006810317021e-06   -4.712311065577316e-05
-4.66426669123675e-06   4.287006810317021e-06   -4.712311065577316e-05
-4.66426669123675e-06   4.287006810317021e-06   -4.712311065577316e-05
-1.714705078379212e-05   4.117132960151557e-06   -2.6216546191414682e-05
-1.714705078379212e-05   4.117132960151557e-06   -2.6216546191414682e-05
-1.714705078379212e-05   4.117132960151557e-06   -2.6216546191414682e-05
-1.714705078379212e-05   4.117132960151557e-06   -2.6216546191414682e-05
-1.0999108216935051e-05   3.2650668519511837e-06   -3.595187747125646e-05
-1.0999108216935051e-05   3.2650668519511837e-06   -3.595187747125646e-05
-1.0999108216935051e-05   3.2650668519511837e-06   -3.595187747125646e-05
-1.0999108216935051e-05   3.2650668519511837e-06   -3.595187747125646e-05
-4.664399304551426e-06   -2.7989918694091252e-06   -4.145864699541831e-05
-4.664399304551426e-06   -2.7989918694091252e-06   -4.145864699541831e-05
-4.664399304551426e-06   -2.7989918694091252e-06   -4.145864699541831e-05
-4.664399304551426e-06   -2.7989918694091252e-06   -4.145864699541831e-05
7.626121186836903e-06   -1.2888480460188307e-06   -2.0068359882403756e-05
7.626121186836903e-06   -1.2888480460188307e-06   -2.0068359882403756e-05
7.626121186836903e-06   -1.2888480460188307e-06   -2.0068359882403756e-05
7.626121186836903e-06   -1.2888480460188307e-06   -2.0068359882403756e-05
7.726433138271411e-06   -1.5505351764500417e-06   -4.051540332028589e-05
7.726433138271411e-06   -1.5505351764500417e-06   -4.051540332028589e-05
7.726433138271411e-06   -1.5505351764500417e-06   -4.051540332028589e-05
7.726433138271411e-06   -1.5505351764500417e-06   -4.051540332028589e-05
-4.6733261134304985e-06   -1.24652631920295e-07   -2.0704667427500535e-05
-4.6733261134304985e-06   -1.24652631920295e-07   -2.0704667427500535e-05
-4.6733261134304985e-06   -1.24652631920295e-07   -2.0704667427500535e-05
-4.6733261134304985e-06   -1.24652631920295e-07   -2.0704667427500535e-05
1.5110682748556101e-06   -1.3333142325292749e-06   -3.0286794447612026e-05
1.5110682748556101e-06   -1.3333142325292749e-06   -3.0286794447612026e-05
1.5110682748556101e-06   -1.3333142325292749e-06   -3.0286794447612026e-05
1.5110682748556101e-06   -1.3333142325292749e-06   -3.0286794447612026e-05
-4.6733261134304985e-06   -1.5505351764500417e-06   -4.1370932847003736e-05
-4.6733261134304985e-06   -1.5505351764500417e-06   -4.1370932847003736e-05
-4.6733261134304985e-06   -1.5505351764500417e-06   -4.1370932847003736e-05
-4.6733261134304985e-06   -1.5505351764500417e-06   -4.1370932847003736e-05
7.726433138271438e-06   -1.24652631920295e-07   -1.9849137900782813e-05
7.726433138271438e-06   -1.24652631920295e-07   -1.9849137900782813e-05
7.726433138271438e-06   -1.24652631920295e-07   -1.9849137900782813e-05
7.726433138271438e-06   -1.24652631920295e-07   -1.9849137900782813e-05
7.963135835912808e-06   -3.2391367851868427e-07   -4.136735721980544e-05
7.963135835912808e-06   -3.2391367851868427e-07   -4.136735721980544e-05
7.963135835912808e-06   -3.2391367851868427e-07   -4.136735721980544e-05
7.963135835912808e-06   -3.2391367851868427e-07   -4.136735721980544e-05
-4.656937528939815e-06   9.951751772079714e-07   -2.112535492515376e-05
-4.656937528939815e-06   9.951751772079714e-07   -2.112535492515376e-05
-4.656937528939815e-06   9.951751772079714e-07   -2.112535492515376e-05
-4.656937528939815e-06   9.951751772079714e-07   -2.112535492515376e-05
1.439901410179376e-06   -3.6479070742530175e-07   -3.047077362623913e-05
1.439901410179376e-06   -3.6479070742530175e-07   -3.047077362623913e-05
1.439901410179376e-06   -3.6479070742530175e-07   -3.047077362623913e-05
1.439901410179376e-06   -3.6479070742530175e-07   -3.047077362623913e-05
-4.65693752893981e-06   -3.2391367851868427e-07   -4.2158810533241367e-05
-4.65693752893981e-06   -3.2391367851868427e-07   -4.2158810533241367e-05
-4.65693752893981e-06   -3.2391367851868427e-07   -4.2158810533241367e-05
-4.65693752893981e-06   -3.2391367851868427e-07   -4.2158810533241367e-05
7.963135835912835e-06   9.951751772079714e-07   -2.0333901611717614e-05
7.963135835912835e-06   9.951751772079714e-07   -2.0333901611717614e-05
7.963135835912835e-06   9.951751772079714e-07   -2.0333901611717614e-05
7.963135835912835e-06   9.951751772079714e-07   -2.0333901611717614e-05
8.079054603411624e-06   1.110130757721187e-06   -4.258683331043314e-05
8.079054603411624e-06   1.110130757721187e-06   -4.258683331043314e-05
8.079054603411624e-06   1.110130757721187e-06   -4.258683331043314e-05
8.079054603411624e-06   1.110130757721187e-06   -4.258683331043314e-05
-4.664266691236741e-06   2.2784655311998327e-06   -2.2048965350106276e-05
-4.664266691236741e-06   2.2784655311998327e-06   -2.2048965350106276e-05
-4.664266691236741e-06   2.2784655311998327e-06   -2.2048965350106276e-05
-4.664266691236741e-06   2.2784655311998327e-06   -2.2048965350106276e-05
1.4826128259967323e-06   6.709943120502626e-07   -3.132928181400553e-05
1.4826128259967323e-06   6.709943120502626e-07   -3.132928181400553e-05
1.4826128259967323e-06   6.709943120502626e-07   -3.132928181400553e-05
1.4826128259967323e-06   6.709943120502626e-07   -3.132928181400553e-05
7.62612118683689e-06   -5.075316537518637e-06   -2.2775724946588218e-05
7.62612118683689e-06   -5.075316537518637e-06   -2.2775724946588218e-05
7.62612118683689e-06   -5.075316537518637e-06   -2.2775724946588218e-05
7.62612118683689e-06   -5.075316537518637e-06   -2.2775724946588218e-05
1.8537594582122038e-05   -2.367299672193933e-06   -2.965125835251354e-06
1.8537594582122038e-05   -2.367299672193933e-06   -2.965125835251354e-06
1.8537594582122038e-05   -2.367299672193933e-06   -2.965125835251354e-06
1.8537594582122038e-05   -2.367299672193933e-06   -2.965125835251354e-06
1.9835127834450737e-05   -4.3556036591985235e-06   -2.3912510316817244e-05
1.9835127834450737e-05   -4.3556036591985235e-06   -2.3912510316817244e-05
1.9835127834450737e-05   -4.3556036591985235e-06   -2.3912510316817244e-05
1.9835127834450737e-05   -4.3556036591985235e-06   -2.3912510316817244e-05
7.726433138271438e-06   -1.5785291371754996e-06   -5.397597203065594e-06
7.726433138271438e-06   -1.5785291371754996e-06   -5.397597203065594e-06
7.726433138271438e-06   -1.5785291371754996e-06   -5.397597203065594e-06
7.726433138271438e-06   -1.5785291371754996e-06   -5.397597203065594e-06
1.2858619629277078e-05   -3.240545458641853e-06   -1.2954031561861765e-05
1.2858619629277078e-05   -3.240545458641853e-06   -1.2954031561861765e-05
1.2858619629277078e-05   -3.240545458641853e-06   -1.2954031561861765e-05
1.2858619629277078e-05   -3.240545458641853e-06   -1.2954031561861765e-05
7.726433138271425e-06   -4.355603659198632e-06   -2.5578755030030906e-05
7.726433138271425e-06   -4.355603659198632e-06   -2.5578755030030906e-05
7.726433138271425e-06   -4.355603659198632e-06   -2.5578755030030906e-05
7.726433138271425e-06   -4.355603659198632e-06   -2.5578755030030906e-05
1.9835127834450683e-05   -1.5785291371754996e-06   -3.731352489851742e-06
1.9835127834450683e-05   -1.5785291371754996e-06   -3.731352489851742e-06
1.9835127834450683e-05   -1.5785291371754996e-06   -3.731352489851742e-06
1.9835127834450683e-05   -1.5785291371754996e-06   -3.731352489851742e-06
2.0834064837491534e-05   -3.738678892644125e-06   -2.6221354332715314e-05
2.0834064837491534e-05   -3.738678892644125e-06   -2.6221354332715314e-05
2.0834064837491534e-05   -3.738678892644125e-06   -2.6221354332715314e-05
2.0834064837491534e-05   -3.738678892644125e-06   -2.6221354332715314e-05
7.963135835912835e-06   -1.0341972323606695e-06   -6.392494992920895e-06
7.963135835912835e-06   -1.0341972323606695e-06   -6.392494992920895e-06
7.963135835912835e-06   -1.0341972323606695e-06   -6.392494992920895e-06
7.963135835912835e-06   -1.0341972323606695e-06   -6.392494992920895e-06
1.3651245217019157e-05   -2.8354079979854086e-06   -1.4791950835389971e-05
1.3651245217019157e-05   -2.8354079979854086e-06   -1.4791950835389971e-05
1.3651245217019157e-05   -2.8354079979854086e-06   -1.4791950835389971e-05
1.3651245217019157e-05   -2.8354079979854086e-06   -1.4791950835389971e-05
7.963135835912835e-06   -3.738678892644125e-06   -2.784404332888536e-05
7.963135835912835e-06   -3.738678892644125e-06   -2.784404332888536e-05
7.963135835912835e-06   -3.738678892644125e-06   -2.784404332888536e-05
7.963135835912835e-06   -3.738678892644125e-06   -2.784404332888536e-05
2.0834064837491452e-05   -1.0341972323606695e-06   -4.76980599675074e-06
2.0834064837491452e-05   -1.0341972323606695e-06   -4.76980599675074e-06
2.0834064837491452e-05   -1.0341972323606695e-06   -4.76980599675074e-06
2.0834064837491452e-05   -1.0341972323606695e-06   -4.76980599675074e-06
2.216188910852577e-05   -2.4211060431017723e-06   -3.065042576321796e-05
2.216188910852577e-05   -2.4211060431017723e-06   -3.065042576321796e-05
2.216188910852577e-05   -2.4211060431017723e-06   -3.065042576321796e-05
2.216188910852577e-05   -2.4211060431017723e-06   -3.065042576321796e-05
8.079054603411638e-06   3.5479937305509836e-08   -8.652986509605258e-06
8.079054603411638e-06   3.5479937305509836e-08   -8.652986509605258e-06
8.079054603411638e-06   3.5479937305509836e-08   -8.652986509605258e-06
8.079054603411638e-06   3.5479937305509836e-08   -8.652986509605258e-06
1.391580938139542e-05   -2.2332581330837325e-06   -1.70196682973448e-05
1.391580938139542e-05   -2.2332581330837325e-06   -1.70196682973448e-05
1.391580938139542e-05   -2.2332581330837325e-06   -1.70196682973448e-05
1.391580938139542e-05   -2.2332581330837325e-06   -1.70196682973448e-05
-2.6465283413256173e-05   4.263841170902907e-06   -2.4809639588202373e-05
-2.6465283413256173e-05   4.263841170902907e-06   -2.4809639588202373e-05
-2.6465283413256173e-05   4.263841170902907e-06   -2.4809639588202373e-05
-2.6465283413256173e-05   4.263841170902907e-06   -2.4809639588202373e-05
-1.9549030289264856e-05   1.7359566004111846e-06   -1.479928179051195e-05
-1.9549030289264856e-05   1.7359566004111846e-06   -1.479928179051195e-05
-1.9549030289264856e-05   1.7359566004111846e-06   -1.479928179051195e-05
-1.9549030289264856e-05   1.7359566004111846e-06   -1.479928179051195e-05
-1.9261927268211478e-05   5.427816631431545e-06   -2.188663540952766e-05
-1.9261927268211478e-05   5.427816631431545e-06   -2.188663540952766e-05
-1.9261927268211478e-05   5.427816631431545e-06   -2.188663540952766e-05
-1.9261927268211478e-05   5.427816631431545e-06   -2.188663540952766e-05
-2.5026295995663785e-05   2.7042319483520927e-06   -1.0645203387259173e-05
-2.5026295995663785e-05   2.7042319483520927e-06   -1.0645203387259173e-05
-2.5026295995663785e-05   2.7042319483520927e-06   -1.0645203387259173e-05
-2.5026295995663785e-05   2.7042319483520927e-06   -1.0645203387259173e-05
-2.1619178039522833e-05   3.824923213364842e-06   -1.6996148073169528e-05
-2.1619178039522833e-05   3.824923213364842e-06   -1.6996148073169528e-05
-2.1619178039522833e-05   3.824923213364842e-06   -1.6996148073169528e-05
-2.1619178039522833e-05   3.824923213364842e-06   -1.6996148073169528e-05
-2.5026295995663785e-05   5.427816631431545e-06   -2.025248459968e-05
-2.5026295995663785e-05   5.427816631431545e-06   -2.025248459968e-05
-2.5026295995663785e-05   5.427816631431545e-06   -2.025248459968e-05
-2.5026295995663785e-05   5.427816631431545e-06   -2.025248459968e-05
-1.9261927268211505e-05   2.7042319483520927e-06   -1.2279354197107105e-05
-1.9261927268211505e-05   2.7042319483520927e-06   -1.2279354197107105e-05
-1.9261927268211505e-05   2.7042319483520927e-06   -1.2279354197107105e-05
-1.9261927268211505e-05   2.7042319483520927e-06   -1.2279354197107105e-05
-1.8852033720761753e-05   5.9703177857037834e-06   -1.95434001572859e-05
-1.8852033720761753e-05   5.9703177857037834e-06   -1.95434001572859e-05
-1.8852033720761753e-05   5.9703177857037834e-06   -1.95434001572859e-05
-1.8852033720761753e-05   5.9703177857037834e-06   -1.95434001572859e-05
-2.3878849024083803e-05   3.1937010434609885e-06   -9.499404606403338e-06
-2.3878849024083803e-05   3.1937010434609885e-06   -9.499404606403338e-06
-2.3878849024083803e-05   3.1937010434609885e-06   -9.499404606403338e-06
-2.3878849024083803e-05   3.1937010434609885e-06   -9.499404606403338e-06
-2.1239874423746184e-05   4.347497481488869e-06   -1.4589973469782884e-05
-2.1239874423746184e-05   4.347497481488869e-06   -1.4589973469782884e-05
-2.1239874423746184e-05   4.347497481488869e-06   -1.4589973469782884e-05
-2.1239874423746184e-05   4.347497481488869e-06   -1.4589973469782884e-05
-2.3878849024083803e-05   5.9703177857037834e-06   -1.787743011194017e-05
-2.3878849024083803e-05   5.9703177857037834e-06   -1.787743011194017e-05
-2.3878849024083803e-05   5.9703177857037834e-06   -1.787743011194017e-05
-2.3878849024083803e-05   5.9703177857037834e-06   -1.787743011194017e-05
-1.885203372076178e-05   3.1937010434609885e-06   -1.116537465174907e-05
-1.885203372076178e-05   3.1937010434609885e-06   -1.116537465174907e-05
-1.885203372076178e-05   3.1937010434609885e-06   -1.116537465174907e-05
-1.885203372076178e-05   3.1937010434609885e-06   -1.116537465174907e-05
-1.857312186348862e-05   6.652772561666445e-06   -1.6537879339801015e-05
-1.857312186348862e-05   6.652772561666445e-06   -1.6537879339801015e-05
-1.857312186348862e-05   6.652772561666445e-06   -1.6537879339801015e-05
-1.857312186348862e-05   6.652772561666445e-06   -1.6537879339801015e-05
-2.241783314674338e-05   3.969164190459123e-06   -8.519862178318449e-06
-2.241783314674338e-05   3.969164190459123e-06   -8.519862178318449e-06
-2.241783314674338e-05   3.969164190459123e-06   -8.519862178318449e-06
-2.241783314674338e-05   3.969164190459123e-06   -8.519862178318449e-06
-2.024763025772677e-05   4.710184189191135e-06   -1.258147899258589e-05
-2.024763025772677e-05   4.710184189191135e-06   -1.258147899258589e-05
-2.024763025772677e-05   4.710184189191135e-06   -1.258147899258589e-05
-2.024763025772677e-05   4.710184189191135e-06   -1.258147899258589e-05
-1.9549030289264856e-05   2.2051564206905516e-06   -3.617449412364362e-05
-1.9549030289264856e-05   2.2051564206905516e-06   -3.617449412364362e-05
-1.9549030289264856e-05   2.2051564206905516e-06   -3.617449412364362e-05
-1.9549030289264856e-05   2.2051564206905516e-06   -3.617449412364362e-05
-1.392852481895398e-05   9.979788442428337e-07   -2.7531291552327546e-05
-1.392852481895398e-05   9.979788442428337e-07   -2.7531291552327546e-05
-1.392852481895398e-05   9.979788442428337e-07   -2.7531291552327546e-05
-1.392852481895398e-05   9.979788442428337e-07   -2.7531291552327546e-05
-1.374083634561703e-05   3.434118489311429e-06   -3.605529813386699e-05
-1.374083634561703e-05   3.434118489311429e-06   -3.605529813386699e-05
-1.374083634561703e-05   3.434118489311429e-06   -3.605529813386699e-05
-1.374083634561703e-05   3.434118489311429e-06   -3.605529813386699e-05
-1.926192726821156e-05   2.1083924591524302e-06   -2.6058044311447225e-05
-1.926192726821156e-05   2.1083924591524302e-06   -2.6058044311447225e-05
-1.926192726821156e-05   2.1083924591524302e-06   -2.6058044311447225e-05
-1.926192726821156e-05   2.1083924591524302e-06   -2.6058044311447225e-05
-1.6458037010159257e-05   2.399811037365131e-06   -3.090604588846258e-05
-1.6458037010159257e-05   2.399811037365131e-06   -3.090604588846258e-05
-1.6458037010159257e-05   2.399811037365131e-06   -3.090604588846258e-05
-1.6458037010159257e-05   2.399811037365131e-06   -3.090604588846258e-05
-1.9261927268211478e-05   3.434118489311429e-06   -3.525986251577131e-05
-1.9261927268211478e-05   3.434118489311429e-06   -3.525986251577131e-05
-1.9261927268211478e-05   3.434118489311429e-06   -3.525986251577131e-05
-1.9261927268211478e-05   3.434118489311429e-06   -3.525986251577131e-05
-1.374083634561703e-05   2.1083924591522134e-06   -2.6853479929542636e-05
-1.374083634561703e-05   2.1083924591522134e-06   -2.6853479929542636e-05
-1.374083634561703e-05   2.1083924591522134e-06   -2.6853479929542636e-05
-1.374083634561703e-05   2.1083924591522134e-06   -2.6853479929542636e-05
-1.353351107516829e-05   4.5525663629414695e-06   -3.547230388622287e-05
-1.353351107516829e-05   4.5525663629414695e-06   -3.547230388622287e-05
-1.353351107516829e-05   4.5525663629414695e-06   -3.547230388622287e-05
-1.353351107516829e-05   4.5525663629414695e-06   -3.547230388622287e-05
-1.885203372076178e-05   3.1411106586991255e-06   -2.5761226054354827e-05
-1.885203372076178e-05   3.1411106586991255e-06   -2.5761226054354827e-05
-1.885203372076178e-05   3.1411106586991255e-06   -2.5761226054354827e-05
-1.885203372076178e-05   3.1411106586991255e-06   -2.5761226054354827e-05
-1.6211069697267554e-05   3.297837188466317e-06   -3.0256868678038535e-05
-1.6211069697267554e-05   3.297837188466317e-06   -3.0256868678038535e-05
-1.6211069697267554e-05   3.297837188466317e-06   -3.0256868678038535e-05
-1.6211069697267554e-05   3.297837188466317e-06   -3.0256868678038535e-05
-1.8852033720761753e-05   4.5525663629414695e-06   -3.462543046367733e-05
-1.8852033720761753e-05   4.5525663629414695e-06   -3.462543046367733e-05
-1.8852033720761753e-05   4.5525663629414695e-06   -3.462543046367733e-05
-1.8852033720761753e-05   4.5525663629414695e-06   -3.462543046367733e-05
-1.3533511075168264e-05   3.1411106586991255e-06   -2.6608099476900147e-05
-1.3533511075168264e-05   3.1411106586991255e-06   -2.6608099476900147e-05
-1.3533511075168264e-05   3.1411106586991255e-06   -2.6608099476900147e-05
-1.3533511075168264e-05   3.1411106586991255e-06   -2.6608099476900147e-05
-1.334924856747064e-05   5.76761876888124e-06   -3.581627610885901e-05
-1.334924856747064e-05   5.76761876888124e-06   -3.581627610885901e-05
-1.334924856747064e-05   5.76761876888124e-06   -3.581627610885901e-05
-1.334924856747064e-05   5.76761876888124e-06   -3.581627610885901e-05
-1.8573121863488674e-05   4.288841649026593e-06   -2.62225543435826e-05
-1.8573121863488674e-05   4.288841649026593e-06   -2.62225543435826e-05
-1.8573121863488674e-05   4.288841649026593e-06   -2.62225543435826e-05
-1.8573121863488674e-05   4.288841649026593e-06   -2.62225543435826e-05
-1.611501601528284e-05   4.207651392611395e-06   -3.027068327007693e-05
-1.611501601528284e-05   4.207651392611395e-06   -3.027068327007693e-05
-1.611501601528284e-05   4.207651392611395e-06   -3.027068327007693e-05
-1.611501601528284e-05   4.207651392611395e-06   -3.027068327007693e-05
-1.392852481895394e-05   3.801100208246106e-07   -4.090758567617522e-05
-1.392852481895394e-05   3.801100208246106e-07   -4.090758567617522e-05
-1.392852481895394e-05   3.801100208246106e-07   -4.090758567617522e-05
-1.392852481895394e-05   3.801100208246106e-07   -4.090758567617522e-05
-8.45079134718791e-06   5.728485532358225e-07   -3.166238677045183e-05
-8.45079134718791e-06   5.728485532358225e-07   -3.166238677045183e-05
-8.45079134718791e-06   5.728485532358225e-07   -3.166238677045183e-05
-8.45079134718791e-06   5.728485532358225e-07   -3.166238677045183e-05
-8.267946767043618e-06   1.6159232708697546e-06   -4.03930274134437e-05
-8.267946767043618e-06   1.6159232708697546e-06   -4.03930274134437e-05
-8.267946767043618e-06   1.6159232708697546e-06   -4.03930274134437e-05
-8.267946767043618e-06   1.6159232708697546e-06   -4.03930274134437e-05
-1.374083634561703e-05   1.7040584867514079e-06   -3.132442591201662e-05
-1.374083634561703e-05   1.7040584867514079e-06   -3.132442591201662e-05
-1.374083634561703e-05   1.7040584867514079e-06   -3.132442591201662e-05
-1.374083634561703e-05   1.7040584867514079e-06   -3.132442591201662e-05
-1.10258871064499e-05   1.2258466243758462e-06   -3.5562414193204036e-05
-1.10258871064499e-05   1.2258466243758462e-06   -3.5562414193204036e-05
-1.10258871064499e-05   1.2258466243758462e-06   -3.5562414193204036e-05
-1.10258871064499e-05   1.2258466243758462e-06   -3.5562414193204036e-05
-1.3740836345617016e-05   1.6159232708696462e-06   -4.044590854297258e-05
-1.3740836345617016e-05   1.6159232708696462e-06   -4.044590854297258e-05
-1.3740836345617016e-05   1.6159232708696462e-06   -4.044590854297258e-05
-1.3740836345617016e-05   1.6159232708696462e-06   -4.044590854297258e-05
-8.267946767043618e-06   1.7040584867514079e-06   -3.127154478248782e-05
-8.267946767043618e-06   1.7040584867514079e-06   -3.127154478248782e-05
-8.267946767043618e-06   1.7040584867514079e-06   -3.127154478248782e-05
-8.267946767043618e-06   1.7040584867514079e-06   -3.127154478248782e-05
-8.062097860193112e-06   2.8556901221665114e-06   -4.04981887902685e-05
-8.062097860193112e-06   2.8556901221665114e-06   -4.04981887902685e-05
-8.062097860193112e-06   2.8556901221665114e-06   -4.04981887902685e-05
-8.062097860193112e-06   2.8556901221665114e-06   -4.04981887902685e-05
-1.3533511075168264e-05   2.845167663183051e-06   -3.137285328991976e-05
-1.3533511075168264e-05   2.845167663183051e-06   -3.137285328991976e-05
-1.3533511075168264e-05   2.845167663183051e-06   -3.137285328991976e-05
-1.3533511075168264e-05   2.845167663183051e-06   -3.137285328991976e-05
-1.0903505934347762e-05   2.197903244445607e-06   -3.536783654004485e-05
-1.0903505934347762e-05   2.197903244445607e-06   -3.536783654004485e-05
-1.0903505934347762e-05   2.197903244445607e-06   -3.536783654004485e-05
-1.0903505934347762e-05   2.197903244445607e-06   -3.536783654004485e-05
-1.3533511075168223e-05   2.8556901221665114e-06   -4.049187531487844e-05
-1.3533511075168223e-05   2.8556901221665114e-06   -4.049187531487844e-05
-1.3533511075168223e-05   2.8556901221665114e-06   -4.049187531487844e-05
-1.3533511075168223e-05   2.8556901221665114e-06   -4.049187531487844e-05
-8.062097860193126e-06   2.845167663183051e-06   -3.137916676530984e-05
-8.062097860193126e-06   2.845167663183051e-06   -3.137916676530984e-05
-8.062097860193126e-06   2.845167663183051e-06   -3.137916676530984e-05
-8.062097860193126e-06   2.845167663183051e-06   -3.137916676530984e-05
-7.877197234750304e-06   4.117132960151449e-06   -4.117981838344458e-05
-7.877197234750304e-06   4.117132960151449e-06   -4.117981838344458e-05
-7.877197234750304e-06   4.117132960151449e-06   -4.117981838344458e-05
-7.877197234750304e-06   4.117132960151449e-06   -4.117981838344458e-05
-1.3349248567470654e-05   4.00351038028191e-06   -3.199155928098875e-05
-1.3349248567470654e-05   4.00351038028191e-06   -3.199155928098875e-05
-1.3349248567470654e-05   4.00351038028191e-06   -3.199155928098875e-05
-1.3349248567470654e-05   4.00351038028191e-06   -3.199155928098875e-05
-1.080246821552836e-05   3.1828869300454775e-06   -3.574381913075097e-05
-1.080246821552836e-05   3.1828869300454775e-06   -3.574381913075097e-05
-1.080246821552836e-05   3.1828869300454775e-06   -3.574381913075097e-05
-1.080246821552836e-05   3.1828869300454775e-06   -3.574381913075097e-05
-8.45079134718788e-06   -1.2888480460188307e-06   -3.585512674794607e-05
-8.45079134718788e-06   -1.2888480460188307e-06   -3.585512674794607e-05
-8.45079134718788e-06   -1.2888480460188307e-06   -3.585512674794607e-05
-8.45079134718788e-06   -1.2888480460188307e-06   -3.585512674794607e-05
-3.1400949892901835e-06   2.4646183347009146e-07   -2.6082780223756668e-05
-3.1400949892901835e-06   2.4646183347009146e-07   -2.6082780223756668e-05
-3.1400949892901835e-06   2.4646183347009146e-07   -2.6082780223756668e-05
-3.1400949892901835e-06   2.4646183347009146e-07   -2.6082780223756668e-05
-2.8665745452611895e-06   -1.24652631920295e-07   -3.4701570804769924e-05
-2.8665745452611895e-06   -1.24652631920295e-07   -3.4701570804769924e-05
-2.8665745452611895e-06   -1.24652631920295e-07   -3.4701570804769924e-05
-2.8665745452611895e-06   -1.24652631920295e-07   -3.4701570804769924e-05
-8.267946767043603e-06   1.3424039701011737e-06   -2.6579517729678462e-05
-8.267946767043603e-06   1.3424039701011737e-06   -2.6579517729678462e-05
-8.267946767043603e-06   1.3424039701011737e-06   -2.6579517729678462e-05
-8.267946767043603e-06   1.3424039701011737e-06   -2.6579517729678462e-05
-5.624012208072127e-06   1.5823867436422917e-07   -3.0275576150522762e-05
-5.624012208072127e-06   1.5823867436422917e-07   -3.0275576150522762e-05
-5.624012208072127e-06   1.5823867436422917e-07   -3.0275576150522762e-05
-5.624012208072127e-06   1.5823867436422917e-07   -3.0275576150522762e-05
-8.267946767043587e-06   -1.24652631920295e-07   -3.558180476598277e-05
-8.267946767043587e-06   -1.24652631920295e-07   -3.558180476598277e-05
-8.267946767043587e-06   -1.24652631920295e-07   -3.558180476598277e-05
-8.267946767043587e-06   -1.24652631920295e-07   -3.558180476598277e-05
-2.8665745452611895e-06   1.3424039701011737e-06   -2.569928376846577e-05
-2.8665745452611895e-06   1.3424039701011737e-06   -2.569928376846577e-05
-2.8665745452611895e-06   1.3424039701011737e-06   -2.569928376846577e-05
-2.8665745452611895e-06   1.3424039701011737e-06   -2.569928376846577e-05
-2.459945809734512e-06   9.951751772079714e-07   -3.516843721256777e-05
-2.459945809734512e-06   9.951751772079714e-07   -3.516843721256777e-05
-2.459945809734512e-06   9.951751772079714e-07   -3.516843721256777e-05
-2.459945809734512e-06   9.951751772079714e-07   -3.516843721256777e-05
-8.062097860193112e-06   2.3749876334063467e-06   -2.6659404602189023e-05
-8.062097860193112e-06   2.3749876334063467e-06   -2.6659404602189023e-05
-8.062097860193112e-06   2.3749876334063467e-06   -2.6659404602189023e-05
-8.062097860193112e-06   2.3749876334063467e-06   -2.6659404602189023e-05
-5.4587926828755005e-06   1.0431964407297276e-06   -3.0199171848779117e-05
-5.4587926828755005e-06   1.0431964407297276e-06   -3.0199171848779117e-05
-5.4587926828755005e-06   1.0431964407297276e-06   -3.0199171848779117e-05
-5.4587926828755005e-06   1.0431964407297276e-06   -3.0199171848779117e-05
-8.06209786019309e-06   9.951751772079714e-07   -3.5996324686286645e-05
-8.06209786019309e-06   9.951751772079714e-07   -3.5996324686286645e-05
-8.06209786019309e-06   9.951751772079714e-07   -3.5996324686286645e-05
-8.06209786019309e-06   9.951751772079714e-07   -3.5996324686286645e-05
-2.4599458097345254e-06   2.3749876334065636e-06   -2.5831517128470068e-05
-2.4599458097345254e-06   2.3749876334065636e-06   -2.5831517128470068e-05
-2.4599458097345254e-06   2.3749876334065636e-06   -2.5831517128470068e-05
-2.4599458097345254e-06   2.3749876334065636e-06   -2.5831517128470068e-05
-2.176128033509319e-06   2.278465531199941e-06   -3.6151988943721944e-05
-2.176128033509319e-06   2.278465531199941e-06   -3.6151988943721944e-05
-2.176128033509319e-06   2.278465531199941e-06   -3.6151988943721944e-05
-2.176128033509319e-06   2.278465531199941e-06   -3.6151988943721944e-05
-7.877197234750304e-06   3.5423393450579547e-06   -2.7408531229968414e-05
-7.877197234750304e-06   3.5423393450579547e-06   -2.7408531229968414e-05
-7.877197234750304e-06   3.5423393450579547e-06   -2.7408531229968414e-05
-7.877197234750304e-06   3.5423393450579547e-06   -2.7408531229968414e-05
-5.285934693192523e-06   1.9704938795111907e-06   -3.078419485323661e-05
-5.285934693192523e-06   1.9704938795111907e-06   -3.078419485323661e-05
-5.285934693192523e-06   1.9704938795111907e-06   -3.078419485323661e-05
-5.285934693192523e-06   1.9704938795111907e-06   -3.078419485323661e-05
-3.14009498929017e-06   -2.367299672193933e-06   -1.945551689229528e-05
-3.14009498929017e-06   -2.367299672193933e-06   -1.945551689229528e-05
-3.14009498929017e-06   -2.367299672193933e-06   -1.945551689229528e-05
-3.14009498929017e-06   -2.367299672193933e-06   -1.945551689229528e-05
7.813101601322964e-07   3.4355406100614744e-07   -1.1293329403337725e-05
7.813101601322964e-07   3.4355406100614744e-07   -1.1293329403337725e-05
7.813101601322964e-07   3.4355406100614744e-07   -1.1293329403337725e-05
7.813101601322964e-07   3.4355406100614744e-07   -1.1293329403337725e-05
2.22797286298542e-06   -1.5785291371754996e-06   -1.8576914775319587e-05
2.22797286298542e-06   -1.5785291371754996e-06   -1.8576914775319587e-05
2.22797286298542e-06   -1.5785291371754996e-06   -1.8576914775319587e-05
2.22797286298542e-06   -1.5785291371754996e-06   -1.8576914775319587e-05
-2.8665745452611895e-06   1.2099964157130227e-06   -1.1759117759974834e-05
-2.8665745452611895e-06   1.2099964157130227e-06   -1.1759117759974834e-05
-2.8665745452611895e-06   1.2099964157130227e-06   -1.1759117759974834e-05
-2.8665745452611895e-06   1.2099964157130227e-06   -1.1759117759974834e-05
-7.294552940720692e-07   -4.813175546508532e-07   -1.4306194796405387e-05
-7.294552940720692e-07   -4.813175546508532e-07   -1.4306194796405387e-05
-7.294552940720692e-07   -4.813175546508532e-07   -1.4306194796405387e-05
-7.294552940720692e-07   -4.813175546508532e-07   -1.4306194796405387e-05
-2.866574545261176e-06   -1.5785291371754996e-06   -2.025003010705257e-05
-2.866574545261176e-06   -1.5785291371754996e-06   -2.025003010705257e-05
-2.866574545261176e-06   -1.5785291371754996e-06   -2.025003010705257e-05
-2.866574545261176e-06   -1.5785291371754996e-06   -2.025003010705257e-05
2.22797286298542e-06   1.2099964157130227e-06   -1.0086002428241823e-05
2.22797286298542e-06   1.2099964157130227e-06   -1.0086002428241823e-05
2.22797286298542e-06   1.2099964157130227e-06   -1.0086002428241823e-05
2.22797286298542e-06   1.2099964157130227e-06   -1.0086002428241823e-05
3.3703321907919265e-06   -1.0341972323606695e-06   -1.95882090281429e-05
3.3703321907919265e-06   -1.0341972323606695e-06   -1.95882090281429e-05
3.3703321907919265e-06   -1.0341972323606695e-06   -1.95882090281429e-05
3.3703321907919265e-06   -1.0341972323606695e-06   -1.95882090281429e-05
-2.4599458097345254e-06   1.697172043686095e-06   -1.150990059289338e-05
-2.4599458097345254e-06   1.697172043686095e-06   -1.150990059289338e-05
-2.4599458097345254e-06   1.697172043686095e-06   -1.150990059289338e-05
-2.4599458097345254e-06   1.697172043686095e-06   -1.150990059289338e-05
3.992204602753277e-09   -6.627167966949312e-08   -1.4558397716108817e-05
3.992204602753277e-09   -6.627167966949312e-08   -1.4558397716108817e-05
3.992204602753277e-09   -6.627167966949312e-08   -1.4558397716108817e-05
3.992204602753277e-09   -6.627167966949312e-08   -1.4558397716108817e-05
-2.459945809734512e-06   -1.0341972323606695e-06   -2.1227030593770917e-05
-2.459945809734512e-06   -1.0341972323606695e-06   -2.1227030593770917e-05
-2.459945809734512e-06   -1.0341972323606695e-06   -2.1227030593770917e-05
-2.459945809734512e-06   -1.0341972323606695e-06   -2.1227030593770917e-05
3.3703321907919265e-06   1.697172043686095e-06   -9.871079027265364e-06
3.3703321907919265e-06   1.697172043686095e-06   -9.871079027265364e-06
3.3703321907919265e-06   1.697172043686095e-06   -9.871079027265364e-06
3.3703321907919265e-06   1.697172043686095e-06   -9.871079027265364e-06
4.812240152443105e-06   3.5479937305509836e-08   -2.1941936833619943e-05
4.812240152443105e-06   3.5479937305509836e-08   -2.1941936833619943e-05
4.812240152443105e-06   3.5479937305509836e-08   -2.1941936833619943e-05
4.812240152443105e-06   3.5479937305509836e-08   -2.1941936833619943e-05
-2.176128033509319e-06   2.5606034934524523e-06   -1.1809730657387182e-05
-2.176128033509319e-06   2.5606034934524523e-06   -1.1809730657387182e-05
-2.176128033509319e-06   2.5606034934524523e-06   -1.1809730657387182e-05
-2.176128033509319e-06   2.5606034934524523e-06   -1.1809730657387182e-05
6.353968322981177e-07   4.0697042775399237e-07   -1.5203425594314087e-05
6.353968322981177e-07   4.0697042775399237e-07   -1.5203425594314087e-05
6.353968322981177e-07   4.0697042775399237e-07   -1.5203425594314087e-05
6.353968322981177e-07   4.0697042775399237e-07   -1.5203425594314087e-05
-9.206871504835196e-06   1.7359566004111846e-06   -1.65269818427023e-05
-9.206871504835196e-06   1.7359566004111846e-06   -1.65269818427023e-05
-9.206871504835196e-06   1.7359566004111846e-06   -1.65269818427023e-05
-9.206871504835196e-06   1.7359566004111846e-06   -1.65269818427023e-05
-9.343248863505848e-06   -8.093037878972344e-07   -1.82814336734719e-05
-9.343248863505848e-06   -8.093037878972344e-07   -1.82814336734719e-05
-9.343248863505848e-06   -8.093037878972344e-07   -1.82814336734719e-05
-9.343248863505848e-06   -8.093037878972344e-07   -1.82814336734719e-05
-8.875995878196815e-06   2.7042319483520927e-06   -1.5528613584407788e-05
-8.875995878196815e-06   2.7042319483520927e-06   -1.5528613584407788e-05
-8.875995878196815e-06   2.7042319483520927e-06   -1.5528613584407788e-05
-8.875995878196815e-06   2.7042319483520927e-06   -1.5528613584407788e-05
-7.596239862617412e-06   -2.6255234648062467e-08   -1.6023247967240158e-05
-7.596239862617412e-06   -2.6255234648062467e-08   -1.6023247967240158e-05
-7.596239862617412e-06   -2.6255234648062467e-08   -1.6023247967240158e-05
-7.596239862617412e-06   -2.6255234648062467e-08   -1.6023247967240158e-05
-8.372948588574532e-06   1.195164759233442e-06   -1.5461585420307696e-05
-8.372948588574532e-06   1.195164759233442e-06   -1.5461585420307696e-05
-8.372948588574532e-06   1.195164759233442e-06   -1.5461585420307696e-05
-8.372948588574532e-06   1.195164759233442e-06   -1.5461585420307696e-05
-7.596239862617358e-06   2.7042319483520927e-06   -1.3890321274607738e-05
-7.596239862617358e-06   2.7042319483520927e-06   -1.3890321274607738e-05
-7.596239862617358e-06   2.7042319483520927e-06   -1.3890321274607738e-05
-7.596239862617358e-06   2.7042319483520927e-06   -1.3890321274607738e-05
-8.875995878196842e-06   -2.6255234647845627e-08   -1.7661540277040262e-05
-8.875995878196842e-06   -2.6255234647845627e-08   -1.7661540277040262e-05
-8.875995878196842e-06   -2.6255234647845627e-08   -1.7661540277040262e-05
-8.875995878196842e-06   -2.6255234647845627e-08   -1.7661540277040262e-05
-8.28643033961134e-06   3.1937010434609885e-06   -1.4410551968802986e-05
-8.28643033961134e-06   3.1937010434609885e-06   -1.4410551968802986e-05
-8.28643033961134e-06   3.1937010434609885e-06   -1.4410551968802986e-05
-8.28643033961134e-06   3.1937010434609885e-06   -1.4410551968802986e-05
-6.2647599439204205e-06   4.1699018401685634e-07   -1.6113976112621395e-05
-6.2647599439204205e-06   4.1699018401685634e-07   -1.6113976112621395e-05
-6.2647599439204205e-06   4.1699018401685634e-07   -1.6113976112621395e-05
-6.2647599439204205e-06   4.1699018401685634e-07   -1.6113976112621395e-05
-7.610821378712919e-06   1.5973472440725719e-06   -1.4578754624001262e-05
-7.610821378712919e-06   1.5973472440725719e-06   -1.4578754624001262e-05
-7.610821378712919e-06   1.5973472440725719e-06   -1.4578754624001262e-05
-7.610821378712919e-06   1.5973472440725719e-06   -1.4578754624001262e-05
-6.264759943920366e-06   3.1937010434609885e-06   -1.2744525453136594e-05
-6.264759943920366e-06   3.1937010434609885e-06   -1.2744525453136594e-05
-6.264759943920366e-06   3.1937010434609885e-06   -1.2744525453136594e-05
-6.264759943920366e-06   3.1937010434609885e-06   -1.2744525453136594e-05
-8.286430339611366e-06   4.169901840170732e-07   -1.7780002628287734e-05
-8.286430339611366e-06   4.169901840170732e-07   -1.7780002628287734e-05
-8.286430339611366e-06   4.169901840170732e-07   -1.7780002628287734e-05
-8.286430339611366e-06   4.169901840170732e-07   -1.7780002628287734e-05
-7.826945967130992e-06   3.969164190459123e-06   -1.3371480065961895e-05
-7.826945967130992e-06   3.969164190459123e-06   -1.3371480065961895e-05
-7.826945967130992e-06   3.969164190459123e-06   -1.3371480065961895e-05
-7.826945967130992e-06   3.969164190459123e-06   -1.3371480065961895e-05
-4.6208093017009516e-06   1.300915145086099e-06   -1.7114091747788118e-05
-4.6208093017009516e-06   1.300915145086099e-06   -1.7114091747788118e-05
-4.6208093017009516e-06   1.300915145086099e-06   -1.7114091747788118e-05
-4.6208093017009516e-06   1.300915145086099e-06   -1.7114091747788118e-05
-6.658549779499896e-06   1.9831282839783814e-06   -1.4127185501458658e-05
-6.658549779499896e-06   1.9831282839783814e-06   -1.4127185501458658e-05
-6.658549779499896e-06   1.9831282839783814e-06   -1.4127185501458658e-05
-6.658549779499896e-06   1.9831282839783814e-06   -1.4127185501458658e-05
-9.34324886350582e-06   9.979788442426168e-07   -3.0061841291634185e-05
-9.34324886350582e-06   9.979788442426168e-07   -3.0061841291634185e-05
-9.34324886350582e-06   9.979788442426168e-07   -3.0061841291634185e-05
-9.34324886350582e-06   9.979788442426168e-07   -3.0061841291634185e-05
-1.0775105646536676e-05   -1.7438384493622533e-07   -3.315168687685968e-05
-1.0775105646536676e-05   -1.7438384493622533e-07   -3.315168687685968e-05
-1.0775105646536676e-05   -1.7438384493622533e-07   -3.315168687685968e-05
-1.0775105646536676e-05   -1.7438384493622533e-07   -3.315168687685968e-05
-1.0397867448546237e-05   2.1083924591524302e-06   -3.008405290510867e-05
-1.0397867448546237e-05   2.1083924591524302e-06   -3.008405290510867e-05
-1.0397867448546237e-05   2.1083924591524302e-06   -3.008405290510867e-05
-1.0397867448546237e-05   2.1083924591524302e-06   -3.008405290510867e-05
-8.875995878196842e-06   8.138104485517009e-07   -3.1843756315996904e-05
-8.875995878196842e-06   8.138104485517009e-07   -3.1843756315996904e-05
-8.875995878196842e-06   8.138104485517009e-07   -3.1843756315996904e-05
-8.875995878196842e-06   8.138104485517009e-07   -3.1843756315996904e-05
-9.733369122602557e-06   1.153595325402955e-06   -3.061867183476566e-05
-9.733369122602557e-06   1.153595325402955e-06   -3.061867183476566e-05
-9.733369122602557e-06   1.153595325402955e-06   -3.061867183476566e-05
-9.733369122602557e-06   1.153595325402955e-06   -3.061867183476566e-05
-8.875995878196815e-06   2.1083924591524302e-06   -2.93073036987478e-05
-8.875995878196815e-06   2.1083924591524302e-06   -2.93073036987478e-05
-8.875995878196815e-06   2.1083924591524302e-06   -2.93073036987478e-05
-8.875995878196815e-06   2.1083924591524302e-06   -2.93073036987478e-05
-1.039786744854621e-05   8.13810448551484e-07   -3.262050552235756e-05
-1.039786744854621e-05   8.13810448551484e-07   -3.262050552235756e-05
-1.039786744854621e-05   8.13810448551484e-07   -3.262050552235756e-05
-1.039786744854621e-05   8.13810448551484e-07   -3.262050552235756e-05
-1.000549680791841e-05   3.1411106586991255e-06   -2.9831824373797652e-05
-1.000549680791841e-05   3.1411106586991255e-06   -2.9831824373797652e-05
-1.000549680791841e-05   3.1411106586991255e-06   -2.9831824373797652e-05
-1.000549680791841e-05   3.1411106586991255e-06   -2.9831824373797652e-05
-8.286430339611393e-06   1.7654089880508178e-06   -3.1871514151920305e-05
-8.286430339611393e-06   1.7654089880508178e-06   -3.1871514151920305e-05
-8.286430339611393e-06   1.7654089880508178e-06   -3.1871514151920305e-05
-8.286430339611393e-06   1.7654089880508178e-06   -3.1871514151920305e-05
-9.355381007135761e-06   1.950525063267733e-06   -3.0200999351176656e-05
-9.355381007135761e-06   1.950525063267733e-06   -3.0200999351176656e-05
-9.355381007135761e-06   1.950525063267733e-06   -3.0200999351176656e-05
-9.355381007135761e-06   1.950525063267733e-06   -3.0200999351176656e-05
-8.28643033961134e-06   3.1411106586991255e-06   -2.900640337140858e-05
-8.28643033961134e-06   3.1411106586991255e-06   -2.900640337140858e-05
-8.28643033961134e-06   3.1411106586991255e-06   -2.900640337140858e-05
-8.28643033961134e-06   3.1411106586991255e-06   -2.900640337140858e-05
-1.0005496807918382e-05   1.7654089880508178e-06   -3.269693515430927e-05
-1.0005496807918382e-05   1.7654089880508178e-06   -3.269693515430927e-05
-1.0005496807918382e-05   1.7654089880508178e-06   -3.269693515430927e-05
-1.0005496807918382e-05   1.7654089880508178e-06   -3.269693515430927e-05
-9.636056978889787e-06   4.288841649026593e-06   -3.032597714076662e-05
-9.636056978889787e-06   4.288841649026593e-06   -3.032597714076662e-05
-9.636056978889787e-06   4.288841649026593e-06   -3.032597714076662e-05
-9.636056978889787e-06   4.288841649026593e-06   -3.032597714076662e-05
-7.826945967130992e-06   2.8522250952514854e-06   -3.2479192228099404e-05
-7.826945967130992e-06   2.8522250952514854e-06   -3.2479192228099404e-05
-7.826945967130992e-06   2.8522250952514854e-06   -3.2479192228099404e-05
-7.826945967130992e-06   2.8522250952514854e-06   -3.2479192228099404e-05
-9.022943205204962e-06   2.7867189737154803e-06   -3.0446559825054694e-05
-9.022943205204962e-06   2.7867189737154803e-06   -3.0446559825054694e-05
-9.022943205204962e-06   2.7867189737154803e-06   -3.0446559825054694e-05
-9.022943205204962e-06   2.7867189737154803e-06   -3.0446559825054694e-05
-1.0775105646536635e-05   5.728485532358225e-07   -3.501199724271261e-05
-1.0775105646536635e-05   5.728485532358225e-07   -3.501199724271261e-05
-1.0775105646536635e-05   5.728485532358225e-07   -3.501199724271261e-05
-1.0775105646536635e-05   5.728485532358225e-07   -3.501199724271261e-05
-1.2281524763800044e-05   8.207857206880657e-07   -3.7373933471013645e-05
-1.2281524763800044e-05   8.207857206880657e-07   -3.7373933471013645e-05
-1.2281524763800044e-05   8.207857206880657e-07   -3.7373933471013645e-05
-1.2281524763800044e-05   8.207857206880657e-07   -3.7373933471013645e-05
-1.1910859071598529e-05   1.7040584867514079e-06   -3.4471988702539655e-05
-1.1910859071598529e-05   1.7040584867514079e-06   -3.4471988702539655e-05
-1.1910859071598529e-05   1.7040584867514079e-06   -3.4471988702539655e-05
-1.1910859071598529e-05   1.7040584867514079e-06   -3.4471988702539655e-05
-1.0397867448546237e-05   1.842408795156309e-06   -3.7076651592669695e-05
-1.0397867448546237e-05   1.842408795156309e-06   -3.7076651592669695e-05
-1.0397867448546237e-05   1.842408795156309e-06   -3.7076651592669695e-05
-1.0397867448546237e-05   1.842408795156309e-06   -3.7076651592669695e-05
-1.1273055619115015e-05   1.3942196924910267e-06   -3.5349091180123025e-05
-1.1273055619115015e-05   1.3942196924910267e-06   -3.5349091180123025e-05
-1.1273055619115015e-05   1.3942196924910267e-06   -3.5349091180123025e-05
-1.1273055619115015e-05   1.3942196924910267e-06   -3.5349091180123025e-05
-1.0397867448546183e-05   1.7040584867514079e-06   -3.4554998887582574e-05
-1.0397867448546183e-05   1.7040584867514079e-06   -3.4554998887582574e-05
-1.0397867448546183e-05   1.7040584867514079e-06   -3.4554998887582574e-05
-1.0397867448546183e-05   1.7040584867514079e-06   -3.4554998887582574e-05
-1.1910859071598549e-05   1.842408795156526e-06   -3.699364140762691e-05
-1.1910859071598549e-05   1.842408795156526e-06   -3.699364140762691e-05
-1.1910859071598549e-05   1.842408795156526e-06   -3.699364140762691e-05
-1.1910859071598549e-05   1.842408795156526e-06   -3.699364140762691e-05
-1.1520895721064348e-05   2.845167663183051e-06   -3.4571807633727424e-05
-1.1520895721064348e-05   2.845167663183051e-06   -3.4571807633727424e-05
-1.1520895721064348e-05   2.845167663183051e-06   -3.4571807633727424e-05
-1.1520895721064348e-05   2.845167663183051e-06   -3.4571807633727424e-05
-1.000549680791841e-05   2.8864519183329548e-06   -3.712224304206049e-05
-1.000549680791841e-05   2.8864519183329548e-06   -3.712224304206049e-05
-1.000549680791841e-05   2.8864519183329548e-06   -3.712224304206049e-05
-1.000549680791841e-05   2.8864519183329548e-06   -3.712224304206049e-05
-1.096215859804712e-05   2.2683197121843926e-06   -3.515692740149062e-05
-1.096215859804712e-05   2.2683197121843926e-06   -3.515692740149062e-05
-1.096215859804712e-05   2.2683197121843926e-06   -3.515692740149062e-05
-1.096215859804712e-05   2.2683197121843926e-06   -3.515692740149062e-05
-1.0005496807918382e-05   2.845167663183051e-06   -3.4596578186817236e-05
-1.0005496807918382e-05   2.845167663183051e-06   -3.4596578186817236e-05
-1.0005496807918382e-05   2.845167663183051e-06   -3.4596578186817236e-05
-1.0005496807918382e-05   2.845167663183051e-06   -3.4596578186817236e-05
-1.1520895721064348e-05   2.8864519183329548e-06   -3.7097472488970516e-05
-1.1520895721064348e-05   2.8864519183329548e-06   -3.7097472488970516e-05
-1.1520895721064348e-05   2.8864519183329548e-06   -3.7097472488970516e-05
-1.1520895721064348e-05   2.8864519183329548e-06   -3.7097472488970516e-05
-1.115313525092345e-05   4.00351038028191e-06   -3.52428443823003e-05
-1.115313525092345e-05   4.00351038028191e-06   -3.52428443823003e-05
-1.115313525092345e-05   4.00351038028191e-06   -3.52428443823003e-05
-1.115313525092345e-05   4.00351038028191e-06   -3.52428443823003e-05
-9.636056978889801e-06   3.944962753548191e-06   -3.773617959298257e-05
-9.636056978889801e-06   3.944962753548191e-06   -3.773617959298257e-05
-9.636056978889801e-06   3.944962753548191e-06   -3.773617959298257e-05
-9.636056978889801e-06   3.944962753548191e-06   -3.773617959298257e-05
-1.0676111031117422e-05   3.1546588635425043e-06   -3.552857383859996e-05
-1.0676111031117422e-05   3.1546588635425043e-06   -3.552857383859996e-05
-1.0676111031117422e-05   3.1546588635425043e-06   -3.552857383859996e-05
-1.0676111031117422e-05   3.1546588635425043e-06   -3.552857383859996e-05
-1.2281524763800003e-05   2.464618334703083e-07   -3.0204814323239412e-05
-1.2281524763800003e-05   2.464618334703083e-07   -3.0204814323239412e-05
-1.2281524763800003e-05   2.464618334703083e-07   -3.0204814323239412e-05
-1.2281524763800003e-05   2.464618334703083e-07   -3.0204814323239412e-05
-1.3873173764281834e-05   1.8237779873223232e-06   -3.19111729650645e-05
-1.3873173764281834e-05   1.8237779873223232e-06   -3.19111729650645e-05
-1.3873173764281834e-05   1.8237779873223232e-06   -3.19111729650645e-05
-1.3873173764281834e-05   1.8237779873223232e-06   -3.19111729650645e-05
-1.342446514896245e-05   1.3424039701011737e-06   -2.88760170774388e-05
-1.342446514896245e-05   1.3424039701011737e-06   -2.88760170774388e-05
-1.342446514896245e-05   1.3424039701011737e-06   -2.88760170774388e-05
-1.342446514896245e-05   1.3424039701011737e-06   -2.88760170774388e-05
-1.1910859071598529e-05   2.848978257254022e-06   -3.230263844533689e-05
-1.1910859071598529e-05   2.848978257254022e-06   -3.230263844533689e-05
-1.1910859071598529e-05   2.848978257254022e-06   -3.230263844533689e-05
-1.1910859071598529e-05   2.848978257254022e-06   -3.230263844533689e-05
-1.2772986286286482e-05   1.6795176341335635e-06   -3.0164083380318442e-05
-1.2772986286286482e-05   1.6795176341335635e-06   -3.0164083380318442e-05
-1.2772986286286482e-05   1.6795176341335635e-06   -3.0164083380318442e-05
-1.2772986286286482e-05   1.6795176341335635e-06   -3.0164083380318442e-05
-1.191085907159851e-05   1.3424039701011737e-06   -2.977996164973051e-05
-1.191085907159851e-05   1.3424039701011737e-06   -2.977996164973051e-05
-1.191085907159851e-05   1.3424039701011737e-06   -2.977996164973051e-05
-1.191085907159851e-05   1.3424039701011737e-06   -2.977996164973051e-05
-1.342446514896245e-05   2.848978257254022e-06   -3.1398693873045365e-05
-1.342446514896245e-05   2.848978257254022e-06   -3.1398693873045365e-05
-1.342446514896245e-05   2.848978257254022e-06   -3.1398693873045365e-05
-1.342446514896245e-05   2.848978257254022e-06   -3.1398693873045365e-05
-1.2844108917838806e-05   2.3749876334063467e-06   -2.9000285504359033e-05
-1.2844108917838806e-05   2.3749876334063467e-06   -2.9000285504359033e-05
-1.2844108917838806e-05   2.3749876334063467e-06   -2.9000285504359033e-05
-1.2844108917838806e-05   2.3749876334063467e-06   -2.9000285504359033e-05
-1.1520895721064326e-05   3.7945875771524043e-06   -3.205740079856386e-05
-1.1520895721064326e-05   3.7945875771524043e-06   -3.205740079856386e-05
-1.1520895721064326e-05   3.7945875771524043e-06   -3.205740079856386e-05
-1.1520895721064326e-05   3.7945875771524043e-06   -3.205740079856386e-05
-1.2371940474867018e-05   2.4930272566415015e-06   -2.985805668325337e-05
-1.2371940474867018e-05   2.4930272566415015e-06   -2.985805668325337e-05
-1.2371940474867018e-05   2.4930272566415015e-06   -2.985805668325337e-05
-1.2371940474867018e-05   2.4930272566415015e-06   -2.985805668325337e-05
-1.1520895721064296e-05   2.3749876334063467e-06   -2.9852045470606472e-05
-1.1520895721064296e-05   2.3749876334063467e-06   -2.9852045470606472e-05
-1.1520895721064296e-05   2.3749876334063467e-06   -2.9852045470606472e-05
-1.1520895721064296e-05   2.3749876334063467e-06   -2.9852045470606472e-05
-1.2844108917838833e-05   3.7945875771524043e-06   -3.1205640832316435e-05
-1.2844108917838833e-05   3.7945875771524043e-06   -3.1205640832316435e-05
-1.2844108917838833e-05   3.7945875771524043e-06   -3.1205640832316435e-05
-1.2844108917838833e-05   3.7945875771524043e-06   -3.1205640832316435e-05
-1.2388308386422116e-05   3.5423393450579547e-06   -2.980459650511779e-05
-1.2388308386422116e-05   3.5423393450579547e-06   -2.980459650511779e-05
-1.2388308386422116e-05   3.5423393450579547e-06   -2.980459650511779e-05
-1.2388308386422116e-05   3.5423393450579547e-06   -2.980459650511779e-05
-1.115313525092345e-05   4.854083142125012e-06   -3.265026467585583e-05
-1.115313525092345e-05   4.854083142125012e-06   -3.265026467585583e-05
-1.115313525092345e-05   4.854083142125012e-06   -3.265026467585583e-05
-1.115313525092345e-05   4.854083142125012e-06   -3.265026467585583e-05
-1.2071965224693323e-05   3.324213102000968e-06   -3.0200959362164446e-05
-1.2071965224693323e-05   3.324213102000968e-06   -3.0200959362164446e-05
-1.2071965224693323e-05   3.324213102000968e-06   -3.0200959362164446e-05
-1.2071965224693323e-05   3.324213102000968e-06   -3.0200959362164446e-05
-1.3873173764281793e-05   3.4355406100614744e-07   -1.609548605042944e-05
-1.3873173764281793e-05   3.4355406100614744e-07   -1.609548605042944e-05
-1.3873173764281793e-05   3.4355406100614744e-07   -1.609548605042944e-05
-1.3873173764281793e-05   3.4355406100614744e-07   -1.609548605042944e-05
-1.681094451593936e-05   3.065686609040252e-06   -1.9358491107704877e-05
-1.681094451593936e-05   3.065686609040252e-06   -1.9358491107704877e-05
-1.681094451593936e-05   3.065686609040252e-06   -1.9358491107704877e-05
-1.681094451593936e-05   3.065686609040252e-06   -1.9358491107704877e-05
-1.5214116000058646e-05   1.2099964157132395e-06   -1.326464402253856e-05
-1.5214116000058646e-05   1.2099964157132395e-06   -1.326464402253856e-05
-1.5214116000058646e-05   1.2099964157132395e-06   -1.326464402253856e-05
-1.5214116000058646e-05   1.2099964157132395e-06   -1.326464402253856e-05
-1.3424465148962437e-05   3.995341493062254e-06   -1.7918602487441556e-05
-1.3424465148962437e-05   3.995341493062254e-06   -1.7918602487441556e-05
-1.3424465148962437e-05   3.995341493062254e-06   -1.7918602487441556e-05
-1.3424465148962437e-05   3.995341493062254e-06   -1.7918602487441556e-05
-1.4230467983677849e-05   2.265874432455907e-06   -1.5537584193219065e-05
-1.4230467983677849e-05   2.265874432455907e-06   -1.5537584193219065e-05
-1.4230467983677849e-05   2.265874432455907e-06   -1.5537584193219065e-05
-1.4230467983677849e-05   2.265874432455907e-06   -1.5537584193219065e-05
-1.3424465148962396e-05   1.2099964157130227e-06   -1.4935851068947838e-05
-1.3424465148962396e-05   1.2099964157130227e-06   -1.4935851068947838e-05
-1.3424465148962396e-05   1.2099964157130227e-06   -1.4935851068947838e-05
-1.3424465148962396e-05   1.2099964157130227e-06   -1.4935851068947838e-05
-1.5214116000058619e-05   3.995341493062254e-06   -1.6247395441032183e-05
-1.5214116000058619e-05   3.995341493062254e-06   -1.6247395441032183e-05
-1.5214116000058619e-05   3.995341493062254e-06   -1.6247395441032183e-05
-1.5214116000058619e-05   3.995341493062254e-06   -1.6247395441032183e-05
-1.391531973885172e-05   1.697172043686095e-06   -1.3044381757327497e-05
-1.391531973885172e-05   1.697172043686095e-06   -1.3044381757327497e-05
-1.391531973885172e-05   1.697172043686095e-06   -1.3044381757327497e-05
-1.391531973885172e-05   1.697172043686095e-06   -1.3044381757327497e-05
-1.2844108917838806e-05   4.420984062777434e-06   -1.6464020337137163e-05
-1.2844108917838806e-05   4.420984062777434e-06   -1.6464020337137163e-05
-1.2844108917838806e-05   4.420984062777434e-06   -1.6464020337137163e-05
-1.2844108917838806e-05   4.420984062777434e-06   -1.6464020337137163e-05
-1.3549913765929772e-05   2.6965345505565452e-06   -1.4253009216319752e-05
-1.3549913765929772e-05   2.6965345505565452e-06   -1.4253009216319752e-05
-1.3549913765929772e-05   2.6965345505565452e-06   -1.4253009216319752e-05
-1.3549913765929772e-05   2.6965345505565452e-06   -1.4253009216319752e-05
-1.2844108917838793e-05   1.697172043686095e-06   -1.4678668968782344e-05
-1.2844108917838793e-05   1.697172043686095e-06   -1.4678668968782344e-05
-1.2844108917838793e-05   1.697172043686095e-06   -1.4678668968782344e-05
-1.2844108917838793e-05   1.697172043686095e-06   -1.4678668968782344e-05
-1.391531973885172e-05   4.420984062777434e-06   -1.482973312568229e-05
-1.391531973885172e-05   4.420984062777434e-06   -1.482973312568229e-05
-1.391531973885172e-05   4.420984062777434e-06   -1.482973312568229e-05
-1.391531973885172e-05   4.420984062777434e-06   -1.482973312568229e-05
-1.2326290346678154e-05   2.5606034934524523e-06   -1.3452521723575643e-05
-1.2326290346678154e-05   2.5606034934524523e-06   -1.3452521723575643e-05
-1.2326290346678154e-05   2.5606034934524523e-06   -1.3452521723575643e-05
-1.2326290346678154e-05   2.5606034934524523e-06   -1.3452521723575643e-05
-1.2388308386422089e-05   5.079934322245721e-06   -1.4860756821278068e-05
-1.2388308386422089e-05   5.079934322245721e-06   -1.4860756821278068e-05
-1.2388308386422089e-05   5.079934322245721e-06   -1.4860756821278068e-05
-1.2388308386422089e-05   5.079934322245721e-06   -1.4860756821278068e-05
-1.254690487860164e-05   3.0443028238614795e-06   -1.3375050435281751e-05
-1.254690487860164e-05   3.0443028238614795e-06   -1.3375050435281751e-05
-1.254690487860164e-05   3.0443028238614795e-06   -1.3375050435281751e-05
-1.254690487860164e-05   3.0443028238614795e-06   -1.3375050435281751e-05
8.183374358110469e-06   -8.093037878974512e-07   -8.356214619776757e-06
8.183374358110469e-06   -8.093037878974512e-07   -8.356214619776757e-06
8.183374358110469e-06   -8.093037878974512e-07   -8.356214619776757e-06
8.183374358110469e-06   -8.093037878974512e-07   -8.356214619776757e-06
8.419758801316013e-07   -3.3987595462990627e-06   -2.214555220478255e-05
8.419758801316013e-07   -3.3987595462990627e-06   -2.214555220478255e-05
8.419758801316013e-07   -3.3987595462990627e-06   -2.214555220478255e-05
8.419758801316013e-07   -3.3987595462990627e-06   -2.214555220478255e-05
1.4823917272447143e-06   -2.6255234648062467e-08   -9.234630774198824e-06
1.4823917272447143e-06   -2.6255234648062467e-08   -9.234630774198824e-06
1.4823917272447143e-06   -2.6255234648062467e-08   -9.234630774198824e-06
1.4823917272447143e-06   -2.6255234648062467e-08   -9.234630774198824e-06
9.974843163791495e-06   -2.7933599569419237e-06   -2.172845366840031e-05
9.974843163791495e-06   -2.7933599569419237e-06   -2.172845366840031e-05
9.974843163791495e-06   -2.7933599569419237e-06   -2.172845366840031e-05
9.974843163791495e-06   -2.7933599569419237e-06   -2.172845366840031e-05
4.929678817164676e-06   -1.4186701246439188e-06   -1.4144660323401107e-05
4.929678817164676e-06   -1.4186701246439188e-06   -1.4144660323401107e-05
4.929678817164676e-06   -1.4186701246439188e-06   -1.4144660323401107e-05
4.929678817164676e-06   -1.4186701246439188e-06   -1.4144660323401107e-05
9.97484316379155e-06   -2.6255234648062467e-08   -7.574367940822442e-06
9.97484316379155e-06   -2.6255234648062467e-08   -7.574367940822442e-06
9.97484316379155e-06   -2.6255234648062467e-08   -7.574367940822442e-06
9.97484316379155e-06   -2.6255234648062467e-08   -7.574367940822442e-06
1.4823917272447143e-06   -2.7933599569419237e-06   -2.338871650177691e-05
1.4823917272447143e-06   -2.7933599569419237e-06   -2.338871650177691e-05
1.4823917272447143e-06   -2.7933599569419237e-06   -2.338871650177691e-05
1.4823917272447143e-06   -2.7933599569419237e-06   -2.338871650177691e-05
2.237473649379252e-06   4.1699018401685634e-07   -9.306320319580263e-06
2.237473649379252e-06   4.1699018401685634e-07   -9.306320319580263e-06
2.237473649379252e-06   4.1699018401685634e-07   -9.306320319580263e-06
2.237473649379252e-06   4.1699018401685634e-07   -9.306320319580263e-06
1.1488637628675482e-05   -2.3894273144533466e-06   -2.3041076452658398e-05
1.1488637628675482e-05   -2.3894273144533466e-06   -2.3041076452658398e-05
1.1488637628675482e-05   -2.3894273144533466e-06   -2.3041076452658398e-05
1.1488637628675482e-05   -2.3894273144533466e-06   -2.3041076452658398e-05
6.065714938931086e-06   -1.1355832085747312e-06   -1.4755178433278925e-05
6.065714938931086e-06   -1.1355832085747312e-06   -1.4755178433278925e-05
6.065714938931086e-06   -1.1355832085747312e-06   -1.4755178433278925e-05
6.065714938931086e-06   -1.1355832085747312e-06   -1.4755178433278925e-05
1.1488637628675536e-05   4.1699018401685634e-07   -7.622469820497925e-06
1.1488637628675536e-05   4.1699018401685634e-07   -7.622469820497925e-06
1.1488637628675536e-05   4.1699018401685634e-07   -7.622469820497925e-06
1.1488637628675536e-05   4.1699018401685634e-07   -7.622469820497925e-06
2.237473649379225e-06   -2.3894273144533466e-06   -2.472492695174079e-05
2.237473649379225e-06   -2.3894273144533466e-06   -2.472492695174079e-05
2.237473649379225e-06   -2.3894273144533466e-06   -2.472492695174079e-05
2.237473649379225e-06   -2.3894273144533466e-06   -2.472492695174079e-05
2.8586963267159384e-06   1.300915145086099e-06   -1.0199823267089281e-05
2.8586963267159384e-06   1.300915145086099e-06   -1.0199823267089281e-05
2.8586963267159384e-06   1.300915145086099e-06   -1.0199823267089281e-05
2.8586963267159384e-06   1.300915145086099e-06   -1.0199823267089281e-05
1.3307125254822139e-05   -1.371933594399282e-06   -2.6010162236908508e-05
1.3307125254822139e-05   -1.371933594399282e-06   -2.6010162236908508e-05
1.3307125254822139e-05   -1.371933594399282e-06   -2.6010162236908508e-05
1.3307125254822139e-05   -1.371933594399282e-06   -2.6010162236908508e-05
6.968737018851973e-06   -7.195919885980527e-07   -1.5837586807106153e-05
6.968737018851973e-06   -7.195919885980527e-07   -1.5837586807106153e-05
6.968737018851973e-06   -7.195919885980527e-07   -1.5837586807106153e-05
6.968737018851973e-06   -7.195919885980527e-07   -1.5837586807106153e-05
8.419758801316013e-07   -1.7438384493622533e-07   -2.4076723664698415e-05
8.419758801316013e-07   -1.7438384493622533e-07   -2.4076723664698415e-05
8.419758801316013e-07   -1.7438384493622533e-07   -2.4076723664698415e-05
8.419758801316013e-07   -1.7438384493622533e-07   -2.4076723664698415e-05
-7.719458115547977e-06   -1.3430486347368667e-06   -3.904697919804474e-05
-7.719458115547977e-06   -1.3430486347368667e-06   -3.904697919804474e-05
-7.719458115547977e-06   -1.3430486347368667e-06   -3.904697919804474e-05
-7.719458115547977e-06   -1.3430486347368667e-06   -3.904697919804474e-05
-7.157974436062885e-06   8.13810448551484e-07   -2.4212739803574973e-05
-7.157974436062885e-06   8.13810448551484e-07   -2.4212739803574973e-05
-7.157974436062885e-06   8.13810448551484e-07   -2.4212739803574973e-05
-7.157974436062885e-06   8.13810448551484e-07   -2.4212739803574973e-05
1.4823917272447143e-06   -5.126778688142875e-07   -3.7817457085334853e-05
1.4823917272447143e-06   -5.126778688142875e-07   -3.7817457085334853e-05
1.4823917272447143e-06   -5.126778688142875e-07   -3.7817457085334853e-05
1.4823917272447143e-06   -5.126778688142875e-07   -3.7817457085334853e-05
-3.065817638201433e-06   -4.9693591045504165e-08   -3.0514898709585686e-05
-3.065817638201433e-06   -4.9693591045504165e-08   -3.0514898709585686e-05
-3.065817638201433e-06   -4.9693591045504165e-08   -3.0514898709585686e-05
-3.065817638201433e-06   -4.9693591045504165e-08   -3.0514898709585686e-05
1.4823917272447143e-06   8.138104485517009e-07   -2.341684681315525e-05
1.4823917272447143e-06   8.138104485517009e-07   -2.341684681315525e-05
1.4823917272447143e-06   8.138104485517009e-07   -2.341684681315525e-05
1.4823917272447143e-06   8.138104485517009e-07   -2.341684681315525e-05
-7.157974436062885e-06   -5.126778688142875e-07   -3.861335007575447e-05
-7.157974436062885e-06   -5.126778688142875e-07   -3.861335007575447e-05
-7.157974436062885e-06   -5.126778688142875e-07   -3.861335007575447e-05
-7.157974436062885e-06   -5.126778688142875e-07   -3.861335007575447e-05
-6.593276852765901e-06   1.7654089880508178e-06   -2.4249442684156318e-05
-6.593276852765901e-06   1.7654089880508178e-06   -2.4249442684156318e-05
-6.593276852765901e-06   1.7654089880508178e-06   -2.4249442684156318e-05
-6.593276852765901e-06   1.7654089880508178e-06   -2.4249442684156318e-05
2.237473649379252e-06   3.4605758647793076e-07   -3.811574934678804e-05
2.237473649379252e-06   3.4605758647793076e-07   -3.811574934678804e-05
2.237473649379252e-06   3.4605758647793076e-07   -3.811574934678804e-05
2.237473649379252e-06   3.4605758647793076e-07   -3.811574934678804e-05
-2.5686746758175395e-06   6.325356954025099e-07   -3.027738900348144e-05
-2.5686746758175395e-06   6.325356954025099e-07   -3.027738900348144e-05
-2.5686746758175395e-06   6.325356954025099e-07   -3.027738900348144e-05
-2.5686746758175395e-06   6.325356954025099e-07   -3.027738900348144e-05
2.237473649379252e-06   1.7654089880508178e-06   -2.339783184321278e-05
2.237473649379252e-06   1.7654089880508178e-06   -2.339783184321278e-05
2.237473649379252e-06   1.7654089880508178e-06   -2.339783184321278e-05
2.237473649379252e-06   1.7654089880508178e-06   -2.339783184321278e-05
-6.593276852765901e-06   3.4605758647793076e-07   -3.896736018773174e-05
-6.593276852765901e-06   3.4605758647793076e-07   -3.896736018773174e-05
-6.593276852765901e-06   3.4605758647793076e-07   -3.896736018773174e-05
-6.593276852765901e-06   3.4605758647793076e-07   -3.896736018773174e-05
-6.053818712283289e-06   2.8522250952517023e-06   -2.485739328852033e-05
-6.053818712283289e-06   2.8522250952517023e-06   -2.485739328852033e-05
-6.053818712283289e-06   2.8522250952517023e-06   -2.485739328852033e-05
-6.053818712283289e-06   2.8522250952517023e-06   -2.485739328852033e-05
2.8586963267159384e-06   1.3631934813456304e-06   -3.881816605184218e-05
2.8586963267159384e-06   1.3631934813456304e-06   -3.881816605184218e-05
2.8586963267159384e-06   1.3631934813456304e-06   -3.881816605184218e-05
2.8586963267159384e-06   1.3631934813456304e-06   -3.881816605184218e-05
-2.0148943491322868e-06   1.3889653307835783e-06   -3.071097803509186e-05
-2.0148943491322868e-06   1.3889653307835783e-06   -3.071097803509186e-05
-2.0148943491322868e-06   1.3889653307835783e-06   -3.071097803509186e-05
-2.0148943491322868e-06   1.3889653307835783e-06   -3.071097803509186e-05
-7.71945811554799e-06   8.207857206880657e-07   -2.914893143320411e-05
-7.71945811554799e-06   8.207857206880657e-07   -2.914893143320411e-05
-7.71945811554799e-06   8.207857206880657e-07   -2.914893143320411e-05
-7.71945811554799e-06   8.207857206880657e-07   -2.914893143320411e-05
-1.620604543787871e-05   1.0345803215044101e-06   -4.31649668765988e-05
-1.620604543787871e-05   1.0345803215044101e-06   -4.31649668765988e-05
-1.620604543787871e-05   1.0345803215044101e-06   -4.31649668765988e-05
-1.620604543787871e-05   1.0345803215044101e-06   -4.31649668765988e-05
-1.564063475149149e-05   1.842408795156526e-06   -2.862631650876876e-05
-1.564063475149149e-05   1.842408795156526e-06   -2.862631650876876e-05
-1.564063475149149e-05   1.842408795156526e-06   -2.862631650876876e-05
-1.564063475149149e-05   1.842408795156526e-06   -2.862631650876876e-05
-7.157974436062885e-06   1.9133577370206503e-06   -4.2806653066268486e-05
-7.157974436062885e-06   1.9133577370206503e-06   -4.2806653066268486e-05
-7.157974436062885e-06   1.9133577370206503e-06   -4.2806653066268486e-05
-7.157974436062885e-06   1.9133577370206503e-06   -4.2806653066268486e-05
-1.1613405946461644e-05   1.58199723090122e-06   -3.51821175785988e-05
-1.1613405946461644e-05   1.58199723090122e-06   -3.51821175785988e-05
-1.1613405946461644e-05   1.58199723090122e-06   -3.51821175785988e-05
-1.1613405946461644e-05   1.58199723090122e-06   -3.51821175785988e-05
-7.157974436062885e-06   1.842408795156309e-06   -2.86688858738873e-05
-7.157974436062885e-06   1.842408795156309e-06   -2.86688858738873e-05
-7.157974436062885e-06   1.842408795156309e-06   -2.86688858738873e-05
-7.157974436062885e-06   1.842408795156309e-06   -2.86688858738873e-05
-1.564063475149149e-05   1.913357737020867e-06   -4.276408370114989e-05
-1.564063475149149e-05   1.913357737020867e-06   -4.276408370114989e-05
-1.564063475149149e-05   1.913357737020867e-06   -4.276408370114989e-05
-1.564063475149149e-05   1.913357737020867e-06   -4.276408370114989e-05
-1.5066049747188456e-05   2.8864519183329548e-06   -2.870043971605631e-05
-1.5066049747188456e-05   2.8864519183329548e-06   -2.870043971605631e-05
-1.5066049747188456e-05   2.8864519183329548e-06   -2.870043971605631e-05
-1.5066049747188456e-05   2.8864519183329548e-06   -2.870043971605631e-05
-6.593276852765901e-06   2.8436366780848054e-06   -4.279603872927841e-05
-6.593276852765901e-06   2.8436366780848054e-06   -4.279603872927841e-05
-6.593276852765901e-06   2.8436366780848054e-06   -4.279603872927841e-05
-6.593276852765901e-06   2.8436366780848054e-06   -4.279603872927841e-05
-1.1115992749914311e-05   2.3491928724049104e-06   -3.496151261729027e-05
-1.1115992749914311e-05   2.3491928724049104e-06   -3.496151261729027e-05
-1.1115992749914311e-05   2.3491928724049104e-06   -3.496151261729027e-05
-1.1115992749914311e-05   2.3491928724049104e-06   -3.496151261729027e-05
-6.593276852765901e-06   2.8864519183329548e-06   -2.8674750571907595e-05
-6.593276852765901e-06   2.8864519183329548e-06   -2.8674750571907595e-05
-6.593276852765901e-06   2.8864519183329548e-06   -2.8674750571907595e-05
-6.593276852765901e-06   2.8864519183329548e-06   -2.8674750571907595e-05
-1.5066049747188436e-05   2.8436366780848054e-06   -4.28217278734274e-05
-1.5066049747188436e-05   2.8436366780848054e-06   -4.28217278734274e-05
-1.5066049747188436e-05   2.8436366780848054e-06   -4.28217278734274e-05
-1.5066049747188436e-05   2.8436366780848054e-06   -4.28217278734274e-05
-1.4518165826843196e-05   3.944962753548191e-06   -2.934538433679596e-05
-1.4518165826843196e-05   3.944962753548191e-06   -2.934538433679596e-05
-1.4518165826843196e-05   3.944962753548191e-06   -2.934538433679596e-05
-1.4518165826843196e-05   3.944962753548191e-06   -2.934538433679596e-05
-6.0538187122833025e-06   3.790006727452406e-06   -4.33596559120717e-05
-6.0538187122833025e-06   3.790006727452406e-06   -4.33596559120717e-05
-6.0538187122833025e-06   3.790006727452406e-06   -4.33596559120717e-05
-6.0538187122833025e-06   3.790006727452406e-06   -4.33596559120717e-05
-1.0653356020944895e-05   3.128053312811659e-06   -3.529658834885177e-05
-1.0653356020944895e-05   3.128053312811659e-06   -3.529658834885177e-05
-1.0653356020944895e-05   3.128053312811659e-06   -3.529658834885177e-05
-1.0653356020944895e-05   3.128053312811659e-06   -3.529658834885177e-05
-1.6206045437878737e-05   1.8237779873223232e-06   -2.4504283859076497e-05
-1.6206045437878737e-05   1.8237779873223232e-06   -2.4504283859076497e-05
-1.6206045437878737e-05   1.8237779873223232e-06   -2.4504283859076497e-05
-1.6206045437878737e-05   1.8237779873223232e-06   -2.4504283859076497e-05
-2.459363312053549e-05   3.342862225577106e-06   -3.7572146120551353e-05
-2.459363312053549e-05   3.342862225577106e-06   -3.7572146120551353e-05
-2.459363312053549e-05   3.342862225577106e-06   -3.7572146120551353e-05
-2.459363312053549e-05   3.342862225577106e-06   -3.7572146120551353e-05
-2.3947436524859594e-05   2.848978257254022e-06   -2.3076166490779734e-05
-2.3947436524859594e-05   2.848978257254022e-06   -2.3076166490779734e-05
-2.3947436524859594e-05   2.848978257254022e-06   -2.3076166490779734e-05
-2.3947436524859594e-05   2.848978257254022e-06   -2.3076166490779734e-05
-1.564063475149149e-05   4.2808900167527406e-06   -3.7779983168758935e-05
-1.564063475149149e-05   4.2808900167527406e-06   -3.7779983168758935e-05
-1.564063475149149e-05   4.2808900167527406e-06   -3.7779983168758935e-05
-1.564063475149149e-05   4.2808900167527406e-06   -3.7779983168758935e-05
-1.9957710849715447e-05   3.195836674608609e-06   -2.9933824333099176e-05
-1.9957710849715447e-05   3.195836674608609e-06   -2.9933824333099176e-05
-1.9957710849715447e-05   3.195836674608609e-06   -2.9933824333099176e-05
-1.9957710849715447e-05   3.195836674608609e-06   -2.9933824333099176e-05
-1.5640634751491517e-05   2.848978257254022e-06   -2.3935313546478813e-05
-1.5640634751491517e-05   2.848978257254022e-06   -2.3935313546478813e-05
-1.5640634751491517e-05   2.848978257254022e-06   -2.3935313546478813e-05
-1.5640634751491517e-05   2.848978257254022e-06   -2.3935313546478813e-05
-2.3947436524859648e-05   4.280890016752524e-06   -3.6920836113060046e-05
-2.3947436524859648e-05   4.280890016752524e-06   -3.6920836113060046e-05
-2.3947436524859648e-05   4.280890016752524e-06   -3.6920836113060046e-05
-2.3947436524859648e-05   4.280890016752524e-06   -3.6920836113060046e-05
-2.3173295496757316e-05   3.7945875771524043e-06   -2.286170022913986e-05
-2.3173295496757316e-05   3.7945875771524043e-06   -2.286170022913986e-05
-2.3173295496757316e-05   3.7945875771524043e-06   -2.286170022913986e-05
-2.3173295496757316e-05   3.7945875771524043e-06   -2.286170022913986e-05
-1.5066049747188456e-05   5.1257005713358905e-06   -3.7172444274931333e-05
-1.5066049747188456e-05   5.1257005713358905e-06   -3.7172444274931333e-05
-1.5066049747188456e-05   5.1257005713358905e-06   -3.7172444274931333e-05
-1.5066049747188456e-05   5.1257005713358905e-06   -3.7172444274931333e-05
-1.930622516397806e-05   3.936627459023064e-06   -2.939204137956139e-05
-1.930622516397806e-05   3.936627459023064e-06   -2.939204137956139e-05
-1.930622516397806e-05   3.936627459023064e-06   -2.939204137956139e-05
-1.930622516397806e-05   3.936627459023064e-06   -2.939204137956139e-05
-1.5066049747188446e-05   3.7945875771524043e-06   -2.3660368025649886e-05
-1.5066049747188446e-05   3.7945875771524043e-06   -2.3660368025649886e-05
-1.5066049747188446e-05   3.7945875771524043e-06   -2.3660368025649886e-05
-1.5066049747188446e-05   3.7945875771524043e-06   -2.3660368025649886e-05
-2.3173295496757316e-05   5.1257005713358905e-06   -3.63737764784213e-05
-2.3173295496757316e-05   5.1257005713358905e-06   -3.63737764784213e-05
-2.3173295496757316e-05   5.1257005713358905e-06   -3.63737764784213e-05
-2.3173295496757316e-05   5.1257005713358905e-06   -3.63737764784213e-05
-2.2528452741007768e-05   4.854083142125012e-06   -2.3494403757555373e-05
-2.2528452741007768e-05   4.854083142125012e-06   -2.3494403757555373e-05
-2.2528452741007768e-05   4.854083142125012e-06   -2.3494403757555373e-05
-2.2528452741007768e-05   4.854083142125012e-06   -2.3494403757555373e-05
-1.4518165826843196e-05   6.070644952247588e-06   -3.7574819033903026e-05
-1.4518165826843196e-05   6.070644952247588e-06   -3.7574819033903026e-05
-1.4518165826843196e-05   6.070644952247588e-06   -3.7574819033903026e-05
-1.4518165826843196e-05   6.070644952247588e-06   -3.7574819033903026e-05
-1.887059438441028e-05   4.6663698616952656e-06   -2.947820638362649e-05
-1.887059438441028e-05   4.6663698616952656e-06   -2.947820638362649e-05
-1.887059438441028e-05   4.6663698616952656e-06   -2.947820638362649e-05
-1.887059438441028e-05   4.6663698616952656e-06   -2.947820638362649e-05
-2.459363312053549e-05   3.065686609040252e-06   -1.2673430987584318e-05
-2.459363312053549e-05   3.065686609040252e-06   -1.2673430987584318e-05
-2.459363312053549e-05   3.065686609040252e-06   -1.2673430987584318e-05
-2.459363312053549e-05   3.065686609040252e-06   -1.2673430987584318e-05
-3.415512998960831e-05   5.747579758408989e-06   -2.7000123213084598e-05
-3.415512998960831e-05   5.747579758408989e-06   -2.7000123213084598e-05
-3.415512998960831e-05   5.747579758408989e-06   -2.7000123213084598e-05
-3.415512998960831e-05   5.747579758408989e-06   -2.7000123213084598e-05
-3.2376498904962024e-05   3.995341493062254e-06   -7.960276428777978e-06
-3.2376498904962024e-05   3.995341493062254e-06   -7.960276428777978e-06
-3.2376498904962024e-05   3.995341493062254e-06   -7.960276428777978e-06
-3.2376498904962024e-05   3.995341493062254e-06   -7.960276428777978e-06
-2.3947436524859594e-05   6.721672620392657e-06   -2.3644512405346648e-05
-2.3947436524859594e-05   6.721672620392657e-06   -2.3644512405346648e-05
-2.3947436524859594e-05   6.721672620392657e-06   -2.3644512405346648e-05
-2.3947436524859594e-05   6.721672620392657e-06   -2.3644512405346648e-05
-2.75978291639757e-05   4.993596047909174e-06   -1.6523678729996635e-05
-2.75978291639757e-05   4.993596047909174e-06   -1.6523678729996635e-05
-2.75978291639757e-05   4.993596047909174e-06   -1.6523678729996635e-05
-2.75978291639757e-05   4.993596047909174e-06   -1.6523678729996635e-05
-2.394743652485962e-05   3.995341493062254e-06   -9.596075105176047e-06
-2.394743652485962e-05   3.995341493062254e-06   -9.596075105176047e-06
-2.394743652485962e-05   3.995341493062254e-06   -9.596075105176047e-06
-2.394743652485962e-05   3.995341493062254e-06   -9.596075105176047e-06
-3.2376498904961915e-05   6.721672620392657e-06   -2.2008713728948782e-05
-3.2376498904961915e-05   6.721672620392657e-06   -2.2008713728948782e-05
-3.2376498904961915e-05   6.721672620392657e-06   -2.2008713728948782e-05
-3.2376498904961915e-05   6.721672620392657e-06   -2.2008713728948782e-05
-3.090646340845056e-05   4.420984062777434e-06   -6.530205930674565e-06
-3.090646340845056e-05   4.420984062777434e-06   -6.530205930674565e-06
-3.090646340845056e-05   4.420984062777434e-06   -6.530205930674565e-06
-3.090646340845056e-05   4.420984062777434e-06   -6.530205930674565e-06
-2.317329549675728e-05   7.070773734921048e-06   -2.1008692920116087e-05
-2.317329549675728e-05   7.070773734921048e-06   -2.1008692920116087e-05
-2.317329549675728e-05   7.070773734921048e-06   -2.1008692920116087e-05
-2.317329549675728e-05   7.070773734921048e-06   -2.1008692920116087e-05
-2.6947751273636124e-05   5.431946276062034e-06   -1.373463681666933e-05
-2.6947751273636124e-05   5.431946276062034e-06   -1.373463681666933e-05
-2.6947751273636124e-05   5.431946276062034e-06   -1.373463681666933e-05
-2.6947751273636124e-05   5.431946276062034e-06   -1.373463681666933e-05
-2.3173295496757316e-05   4.420984062777434e-06   -8.120079733960669e-06
-2.3173295496757316e-05   4.420984062777434e-06   -8.120079733960669e-06
-2.3173295496757316e-05   4.420984062777434e-06   -8.120079733960669e-06
-2.3173295496757316e-05   4.420984062777434e-06   -8.120079733960669e-06
-3.090646340845051e-05   7.070773734921048e-06   -1.9418819116830133e-05
-3.090646340845051e-05   7.070773734921048e-06   -1.9418819116830133e-05
-3.090646340845051e-05   7.070773734921048e-06   -1.9418819116830133e-05
-3.090646340845051e-05   7.070773734921048e-06   -1.9418819116830133e-05
-2.9167421359303433e-05   5.079934322245721e-06   -5.032185550532379e-06
-2.9167421359303433e-05   5.079934322245721e-06   -5.032185550532379e-06
-2.9167421359303433e-05   5.079934322245721e-06   -5.032185550532379e-06
-2.9167421359303433e-05   5.079934322245721e-06   -5.032185550532379e-06
-2.2528452741007768e-05   7.512862040055107e-06   -1.7556889878377467e-05
-2.2528452741007768e-05   7.512862040055107e-06   -1.7556889878377467e-05
-2.2528452741007768e-05   7.512862040055107e-06   -1.7556889878377467e-05
-2.2528452741007768e-05   7.512862040055107e-06   -1.7556889878377467e-05
-2.5565449243995066e-05   5.643401056380868e-06   -1.1373552449860992e-05
-2.5565449243995066e-05   5.643401056380868e-06   -1.1373552449860992e-05
-2.5565449243995066e-05   5.643401056380868e-06   -1.1373552449860992e-05
-2.5565449243995066e-05   5.643401056380868e-06   -1.1373552449860992e-05
2.591626663910805e-05   -3.3987595462990627e-06   -1.7680057958846876e-07
2.591626663910805e-05   -3.3987595462990627e-06   -1.7680057958846876e-07
2.591626663910805e-05   -3.3987595462990627e-06   -1.7680057958846876e-07
2.591626663910805e-05   -3.3987595462990627e-06   -1.7680057958846876e-07
1.1041770778851706e-05   -6.128420260147855e-06   -2.6605423441658006e-05
1.1041770778851706e-05   -6.128420260147855e-06   -2.6605423441658006e-05
1.1041770778851706e-05   -6.128420260147855e-06   -2.6605423441658006e-05
1.1041770778851706e-05   -6.128420260147855e-06   -2.6605423441658006e-05
1.1822753827943599e-05   -2.7933599569419237e-06   -2.9050428434222644e-06
1.1822753827943599e-05   -2.7933599569419237e-06   -2.9050428434222644e-06
1.1822753827943599e-05   -2.7933599569419237e-06   -2.9050428434222644e-06
1.1822753827943599e-05   -2.7933599569419237e-06   -2.9050428434222644e-06
2.787423485245573e-05   -5.699742989508528e-06   -2.791368139806917e-05
2.787423485245573e-05   -5.699742989508528e-06   -2.791368139806917e-05
2.787423485245573e-05   -5.699742989508528e-06   -2.791368139806917e-05
2.787423485245573e-05   -5.699742989508528e-06   -2.791368139806917e-05
1.8390779528728912e-05   -4.039787458157444e-06   -1.3103895844001723e-05
1.8390779528728912e-05   -4.039787458157444e-06   -1.3103895844001723e-05
1.8390779528728912e-05   -4.039787458157444e-06   -1.3103895844001723e-05
1.8390779528728912e-05   -4.039787458157444e-06   -1.3103895844001723e-05
2.787423485245573e-05   -2.7933599569419237e-06   -1.1612130238821284e-06
2.787423485245573e-05   -2.7933599569419237e-06   -1.1612130238821284e-06
2.787423485245573e-05   -2.7933599569419237e-06   -1.1612130238821284e-06
2.787423485245573e-05   -2.7933599569419237e-06   -1.1612130238821284e-06
1.1822753827943572e-05   -5.699742989508528e-06   -2.9657511217609034e-05
1.1822753827943572e-05   -5.699742989508528e-06   -2.9657511217609034e-05
1.1822753827943572e-05   -5.699742989508528e-06   -2.9657511217609034e-05
1.1822753827943572e-05   -5.699742989508528e-06   -2.9657511217609034e-05
1.2687990675932641e-05   -2.3894273144533466e-06   -4.1016325433346126e-06
1.2687990675932641e-05   -2.3894273144533466e-06   -4.1016325433346126e-06
1.2687990675932641e-05   -2.3894273144533466e-06   -4.1016325433346126e-06
1.2687990675932641e-05   -2.3894273144533466e-06   -4.1016325433346126e-06
2.9518734097552465e-05   -5.3310047102945665e-06   -3.038792514186323e-05
2.9518734097552465e-05   -5.3310047102945665e-06   -3.038792514186323e-05
2.9518734097552465e-05   -5.3310047102945665e-06   -3.038792514186323e-05
2.9518734097552465e-05   -5.3310047102945665e-06   -3.038792514186323e-05
1.986131302516516e-05   -3.875632849049612e-06   -1.5165446471297793e-05
1.986131302516516e-05   -3.875632849049612e-06   -1.5165446471297793e-05
1.986131302516516e-05   -3.875632849049612e-06   -1.5165446471297793e-05
1.986131302516516e-05   -3.875632849049612e-06   -1.5165446471297793e-05
2.951873409755252e-05   -2.3894273144533466e-06   -2.336686105830054e-06
2.951873409755252e-05   -2.3894273144533466e-06   -2.336686105830054e-06
2.951873409755252e-05   -2.3894273144533466e-06   -2.336686105830054e-06
2.951873409755252e-05   -2.3894273144533466e-06   -2.336686105830054e-06
1.2687990675932614e-05   -5.331004710294133e-06   -3.215287157936784e-05
1.2687990675932614e-05   -5.331004710294133e-06   -3.215287157936784e-05
1.2687990675932614e-05   -5.331004710294133e-06   -3.215287157936784e-05
1.2687990675932614e-05   -5.331004710294133e-06   -3.215287157936784e-05
1.3402959996379325e-05   -1.371933594399282e-06   -6.86226081619834e-06
1.3402959996379325e-05   -1.371933594399282e-06   -6.86226081619834e-06
1.3402959996379325e-05   -1.371933594399282e-06   -6.86226081619834e-06
1.3402959996379325e-05   -1.371933594399282e-06   -6.86226081619834e-06
3.142822483666346e-05   -4.165272161029375e-06   -3.5228365743360615e-05
3.142822483666346e-05   -4.165272161029375e-06   -3.5228365743360615e-05
3.142822483666346e-05   -4.165272161029375e-06   -3.5228365743360615e-05
3.142822483666346e-05   -4.165272161029375e-06   -3.5228365743360615e-05
2.0657284613717186e-05   -3.419874842931986e-06   -1.7724037095975863e-05
2.0657284613717186e-05   -3.419874842931986e-06   -1.7724037095975863e-05
2.0657284613717186e-05   -3.419874842931986e-06   -1.7724037095975863e-05
2.0657284613717186e-05   -3.419874842931986e-06   -1.7724037095975863e-05
1.1041770778851733e-05   -1.3430486347368667e-06   -1.8014825127279227e-05
1.1041770778851733e-05   -1.3430486347368667e-06   -1.8014825127279227e-05
1.1041770778851733e-05   -1.3430486347368667e-06   -1.8014825127279227e-05
1.1041770778851733e-05   -1.3430486347368667e-06   -1.8014825127279227e-05
-4.700143308477138e-06   -2.8682810223595173e-06   -4.5166488038734447e-05
-4.700143308477138e-06   -2.8682810223595173e-06   -4.5166488038734447e-05
-4.700143308477138e-06   -2.8682810223595173e-06   -4.5166488038734447e-05
-4.700143308477138e-06   -2.8682810223595173e-06   -4.5166488038734447e-05
-3.973670748891932e-06   -5.126778688142875e-07   -1.8389569487618036e-05
-3.973670748891932e-06   -5.126778688142875e-07   -1.8389569487618036e-05
-3.973670748891932e-06   -5.126778688142875e-07   -1.8389569487618036e-05
-3.973670748891932e-06   -5.126778688142875e-07   -1.8389569487618036e-05
1.1822753827943572e-05   -2.2723213032103777e-06   -4.36611577217061e-05
1.1822753827943572e-05   -2.2723213032103777e-06   -4.36611577217061e-05
1.1822753827943572e-05   -2.2723213032103777e-06   -4.36611577217061e-05
1.1822753827943572e-05   -2.2723213032103777e-06   -4.36611577217061e-05
3.5867655709300917e-06   -1.386582318586068e-06   -3.0465954017458267e-05
3.5867655709300917e-06   -1.386582318586068e-06   -3.0465954017458267e-05
3.5867655709300917e-06   -1.386582318586068e-06   -3.0465954017458267e-05
3.5867655709300917e-06   -1.386582318586068e-06   -3.0465954017458267e-05
1.1822753827943599e-05   -5.126778688142875e-07   -1.733378342698021e-05
1.1822753827943599e-05   -5.126778688142875e-07   -1.733378342698021e-05
1.1822753827943599e-05   -5.126778688142875e-07   -1.733378342698021e-05
1.1822753827943599e-05   -5.126778688142875e-07   -1.733378342698021e-05
-3.973670748891919e-06   -2.2723213032103777e-06   -4.4716943782343926e-05
-3.973670748891919e-06   -2.2723213032103777e-06   -4.4716943782343926e-05
-3.973670748891919e-06   -2.2723213032103777e-06   -4.4716943782343926e-05
-3.973670748891919e-06   -2.2723213032103777e-06   -4.4716943782343926e-05
-3.2800456069831787e-06   3.4605758647793076e-07   -1.8626425339365394e-05
-3.2800456069831787e-06   3.4605758647793076e-07   -1.8626425339365394e-05
-3.2800456069831787e-06   3.4605758647793076e-07   -1.8626425339365394e-05
-3.2800456069831787e-06   3.4605758647793076e-07   -1.8626425339365394e-05
1.2687990675932614e-05   -1.5438930818277921e-06   -4.410584874324166e-05
1.2687990675932614e-05   -1.5438930818277921e-06   -4.410584874324166e-05
1.2687990675932614e-05   -1.5438930818277921e-06   -4.410584874324166e-05
1.2687990675932614e-05   -1.5438930818277921e-06   -4.410584874324166e-05
4.162929828004467e-06   -8.593331723898232e-07   -3.0308149942356866e-05
4.162929828004467e-06   -8.593331723898232e-07   -3.0308149942356866e-05
4.162929828004467e-06   -8.593331723898232e-07   -3.0308149942356866e-05
4.162929828004467e-06   -8.593331723898232e-07   -3.0308149942356866e-05
1.2687990675932641e-05   3.4605758647793076e-07   -1.7492454938381917e-05
1.2687990675932641e-05   3.4605758647793076e-07   -1.7492454938381917e-05
1.2687990675932641e-05   3.4605758647793076e-07   -1.7492454938381917e-05
1.2687990675932641e-05   3.4605758647793076e-07   -1.7492454938381917e-05
-3.2800456069831787e-06   -1.5438930818277921e-06   -4.5239819144225085e-05
-3.2800456069831787e-06   -1.5438930818277921e-06   -4.5239819144225085e-05
-3.2800456069831787e-06   -1.5438930818277921e-06   -4.5239819144225085e-05
-3.2800456069831787e-06   -1.5438930818277921e-06   -4.5239819144225085e-05
-2.6285839908403078e-06   1.3631934813456304e-06   -1.9260818890084325e-05
-2.6285839908403078e-06   1.3631934813456304e-06   -1.9260818890084325e-05
-2.6285839908403078e-06   1.3631934813456304e-06   -1.9260818890084325e-05
-2.6285839908403078e-06   1.3631934813456304e-06   -1.9260818890084325e-05
1.3402959996379298e-05   -6.272456897268158e-07   -4.478579536614045e-05
1.3402959996379298e-05   -6.272456897268158e-07   -4.478579536614045e-05
1.3402959996379298e-05   -6.272456897268158e-07   -4.478579536614045e-05
1.3402959996379298e-05   -6.272456897268158e-07   -4.478579536614045e-05
4.882099256438841e-06   -2.089997422098297e-07   -3.0835308368083833e-05
4.882099256438841e-06   -2.089997422098297e-07   -3.0835308368083833e-05
4.882099256438841e-06   -2.089997422098297e-07   -3.0835308368083833e-05
4.882099256438841e-06   -2.089997422098297e-07   -3.0835308368083833e-05
-4.7001433084771515e-06   1.0345803215044101e-06   -2.317622899889707e-05
-4.7001433084771515e-06   1.0345803215044101e-06   -2.317622899889707e-05
-4.7001433084771515e-06   1.0345803215044101e-06   -2.317622899889707e-05
-4.7001433084771515e-06   1.0345803215044101e-06   -2.317622899889707e-05
-2.016476928073434e-05   5.254300980898734e-07   -4.9256095753374214e-05
-2.016476928073434e-05   5.254300980898734e-07   -4.9256095753374214e-05
-2.016476928073434e-05   5.254300980898734e-07   -4.9256095753374214e-05
-2.016476928073434e-05   5.254300980898734e-07   -4.9256095753374214e-05
-1.9382853299467724e-05   1.9133577370206503e-06   -2.301393074127453e-05
-1.9382853299467724e-05   1.9133577370206503e-06   -2.301393074127453e-05
-1.9382853299467724e-05   1.9133577370206503e-06   -2.301393074127453e-05
-1.9382853299467724e-05   1.9133577370206503e-06   -2.301393074127453e-05
-3.973670748891919e-06   1.1949272984497668e-06   -4.826484339575846e-05
-3.973670748891919e-06   1.1949272984497668e-06   -4.826484339575846e-05
-3.973670748891919e-06   1.1949272984497668e-06   -4.826484339575846e-05
-3.973670748891919e-06   1.1949272984497668e-06   -4.826484339575846e-05
-1.1972894313463264e-05   1.4186509369779228e-06   -3.5067038304589706e-05
-1.1972894313463264e-05   1.4186509369779228e-06   -3.5067038304589706e-05
-1.1972894313463264e-05   1.4186509369779228e-06   -3.5067038304589706e-05
-1.1972894313463264e-05   1.4186509369779228e-06   -3.5067038304589706e-05
-3.973670748891932e-06   1.9133577370206503e-06   -2.2582872478132e-05
-3.973670748891932e-06   1.9133577370206503e-06   -2.2582872478132e-05
-3.973670748891932e-06   1.9133577370206503e-06   -2.2582872478132e-05
-3.973670748891932e-06   1.9133577370206503e-06   -2.2582872478132e-05
-1.9382853299467724e-05   1.1949272984497668e-06   -4.869590165890072e-05
-1.9382853299467724e-05   1.1949272984497668e-06   -4.869590165890072e-05
-1.9382853299467724e-05   1.1949272984497668e-06   -4.869590165890072e-05
-1.9382853299467724e-05   1.1949272984497668e-06   -4.869590165890072e-05
-1.8628634386820668e-05   2.8436366780848054e-06   -2.297928129055553e-05
-1.8628634386820668e-05   2.8436366780848054e-06   -2.297928129055553e-05
-1.8628634386820668e-05   2.8436366780848054e-06   -2.297928129055553e-05
-1.8628634386820668e-05   2.8436366780848054e-06   -2.297928129055553e-05
-3.2800456069832058e-06   1.9700076620125274e-06   -4.803608518064124e-05
-3.2800456069832058e-06   1.9700076620125274e-06   -4.803608518064124e-05
-3.2800456069832058e-06   1.9700076620125274e-06   -4.803608518064124e-05
-3.2800456069832058e-06   1.9700076620125274e-06   -4.803608518064124e-05
-1.1300189515641892e-05   2.0454813854930975e-06   -3.471446290029842e-05
-1.1300189515641892e-05   2.0454813854930975e-06   -3.471446290029842e-05
-1.1300189515641892e-05   2.0454813854930975e-06   -3.471446290029842e-05
-1.1300189515641892e-05   2.0454813854930975e-06   -3.471446290029842e-05
-3.2800456069832058e-06   2.8436366780848054e-06   -2.2455103880911903e-05
-3.2800456069832058e-06   2.8436366780848054e-06   -2.2455103880911903e-05
-3.2800456069832058e-06   2.8436366780848054e-06   -2.2455103880911903e-05
-3.2800456069832058e-06   2.8436366780848054e-06   -2.2455103880911903e-05
-1.8628634386820668e-05   1.9700076620125274e-06   -4.8560262590284595e-05
-1.8628634386820668e-05   1.9700076620125274e-06   -4.8560262590284595e-05
-1.8628634386820668e-05   1.9700076620125274e-06   -4.8560262590284595e-05
-1.8628634386820668e-05   1.9700076620125274e-06   -4.8560262590284595e-05
-1.793170353797812e-05   3.790006727452406e-06   -2.352030125263912e-05
-1.793170353797812e-05   3.790006727452406e-06   -2.352030125263912e-05
-1.793170353797812e-05   3.790006727452406e-06   -2.352030125263912e-05
-1.793170353797812e-05   3.790006727452406e-06   -2.352030125263912e-05
-2.6285839908403213e-06   2.7709876096711564e-06   -4.841408902719988e-05
-2.6285839908403213e-06   2.7709876096711564e-06   -4.841408902719988e-05
-2.6285839908403213e-06   2.7709876096711564e-06   -4.841408902719988e-05
-2.6285839908403213e-06   2.7709876096711564e-06   -4.841408902719988e-05
-1.0699296363689663e-05   2.688662201909232e-06   -3.4913506494461195e-05
-1.0699296363689663e-05   2.688662201909232e-06   -3.4913506494461195e-05
-1.0699296363689663e-05   2.688662201909232e-06   -3.4913506494461195e-05
-1.0699296363689663e-05   2.688662201909232e-06   -3.4913506494461195e-05
-2.0164769280734382e-05   3.342862225577106e-06   -1.880034891985115e-05
-2.0164769280734382e-05   3.342862225577106e-06   -1.880034891985115e-05
-2.0164769280734382e-05   3.342862225577106e-06   -1.880034891985115e-05
-2.0164769280734382e-05   3.342862225577106e-06   -1.880034891985115e-05
-3.534493363109992e-05   4.040641275961446e-06   -4.368195540689645e-05
-3.534493363109992e-05   4.040641275961446e-06   -4.368195540689645e-05
-3.534493363109992e-05   4.040641275961446e-06   -4.368195540689645e-05
-3.534493363109992e-05   4.040641275961446e-06   -4.368195540689645e-05
-3.4402352585206264e-05   4.2808900167527406e-06   -1.7664025714987782e-05
-3.4402352585206264e-05   4.2808900167527406e-06   -1.7664025714987782e-05
-3.4402352585206264e-05   4.2808900167527406e-06   -1.7664025714987782e-05
-3.4402352585206264e-05   4.2808900167527406e-06   -1.7664025714987782e-05
-1.938285329946776e-05   4.890564173245897e-06   -4.306232901844816e-05
-1.938285329946776e-05   4.890564173245897e-06   -4.306232901844816e-05
-1.938285329946776e-05   4.890564173245897e-06   -4.306232901844816e-05
-1.938285329946776e-05   4.890564173245897e-06   -4.306232901844816e-05
-2.712413784667233e-05   4.315970218834271e-06   -2.981543173379345e-05
-2.712413784667233e-05   4.315970218834271e-06   -2.981543173379345e-05
-2.712413784667233e-05   4.315970218834271e-06   -2.981543173379345e-05
-2.712413784667233e-05   4.315970218834271e-06   -2.981543173379345e-05
-1.938285329946776e-05   4.2808900167527406e-06   -1.8029830208883763e-05
-1.938285329946776e-05   4.2808900167527406e-06   -1.8029830208883763e-05
-1.938285329946776e-05   4.2808900167527406e-06   -1.8029830208883763e-05
-1.938285329946776e-05   4.2808900167527406e-06   -1.8029830208883763e-05
-3.4402352585206325e-05   4.890564173245897e-06   -4.26965245245521e-05
-3.4402352585206325e-05   4.890564173245897e-06   -4.26965245245521e-05
-3.4402352585206325e-05   4.890564173245897e-06   -4.26965245245521e-05
-3.4402352585206325e-05   4.890564173245897e-06   -4.26965245245521e-05
-3.335906101750869e-05   5.1257005713358905e-06   -1.7031931981227036e-05
-3.335906101750869e-05   5.1257005713358905e-06   -1.7031931981227036e-05
-3.335906101750869e-05   5.1257005713358905e-06   -1.7031931981227036e-05
-3.335906101750869e-05   5.1257005713358905e-06   -1.7031931981227036e-05
-1.8628634386820702e-05   5.622476756056774e-06   -4.188070874320608e-05
-1.8628634386820702e-05   5.622476756056774e-06   -4.188070874320608e-05
-1.8628634386820702e-05   5.622476756056774e-06   -4.188070874320608e-05
-1.8628634386820702e-05   5.622476756056774e-06   -4.188070874320608e-05
-2.617043918644223e-05   4.977882783630677e-06   -2.8924277693714428e-05
-2.617043918644223e-05   4.977882783630677e-06   -2.8924277693714428e-05
-2.617043918644223e-05   4.977882783630677e-06   -2.8924277693714428e-05
-2.617043918644223e-05   4.977882783630677e-06   -2.8924277693714428e-05
-1.862863438682068e-05   5.1257005713358905e-06   -1.732999769205935e-05
-1.862863438682068e-05   5.1257005713358905e-06   -1.732999769205935e-05
-1.862863438682068e-05   5.1257005713358905e-06   -1.732999769205935e-05
-1.862863438682068e-05   5.1257005713358905e-06   -1.732999769205935e-05
-3.335906101750869e-05   5.622476756056774e-06   -4.1582643032373736e-05
-3.335906101750869e-05   5.622476756056774e-06   -4.1582643032373736e-05
-3.335906101750869e-05   5.622476756056774e-06   -4.1582643032373736e-05
-3.335906101750869e-05   5.622476756056774e-06   -4.1582643032373736e-05
-3.2477555560312145e-05   6.070644952247588e-06   -1.7425696455525578e-05
-3.2477555560312145e-05   6.070644952247588e-06   -1.7425696455525578e-05
-3.2477555560312145e-05   6.070644952247588e-06   -1.7425696455525578e-05
-3.2477555560312145e-05   6.070644952247588e-06   -1.7425696455525578e-05
-1.7931703537978148e-05   6.431968791059846e-06   -4.1885577462703126e-05
-1.7931703537978148e-05   6.431968791059846e-06   -4.1885577462703126e-05
-1.7931703537978148e-05   6.431968791059846e-06   -4.1885577462703126e-05
-1.7931703537978148e-05   6.431968791059846e-06   -4.1885577462703126e-05
-2.557795869617646e-05   5.587489688374742e-06   -2.86351314040948e-05
-2.557795869617646e-05   5.587489688374742e-06   -2.86351314040948e-05
-2.557795869617646e-05   5.587489688374742e-06   -2.86351314040948e-05
-2.557795869617646e-05   5.587489688374742e-06   -2.86351314040948e-05
-3.534493363109992e-05   5.747579758409206e-06   -9.418794471775013e-06
-3.534493363109992e-05   5.747579758409206e-06   -9.418794471775013e-06
-3.534493363109992e-05   5.747579758409206e-06   -9.418794471775013e-06
-3.534493363109992e-05   5.747579758409206e-06   -9.418794471775013e-06
-5.133721330284133e-05   7.93864582708699e-06   -3.4757954283470664e-05
-5.133721330284133e-05   7.93864582708699e-06   -3.4757954283470664e-05
-5.133721330284133e-05   7.93864582708699e-06   -3.4757954283470664e-05
-5.133721330284133e-05   7.93864582708699e-06   -3.4757954283470664e-05
-4.917023755218572e-05   6.721672620392657e-06   -2.979929994898758e-06
-4.917023755218572e-05   6.721672620392657e-06   -2.979929994898758e-06
-4.917023755218572e-05   6.721672620392657e-06   -2.979929994898758e-06
-4.917023755218572e-05   6.721672620392657e-06   -2.979929994898758e-06
-3.4402352585206264e-05   9.067959307685561e-06   -2.9000843618906957e-05
-3.4402352585206264e-05   9.067959307685561e-06   -2.9000843618906957e-05
-3.4402352585206264e-05   9.067959307685561e-06   -2.9000843618906957e-05
-3.4402352585206264e-05   9.067959307685561e-06   -2.9000843618906957e-05
-4.080413149838446e-05   7.562974105524778e-06   -1.742822097564663e-05
-4.080413149838446e-05   7.562974105524778e-06   -1.742822097564663e-05
-4.080413149838446e-05   7.562974105524778e-06   -1.742822097564663e-05
-4.080413149838446e-05   7.562974105524778e-06   -1.742822097564663e-05
-3.440235258520629e-05   6.721672620392657e-06   -4.387702007274371e-06
-3.440235258520629e-05   6.721672620392657e-06   -4.387702007274371e-06
-3.440235258520629e-05   6.721672620392657e-06   -4.387702007274371e-06
-3.440235258520629e-05   6.721672620392657e-06   -4.387702007274371e-06
-4.917023755218564e-05   9.067959307685778e-06   -2.7593071606531053e-05
-4.917023755218564e-05   9.067959307685778e-06   -2.7593071606531053e-05
-4.917023755218564e-05   9.067959307685778e-06   -2.7593071606531053e-05
-4.917023755218564e-05   9.067959307685778e-06   -2.7593071606531053e-05
-4.738709190884506e-05   7.070773734921048e-06   -2.9023699298026586e-07
-4.738709190884506e-05   7.070773734921048e-06   -2.9023699298026586e-07
-4.738709190884506e-05   7.070773734921048e-06   -2.9023699298026586e-07
-4.738709190884506e-05   7.070773734921048e-06   -2.9023699298026586e-07
-3.335906101750869e-05   9.365126118157045e-06   -2.5046899908482453e-05
-3.335906101750869e-05   9.365126118157045e-06   -2.5046899908482453e-05
-3.335906101750869e-05   9.365126118157045e-06   -2.5046899908482453e-05
-3.335906101750869e-05   9.365126118157045e-06   -2.5046899908482453e-05
-4.0067576319802165e-05   8.013149780614418e-06   -1.3054855268800633e-05
-4.0067576319802165e-05   8.013149780614418e-06   -1.3054855268800633e-05
-4.0067576319802165e-05   8.013149780614418e-06   -1.3054855268800633e-05
-4.0067576319802165e-05   8.013149780614418e-06   -1.3054855268800633e-05
-3.335906101750869e-05   7.070773734921048e-06   -1.6668484229217552e-06
-3.335906101750869e-05   7.070773734921048e-06   -1.6668484229217552e-06
-3.335906101750869e-05   7.070773734921048e-06   -1.6668484229217552e-06
-3.335906101750869e-05   7.070773734921048e-06   -1.6668484229217552e-06
-4.7387091908844913e-05   9.365126118156828e-06   -2.367028847854091e-05
-4.7387091908844913e-05   9.365126118156828e-06   -2.367028847854091e-05
-4.7387091908844913e-05   9.365126118156828e-06   -2.367028847854091e-05
-4.7387091908844913e-05   9.365126118156828e-06   -2.367028847854091e-05
-4.546286701325242e-05   7.512862040055107e-06   3.1268516147999435e-06
-4.546286701325242e-05   7.512862040055107e-06   3.1268516147999435e-06
-4.546286701325242e-05   7.512862040055107e-06   3.1268516147999435e-06
-4.546286701325242e-05   7.512862040055107e-06   3.1268516147999435e-06
-3.2477555560312145e-05   9.620455374844284e-06   -1.9779890140973932e-05
-3.2477555560312145e-05   9.620455374844284e-06   -1.9779890140973932e-05
-3.2477555560312145e-05   9.620455374844284e-06   -1.9779890140973932e-05
-3.2477555560312145e-05   9.620455374844284e-06   -1.9779890140973932e-05
-3.825895518464639e-05   8.08654338910501e-06   -9.223876908973647e-06
-3.825895518464639e-05   8.08654338910501e-06   -9.223876908973647e-06
-3.825895518464639e-05   8.08654338910501e-06   -9.223876908973647e-06
-3.825895518464639e-05   8.08654338910501e-06   -9.223876908973647e-06
4.395689336862658e-05   -6.128420260147422e-06   8.731986660730218e-06
4.395689336862658e-05   -6.128420260147422e-06   8.731986660730218e-06
4.395689336862658e-05   -6.128420260147422e-06   8.731986660730218e-06
4.395689336862658e-05   -6.128420260147422e-06   8.731986660730218e-06
2.117962849044184e-05   -9.071795085089165e-06   -3.099614636454238e-05
2.117962849044184e-05   -9.071795085089165e-06   -3.099614636454238e-05
2.117962849044184e-05   -9.071795085089165e-06   -3.099614636454238e-05
2.117962849044184e-05   -9.071795085089165e-06   -3.099614636454238e-05
2.2045051234050337e-05   -5.699742989508528e-06   4.21999820797588e-06
2.2045051234050337e-05   -5.699742989508528e-06   4.21999820797588e-06
2.2045051234050337e-05   -5.699742989508528e-06   4.21999820797588e-06
2.2045051234050337e-05   -5.699742989508528e-06   4.21999820797588e-06
4.5967531951265266e-05   -8.860241586341501e-06   -3.375450382928281e-05
4.5967531951265266e-05   -8.860241586341501e-06   -3.375450382928281e-05
4.5967531951265266e-05   -8.860241586341501e-06   -3.375450382928281e-05
4.5967531951265266e-05   -8.860241586341501e-06   -3.375450382928281e-05
3.193374901441361e-05   -6.709562871776674e-06   -1.1655272829935465e-05
3.193374901441361e-05   -6.709562871776674e-06   -1.1655272829935465e-05
3.193374901441361e-05   -6.709562871776674e-06   -1.1655272829935465e-05
3.193374901441361e-05   -6.709562871776674e-06   -1.1655272829935465e-05
4.596753195126532e-05   -5.699742989508528e-06   6.1162973660755775e-06
4.596753195126532e-05   -5.699742989508528e-06   6.1162973660755775e-06
4.596753195126532e-05   -5.699742989508528e-06   6.1162973660755775e-06
4.596753195126532e-05   -5.699742989508528e-06   6.1162973660755775e-06
2.204505123405031e-05   -8.860241586341501e-06   -3.565080298738256e-05
2.204505123405031e-05   -8.860241586341501e-06   -3.565080298738256e-05
2.204505123405031e-05   -8.860241586341501e-06   -3.565080298738256e-05
2.204505123405031e-05   -8.860241586341501e-06   -3.565080298738256e-05
2.2906000180779437e-05   -5.331004710294133e-06   2.011838753707227e-06
2.2906000180779437e-05   -5.331004710294133e-06   2.011838753707227e-06
2.2906000180779437e-05   -5.331004710294133e-06   2.011838753707227e-06
2.2906000180779437e-05   -5.331004710294133e-06   2.011838753707227e-06
4.7510621873378704e-05   -8.552536445150232e-06   -3.706294502637788e-05
4.7510621873378704e-05   -8.552536445150232e-06   -3.706294502637788e-05
4.7510621873378704e-05   -8.552536445150232e-06   -3.706294502637788e-05
4.7510621873378704e-05   -8.552536445150232e-06   -3.706294502637788e-05
3.362733512843952e-05   -6.687336755811617e-06   -1.5043253598415825e-05
3.362733512843952e-05   -6.687336755811617e-06   -1.5043253598415825e-05
3.362733512843952e-05   -6.687336755811617e-06   -1.5043253598415825e-05
3.362733512843952e-05   -6.687336755811617e-06   -1.5043253598415825e-05
4.7510621873378704e-05   -5.331004710294133e-06   3.9447577946207565e-06
4.7510621873378704e-05   -5.331004710294133e-06   3.9447577946207565e-06
4.7510621873378704e-05   -5.331004710294133e-06   3.9447577946207565e-06
4.7510621873378704e-05   -5.331004710294133e-06   3.9447577946207565e-06
2.2906000180779437e-05   -8.552536445149798e-06   -3.899586406729146e-05
2.2906000180779437e-05   -8.552536445149798e-06   -3.899586406729146e-05
2.2906000180779437e-05   -8.552536445149798e-06   -3.899586406729146e-05
2.2906000180779437e-05   -8.552536445149798e-06   -3.899586406729146e-05
2.3490502381868345e-05   -4.165272161028941e-06   -2.434674926359969e-06
2.3490502381868345e-05   -4.165272161028941e-06   -2.434674926359969e-06
2.3490502381868345e-05   -4.165272161028941e-06   -2.434674926359969e-06
2.3490502381868345e-05   -4.165272161028941e-06   -2.434674926359969e-06
4.914242341335284e-05   -7.352714047565833e-06   -4.327541151357892e-05
4.914242341335284e-05   -7.352714047565833e-06   -4.327541151357892e-05
4.914242341335284e-05   -7.352714047565833e-06   -4.327541151357892e-05
4.914242341335284e-05   -7.352714047565833e-06   -4.327541151357892e-05
3.40997389850427e-05   -6.173156973755117e-06   -1.8912005044015333e-05
3.40997389850427e-05   -6.173156973755117e-06   -1.8912005044015333e-05
3.40997389850427e-05   -6.173156973755117e-06   -1.8912005044015333e-05
3.40997389850427e-05   -6.173156973755117e-06   -1.8912005044015333e-05
2.1179628490441868e-05   -2.868281022359951e-06   -1.0679963398737289e-05
2.1179628490441868e-05   -2.868281022359951e-06   -1.0679963398737289e-05
2.1179628490441868e-05   -2.868281022359951e-06   -1.0679963398737289e-05
2.1179628490441868e-05   -2.868281022359951e-06   -1.0679963398737289e-05
-1.288287817332066e-06   -5.87520582560723e-06   -4.9930645460308795e-05
-1.288287817332066e-06   -5.87520582560723e-06   -4.9930645460308795e-05
-1.288287817332066e-06   -5.87520582560723e-06   -4.9930645460308795e-05
-1.288287817332066e-06   -5.87520582560723e-06   -4.9930645460308795e-05
-4.000764512365458e-07   -2.2723213032108114e-06   -1.177630923387702e-05
-4.000764512365458e-07   -2.2723213032108114e-06   -1.177630923387702e-05
-4.000764512365458e-07   -2.2723213032108114e-06   -1.177630923387702e-05
-4.000764512365458e-07   -2.2723213032108114e-06   -1.177630923387702e-05
2.2045051234050337e-05   -5.5934228661365555e-06   -4.719219443826626e-05
2.2045051234050337e-05   -5.5934228661365555e-06   -4.719219443826626e-05
2.2045051234050337e-05   -5.5934228661365555e-06   -4.719219443826626e-05
2.2045051234050337e-05   -5.5934228661365555e-06   -4.719219443826626e-05
1.0415236330799536e-05   -3.5546457787262974e-06   -2.9032435851960876e-05
1.0415236330799536e-05   -3.5546457787262974e-06   -2.9032435851960876e-05
1.0415236330799536e-05   -3.5546457787262974e-06   -2.9032435851960876e-05
1.0415236330799536e-05   -3.5546457787262974e-06   -2.9032435851960876e-05
2.2045051234050337e-05   -2.2723213032108114e-06   -9.783648296121184e-06
2.2045051234050337e-05   -2.2723213032108114e-06   -9.783648296121184e-06
2.2045051234050337e-05   -2.2723213032108114e-06   -9.783648296121184e-06
2.2045051234050337e-05   -2.2723213032108114e-06   -9.783648296121184e-06
-4.000764512365458e-07   -5.5934228661365555e-06   -4.9184855376021826e-05
-4.000764512365458e-07   -5.5934228661365555e-06   -4.9184855376021826e-05
-4.000764512365458e-07   -5.5934228661365555e-06   -4.9184855376021826e-05
-4.000764512365458e-07   -5.5934228661365555e-06   -4.9184855376021826e-05
3.824667866800664e-07   -1.5438930818277921e-06   -1.2056311063968943e-05
3.824667866800664e-07   -1.5438930818277921e-06   -1.2056311063968943e-05
3.824667866800664e-07   -1.5438930818277921e-06   -1.2056311063968943e-05
3.824667866800664e-07   -1.5438930818277921e-06   -1.2056311063968943e-05
2.2906000180779437e-05   -5.069180838165096e-06   -4.748036073366551e-05
2.2906000180779437e-05   -5.069180838165096e-06   -4.748036073366551e-05
2.2906000180779437e-05   -5.069180838165096e-06   -4.748036073366551e-05
2.2906000180779437e-05   -5.069180838165096e-06   -4.748036073366551e-05
1.1019528874849328e-05   -3.2624646781813198e-06   -2.8753604919771678e-05
1.1019528874849328e-05   -3.2624646781813198e-06   -2.8753604919771678e-05
1.1019528874849328e-05   -3.2624646781813198e-06   -2.8753604919771678e-05
1.1019528874849328e-05   -3.2624646781813198e-06   -2.8753604919771678e-05
2.2906000180779437e-05   -1.5438930818282258e-06   -9.941138410166648e-06
2.2906000180779437e-05   -1.5438930818282258e-06   -9.941138410166648e-06
2.2906000180779437e-05   -1.5438930818282258e-06   -9.941138410166648e-06
2.2906000180779437e-05   -1.5438930818282258e-06   -9.941138410166648e-06
3.824667866800664e-07   -5.0691808381655296e-06   -4.959553338746824e-05
3.824667866800664e-07   -5.0691808381655296e-06   -4.959553338746824e-05
3.824667866800664e-07   -5.0691808381655296e-06   -4.959553338746824e-05
3.824667866800664e-07   -5.0691808381655296e-06   -4.959553338746824e-05
9.395193244975212e-07   -6.272456897272495e-07   -1.2533718309044525e-05
9.395193244975212e-07   -6.272456897272495e-07   -1.2533718309044525e-05
9.395193244975212e-07   -6.272456897272495e-07   -1.2533718309044525e-05
9.395193244975212e-07   -6.272456897272495e-07   -1.2533718309044525e-05
2.3490502381868426e-05   -4.323273856198656e-06   -4.790107317144659e-05
2.3490502381868426e-05   -4.323273856198656e-06   -4.790107317144659e-05
2.3490502381868426e-05   -4.323273856198656e-06   -4.790107317144659e-05
2.3490502381868426e-05   -4.323273856198656e-06   -4.790107317144659e-05
1.174340181437926e-05   -2.7478361396787547e-06   -2.926783485554356e-05
1.174340181437926e-05   -2.7478361396787547e-06   -2.926783485554356e-05
1.174340181437926e-05   -2.7478361396787547e-06   -2.926783485554356e-05
1.174340181437926e-05   -2.7478361396787547e-06   -2.926783485554356e-05
-1.288287817332066e-06   5.254300980898734e-07   -1.6268235861276745e-05
-1.288287817332066e-06   5.254300980898734e-07   -1.6268235861276745e-05
-1.288287817332066e-06   5.254300980898734e-07   -1.6268235861276745e-05
-1.288287817332066e-06   5.254300980898734e-07   -1.6268235861276745e-05
-2.3424319225729704e-05   -3.0794149737003833e-06   -5.532452858501369e-05
-2.3424319225729704e-05   -3.0794149737003833e-06   -5.532452858501369e-05
-2.3424319225729704e-05   -3.0794149737003833e-06   -5.532452858501369e-05
-2.3424319225729704e-05   -3.0794149737003833e-06   -5.532452858501369e-05
-2.235858165533796e-05   1.1949272984497668e-06   -1.768951178442407e-05
-2.235858165533796e-05   1.1949272984497668e-06   -1.768951178442407e-05
-2.235858165533796e-05   1.1949272984497668e-06   -1.768951178442407e-05
-2.235858165533796e-05   1.1949272984497668e-06   -1.768951178442407e-05
-4.000764512365458e-07   -2.747244263437594e-06   -5.192171752079364e-05
-4.000764512365458e-07   -2.747244263437594e-06   -5.192171752079364e-05
-4.000764512365458e-07   -2.747244263437594e-06   -5.192171752079364e-05
-4.000764512365458e-07   -2.747244263437594e-06   -5.192171752079364e-05
-1.1727109034985127e-05   -5.917892969913539e-07   -3.4336602861080546e-05
-1.1727109034985127e-05   -5.917892969913539e-07   -3.4336602861080546e-05
-1.1727109034985127e-05   -5.917892969913539e-07   -3.4336602861080546e-05
-1.1727109034985127e-05   -5.917892969913539e-07   -3.4336602861080546e-05
-4.000764512365458e-07   1.1949272984502005e-06   -1.5324208847291394e-05
-4.000764512365458e-07   1.1949272984502005e-06   -1.5324208847291394e-05
-4.000764512365458e-07   1.1949272984502005e-06   -1.5324208847291394e-05
-4.000764512365458e-07   1.1949272984502005e-06   -1.5324208847291394e-05
-2.235858165533796e-05   -2.7472442634371604e-06   -5.428702045792624e-05
-2.235858165533796e-05   -2.7472442634371604e-06   -5.428702045792624e-05
-2.235858165533796e-05   -2.7472442634371604e-06   -5.428702045792624e-05
-2.235858165533796e-05   -2.7472442634371604e-06   -5.428702045792624e-05
-2.1380828041229458e-05   1.970007662012961e-06   -1.7372986250932575e-05
-2.1380828041229458e-05   1.970007662012961e-06   -1.7372986250932575e-05
-2.1380828041229458e-05   1.970007662012961e-06   -1.7372986250932575e-05
-2.1380828041229458e-05   1.970007662012961e-06   -1.7372986250932575e-05
3.824667866800664e-07   -2.230674255566511e-06   -5.1124735146901084e-05
3.824667866800664e-07   -2.230674255566511e-06   -5.1124735146901084e-05
3.824667866800664e-07   -2.230674255566511e-06   -5.1124735146901084e-05
3.824667866800664e-07   -2.230674255566511e-06   -5.1124735146901084e-05
-1.0859192308649442e-05   -2.1168018275730116e-07   -3.360003309837067e-05
-1.0859192308649442e-05   -2.1168018275730116e-07   -3.360003309837067e-05
-1.0859192308649442e-05   -2.1168018275730116e-07   -3.360003309837067e-05
-1.0859192308649442e-05   -2.1168018275730116e-07   -3.360003309837067e-05
3.824667866800664e-07   1.970007662012961e-06   -1.4852577100385369e-05
3.824667866800664e-07   1.970007662012961e-06   -1.4852577100385369e-05
3.824667866800664e-07   1.970007662012961e-06   -1.4852577100385369e-05
3.824667866800664e-07   1.970007662012961e-06   -1.4852577100385369e-05
-2.138082804122949e-05   -2.230674255566511e-06   -5.3645144297448724e-05
-2.138082804122949e-05   -2.230674255566511e-06   -5.3645144297448724e-05
-2.138082804122949e-05   -2.230674255566511e-06   -5.3645144297448724e-05
-2.138082804122949e-05   -2.230674255566511e-06   -5.3645144297448724e-05
-2.072161872963348e-05   2.7709876096707227e-06   -1.767478459474732e-05
-2.072161872963348e-05   2.7709876096707227e-06   -1.767478459474732e-05
-2.072161872963348e-05   2.7709876096707227e-06   -1.767478459474732e-05
-2.072161872963348e-05   2.7709876096707227e-06   -1.767478459474732e-05
9.395193244975347e-07   -1.740739269139903e-06   -5.1069645224345925e-05
9.395193244975347e-07   -1.740739269139903e-06   -5.1069645224345925e-05
9.395193244975347e-07   -1.740739269139903e-06   -5.1069645224345925e-05
9.395193244975347e-07   -1.740739269139903e-06   -5.1069645224345925e-05
-1.0240263146335882e-05   2.1501132070351342e-07   -3.361012479353011e-05
-1.0240263146335882e-05   2.1501132070351342e-07   -3.361012479353011e-05
-1.0240263146335882e-05   2.1501132070351342e-07   -3.361012479353011e-05
-1.0240263146335882e-05   2.1501132070351342e-07   -3.361012479353011e-05
-2.342431922572967e-05   4.040641275961879e-06   -1.32756699881035e-05
-2.342431922572967e-05   4.040641275961879e-06   -1.32756699881035e-05
-2.342431922572967e-05   4.040641275961879e-06   -1.32756699881035e-05
-2.342431922572967e-05   4.040641275961879e-06   -1.32756699881035e-05
-4.5869740487193776e-05   7.93704323512074e-07   -5.263286759534685e-05
-4.5869740487193776e-05   7.93704323512074e-07   -5.263286759534685e-05
-4.5869740487193776e-05   7.93704323512074e-07   -5.263286759534685e-05
-4.5869740487193776e-05   7.93704323512074e-07   -5.263286759534685e-05
-4.435248296329602e-05   4.890564173245897e-06   -1.4145965931200172e-05
-4.435248296329602e-05   4.890564173245897e-06   -1.4145965931200172e-05
-4.435248296329602e-05   4.890564173245897e-06   -1.4145965931200172e-05
-4.435248296329602e-05   4.890564173245897e-06   -1.4145965931200172e-05
-2.235858165533792e-05   1.4071861945312916e-06   -4.871244132390132e-05
-2.235858165533792e-05   1.4071861945312916e-06   -4.871244132390132e-05
-2.235858165533792e-05   1.4071861945312916e-06   -4.871244132390132e-05
-2.235858165533792e-05   1.4071861945312916e-06   -4.871244132390132e-05
-3.364864547590134e-05   3.074368275880323e-06   -3.08959775384384e-05
-3.364864547590134e-05   3.074368275880323e-06   -3.08959775384384e-05
-3.364864547590134e-05   3.074368275880323e-06   -3.08959775384384e-05
-3.364864547590134e-05   3.074368275880323e-06   -3.08959775384384e-05
-2.235858165533792e-05   4.890564173245897e-06   -1.2055939143971323e-05
-2.235858165533792e-05   4.890564173245897e-06   -1.2055939143971323e-05
-2.235858165533792e-05   4.890564173245897e-06   -1.2055939143971323e-05
-2.235858165533792e-05   4.890564173245897e-06   -1.2055939143971323e-05
-4.43524829632961e-05   1.407186194530858e-06   -5.0802468111130336e-05
-4.43524829632961e-05   1.407186194530858e-06   -5.0802468111130336e-05
-4.43524829632961e-05   1.407186194530858e-06   -5.0802468111130336e-05
-4.43524829632961e-05   1.407186194530858e-06   -5.0802468111130336e-05
-4.2885505941286106e-05   5.622476756056774e-06   -1.2883803001061036e-05
-4.2885505941286106e-05   5.622476756056774e-06   -1.2883803001061036e-05
-4.2885505941286106e-05   5.622476756056774e-06   -1.2883803001061036e-05
-4.2885505941286106e-05   5.622476756056774e-06   -1.2883803001061036e-05
-2.138082804122949e-05   1.971859094045819e-06   -4.6534562237282e-05
-2.138082804122949e-05   1.971859094045819e-06   -4.6534562237282e-05
-2.138082804122949e-05   1.971859094045819e-06   -4.6534562237282e-05
-2.138082804122949e-05   1.971859094045819e-06   -4.6534562237282e-05
-3.227698949874073e-05   3.6081497516008733e-06   -2.9356067535962955e-05
-3.227698949874073e-05   3.6081497516008733e-06   -2.9356067535962955e-05
-3.227698949874073e-05   3.6081497516008733e-06   -2.9356067535962955e-05
-3.227698949874073e-05   3.6081497516008733e-06   -2.9356067535962955e-05
-2.1380828041229437e-05   5.622476756056774e-06   -1.069343240385403e-05
-2.1380828041229437e-05   5.622476756056774e-06   -1.069343240385403e-05
-2.1380828041229437e-05   5.622476756056774e-06   -1.069343240385403e-05
-2.1380828041229437e-05   5.622476756056774e-06   -1.069343240385403e-05
-4.2885505941286174e-05   1.9718590940453855e-06   -4.8724932834489114e-05
-4.2885505941286174e-05   1.9718590940453855e-06   -4.8724932834489114e-05
-4.2885505941286174e-05   1.9718590940453855e-06   -4.8724932834489114e-05
-4.2885505941286174e-05   1.9718590940453855e-06   -4.8724932834489114e-05
-4.177306902496349e-05   6.4319687910602795e-06   -1.2924432671840508e-05
-4.177306902496349e-05   6.4319687910602795e-06   -1.2924432671840508e-05
-4.177306902496349e-05   6.4319687910602795e-06   -1.2924432671840508e-05
-4.177306902496349e-05   6.4319687910602795e-06   -1.2924432671840508e-05
-2.0721618729633514e-05   2.449350270628762e-06   -4.5620612051798526e-05
-2.0721618729633514e-05   2.449350270628762e-06   -4.5620612051798526e-05
-2.0721618729633514e-05   2.449350270628762e-06   -4.5620612051798526e-05
-2.0721618729633514e-05   2.449350270628762e-06   -4.5620612051798526e-05
-3.15095249515295e-05   3.980768156994392e-06   -2.855961908045752e-05
-3.15095249515295e-05   3.980768156994392e-06   -2.855961908045752e-05
-3.15095249515295e-05   3.980768156994392e-06   -2.855961908045752e-05
-3.15095249515295e-05   3.980768156994392e-06   -2.855961908045752e-05
-4.5869740487193776e-05   7.938645827087207e-06   -7.614470677354702e-06
-4.5869740487193776e-05   7.938645827087207e-06   -7.614470677354702e-06
-4.5869740487193776e-05   7.938645827087207e-06   -7.614470677354702e-06
-4.5869740487193776e-05   7.938645827087207e-06   -7.614470677354702e-06
-6.93226248809944e-05   7.497060934615399e-06   -4.6967562269172166e-05
-6.93226248809944e-05   7.497060934615399e-06   -4.6967562269172166e-05
-6.93226248809944e-05   7.497060934615399e-06   -4.6967562269172166e-05
-6.93226248809944e-05   7.497060934615399e-06   -4.6967562269172166e-05
-6.632741570339993e-05   9.067959307685561e-06   -1.9859764108427248e-07
-6.632741570339993e-05   9.067959307685561e-06   -1.9859764108427248e-07
-6.632741570339993e-05   9.067959307685561e-06   -1.9859764108427248e-07
-6.632741570339993e-05   9.067959307685561e-06   -1.9859764108427248e-07
-4.435248296329594e-05   9.487438281803508e-06   -3.707517292572863e-05
-4.435248296329594e-05   9.487438281803508e-06   -3.707517292572863e-05
-4.435248296329594e-05   9.487438281803508e-06   -3.707517292572863e-05
-4.435248296329594e-05   9.487438281803508e-06   -3.707517292572863e-05
-5.4032926649657486e-05   8.94527608194702e-06   -2.0615802795211904e-05
-5.4032926649657486e-05   8.94527608194702e-06   -2.0615802795211904e-05
-5.4032926649657486e-05   8.94527608194702e-06   -2.0615802795211904e-05
-5.4032926649657486e-05   8.94527608194702e-06   -2.0615802795211904e-05
-4.4352482963296056e-05   9.067959307685561e-06   -4.5028502555517075e-07
-4.4352482963296056e-05   9.067959307685561e-06   -4.5028502555517075e-07
-4.4352482963296056e-05   9.067959307685561e-06   -4.5028502555517075e-07
-4.4352482963296056e-05   9.067959307685561e-06   -4.5028502555517075e-07
-6.632741570339993e-05   9.487438281803508e-06   -3.6823485541257655e-05
-6.632741570339993e-05   9.487438281803508e-06   -3.6823485541257655e-05
-6.632741570339993e-05   9.487438281803508e-06   -3.6823485541257655e-05
-6.632741570339993e-05   9.487438281803508e-06   -3.6823485541257655e-05
-6.384351773445912e-05   9.365126118157045e-06   3.993807506040862e-06
-6.384351773445912e-05   9.365126118157045e-06   3.993807506040862e-06
-6.384351773445912e-05   9.365126118157045e-06   3.993807506040862e-06
-6.384351773445912e-05   9.365126118157045e-06   3.993807506040862e-06
-4.2885505941286106e-05   9.934905090175188e-06   -3.127807953245836e-05
-4.2885505941286106e-05   9.934905090175188e-06   -3.127807953245836e-05
-4.2885505941286106e-05   9.934905090175188e-06   -3.127807953245836e-05
-4.2885505941286106e-05   9.934905090175188e-06   -3.127807953245836e-05
-5.290092738383247e-05   9.594750475236998e-06   -1.4381617692584524e-05
-5.290092738383247e-05   9.594750475236998e-06   -1.4381617692584524e-05
-5.290092738383247e-05   9.594750475236998e-06   -1.4381617692584524e-05
-5.290092738383247e-05   9.594750475236998e-06   -1.4381617692584524e-05
-4.2885505941286174e-05   9.365126118156828e-06   3.6519401228301933e-06
-4.2885505941286174e-05   9.365126118156828e-06   3.6519401228301933e-06
-4.2885505941286174e-05   9.365126118156828e-06   3.6519401228301933e-06
-4.2885505941286174e-05   9.365126118156828e-06   3.6519401228301933e-06
-6.384351773445902e-05   9.934905090174754e-06   -3.0936212149247676e-05
-6.384351773445902e-05   9.934905090174754e-06   -3.0936212149247676e-05
-6.384351773445902e-05   9.934905090174754e-06   -3.0936212149247676e-05
-6.384351773445902e-05   9.934905090174754e-06   -3.0936212149247676e-05
-6.124538847557571e-05   9.62045537484385e-06   9.613632315523405e-06
-6.124538847557571e-05   9.62045537484385e-06   9.613632315523405e-06
-6.124538847557571e-05   9.62045537484385e-06   9.613632315523405e-06
-6.124538847557571e-05   9.62045537484385e-06   9.613632315523405e-06
-4.177306902496349e-05   1.070240865638089e-05   -2.3489405404419255e-05
-4.177306902496349e-05   1.070240865638089e-05   -2.3489405404419255e-05
-4.177306902496349e-05   1.070240865638089e-05   -2.3489405404419255e-05
-4.177306902496349e-05   1.070240865638089e-05   -2.3489405404419255e-05
-5.0392078658498824e-05   9.81262160171031e-06   -8.590517115725184e-06
-5.0392078658498824e-05   9.81262160171031e-06   -8.590517115725184e-06
-5.0392078658498824e-05   9.81262160171031e-06   -8.590517115725184e-06
-5.0392078658498824e-05   9.81262160171031e-06   -8.590517115725184e-06
6.0411749377704626e-05   -9.071795085089165e-06   2.0622971353748826e-05
6.0411749377704626e-05   -9.071795085089165e-06   2.0622971353748826e-05
6.0411749377704626e-05   -9.071795085089165e-06   2.0622971353748826e-05
6.0411749377704626e-05   -9.071795085089165e-06   2.0622971353748826e-05
3.0362563615771626e-05   -1.1470736483213794e-05   -3.089836975501406e-05
3.0362563615771626e-05   -1.1470736483213794e-05   -3.089836975501406e-05
3.0362563615771626e-05   -1.1470736483213794e-05   -3.089836975501406e-05
3.0362563615771626e-05   -1.1470736483213794e-05   -3.089836975501406e-05
3.1103085208896623e-05   -8.860241586341501e-06   1.4796236032149634e-05
3.1103085208896623e-05   -8.860241586341501e-06   1.4796236032149634e-05
3.1103085208896623e-05   -8.860241586341501e-06   1.4796236032149634e-05
3.1103085208896623e-05   -8.860241586341501e-06   1.4796236032149634e-05
6.191541990937366e-05   -1.1757702848427722e-05   -3.481917837806043e-05
6.191541990937366e-05   -1.1757702848427722e-05   -3.481917837806043e-05
6.191541990937366e-05   -1.1757702848427722e-05   -3.481917837806043e-05
6.191541990937366e-05   -1.1757702848427722e-05   -3.481917837806043e-05
4.411758608686068e-05   -9.266544419159022e-06   -6.6508170647665114e-06
4.411758608686068e-05   -9.266544419159022e-06   -6.6508170647665114e-06
4.411758608686068e-05   -9.266544419159022e-06   -6.6508170647665114e-06
4.411758608686068e-05   -9.266544419159022e-06   -6.6508170647665114e-06
6.191541990937366e-05   -8.860241586341501e-06   1.653471278940141e-05
6.191541990937366e-05   -8.860241586341501e-06   1.653471278940141e-05
6.191541990937366e-05   -8.860241586341501e-06   1.653471278940141e-05
6.191541990937366e-05   -8.860241586341501e-06   1.653471278940141e-05
3.1103085208896623e-05   -1.1757702848427722e-05   -3.65576551353121e-05
3.1103085208896623e-05   -1.1757702848427722e-05   -3.65576551353121e-05
3.1103085208896623e-05   -1.1757702848427722e-05   -3.65576551353121e-05
3.1103085208896623e-05   -1.1757702848427722e-05   -3.65576551353121e-05
3.172897747417622e-05   -8.552536445149798e-06   1.1676674150825402e-05
3.172897747417622e-05   -8.552536445149798e-06   1.1676674150825402e-05
3.172897747417622e-05   -8.552536445149798e-06   1.1676674150825402e-05
3.172897747417622e-05   -8.552536445149798e-06   1.1676674150825402e-05
6.285238762731421e-05   -1.1650926263788962e-05   -3.833664221322111e-05
6.285238762731421e-05   -1.1650926263788962e-05   -3.833664221322111e-05
6.285238762731421e-05   -1.1650926263788962e-05   -3.833664221322111e-05
6.285238762731421e-05   -1.1650926263788962e-05   -3.833664221322111e-05
4.567169726649994e-05   -9.558917255461478e-06   -1.0957363683527003e-05
4.567169726649994e-05   -9.558917255461478e-06   -1.0957363683527003e-05
4.567169726649994e-05   -9.558917255461478e-06   -1.0957363683527003e-05
4.567169726649994e-05   -9.558917255461478e-06   -1.0957363683527003e-05
6.285238762731421e-05   -8.552536445149798e-06   1.353570804200877e-05
6.285238762731421e-05   -8.552536445149798e-06   1.353570804200877e-05
6.285238762731421e-05   -8.552536445149798e-06   1.353570804200877e-05
6.285238762731421e-05   -8.552536445149798e-06   1.353570804200877e-05
3.172897747417622e-05   -1.1650926263788962e-05   -4.01956761044047e-05
3.172897747417622e-05   -1.1650926263788962e-05   -4.01956761044047e-05
3.172897747417622e-05   -1.1650926263788962e-05   -4.01956761044047e-05
3.172897747417622e-05   -1.1650926263788962e-05   -4.01956761044047e-05
3.238269607859162e-05   -7.352714047565833e-06   5.62514061069907e-06
3.238269607859162e-05   -7.352714047565833e-06   5.62514061069907e-06
3.238269607859162e-05   -7.352714047565833e-06   5.62514061069907e-06
3.238269607859162e-05   -7.352714047565833e-06   5.62514061069907e-06
6.377499424308318e-05   -1.1002023218457512e-05   -4.450577082758519e-05
6.377499424308318e-05   -1.1002023218457512e-05   -4.450577082758519e-05
6.377499424308318e-05   -1.1002023218457512e-05   -4.450577082758519e-05
6.377499424308318e-05   -1.1002023218457512e-05   -4.450577082758519e-05
4.56930690409294e-05   -9.19900696127237e-06   -1.5451038578306333e-05
4.56930690409294e-05   -9.19900696127237e-06   -1.5451038578306333e-05
4.56930690409294e-05   -9.19900696127237e-06   -1.5451038578306333e-05
4.56930690409294e-05   -9.19900696127237e-06   -1.5451038578306333e-05
3.0362563615771626e-05   -5.87520582560723e-06   2.0532623010562166e-06
3.0362563615771626e-05   -5.87520582560723e-06   2.0532623010562166e-06
3.0362563615771626e-05   -5.87520582560723e-06   2.0532623010562166e-06
3.0362563615771626e-05   -5.87520582560723e-06   2.0532623010562166e-06
3.592052531031136e-06   -1.1499465032084339e-05   -4.5938811697397806e-05
3.592052531031136e-06   -1.1499465032084339e-05   -4.5938811697397806e-05
3.592052531031136e-06   -1.1499465032084339e-05   -4.5938811697397806e-05
3.592052531031136e-06   -1.1499465032084339e-05   -4.5938811697397806e-05
4.455002809995194e-06   -5.5934228661365555e-06   -2.530093176954587e-07
4.455002809995194e-06   -5.5934228661365555e-06   -2.530093176954587e-07
4.455002809995194e-06   -5.5934228661365555e-06   -2.530093176954587e-07
4.455002809995194e-06   -5.5934228661365555e-06   -2.530093176954587e-07
3.1103085208896705e-05   -1.1439846031072263e-05   -4.115862608356958e-05
3.1103085208896705e-05   -1.1439846031072263e-05   -4.115862608356958e-05
3.1103085208896705e-05   -1.1439846031072263e-05   -4.115862608356958e-05
3.1103085208896705e-05   -1.1439846031072263e-05   -4.115862608356958e-05
1.7445637835323803e-05   -7.758581312721988e-06   -2.0604972625292177e-05
1.7445637835323803e-05   -7.758581312721988e-06   -2.0604972625292177e-05
1.7445637835323803e-05   -7.758581312721988e-06   -2.0604972625292177e-05
1.7445637835323803e-05   -7.758581312721988e-06   -2.0604972625292177e-05
3.1103085208896596e-05   -5.5934228661365555e-06   3.254844581266096e-06
3.1103085208896596e-05   -5.5934228661365555e-06   3.254844581266096e-06
3.1103085208896596e-05   -5.5934228661365555e-06   3.254844581266096e-06
3.1103085208896596e-05   -5.5934228661365555e-06   3.254844581266096e-06
4.455002809995181e-06   -1.1439846031072697e-05   -4.4666479982531215e-05
4.455002809995181e-06   -1.1439846031072697e-05   -4.4666479982531215e-05
4.455002809995181e-06   -1.1439846031072697e-05   -4.4666479982531215e-05
4.455002809995181e-06   -1.1439846031072697e-05   -4.4666479982531215e-05
5.2339420238660536e-06   -5.069180838165096e-06   -5.375801409614189e-07
5.2339420238660536e-06   -5.069180838165096e-06   -5.375801409614189e-07
5.2339420238660536e-06   -5.069180838165096e-06   -5.375801409614189e-07
5.2339420238660536e-06   -5.069180838165096e-06   -5.375801409614189e-07
3.172897747417622e-05   -1.1285443547186594e-05   -4.096621493273242e-05
3.172897747417622e-05   -1.1285443547186594e-05   -4.096621493273242e-05
3.172897747417622e-05   -1.1285443547186594e-05   -4.096621493273242e-05
3.172897747417622e-05   -1.1285443547186594e-05   -4.096621493273242e-05
1.793508062645926e-05   -7.843230815334293e-06   -2.0041714492314644e-05
1.793508062645926e-05   -7.843230815334293e-06   -2.0041714492314644e-05
1.793508062645926e-05   -7.843230815334293e-06   -2.0041714492314644e-05
1.793508062645926e-05   -7.843230815334293e-06   -2.0041714492314644e-05
3.172897747417622e-05   -5.0691808381655296e-06   3.1921774844513497e-06
3.172897747417622e-05   -5.0691808381655296e-06   3.1921774844513497e-06
3.172897747417622e-05   -5.0691808381655296e-06   3.1921774844513497e-06
3.172897747417622e-05   -5.0691808381655296e-06   3.1921774844513497e-06
5.23394202386604e-06   -1.1285443547186594e-05   -4.469597255814511e-05
5.23394202386604e-06   -1.1285443547186594e-05   -4.469597255814511e-05
5.23394202386604e-06   -1.1285443547186594e-05   -4.469597255814511e-05
5.23394202386604e-06   -1.1285443547186594e-05   -4.469597255814511e-05
6.396594457847433e-06   -4.323273856198656e-06   -1.0806028769535288e-06
6.396594457847433e-06   -4.323273856198656e-06   -1.0806028769535288e-06
6.396594457847433e-06   -4.323273856198656e-06   -1.0806028769535288e-06
6.396594457847433e-06   -4.323273856198656e-06   -1.0806028769535288e-06
3.2382696078591566e-05   -1.0977518792376802e-05   -4.039822528315338e-05
3.2382696078591566e-05   -1.0977518792376802e-05   -4.039822528315338e-05
3.2382696078591566e-05   -1.0977518792376802e-05   -4.039822528315338e-05
3.2382696078591566e-05   -1.0977518792376802e-05   -4.039822528315338e-05
1.886970319611688e-05   -7.720536620866789e-06   -1.9830759781935044e-05
1.886970319611688e-05   -7.720536620866789e-06   -1.9830759781935044e-05
1.886970319611688e-05   -7.720536620866789e-06   -1.9830759781935044e-05
1.886970319611688e-05   -7.720536620866789e-06   -1.9830759781935044e-05
3.592052531031136e-06   -3.0794149736999496e-06   -4.552269304461008e-06
3.592052531031136e-06   -3.0794149736999496e-06   -4.552269304461008e-06
3.592052531031136e-06   -3.0794149736999496e-06   -4.552269304461008e-06
3.592052531031136e-06   -3.0794149736999496e-06   -4.552269304461008e-06
-2.2901218108046465e-05   -1.3863734447369484e-05   -5.517831205379157e-05
-2.2901218108046465e-05   -1.3863734447369484e-05   -5.517831205379157e-05
-2.2901218108046465e-05   -1.3863734447369484e-05   -5.517831205379157e-05
-2.2901218108046465e-05   -1.3863734447369484e-05   -5.517831205379157e-05
-2.155689298857414e-05   -2.747244263437594e-06   -9.843189624530969e-06
-2.155689298857414e-05   -2.747244263437594e-06   -9.843189624530969e-06
-2.155689298857414e-05   -2.747244263437594e-06   -9.843189624530969e-06
-2.155689298857414e-05   -2.747244263437594e-06   -9.843189624530969e-06
4.455002809995181e-06   -1.4169441200209687e-05   -4.63430311267496e-05
4.455002809995181e-06   -1.4169441200209687e-05   -4.63430311267496e-05
4.455002809995181e-06   -1.4169441200209687e-05   -4.63430311267496e-05
4.455002809995181e-06   -1.4169441200209687e-05   -4.63430311267496e-05
-8.797331425273521e-06   -7.836565450565925e-06   -2.805553285108815e-05
-8.797331425273521e-06   -7.836565450565925e-06   -2.805553285108815e-05
-8.797331425273521e-06   -7.836565450565925e-06   -2.805553285108815e-05
-8.797331425273521e-06   -7.836565450565925e-06   -2.805553285108815e-05
4.455002809995181e-06   -2.747244263437594e-06   -2.9898714624674097e-06
4.455002809995181e-06   -2.747244263437594e-06   -2.9898714624674097e-06
4.455002809995181e-06   -2.747244263437594e-06   -2.9898714624674097e-06
4.455002809995181e-06   -2.747244263437594e-06   -2.9898714624674097e-06
-2.155689298857418e-05   -1.416944120021012e-05   -5.319634928881308e-05
-2.155689298857418e-05   -1.416944120021012e-05   -5.319634928881308e-05
-2.155689298857418e-05   -1.416944120021012e-05   -5.319634928881308e-05
-2.155689298857418e-05   -1.416944120021012e-05   -5.319634928881308e-05
-2.039832602726011e-05   -2.230674255566511e-06   -9.189622641842974e-06
-2.039832602726011e-05   -2.230674255566511e-06   -9.189622641842974e-06
-2.039832602726011e-05   -2.230674255566511e-06   -9.189622641842974e-06
-2.039832602726011e-05   -2.230674255566511e-06   -9.189622641842974e-06
5.23394202386604e-06   -1.4102075491313933e-05   -4.478722865227156e-05
5.23394202386604e-06   -1.4102075491313933e-05   -4.478722865227156e-05
5.23394202386604e-06   -1.4102075491313933e-05   -4.478722865227156e-05
5.23394202386604e-06   -1.4102075491313933e-05   -4.478722865227156e-05
-7.842796482952994e-06   -8.013377258090943e-06   -2.6645883414173357e-05
-7.842796482952994e-06   -8.013377258090943e-06   -2.6645883414173357e-05
-7.842796482952994e-06   -8.013377258090943e-06   -2.6645883414173357e-05
-7.842796482952994e-06   -8.013377258090943e-06   -2.6645883414173357e-05
5.23394202386604e-06   -2.230674255566511e-06   -2.066781900394478e-06
5.23394202386604e-06   -2.230674255566511e-06   -2.066781900394478e-06
5.23394202386604e-06   -2.230674255566511e-06   -2.066781900394478e-06
5.23394202386604e-06   -2.230674255566511e-06   -2.066781900394478e-06
-2.039832602726018e-05   -1.4102075491313933e-05   -5.191006939372e-05
-2.039832602726018e-05   -1.4102075491313933e-05   -5.191006939372e-05
-2.039832602726018e-05   -1.4102075491313933e-05   -5.191006939372e-05
-2.039832602726018e-05   -1.4102075491313933e-05   -5.191006939372e-05
-1.8399290258643656e-05   -1.740739269139903e-06   -9.150905805686404e-06
-1.8399290258643656e-05   -1.740739269139903e-06   -9.150905805686404e-06
-1.8399290258643656e-05   -1.740739269139903e-06   -9.150905805686404e-06
-1.8399290258643656e-05   -1.740739269139903e-06   -9.150905805686404e-06
6.396594457847447e-06   -1.3606318895333959e-05   -4.335803255745509e-05
6.396594457847447e-06   -1.3606318895333959e-05   -4.335803255745509e-05
6.396594457847447e-06   -1.3606318895333959e-05   -4.335803255745509e-05
6.396594457847447e-06   -1.3606318895333959e-05   -4.335803255745509e-05
-6.602282905358742e-06   -7.834674494624182e-06   -2.5156223592537417e-05
-6.602282905358742e-06   -7.834674494624182e-06   -2.5156223592537417e-05
-6.602282905358742e-06   -7.834674494624182e-06   -2.5156223592537417e-05
-6.602282905358742e-06   -7.834674494624182e-06   -2.5156223592537417e-05
-2.2901218108046424e-05   7.937043235116403e-07   -6.38303782752583e-06
-2.2901218108046424e-05   7.937043235116403e-07   -6.38303782752583e-06
-2.2901218108046424e-05   7.937043235116403e-07   -6.38303782752583e-06
-2.2901218108046424e-05   7.937043235116403e-07   -6.38303782752583e-06
-5.245561960414105e-05   -1.727753450580377e-05   -6.648311695193945e-05
-5.245561960414105e-05   -1.727753450580377e-05   -6.648311695193945e-05
-5.245561960414105e-05   -1.727753450580377e-05   -6.648311695193945e-05
-5.245561960414105e-05   -1.727753450580377e-05   -6.648311695193945e-05
-5.084947402182746e-05   1.407186194530858e-06   -1.669025016505011e-05
-5.084947402182746e-05   1.407186194530858e-06   -1.669025016505011e-05
-5.084947402182746e-05   1.407186194530858e-06   -1.669025016505011e-05
-5.084947402182746e-05   1.407186194530858e-06   -1.669025016505011e-05
-2.155689298857414e-05   -1.9295546596375703e-05   -5.3089578879261345e-05
-2.155689298857414e-05   -1.9295546596375703e-05   -5.3089578879261345e-05
-2.155689298857414e-05   -1.9295546596375703e-05   -5.3089578879261345e-05
-2.155689298857414e-05   -1.9295546596375703e-05   -5.3089578879261345e-05
-3.640983046957242e-05   -8.78199723159485e-06   -3.4642812696466206e-05
-3.640983046957242e-05   -8.78199723159485e-06   -3.4642812696466206e-05
-3.640983046957242e-05   -8.78199723159485e-06   -3.4642812696466206e-05
-3.640983046957242e-05   -8.78199723159485e-06   -3.4642812696466206e-05
-2.155689298857414e-05   1.4071861945312916e-06   -4.268610490506001e-06
-2.155689298857414e-05   1.4071861945312916e-06   -4.268610490506001e-06
-2.155689298857414e-05   1.4071861945312916e-06   -4.268610490506001e-06
-2.155689298857414e-05   1.4071861945312916e-06   -4.268610490506001e-06
-5.084947402182746e-05   -1.9295546596375703e-05   -6.551121855380556e-05
-5.084947402182746e-05   -1.9295546596375703e-05   -6.551121855380556e-05
-5.084947402182746e-05   -1.9295546596375703e-05   -6.551121855380556e-05
-5.084947402182746e-05   -1.9295546596375703e-05   -6.551121855380556e-05
-4.930991289402463e-05   1.9718590940453855e-06   -1.4903425506139142e-05
-4.930991289402463e-05   1.9718590940453855e-06   -1.4903425506139142e-05
-4.930991289402463e-05   1.9718590940453855e-06   -1.4903425506139142e-05
-4.930991289402463e-05   1.9718590940453855e-06   -1.4903425506139142e-05
-2.0398326027260138e-05   -1.9402115780059112e-05   -5.026501869295042e-05
-2.0398326027260138e-05   -1.9402115780059112e-05   -5.026501869295042e-05
-2.0398326027260138e-05   -1.9402115780059112e-05   -5.026501869295042e-05
-2.0398326027260138e-05   -1.9402115780059112e-05   -5.026501869295042e-05
-3.4843736937777374e-05   -8.810784322966971e-06   -3.254413271634347e-05
-3.4843736937777374e-05   -8.810784322966971e-06   -3.254413271634347e-05
-3.4843736937777374e-05   -8.810784322966971e-06   -3.254413271634347e-05
-3.4843736937777374e-05   -8.810784322966971e-06   -3.254413271634347e-05
-2.0398326027260124e-05   1.9718590940453855e-06   -2.079040581676357e-06
-2.0398326027260124e-05   1.9718590940453855e-06   -2.079040581676357e-06
-2.0398326027260124e-05   1.9718590940453855e-06   -2.079040581676357e-06
-2.0398326027260124e-05   1.9718590940453855e-06   -2.079040581676357e-06
-4.930991289402472e-05   -1.9402115780059112e-05   -6.308940361741326e-05
-4.930991289402472e-05   -1.9402115780059112e-05   -6.308940361741326e-05
-4.930991289402472e-05   -1.9402115780059112e-05   -6.308940361741326e-05
-4.930991289402472e-05   -1.9402115780059112e-05   -6.308940361741326e-05
-4.678588927339305e-05   2.4493502706291956e-06   -1.3084503431484446e-05
-4.678588927339305e-05   2.4493502706291956e-06   -1.3084503431484446e-05
-4.678588927339305e-05   2.4493502706291956e-06   -1.3084503431484446e-05
-4.678588927339305e-05   2.4493502706291956e-06   -1.3084503431484446e-05
-1.8399290258643724e-05   -1.770009460542489e-05   -4.83058348637681e-05
-1.8399290258643724e-05   -1.770009460542489e-05   -4.83058348637681e-05
-1.8399290258643724e-05   -1.770009460542489e-05   -4.83058348637681e-05
-1.8399290258643724e-05   -1.770009460542489e-05   -4.83058348637681e-05
-3.329807026639628e-05   -7.7773848700868e-06   -2.942816069204893e-05
-3.329807026639628e-05   -7.7773848700868e-06   -2.942816069204893e-05
-3.329807026639628e-05   -7.7773848700868e-06   -2.942816069204893e-05
-3.329807026639628e-05   -7.7773848700868e-06   -2.942816069204893e-05
-5.245561960414105e-05   7.497060934615399e-06   -1.1295524863457742e-05
-5.245561960414105e-05   7.497060934615399e-06   -1.1295524863457742e-05
-5.245561960414105e-05   7.497060934615399e-06   -1.1295524863457742e-05
-5.245561960414105e-05   7.497060934615399e-06   -1.1295524863457742e-05
-9.029298712847089e-05   0.0   -7.885604063144372e-05
-9.029298712847089e-05   0.0   -7.885604063144372e-05
-9.029298712847089e-05   0.0   -7.885604063144372e-05
-9.029298712847089e-05   0.0   -7.885604063144372e-05
-8.794359616897326e-05   9.487438281803508e-06   -8.65541794873052e-06
-8.794359616897326e-05   9.487438281803508e-06   -8.65541794873052e-06
-8.794359616897326e-05   9.487438281803508e-06   -8.65541794873052e-06
-8.794359616897326e-05   9.487438281803508e-06   -8.65541794873052e-06
-5.0849474021827365e-05   0.0   -6.478649189155819e-05
-5.0849474021827365e-05   0.0   -6.478649189155819e-05
-5.0849474021827365e-05   0.0   -6.478649189155819e-05
-5.0849474021827365e-05   0.0   -6.478649189155819e-05
-6.739498061406933e-05   2.901707391349522e-06   -3.895167200596472e-05
-6.739498061406933e-05   2.901707391349522e-06   -3.895167200596472e-05
-6.739498061406933e-05   2.901707391349522e-06   -3.895167200596472e-05
-6.739498061406933e-05   2.901707391349522e-06   -3.895167200596472e-05
-5.0849474021827406e-05   9.487438281803942e-06   -2.962954979648328e-06
-5.0849474021827406e-05   9.487438281803942e-06   -2.962954979648328e-06
-5.0849474021827406e-05   9.487438281803942e-06   -2.962954979648328e-06
-5.0849474021827406e-05   9.487438281803942e-06   -2.962954979648328e-06
-8.794359616897311e-05   0.0   -7.047895486064033e-05
-8.794359616897311e-05   0.0   -7.047895486064033e-05
-8.794359616897311e-05   0.0   -7.047895486064033e-05
-8.794359616897311e-05   0.0   -7.047895486064033e-05
-8.59556664624814e-05   9.934905090175188e-06   -3.4175152582133998e-06
-8.59556664624814e-05   9.934905090175188e-06   -3.4175152582133998e-06
-8.59556664624814e-05   9.934905090175188e-06   -3.4175152582133998e-06
-8.59556664624814e-05   9.934905090175188e-06   -3.4175152582133998e-06
-4.930991289402472e-05   0.0   -5.8532828151536525e-05
-4.930991289402472e-05   0.0   -5.8532828151536525e-05
-4.930991289402472e-05   0.0   -5.8532828151536525e-05
-4.930991289402472e-05   0.0   -5.8532828151536525e-05
-6.669703680364373e-05   4.5947785690999415e-06   -3.231115544363066e-05
-6.669703680364373e-05   4.5947785690999415e-06   -3.231115544363066e-05
-6.669703680364373e-05   4.5947785690999415e-06   -3.231115544363066e-05
-6.669703680364373e-05   4.5947785690999415e-06   -3.231115544363066e-05
-4.930991289402472e-05   9.934905090174754e-06   2.5434277958914092e-06
-4.930991289402472e-05   9.934905090174754e-06   2.5434277958914092e-06
-4.930991289402472e-05   9.934905090174754e-06   2.5434277958914092e-06
-4.930991289402472e-05   9.934905090174754e-06   2.5434277958914092e-06
-8.595566646248123e-05   0.0   -6.449377120564133e-05
-8.595566646248123e-05   0.0   -6.449377120564133e-05
-8.595566646248123e-05   0.0   -6.449377120564133e-05
-8.595566646248123e-05   0.0   -6.449377120564133e-05
-8.198887033697235e-05   1.070240865638089e-05   5.0148291343248e-06
-8.198887033697235e-05   1.070240865638089e-05   5.0148291343248e-06
-8.198887033697235e-05   1.070240865638089e-05   5.0148291343248e-06
-8.198887033697235e-05   1.070240865638089e-05   5.0148291343248e-06
-4.6785889273393116e-05   0.0   -4.7235360777812414e-05
-4.6785889273393116e-05   0.0   -4.7235360777812414e-05
-4.6785889273393116e-05   0.0   -4.7235360777812414e-05
-4.6785889273393116e-05   0.0   -4.7235360777812414e-05
-6.3233176894286e-05   5.666450429715319e-06   -2.3223085000819918e-05
-6.3233176894286e-05   5.666450429715319e-06   -2.3223085000819918e-05
-6.3233176894286e-05   5.666450429715319e-06   -2.3223085000819918e-05
-6.3233176894286e-05   5.666450429715319e-06   -2.3223085000819918e-05
6.683553834738168e-05   -1.1470736483213794e-05   3.988478825486157e-05
6.683553834738168e-05   -1.1470736483213794e-05   3.988478825486157e-05
6.683553834738168e-05   -1.1470736483213794e-05   3.988478825486157e-05
6.683553834738168e-05   -1.1470736483213794e-05   3.988478825486157e-05
3.467000212931408e-05   -8.844241742989381e-06   -1.2148541931116539e-05
3.467000212931408e-05   -8.844241742989381e-06   -1.2148541931116539e-05
3.467000212931408e-05   -8.844241742989381e-06   -1.2148541931116539e-05
3.467000212931408e-05   -8.844241742989381e-06   -1.2148541931116539e-05
3.379912690330516e-05   -1.1757702848427722e-05   3.5219678927078365e-05
3.379912690330516e-05   -1.1757702848427722e-05   3.5219678927078365e-05
3.379912690330516e-05   -1.1757702848427722e-05   3.5219678927078365e-05
3.379912690330516e-05   -1.1757702848427722e-05   3.5219678927078365e-05
6.612256385945662e-05   -9.722959052935794e-06   -1.987356227713626e-05
6.612256385945662e-05   -9.722959052935794e-06   -1.987356227713626e-05
6.612256385945662e-05   -9.722959052935794e-06   -1.987356227713626e-05
6.612256385945662e-05   -9.722959052935794e-06   -1.987356227713626e-05
4.829592694963146e-05   -9.886795006440203e-06   9.935800811341914e-06
4.829592694963146e-05   -9.886795006440203e-06   9.935800811341914e-06
4.829592694963146e-05   -9.886795006440203e-06   9.935800811341914e-06
4.829592694963146e-05   -9.886795006440203e-06   9.935800811341914e-06
6.612256385945662e-05   -1.1757702848427722e-05   3.399883264978282e-05
6.612256385945662e-05   -1.1757702848427722e-05   3.399883264978282e-05
6.612256385945662e-05   -1.1757702848427722e-05   3.399883264978282e-05
6.612256385945662e-05   -1.1757702848427722e-05   3.399883264978282e-05
3.379912690330516e-05   -9.722959052935794e-06   -1.8652715999840875e-05
3.379912690330516e-05   -9.722959052935794e-06   -1.8652715999840875e-05
3.379912690330516e-05   -9.722959052935794e-06   -1.8652715999840875e-05
3.379912690330516e-05   -9.722959052935794e-06   -1.8652715999840875e-05
3.30111849972031e-05   -1.1650926263788962e-05   3.161830123445488e-05
3.30111849972031e-05   -1.1650926263788962e-05   3.161830123445488e-05
3.30111849972031e-05   -1.1650926263788962e-05   3.161830123445488e-05
3.30111849972031e-05   -1.1650926263788962e-05   3.161830123445488e-05
6.529749956868778e-05   -9.803408744588158e-06   -2.3300733562873365e-05
6.529749956868778e-05   -9.803408744588158e-06   -2.3300733562873365e-05
6.529749956868778e-05   -9.803408744588158e-06   -2.3300733562873365e-05
6.529749956868778e-05   -9.803408744588158e-06   -2.3300733562873365e-05
4.826083527672438e-05   -1.0060204203311482e-05   5.247784198966071e-06
4.826083527672438e-05   -1.0060204203311482e-05   5.247784198966071e-06
4.826083527672438e-05   -1.0060204203311482e-05   5.247784198966071e-06
4.826083527672438e-05   -1.0060204203311482e-05   5.247784198966071e-06
6.529749956868787e-05   -1.1650926263788962e-05   3.0509790722934573e-05
6.529749956868787e-05   -1.1650926263788962e-05   3.0509790722934573e-05
6.529749956868787e-05   -1.1650926263788962e-05   3.0509790722934573e-05
6.529749956868787e-05   -1.1650926263788962e-05   3.0509790722934573e-05
3.30111849972031e-05   -9.803408744588158e-06   -2.2192223051352867e-05
3.30111849972031e-05   -9.803408744588158e-06   -2.2192223051352867e-05
3.30111849972031e-05   -9.803408744588158e-06   -2.2192223051352867e-05
3.30111849972031e-05   -9.803408744588158e-06   -2.2192223051352867e-05
3.2049805964387004e-05   -1.1002023218457512e-05   2.575916537189021e-05
3.2049805964387004e-05   -1.1002023218457512e-05   2.575916537189021e-05
3.2049805964387004e-05   -1.1002023218457512e-05   2.575916537189021e-05
3.2049805964387004e-05   -1.1002023218457512e-05   2.575916537189021e-05
6.400472459622432e-05   -9.597468120368068e-06   -2.8341765406692296e-05
6.400472459622432e-05   -9.597468120368068e-06   -2.8341765406692296e-05
6.400472459622432e-05   -9.597468120368068e-06   -2.8341765406692296e-05
6.400472459622432e-05   -9.597468120368068e-06   -2.8341765406692296e-05
4.6614735948837114e-05   -9.56611581782573e-06   6.22737624094219e-07
4.6614735948837114e-05   -9.56611581782573e-06   6.22737624094219e-07
4.6614735948837114e-05   -9.56611581782573e-06   6.22737624094219e-07
4.6614735948837114e-05   -9.56611581782573e-06   6.22737624094219e-07
3.467000212931408e-05   -1.1499465032084339e-05   2.9794798680498995e-05
3.467000212931408e-05   -1.1499465032084339e-05   2.9794798680498995e-05
3.467000212931408e-05   -1.1499465032084339e-05   2.9794798680498995e-05
3.467000212931408e-05   -1.1499465032084339e-05   2.9794798680498995e-05
7.3662400154689495e-06   -5.462694486062323e-06   -1.2089409181629401e-05
7.3662400154689495e-06   -5.462694486062323e-06   -1.2089409181629401e-05
7.3662400154689495e-06   -5.462694486062323e-06   -1.2089409181629401e-05
7.3662400154689495e-06   -5.462694486062323e-06   -1.2089409181629401e-05
5.987991559774293e-06   -1.1439846031072697e-05   3.4006490551967156e-05
5.987991559774293e-06   -1.1439846031072697e-05   3.4006490551967156e-05
5.987991559774293e-06   -1.1439846031072697e-05   3.4006490551967156e-05
5.987991559774293e-06   -1.1439846031072697e-05   3.4006490551967156e-05
3.379912690330516e-05   -5.793541742495079e-06   -1.5733184260397447e-05
3.379912690330516e-05   -5.793541742495079e-06   -1.5733184260397447e-05
3.379912690330516e-05   -5.793541742495079e-06   -1.5733184260397447e-05
3.379912690330516e-05   -5.793541742495079e-06   -1.5733184260397447e-05
2.042706580990411e-05   -8.232326098021794e-06   8.016854841920245e-06
2.042706580990411e-05   -8.232326098021794e-06   8.016854841920245e-06
2.042706580990411e-05   -8.232326098021794e-06   8.016854841920245e-06
2.042706580990411e-05   -8.232326098021794e-06   8.016854841920245e-06
3.379912690330517e-05   -1.1439846031072263e-05   3.06187079788208e-05
3.379912690330517e-05   -1.1439846031072263e-05   3.06187079788208e-05
3.379912690330517e-05   -1.1439846031072263e-05   3.06187079788208e-05
3.379912690330517e-05   -1.1439846031072263e-05   3.06187079788208e-05
5.987991559774293e-06   -5.793541742495079e-06   -1.2345401687250714e-05
5.987991559774293e-06   -5.793541742495079e-06   -1.2345401687250714e-05
5.987991559774293e-06   -5.793541742495079e-06   -1.2345401687250714e-05
5.987991559774293e-06   -5.793541742495079e-06   -1.2345401687250714e-05
5.004940107591012e-06   -1.1285443547186594e-05   3.4054968457034344e-05
5.004940107591012e-06   -1.1285443547186594e-05   3.4054968457034344e-05
5.004940107591012e-06   -1.1285443547186594e-05   3.4054968457034344e-05
5.004940107591012e-06   -1.1285443547186594e-05   3.4054968457034344e-05
3.30111849972031e-05   -5.940100129008235e-06   -1.5829312409892878e-05
3.30111849972031e-05   -5.940100129008235e-06   -1.5829312409892878e-05
3.30111849972031e-05   -5.940100129008235e-06   -1.5829312409892878e-05
3.30111849972031e-05   -5.940100129008235e-06   -1.5829312409892878e-05
1.9245123989821593e-05   -8.063234624989136e-06   8.388003299998744e-06
1.9245123989821593e-05   -8.063234624989136e-06   8.388003299998744e-06
1.9245123989821593e-05   -8.063234624989136e-06   8.388003299998744e-06
1.9245123989821593e-05   -8.063234624989136e-06   8.388003299998744e-06
3.3011184997203144e-05   -1.1285443547186594e-05   3.084776240612724e-05
3.3011184997203144e-05   -1.1285443547186594e-05   3.084776240612724e-05
3.3011184997203144e-05   -1.1285443547186594e-05   3.084776240612724e-05
3.3011184997203144e-05   -1.1285443547186594e-05   3.084776240612724e-05
5.004940107591012e-06   -5.940100129008235e-06   -1.2622106358985748e-05
5.004940107591012e-06   -5.940100129008235e-06   -1.2622106358985748e-05
5.004940107591012e-06   -5.940100129008235e-06   -1.2622106358985748e-05
5.004940107591012e-06   -5.940100129008235e-06   -1.2622106358985748e-05
3.911475538173194e-06   -1.0977518792376802e-05   3.5159708804639e-05
3.911475538173194e-06   -1.0977518792376802e-05   3.5159708804639e-05
3.911475538173194e-06   -1.0977518792376802e-05   3.5159708804639e-05
3.911475538173194e-06   -1.0977518792376802e-05   3.5159708804639e-05
3.2049805964386977e-05   -5.805164816072902e-06   -1.4840920958166188e-05
3.2049805964386977e-05   -5.805164816072902e-06   -1.4840920958166188e-05
3.2049805964386977e-05   -5.805164816072902e-06   -1.4840920958166188e-05
3.2049805964386977e-05   -5.805164816072902e-06   -1.4840920958166188e-05
1.8522714412576213e-05   -7.708704017933294e-06   8.84635514930099e-06
1.8522714412576213e-05   -7.708704017933294e-06   8.84635514930099e-06
1.8522714412576213e-05   -7.708704017933294e-06   8.84635514930099e-06
1.8522714412576213e-05   -7.708704017933294e-06   8.84635514930099e-06
7.3662400154689495e-06   -1.3863734447369484e-05   3.064795233592016e-05
7.3662400154689495e-06   -1.3863734447369484e-05   3.064795233592016e-05
7.3662400154689495e-06   -1.3863734447369484e-05   3.064795233592016e-05
7.3662400154689495e-06   -1.3863734447369484e-05   3.064795233592016e-05
-1.8863803735733444e-05   -2.287965940010392e-06   -6.123326145001653e-06
-1.8863803735733444e-05   -2.287965940010392e-06   -6.123326145001653e-06
-1.8863803735733444e-05   -2.287965940010392e-06   -6.123326145001653e-06
-1.8863803735733444e-05   -2.287965940010392e-06   -6.123326145001653e-06
-2.100767411160303e-05   -1.416944120021012e-05   3.9382197461582374e-05
-2.100767411160303e-05   -1.416944120021012e-05   3.9382197461582374e-05
-2.100767411160303e-05   -1.416944120021012e-05   3.9382197461582374e-05
-2.100767411160303e-05   -1.416944120021012e-05   3.9382197461582374e-05
5.987991559774306e-06   -2.415677777153815e-06   -1.266283671121329e-05
5.987991559774306e-06   -2.415677777153815e-06   -1.266283671121329e-05
5.987991559774306e-06   -2.415677777153815e-06   -1.266283671121329e-05
5.987991559774306e-06   -2.415677777153815e-06   -1.266283671121329e-05
-6.394940824314925e-06   -7.920761951715934e-06   1.1278434433672395e-05
-6.394940824314925e-06   -7.920761951715934e-06   1.1278434433672395e-05
-6.394940824314925e-06   -7.920761951715934e-06   1.1278434433672395e-05
-6.394940824314925e-06   -7.920761951715934e-06   1.1278434433672395e-05
5.987991559774293e-06   -1.4169441200209687e-05   3.232993940774885e-05
5.987991559774293e-06   -1.4169441200209687e-05   3.232993940774885e-05
5.987991559774293e-06   -1.4169441200209687e-05   3.232993940774885e-05
5.987991559774293e-06   -1.4169441200209687e-05   3.232993940774885e-05
-2.1007674111603002e-05   -2.415677777153815e-06   -5.610578657379902e-06
-2.1007674111603002e-05   -2.415677777153815e-06   -5.610578657379902e-06
-2.1007674111603002e-05   -2.415677777153815e-06   -5.610578657379902e-06
-2.1007674111603002e-05   -2.415677777153815e-06   -5.610578657379902e-06
-2.2318369574939878e-05   -1.4102075491313933e-05   4.088160654958399e-05
-2.2318369574939878e-05   -1.4102075491313933e-05   4.088160654958399e-05
-2.2318369574939878e-05   -1.4102075491313933e-05   4.088160654958399e-05
-2.2318369574939878e-05   -1.4102075491313933e-05   4.088160654958399e-05
5.004940107591012e-06   -2.5722518468534322e-06   -1.1575137107976634e-05
5.004940107591012e-06   -2.5722518468534322e-06   -1.1575137107976634e-05
5.004940107591012e-06   -2.5722518468534322e-06   -1.1575137107976634e-05
5.004940107591012e-06   -2.5722518468534322e-06   -1.1575137107976634e-05
-7.846510008181716e-06   -7.89458850367986e-06   1.3037348412406813e-05
-7.846510008181716e-06   -7.89458850367986e-06   1.3037348412406813e-05
-7.846510008181716e-06   -7.89458850367986e-06   1.3037348412406813e-05
-7.846510008181716e-06   -7.89458850367986e-06   1.3037348412406813e-05
5.004940107590999e-06   -1.4102075491313499e-05   3.396371236290795e-05
5.004940107590999e-06   -1.4102075491313499e-05   3.396371236290795e-05
5.004940107590999e-06   -1.4102075491313499e-05   3.396371236290795e-05
5.004940107590999e-06   -1.4102075491313499e-05   3.396371236290795e-05
-2.2318369574939837e-05   -2.5722518468534322e-06   -4.657242921300838e-06
-2.2318369574939837e-05   -2.5722518468534322e-06   -4.657242921300838e-06
-2.2318369574939837e-05   -2.5722518468534322e-06   -4.657242921300838e-06
-2.2318369574939837e-05   -2.5722518468534322e-06   -4.657242921300838e-06
-2.3859516857606413e-05   -1.3606318895333959e-05   4.282246878397852e-05
-2.3859516857606413e-05   -1.3606318895333959e-05   4.282246878397852e-05
-2.3859516857606413e-05   -1.3606318895333959e-05   4.282246878397852e-05
-2.3859516857606413e-05   -1.3606318895333959e-05   4.282246878397852e-05
3.911475538173194e-06   -2.5562850754444998e-06   -1.009253883425495e-05
3.911475538173194e-06   -2.5562850754444998e-06   -1.009253883425495e-05
3.911475538173194e-06   -2.5562850754444998e-06   -1.009253883425495e-05
3.911475538173194e-06   -2.5562850754444998e-06   -1.009253883425495e-05
-9.02870549566007e-06   -7.579074840619558e-06   1.4488103414572588e-05
-9.02870549566007e-06   -7.579074840619558e-06   1.4488103414572588e-05
-9.02870549566007e-06   -7.579074840619558e-06   1.4488103414572588e-05
-9.02870549566007e-06   -7.579074840619558e-06   1.4488103414572588e-05
-1.8863803735733484e-05   -1.727753450580377e-05   3.713135183977729e-05
-1.8863803735733484e-05   -1.727753450580377e-05   3.713135183977729e-05
-1.8863803735733484e-05   -1.727753450580377e-05   3.713135183977729e-05
-1.8863803735733484e-05   -1.727753450580377e-05   3.713135183977729e-05
-4.8722503765006176e-05   2.4864462133344055e-06   -7.747597775278284e-07
-4.8722503765006176e-05   2.4864462133344055e-06   -7.747597775278284e-07
-4.8722503765006176e-05   2.4864462133344055e-06   -7.747597775278284e-07
-4.8722503765006176e-05   2.4864462133344055e-06   -7.747597775278284e-07
-5.130006784543905e-05   -1.9295546596375703e-05   5.247051014562365e-05
-5.130006784543905e-05   -1.9295546596375703e-05   5.247051014562365e-05
-5.130006784543905e-05   -1.9295546596375703e-05   5.247051014562365e-05
-5.130006784543905e-05   -1.9295546596375703e-05   5.247051014562365e-05
-2.1007674111603002e-05   2.3403571944398058e-06   -1.0998355018592695e-05
-2.1007674111603002e-05   2.3403571944398058e-06   -1.0998355018592695e-05
-2.1007674111603002e-05   2.3403571944398058e-06   -1.0998355018592695e-05
-2.1007674111603002e-05   2.3403571944398058e-06   -1.0998355018592695e-05
-3.448550996380114e-05   -7.160647037287877e-06   1.7165307274107392e-05
-3.448550996380114e-05   -7.160647037287877e-06   1.7165307274107392e-05
-3.448550996380114e-05   -7.160647037287877e-06   1.7165307274107392e-05
-3.448550996380114e-05   -7.160647037287877e-06   1.7165307274107392e-05
-2.100767411160303e-05   -1.9295546596375703e-05   3.9488967871134e-05
-2.100767411160303e-05   -1.9295546596375703e-05   3.9488967871134e-05
-2.100767411160303e-05   -1.9295546596375703e-05   3.9488967871134e-05
-2.100767411160303e-05   -1.9295546596375703e-05   3.9488967871134e-05
-5.130006784543905e-05   2.3403571944398058e-06   1.983187255896659e-06
-5.130006784543905e-05   2.3403571944398058e-06   1.983187255896659e-06
-5.130006784543905e-05   2.3403571944398058e-06   1.983187255896659e-06
-5.130006784543905e-05   2.3403571944398058e-06   1.983187255896659e-06
-5.287086127879676e-05   -1.9402115780059112e-05   5.540958102039583e-05
-5.287086127879676e-05   -1.9402115780059112e-05   5.540958102039583e-05
-5.287086127879676e-05   -1.9402115780059112e-05   5.540958102039583e-05
-5.287086127879676e-05   -1.9402115780059112e-05   5.540958102039583e-05
-2.2318369574939837e-05   2.069423836677936e-06   -8.394162256074734e-06
-2.2318369574939837e-05   2.069423836677936e-06   -8.394162256074734e-06
-2.2318369574939837e-05   2.069423836677936e-06   -8.394162256074734e-06
-2.2318369574939837e-05   2.069423836677936e-06   -8.394162256074734e-06
-3.6159104608433465e-05   -8.248773249294652e-06   2.086464771799848e-05
-3.6159104608433465e-05   -8.248773249294652e-06   2.086464771799848e-05
-3.6159104608433465e-05   -8.248773249294652e-06   2.086464771799848e-05
-3.6159104608433465e-05   -8.248773249294652e-06   2.086464771799848e-05
-2.2318369574939823e-05   -1.9402115780059112e-05   4.252665725035351e-05
-2.2318369574939823e-05   -1.9402115780059112e-05   4.252665725035351e-05
-2.2318369574939823e-05   -1.9402115780059112e-05   4.252665725035351e-05
-2.2318369574939823e-05   -1.9402115780059112e-05   4.252665725035351e-05
-5.287086127879668e-05   2.069423836677936e-06   4.488761513967744e-06
-5.287086127879668e-05   2.069423836677936e-06   4.488761513967744e-06
-5.287086127879668e-05   2.069423836677936e-06   4.488761513967744e-06
-5.287086127879668e-05   2.069423836677936e-06   4.488761513967744e-06
-5.4563620511186025e-05   -1.770009460542489e-05   5.6671543559584604e-05
-5.4563620511186025e-05   -1.770009460542489e-05   5.6671543559584604e-05
-5.4563620511186025e-05   -1.770009460542489e-05   5.6671543559584604e-05
-5.4563620511186025e-05   -1.770009460542489e-05   5.6671543559584604e-05
-2.3859516857606332e-05   1.7624542382466135e-06   -6.179491835917516e-06
-2.3859516857606332e-05   1.7624542382466135e-06   -6.179491835917516e-06
-2.3859516857606332e-05   1.7624542382466135e-06   -6.179491835917516e-06
-2.3859516857606332e-05   1.7624542382466135e-06   -6.179491835917516e-06
-3.788446373312498e-05   -8.309620240431678e-06   2.3238664310488207e-05
-3.788446373312498e-05   -8.309620240431678e-06   2.3238664310488207e-05
-3.788446373312498e-05   -8.309620240431678e-06   2.3238664310488207e-05
-3.788446373312498e-05   -8.309620240431678e-06   2.3238664310488207e-05
-4.8722503765006014e-05   0.0   4.111505315252447e-05
-4.8722503765006014e-05   0.0   4.111505315252447e-05
-4.8722503765006014e-05   0.0   4.111505315252447e-05
-4.8722503765006014e-05   0.0   4.111505315252447e-05
-8.578031096220562e-05   1.1251042025116342e-05   -1.3897333627738411e-05
-8.578031096220562e-05   1.1251042025116342e-05   -1.3897333627738411e-05
-8.578031096220562e-05   1.1251042025116342e-05   -1.3897333627738411e-05
-8.578031096220562e-05   1.1251042025116342e-05   -1.3897333627738411e-05
-8.933258425708826e-05   0.0   5.9712458652969296e-05
-8.933258425708826e-05   0.0   5.9712458652969296e-05
-8.933258425708826e-05   0.0   5.9712458652969296e-05
-8.933258425708826e-05   0.0   5.9712458652969296e-05
-5.130006784543896e-05   1.0862036408498116e-05   -1.0192290544878345e-05
-5.130006784543896e-05   1.0862036408498116e-05   -1.0192290544878345e-05
-5.130006784543896e-05   1.0862036408498116e-05   -1.0192290544878345e-05
-5.130006784543896e-05   1.0862036408498116e-05   -1.0192290544878345e-05
-6.585129404996738e-05   6.67492135848248e-06   1.6572022159345068e-05
-6.585129404996738e-05   6.67492135848248e-06   1.6572022159345068e-05
-6.585129404996738e-05   6.67492135848248e-06   1.6572022159345068e-05
-6.585129404996738e-05   6.67492135848248e-06   1.6572022159345068e-05
-5.1300067845438916e-05   0.0   5.319523680787086e-05
-5.1300067845438916e-05   0.0   5.319523680787086e-05
-5.1300067845438916e-05   0.0   5.319523680787086e-05
-5.1300067845438916e-05   0.0   5.319523680787086e-05
-8.933258425708842e-05   1.0862036408498116e-05   -3.675068699779665e-06
-8.933258425708842e-05   1.0862036408498116e-05   -3.675068699779665e-06
-8.933258425708842e-05   1.0862036408498116e-05   -3.675068699779665e-06
-8.933258425708842e-05   1.0862036408498116e-05   -3.675068699779665e-06
-9.112132064626012e-05   0.0   6.631690893105073e-05
-9.112132064626012e-05   0.0   6.631690893105073e-05
-9.112132064626012e-05   0.0   6.631690893105073e-05
-9.112132064626012e-05   0.0   6.631690893105073e-05
-5.287086127879668e-05   1.0584587407963964e-05   -3.7846091261667728e-06
-5.287086127879668e-05   1.0584587407963964e-05   -3.7846091261667728e-06
-5.287086127879668e-05   1.0584587407963964e-05   -3.7846091261667728e-06
-5.287086127879668e-05   1.0584587407963964e-05   -3.7846091261667728e-06
-6.928097651799437e-05   5.574399747496767e-06   2.6571695535443558e-05
-6.928097651799437e-05   5.574399747496767e-06   2.6571695535443558e-05
-6.928097651799437e-05   5.574399747496767e-06   2.6571695535443558e-05
-6.928097651799437e-05   5.574399747496767e-06   2.6571695535443558e-05
-5.287086127879668e-05   0.0   5.9966156486272564e-05
-5.287086127879668e-05   0.0   5.9966156486272564e-05
-5.287086127879668e-05   0.0   5.9966156486272564e-05
-5.287086127879668e-05   0.0   5.9966156486272564e-05
-9.112132064626046e-05   1.0584587407963964e-05   2.566143318611389e-06
-9.112132064626046e-05   1.0584587407963964e-05   2.566143318611389e-06
-9.112132064626046e-05   1.0584587407963964e-05   2.566143318611389e-06
-9.112132064626046e-05   1.0584587407963964e-05   2.566143318611389e-06
-9.311203285561492e-05   0.0   7.512322361059669e-05
-9.311203285561492e-05   0.0   7.512322361059669e-05
-9.311203285561492e-05   0.0   7.512322361059669e-05
-9.311203285561492e-05   0.0   7.512322361059669e-05
-5.4563620511186025e-05   8.81923173237393e-06   5.584330663790585e-06
-5.4563620511186025e-05   8.81923173237393e-06   5.584330663790585e-06
-5.4563620511186025e-05   8.81923173237393e-06   5.584330663790585e-06
-5.4563620511186025e-05   8.81923173237393e-06   5.584330663790585e-06
-6.985384609355466e-05   3.915331010127896e-06   3.4010380401085965e-05
-6.985384609355466e-05   3.915331010127896e-06   3.4010380401085965e-05
-6.985384609355466e-05   3.915331010127896e-06   3.4010380401085965e-05
-6.985384609355466e-05   3.915331010127896e-06   3.4010380401085965e-05
5.8807776095737665e-05   -8.844241742989815e-06   4.173141184967864e-05
5.8807776095737665e-05   -8.844241742989815e-06   4.173141184967864e-05
5.8807776095737665e-05   -8.844241742989815e-06   4.173141184967864e-05
5.8807776095737665e-05   -8.844241742989815e-06   4.173141184967864e-05
2.9737897101564384e-05   -6.674564033698569e-06   -5.416579848368814e-06
2.9737897101564384e-05   -6.674564033698569e-06   -5.416579848368814e-06
2.9737897101564384e-05   -6.674564033698569e-06   -5.416579848368814e-06
2.9737897101564384e-05   -6.674564033698569e-06   -5.416579848368814e-06
2.8954423656160305e-05   -9.72295905293536e-06   3.642186465913034e-05
2.8954423656160305e-05   -9.72295905293536e-06   3.642186465913034e-05
2.8954423656160305e-05   -9.72295905293536e-06   3.642186465913034e-05
2.8954423656160305e-05   -9.72295905293536e-06   3.642186465913034e-05
5.740956444411538e-05   -7.563718908477381e-06   -1.2298914074136765e-05
5.740956444411538e-05   -7.563718908477381e-06   -1.2298914074136765e-05
5.740956444411538e-05   -7.563718908477381e-06   -1.2298914074136765e-05
5.740956444411538e-05   -7.563718908477381e-06   -1.2298914074136765e-05
4.1780743831195114e-05   -7.873900710214134e-06   1.3935229361772814e-05
4.1780743831195114e-05   -7.873900710214134e-06   1.3935229361772814e-05
4.1780743831195114e-05   -7.873900710214134e-06   1.3935229361772814e-05
4.1780743831195114e-05   -7.873900710214134e-06   1.3935229361772814e-05
5.740956444411528e-05   -9.72295905293536e-06   3.512632057245499e-05
5.740956444411528e-05   -9.72295905293536e-06   3.512632057245499e-05
5.740956444411528e-05   -9.72295905293536e-06   3.512632057245499e-05
5.740956444411528e-05   -9.72295905293536e-06   3.512632057245499e-05
2.8954423656160345e-05   -7.563718908477381e-06   -1.1003369987461556e-05
2.8954423656160345e-05   -7.563718908477381e-06   -1.1003369987461556e-05
2.8954423656160345e-05   -7.563718908477381e-06   -1.1003369987461556e-05
2.8954423656160345e-05   -7.563718908477381e-06   -1.1003369987461556e-05
2.7944896044015437e-05   -9.803408744588158e-06   3.268959667267982e-05
2.7944896044015437e-05   -9.803408744588158e-06   3.268959667267982e-05
2.7944896044015437e-05   -9.803408744588158e-06   3.268959667267982e-05
2.7944896044015437e-05   -9.803408744588158e-06   3.268959667267982e-05
5.5995192549752125e-05   -7.69561901831084e-06   -1.5325571339314292e-05
5.5995192549752125e-05   -7.69561901831084e-06   -1.5325571339314292e-05
5.5995192549752125e-05   -7.69561901831084e-06   -1.5325571339314292e-05
5.5995192549752125e-05   -7.69561901831084e-06   -1.5325571339314292e-05
4.138975228479326e-05   -8.21745948392967e-06   9.329933381655147e-06
4.138975228479326e-05   -8.21745948392967e-06   9.329933381655147e-06
4.138975228479326e-05   -8.21745948392967e-06   9.329933381655147e-06
4.138975228479326e-05   -8.21745948392967e-06   9.329933381655147e-06
5.5995192549752125e-05   -9.803408744588158e-06   3.1424922836913605e-05
5.5995192549752125e-05   -9.803408744588158e-06   3.1424922836913605e-05
5.5995192549752125e-05   -9.803408744588158e-06   3.1424922836913605e-05
5.5995192549752125e-05   -9.803408744588158e-06   3.1424922836913605e-05
2.7944896044015437e-05   -7.69561901831084e-06   -1.406089750354781e-05
2.7944896044015437e-05   -7.69561901831084e-06   -1.406089750354781e-05
2.7944896044015437e-05   -7.69561901831084e-06   -1.406089750354781e-05
2.7944896044015437e-05   -7.69561901831084e-06   -1.406089750354781e-05
2.6885623594939356e-05   -9.597468120367634e-06   2.715237387953184e-05
2.6885623594939356e-05   -9.597468120367634e-06   2.715237387953184e-05
2.6885623594939356e-05   -9.597468120367634e-06   2.715237387953184e-05
2.6885623594939356e-05   -9.597468120367634e-06   2.715237387953184e-05
5.422461945309528e-05   -7.645769558539857e-06   -1.958363835449168e-05
5.422461945309528e-05   -7.645769558539857e-06   -1.958363835449168e-05
5.422461945309528e-05   -7.645769558539857e-06   -1.958363835449168e-05
5.422461945309528e-05   -7.645769558539857e-06   -1.958363835449168e-05
3.954718922446922e-05   -8.001954652860771e-06   5.092456416478123e-06
3.954718922446922e-05   -8.001954652860771e-06   5.092456416478123e-06
3.954718922446922e-05   -8.001954652860771e-06   5.092456416478123e-06
3.954718922446922e-05   -8.001954652860771e-06   5.092456416478123e-06
2.9737897101564425e-05   -5.462694486062323e-06   3.947028889712714e-05
2.9737897101564425e-05   -5.462694486062323e-06   3.947028889712714e-05
2.9737897101564425e-05   -5.462694486062323e-06   3.947028889712714e-05
2.9737897101564425e-05   -5.462694486062323e-06   3.947028889712714e-05
3.2490479357940422e-06   -2.353598543544666e-06   -2.8123354803130576e-06
3.2490479357940422e-06   -2.353598543544666e-06   -2.8123354803130576e-06
3.2490479357940422e-06   -2.353598543544666e-06   -2.8123354803130576e-06
3.2490479357940422e-06   -2.353598543544666e-06   -2.8123354803130576e-06
2.4706242471135093e-06   -5.793541742495079e-06   4.11188385238423e-05
2.4706242471135093e-06   -5.793541742495079e-06   4.11188385238423e-05
2.4706242471135093e-06   -5.793541742495079e-06   4.11188385238423e-05
2.4706242471135093e-06   -5.793541742495079e-06   4.11188385238423e-05
2.8954423656160345e-05   -2.831138200380407e-06   -4.798269283171042e-06
2.8954423656160345e-05   -2.831138200380407e-06   -4.798269283171042e-06
2.8954423656160345e-05   -2.831138200380407e-06   -4.798269283171042e-06
2.8954423656160345e-05   -2.831138200380407e-06   -4.798269283171042e-06
1.594864302485598e-05   -3.822055510119184e-06   1.7472582154845744e-05
1.594864302485598e-05   -3.822055510119184e-06   1.7472582154845744e-05
1.594864302485598e-05   -3.822055510119184e-06   1.7472582154845744e-05
1.594864302485598e-05   -3.822055510119184e-06   1.7472582154845744e-05
2.8954423656160332e-05   -5.793541742495079e-06   3.9341396398573716e-05
2.8954423656160332e-05   -5.793541742495079e-06   3.9341396398573716e-05
2.8954423656160332e-05   -5.793541742495079e-06   3.9341396398573716e-05
2.8954423656160332e-05   -5.793541742495079e-06   3.9341396398573716e-05
2.4706242471135093e-06   -2.831138200380407e-06   -3.0208271579025645e-06
2.4706242471135093e-06   -2.831138200380407e-06   -3.0208271579025645e-06
2.4706242471135093e-06   -2.831138200380407e-06   -3.0208271579025645e-06
2.4706242471135093e-06   -2.831138200380407e-06   -3.0208271579025645e-06
1.4770846001191731e-06   -5.940100129007801e-06   4.073022171495054e-05
1.4770846001191731e-06   -5.940100129007801e-06   4.073022171495054e-05
1.4770846001191731e-06   -5.940100129007801e-06   4.073022171495054e-05
1.4770846001191731e-06   -5.940100129007801e-06   4.073022171495054e-05
2.7944896044015437e-05   -3.1439094609901803e-06   -5.060511759020749e-06
2.7944896044015437e-05   -3.1439094609901803e-06   -5.060511759020749e-06
2.7944896044015437e-05   -3.1439094609901803e-06   -5.060511759020749e-06
2.7944896044015437e-05   -3.1439094609901803e-06   -5.060511759020749e-06
1.4961289839472655e-05   -4.002621259139097e-06   1.7094058994107826e-05
1.4961289839472655e-05   -4.002621259139097e-06   1.7094058994107826e-05
1.4961289839472655e-05   -4.002621259139097e-06   1.7094058994107826e-05
1.4961289839472655e-05   -4.002621259139097e-06   1.7094058994107826e-05
2.7944896044015396e-05   -5.940100129008235e-06   3.905250731413962e-05
2.7944896044015396e-05   -5.940100129008235e-06   3.905250731413962e-05
2.7944896044015396e-05   -5.940100129008235e-06   3.905250731413962e-05
2.7944896044015396e-05   -5.940100129008235e-06   3.905250731413962e-05
1.4770846001191731e-06   -3.1439094609901803e-06   -3.382797358209965e-06
1.4770846001191731e-06   -3.1439094609901803e-06   -3.382797358209965e-06
1.4770846001191731e-06   -3.1439094609901803e-06   -3.382797358209965e-06
1.4770846001191731e-06   -3.1439094609901803e-06   -3.382797358209965e-06
3.79550587715588e-07   -5.8051648160733355e-06   4.132716596581842e-05
3.79550587715588e-07   -5.8051648160733355e-06   4.132716596581842e-05
3.79550587715588e-07   -5.8051648160733355e-06   4.132716596581842e-05
3.79550587715588e-07   -5.8051648160733355e-06   4.132716596581842e-05
2.688562359493933e-05   -3.2773636550495304e-06   -4.3663030761688354e-06
2.688562359493933e-05   -3.2773636550495304e-06   -4.3663030761688354e-06
2.688562359493933e-05   -3.2773636550495304e-06   -4.3663030761688354e-06
2.688562359493933e-05   -3.2773636550495304e-06   -4.3663030761688354e-06
1.4157564692452704e-05   -3.964142975549766e-06   1.7259196020276337e-05
1.4157564692452704e-05   -3.964142975549766e-06   1.7259196020276337e-05
1.4157564692452704e-05   -3.964142975549766e-06   1.7259196020276337e-05
1.4157564692452704e-05   -3.964142975549766e-06   1.7259196020276337e-05
3.2490479357940422e-06   -2.287965940010392e-06   4.0356368394849854e-05
3.2490479357940422e-06   -2.287965940010392e-06   4.0356368394849854e-05
3.2490479357940422e-06   -2.287965940010392e-06   4.0356368394849854e-05
3.2490479357940422e-06   -2.287965940010392e-06   4.0356368394849854e-05
-2.241394496084608e-05   2.0949943215888348e-06   2.1448972407586177e-07
-2.241394496084608e-05   2.0949943215888348e-06   2.1448972407586177e-07
-2.241394496084608e-05   2.0949943215888348e-06   2.1448972407586177e-07
-2.241394496084608e-05   2.0949943215888348e-06   2.1448972407586177e-07
-2.3291063108150315e-05   -2.415677777153815e-06   4.328882756706961e-05
-2.3291063108150315e-05   -2.415677777153815e-06   4.328882756706961e-05
-2.3291063108150315e-05   -2.415677777153815e-06   4.328882756706961e-05
-2.3291063108150315e-05   -2.415677777153815e-06   4.328882756706961e-05
2.4706242471135093e-06   1.73002900149535e-06   -2.1347420922263906e-06
2.4706242471135093e-06   1.73002900149535e-06   -2.1347420922263906e-06
2.4706242471135093e-06   1.73002900149535e-06   -2.1347420922263906e-06
2.4706242471135093e-06   1.73002900149535e-06   -2.1347420922263906e-06
-9.978042322513453e-06   -2.7453836356616107e-08   1.96675252265296e-05
-9.978042322513453e-06   -2.7453836356616107e-08   1.96675252265296e-05
-9.978042322513453e-06   -2.7453836356616107e-08   1.96675252265296e-05
-9.978042322513453e-06   -2.7453836356616107e-08   1.96675252265296e-05
2.4706242471135093e-06   -2.415677777153815e-06   4.080140349987981e-05
2.4706242471135093e-06   -2.415677777153815e-06   4.080140349987981e-05
2.4706242471135093e-06   -2.415677777153815e-06   4.080140349987981e-05
2.4706242471135093e-06   -2.415677777153815e-06   4.080140349987981e-05
-2.3291063108150315e-05   1.7300290014957836e-06   3.52681974963168e-07
-2.3291063108150315e-05   1.7300290014957836e-06   3.52681974963168e-07
-2.3291063108150315e-05   1.7300290014957836e-06   3.52681974963168e-07
-2.3291063108150315e-05   1.7300290014957836e-06   3.52681974963168e-07
-2.446663679335148e-05   -2.572251846853866e-06   4.415471753067639e-05
-2.446663679335148e-05   -2.572251846853866e-06   4.415471753067639e-05
-2.446663679335148e-05   -2.572251846853866e-06   4.415471753067639e-05
-2.446663679335148e-05   -2.572251846853866e-06   4.415471753067639e-05
1.4770846001191731e-06   1.3902924276740745e-06   -1.4623446898249213e-06
1.4770846001191731e-06   1.3902924276740745e-06   -1.4623446898249213e-06
1.4770846001191731e-06   1.3902924276740745e-06   -1.4623446898249213e-06
1.4770846001191731e-06   1.3902924276740745e-06   -1.4623446898249213e-06
-1.0843149279294686e-05   -1.2969476918551354e-07   1.9983370760647337e-05
-1.0843149279294686e-05   -1.2969476918551354e-07   1.9983370760647337e-05
-1.0843149279294686e-05   -1.2969476918551354e-07   1.9983370760647337e-05
-1.0843149279294686e-05   -1.2969476918551354e-07   1.9983370760647337e-05
1.4770846001191731e-06   -2.5722518468534322e-06   4.177719096595941e-05
1.4770846001191731e-06   -2.5722518468534322e-06   4.177719096595941e-05
1.4770846001191731e-06   -2.5722518468534322e-06   4.177719096595941e-05
1.4770846001191731e-06   -2.5722518468534322e-06   4.177719096595941e-05
-2.446663679335144e-05   1.3902924276740745e-06   9.151818748920869e-07
-2.446663679335144e-05   1.3902924276740745e-06   9.151818748920869e-07
-2.446663679335144e-05   1.3902924276740745e-06   9.151818748920869e-07
-2.446663679335144e-05   1.3902924276740745e-06   9.151818748920869e-07
-2.5719117247863994e-05   -2.556285075444066e-06   4.51933359057377e-05
-2.5719117247863994e-05   -2.556285075444066e-06   4.51933359057377e-05
-2.5719117247863994e-05   -2.556285075444066e-06   4.51933359057377e-05
-2.5719117247863994e-05   -2.556285075444066e-06   4.51933359057377e-05
3.7955058771557443e-07   1.1457152608728045e-06   -5.25644022018331e-07
3.7955058771557443e-07   1.1457152608728045e-06   -5.25644022018331e-07
3.7955058771557443e-07   1.1457152608728045e-06   -5.25644022018331e-07
3.7955058771557443e-07   1.1457152608728045e-06   -5.25644022018331e-07
-1.1946274801149152e-05   -2.0287413000875595e-07   2.0826551927285606e-05
-1.1946274801149152e-05   -2.0287413000875595e-07   2.0826551927285606e-05
-1.1946274801149152e-05   -2.0287413000875595e-07   2.0826551927285606e-05
-1.1946274801149152e-05   -2.0287413000875595e-07   2.0826551927285606e-05
-2.2413944960846e-05   2.486446213333972e-06   3.64763224878007e-05
-2.2413944960846e-05   2.486446213333972e-06   3.64763224878007e-05
-2.2413944960846e-05   2.486446213333972e-06   3.64763224878007e-05
-2.2413944960846e-05   2.486446213333972e-06   3.64763224878007e-05
-4.755913611044328e-05   6.820569676459914e-06   -2.831855350319667e-06
-4.755913611044328e-05   6.820569676459914e-06   -2.831855350319667e-06
-4.755913611044328e-05   6.820569676459914e-06   -2.831855350319667e-06
-4.755913611044328e-05   6.820569676459914e-06   -2.831855350319667e-06
-4.88358736784785e-05   2.3403571944398058e-06   4.036982741587882e-05
-4.88358736784785e-05   2.3403571944398058e-06   4.036982741587882e-05
-4.88358736784785e-05   2.3403571944398058e-06   4.036982741587882e-05
-4.88358736784785e-05   2.3403571944398058e-06   4.036982741587882e-05
-2.329106310815022e-05   6.454984211143062e-06   -4.673633078023612e-06
-2.329106310815022e-05   6.454984211143062e-06   -4.673633078023612e-06
-2.329106310815022e-05   6.454984211143062e-06   -4.673633078023612e-06
-2.329106310815022e-05   6.454984211143062e-06   -4.673633078023612e-06
-3.5245330345158765e-05   4.6036031036648245e-06   1.6360974314811108e-05
-3.5245330345158765e-05   4.6036031036648245e-06   1.6360974314811108e-05
-3.5245330345158765e-05   4.6036031036648245e-06   1.6360974314811108e-05
-3.5245330345158765e-05   4.6036031036648245e-06   1.6360974314811108e-05
-2.3291063108150248e-05   2.3403571944402395e-06   3.790105120585652e-05
-2.3291063108150248e-05   2.3403571944402395e-06   3.790105120585652e-05
-2.3291063108150248e-05   2.3403571944402395e-06   3.790105120585652e-05
-2.3291063108150248e-05   2.3403571944402395e-06   3.790105120585652e-05
-4.883587367847844e-05   6.4549842111434955e-06   -2.204856868001691e-06
-4.883587367847844e-05   6.4549842111434955e-06   -2.204856868001691e-06
-4.883587367847844e-05   6.4549842111434955e-06   -2.204856868001691e-06
-4.883587367847844e-05   6.4549842111434955e-06   -2.204856868001691e-06
-5.040077074374276e-05   2.0694238366783697e-06   4.284610385341331e-05
-5.040077074374276e-05   2.0694238366783697e-06   4.284610385341331e-05
-5.040077074374276e-05   2.0694238366783697e-06   4.284610385341331e-05
-5.040077074374276e-05   2.0694238366783697e-06   4.284610385341331e-05
-2.446663679335144e-05   6.1165999325298905e-06   -2.805758388083003e-06
-2.446663679335144e-05   6.1165999325298905e-06   -2.805758388083003e-06
-2.446663679335144e-05   6.1165999325298905e-06   -2.805758388083003e-06
-2.446663679335144e-05   6.1165999325298905e-06   -2.805758388083003e-06
-3.619580282419059e-05   4.519895216978376e-06   1.77008744926461e-05
-3.619580282419059e-05   4.519895216978376e-06   1.77008744926461e-05
-3.619580282419059e-05   4.519895216978376e-06   1.77008744926461e-05
-3.619580282419059e-05   4.519895216978376e-06   1.77008744926461e-05
-2.44666367933514e-05   2.069423836677936e-06   4.0417798195902226e-05
-2.44666367933514e-05   2.069423836677936e-06   4.0417798195902226e-05
-2.44666367933514e-05   2.069423836677936e-06   4.0417798195902226e-05
-2.44666367933514e-05   2.069423836677936e-06   4.0417798195902226e-05
-5.040077074374276e-05   6.116599932529457e-06   -3.7745273057218816e-07
-5.040077074374276e-05   6.116599932529457e-06   -3.7745273057218816e-07
-5.040077074374276e-05   6.116599932529457e-06   -3.7745273057218816e-07
-5.040077074374276e-05   6.116599932529457e-06   -3.7745273057218816e-07
-5.205628228214485e-05   1.7624542382466135e-06   4.481572740832663e-05
-5.205628228214485e-05   1.7624542382466135e-06   4.481572740832663e-05
-5.205628228214485e-05   1.7624542382466135e-06   4.481572740832663e-05
-5.205628228214485e-05   1.7624542382466135e-06   4.481572740832663e-05
-2.5719117247863927e-05   5.661395565222192e-06   -1.4189124449934417e-06
-2.5719117247863927e-05   5.661395565222192e-06   -1.4189124449934417e-06
-2.5719117247863927e-05   5.661395565222192e-06   -1.4189124449934417e-06
-2.5719117247863927e-05   5.661395565222192e-06   -1.4189124449934417e-06
-3.778073420267159e-05   4.245531894826737e-06   1.9533300681924743e-05
-3.778073420267159e-05   4.245531894826737e-06   1.9533300681924743e-05
-3.778073420267159e-05   4.245531894826737e-06   1.9533300681924743e-05
-3.778073420267159e-05   4.245531894826737e-06   1.9533300681924743e-05
-4.755913611044328e-05   1.1251042025116342e-05   1.9203597500395487e-05
-4.755913611044328e-05   1.1251042025116342e-05   1.9203597500395487e-05
-4.755913611044328e-05   1.1251042025116342e-05   1.9203597500395487e-05
-4.755913611044328e-05   1.1251042025116342e-05   1.9203597500395487e-05
-7.164571026554189e-05   1.1092470126814954e-05   -2.1035835897082866e-05
-7.164571026554189e-05   1.1092470126814954e-05   -2.1035835897082866e-05
-7.164571026554189e-05   1.1092470126814954e-05   -2.1035835897082866e-05
-7.164571026554189e-05   1.1092470126814954e-05   -2.1035835897082866e-05
-7.393801664949004e-05   1.0862036408497682e-05   2.8461111112022385e-05
-7.393801664949004e-05   1.0862036408497682e-05   2.8461111112022385e-05
-7.393801664949004e-05   1.0862036408497682e-05   2.8461111112022385e-05
-7.393801664949004e-05   1.0862036408497682e-05   2.8461111112022385e-05
-4.883587367847844e-05   1.130663890336293e-05   -1.3642555336582725e-05
-4.883587367847844e-05   1.130663890336293e-05   -1.3642555336582725e-05
-4.883587367847844e-05   1.130663890336293e-05   -1.3642555336582725e-05
-4.883587367847844e-05   1.130663890336293e-05   -1.3642555336582725e-05
-5.805968102611179e-05   1.1301980132454384e-05   1.7332521720179322e-06
-5.805968102611179e-05   1.1301980132454384e-05   1.7332521720179322e-06
-5.805968102611179e-05   1.1301980132454384e-05   1.7332521720179322e-06
-5.805968102611179e-05   1.1301980132454384e-05   1.7332521720179322e-06
-4.883587367847839e-05   1.0862036408497682e-05   2.819434961510341e-05
-4.883587367847839e-05   1.0862036408497682e-05   2.819434961510341e-05
-4.883587367847839e-05   1.0862036408497682e-05   2.819434961510341e-05
-4.883587367847839e-05   1.0862036408497682e-05   2.819434961510341e-05
-7.393801664949004e-05   1.130663890336293e-05   -1.3375793839663858e-05
-7.393801664949004e-05   1.130663890336293e-05   -1.3375793839663858e-05
-7.393801664949004e-05   1.130663890336293e-05   -1.3375793839663858e-05
-7.393801664949004e-05   1.130663890336293e-05   -1.3375793839663858e-05
-7.61859373210893e-05   1.0584587407963964e-05   3.495736211399218e-05
-7.61859373210893e-05   1.0584587407963964e-05   3.495736211399218e-05
-7.61859373210893e-05   1.0584587407963964e-05   3.495736211399218e-05
-7.61859373210893e-05   1.0584587407963964e-05   3.495736211399218e-05
-5.040077074374268e-05   1.1225635575819962e-05   -8.402544415632657e-06
-5.040077074374268e-05   1.1225635575819962e-05   -8.402544415632657e-06
-5.040077074374268e-05   1.1225635575819962e-05   -8.402544415632657e-06
-5.040077074374268e-05   1.1225635575819962e-05   -8.402544415632657e-06
-6.069015924983572e-05   1.1301527185226482e-05   8.700901462212435e-06
-6.069015924983572e-05   1.1301527185226482e-05   8.700901462212435e-06
-6.069015924983572e-05   1.1301527185226482e-05   8.700901462212435e-06
-6.069015924983572e-05   1.1301527185226482e-05   8.700901462212435e-06
-5.040077074374268e-05   1.0584587407963964e-05   3.457273321327858e-05
-5.040077074374268e-05   1.0584587407963964e-05   3.457273321327858e-05
-5.040077074374268e-05   1.0584587407963964e-05   3.457273321327858e-05
-5.040077074374268e-05   1.0584587407963964e-05   3.457273321327858e-05
-7.61859373210893e-05   1.1225635575819962e-05   -8.017915514919004e-06
-7.61859373210893e-05   1.1225635575819962e-05   -8.017915514919004e-06
-7.61859373210893e-05   1.1225635575819962e-05   -8.017915514919004e-06
-7.61859373210893e-05   1.1225635575819962e-05   -8.017915514919004e-06
-7.883726069307184e-05   8.819231732373495e-06   4.581168603294745e-05
-7.883726069307184e-05   8.819231732373495e-06   4.581168603294745e-05
-7.883726069307184e-05   8.819231732373495e-06   4.581168603294745e-05
-7.883726069307184e-05   8.819231732373495e-06   4.581168603294745e-05
-5.2056282282144685e-05   1.033534078423307e-05   2.6705658361976395e-07
-5.2056282282144685e-05   1.033534078423307e-05   2.6705658361976395e-07
-5.2056282282144685e-05   1.033534078423307e-05   2.6705658361976395e-07
-5.2056282282144685e-05   1.033534078423307e-05   2.6705658361976395e-07
-6.163039123323888e-05   1.0765968905537219e-05   1.5965527962661817e-05
-6.163039123323888e-05   1.0765968905537219e-05   1.5965527962661817e-05
-6.163039123323888e-05   1.0765968905537219e-05   1.5965527962661817e-05
-6.163039123323888e-05   1.0765968905537219e-05   1.5965527962661817e-05
4.7718871348003814e-05   -6.674564033698569e-06   3.680241260413885e-05
4.7718871348003814e-05   -6.674564033698569e-06   3.680241260413885e-05
4.7718871348003814e-05   -6.674564033698569e-06   3.680241260413885e-05
4.7718871348003814e-05   -6.674564033698569e-06   3.680241260413885e-05
2.3621549765354466e-05   -4.8968307271852855e-06   -2.293150049702047e-06
2.3621549765354466e-05   -4.8968307271852855e-06   -2.293150049702047e-06
2.3621549765354466e-05   -4.8968307271852855e-06   -2.293150049702047e-06
2.3621549765354466e-05   -4.8968307271852855e-06   -2.293150049702047e-06
2.2718983719379326e-05   -7.563718908476947e-06   3.2000286593461547e-05
2.2718983719379326e-05   -7.563718908476947e-06   3.2000286593461547e-05
2.2718983719379326e-05   -7.563718908476947e-06   3.2000286593461547e-05
2.2718983719379326e-05   -7.563718908476947e-06   3.2000286593461547e-05
4.605912887128001e-05   -5.680695510080179e-06   -8.029769365410716e-06
4.605912887128001e-05   -5.680695510080179e-06   -8.029769365410716e-06
4.605912887128001e-05   -5.680695510080179e-06   -8.029769365410716e-06
4.605912887128001e-05   -5.680695510080179e-06   -8.029769365410716e-06
3.342594059204678e-05   -6.1403938643052845e-06   1.3301363445846403e-05
3.342594059204678e-05   -6.1403938643052845e-06   1.3301363445846403e-05
3.342594059204678e-05   -6.1403938643052845e-06   1.3301363445846403e-05
3.342594059204678e-05   -6.1403938643052845e-06   1.3301363445846403e-05
4.605912887127993e-05   -7.563718908476947e-06   3.087047255442366e-05
4.605912887127993e-05   -7.563718908476947e-06   3.087047255442366e-05
4.605912887127993e-05   -7.563718908476947e-06   3.087047255442366e-05
4.605912887127993e-05   -7.563718908476947e-06   3.087047255442366e-05
2.2718983719379408e-05   -5.680695510080179e-06   -6.8999553263725776e-06
2.2718983719379408e-05   -5.680695510080179e-06   -6.8999553263725776e-06
2.2718983719379408e-05   -5.680695510080179e-06   -6.8999553263725776e-06
2.2718983719379408e-05   -5.680695510080179e-06   -6.8999553263725776e-06
2.1715956420700143e-05   -7.69561901831084e-06   2.867611550054234e-05
2.1715956420700143e-05   -7.69561901831084e-06   2.867611550054234e-05
2.1715956420700143e-05   -7.69561901831084e-06   2.867611550054234e-05
2.1715956420700143e-05   -7.69561901831084e-06   2.867611550054234e-05
4.455596232095638e-05   -5.837999662429948e-06   -1.0505132613413291e-05
4.455596232095638e-05   -5.837999662429948e-06   -1.0505132613413291e-05
4.455596232095638e-05   -5.837999662429948e-06   -1.0505132613413291e-05
4.455596232095638e-05   -5.837999662429948e-06   -1.0505132613413291e-05
3.2802486827827124e-05   -6.444255902286755e-06   9.44774695238286e-06
3.2802486827827124e-05   -6.444255902286755e-06   9.44774695238286e-06
3.2802486827827124e-05   -6.444255902286755e-06   9.44774695238286e-06
3.2802486827827124e-05   -6.444255902286755e-06   9.44774695238286e-06
4.455596232095622e-05   -7.69561901831084e-06   2.7561543887013717e-05
4.455596232095622e-05   -7.69561901831084e-06   2.7561543887013717e-05
4.455596232095622e-05   -7.69561901831084e-06   2.7561543887013717e-05
4.455596232095622e-05   -7.69561901831084e-06   2.7561543887013717e-05
2.1715956420700177e-05   -5.837999662429948e-06   -9.390560999884747e-06
2.1715956420700177e-05   -5.837999662429948e-06   -9.390560999884747e-06
2.1715956420700177e-05   -5.837999662429948e-06   -9.390560999884747e-06
2.1715956420700177e-05   -5.837999662429948e-06   -9.390560999884747e-06
2.075114735741403e-05   -7.645769558539857e-06   2.403915489448266e-05
2.075114735741403e-05   -7.645769558539857e-06   2.403915489448266e-05
2.075114735741403e-05   -7.645769558539857e-06   2.403915489448266e-05
2.075114735741403e-05   -7.645769558539857e-06   2.403915489448266e-05
4.285329615107993e-05   -5.900713913883828e-06   -1.3844793148420451e-05
4.285329615107993e-05   -5.900713913883828e-06   -1.3844793148420451e-05
4.285329615107993e-05   -5.900713913883828e-06   -1.3844793148420451e-05
4.285329615107993e-05   -5.900713913883828e-06   -1.3844793148420451e-05
3.1115986315098994e-05   -6.334994770849228e-06   5.97795842572778e-06
3.1115986315098994e-05   -6.334994770849228e-06   5.97795842572778e-06
3.1115986315098994e-05   -6.334994770849228e-06   5.97795842572778e-06
3.1115986315098994e-05   -6.334994770849228e-06   5.97795842572778e-06
2.3621549765354466e-05   -2.353598543544666e-06   3.860783939059194e-05
2.3621549765354466e-05   -2.353598543544666e-06   3.860783939059194e-05
2.3621549765354466e-05   -2.353598543544666e-06   3.860783939059194e-05
2.3621549765354466e-05   -2.353598543544666e-06   3.860783939059194e-05
1.0023862111742084e-06   -9.369554096281402e-07   1.7592193473081608e-06
1.0023862111742084e-06   -9.369554096281402e-07   1.7592193473081608e-06
1.0023862111742084e-06   -9.369554096281402e-07   1.7592193473081608e-06
1.0023862111742084e-06   -9.369554096281402e-07   1.7592193473081608e-06
1.3583894744670778e-07   -2.831138200380841e-06   3.900853036685622e-05
1.3583894744670778e-07   -2.831138200380841e-06   3.900853036685622e-05
1.3583894744670778e-07   -2.831138200380841e-06   3.900853036685622e-05
1.3583894744670778e-07   -2.831138200380841e-06   3.900853036685622e-05
2.2718983719379408e-05   -1.4925664185401824e-06   5.668126778644509e-07
2.2718983719379408e-05   -1.4925664185401824e-06   5.668126778644509e-07
2.2718983719379408e-05   -1.4925664185401824e-06   5.668126778644509e-07
2.2718983719379408e-05   -1.4925664185401824e-06   5.668126778644509e-07
1.1725601585279371e-05   -1.8332015275165925e-06   1.9093497300083683e-05
1.1725601585279371e-05   -1.8332015275165925e-06   1.9093497300083683e-05
1.1725601585279371e-05   -1.8332015275165925e-06   1.9093497300083683e-05
1.1725601585279371e-05   -1.8332015275165925e-06   1.9093497300083683e-05
2.271898371937938e-05   -2.831138200380407e-06   3.820538729775217e-05
2.271898371937938e-05   -2.831138200380407e-06   3.820538729775217e-05
2.271898371937938e-05   -2.831138200380407e-06   3.820538729775217e-05
2.271898371937938e-05   -2.831138200380407e-06   3.820538729775217e-05
1.3583894744672133e-07   -1.4925664185401824e-06   1.3699557469687429e-06
1.3583894744672133e-07   -1.4925664185401824e-06   1.3699557469687429e-06
1.3583894744672133e-07   -1.4925664185401824e-06   1.3699557469687429e-06
1.3583894744672133e-07   -1.4925664185401824e-06   1.3699557469687429e-06
-7.648899507989217e-07   -3.1439094609901803e-06   3.8419833365425536e-05
-7.648899507989217e-07   -3.1439094609901803e-06   3.8419833365425536e-05
-7.648899507989217e-07   -3.1439094609901803e-06   3.8419833365425536e-05
-7.648899507989217e-07   -3.1439094609901803e-06   3.8419833365425536e-05
2.1715956420700177e-05   -1.9050225937298007e-06   2.084239592377475e-07
2.1715956420700177e-05   -1.9050225937298007e-06   2.084239592377475e-07
2.1715956420700177e-05   -1.9050225937298007e-06   2.084239592377475e-07
2.1715956420700177e-05   -1.9050225937298007e-06   2.084239592377475e-07
1.0730576578198408e-05   -2.1241790351470002e-06   1.864888422825812e-05
1.0730576578198408e-05   -2.1241790351470002e-06   1.864888422825812e-05
1.0730576578198408e-05   -2.1241790351470002e-06   1.864888422825812e-05
1.0730576578198408e-05   -2.1241790351470002e-06   1.864888422825812e-05
2.1715956420700143e-05   -3.1439094609901803e-06   3.767650124506948e-05
2.1715956420700143e-05   -3.1439094609901803e-06   3.767650124506948e-05
2.1715956420700143e-05   -3.1439094609901803e-06   3.767650124506948e-05
2.1715956420700143e-05   -3.1439094609901803e-06   3.767650124506948e-05
-7.648899507989217e-07   -1.9050225937298007e-06   9.517560795940187e-07
-7.648899507989217e-07   -1.9050225937298007e-06   9.517560795940187e-07
-7.648899507989217e-07   -1.9050225937298007e-06   9.517560795940187e-07
-7.648899507989217e-07   -1.9050225937298007e-06   9.517560795940187e-07
-1.7026149144744334e-06   -3.2773636550495304e-06   3.8713856369882024e-05
-1.7026149144744334e-06   -3.2773636550495304e-06   3.8713856369882024e-05
-1.7026149144744334e-06   -3.2773636550495304e-06   3.8713856369882024e-05
-1.7026149144744334e-06   -3.2773636550495304e-06   3.8713856369882024e-05
2.075114735741409e-05   -2.2300547647606354e-06   6.625339158944485e-07
2.075114735741409e-05   -2.2300547647606354e-06   6.625339158944485e-07
2.075114735741409e-05   -2.2300547647606354e-06   6.625339158944485e-07
2.075114735741409e-05   -2.2300547647606354e-06   6.625339158944485e-07
9.982881348036263e-06   -2.2800922732401675e-06   1.8639666436612475e-05
9.982881348036263e-06   -2.2800922732401675e-06   1.8639666436612475e-05
9.982881348036263e-06   -2.2800922732401675e-06   1.8639666436612475e-05
9.982881348036263e-06   -2.2800922732401675e-06   1.8639666436612475e-05
1.0023862111741949e-06   2.0949943215888348e-06   3.985487431837115e-05
1.0023862111741949e-06   2.0949943215888348e-06   3.985487431837115e-05
1.0023862111741949e-06   2.0949943215888348e-06   3.985487431837115e-05
1.0023862111741949e-06   2.0949943215888348e-06   3.985487431837115e-05
-2.095687770748347e-05   3.0386831262681387e-06   3.822314403415742e-06
-2.095687770748347e-05   3.0386831262681387e-06   3.822314403415742e-06
-2.095687770748347e-05   3.0386831262681387e-06   3.822314403415742e-06
-2.095687770748347e-05   3.0386831262681387e-06   3.822314403415742e-06
-2.1862350127084947e-05   1.73002900149535e-06   4.0402598976608476e-05
-2.1862350127084947e-05   1.73002900149535e-06   4.0402598976608476e-05
-2.1862350127084947e-05   1.73002900149535e-06   4.0402598976608476e-05
-2.1862350127084947e-05   1.73002900149535e-06   4.0402598976608476e-05
1.3583894744672133e-07   2.576668241621987e-06   3.2309669749796426e-06
1.3583894744672133e-07   2.576668241621987e-06   3.2309669749796426e-06
1.3583894744672133e-07   2.576668241621987e-06   3.2309669749796426e-06
1.3583894744672133e-07   2.576668241621987e-06   3.2309669749796426e-06
-1.0436363923602557e-05   2.386676559093092e-06   2.0965300102912315e-05
-1.0436363923602557e-05   2.386676559093092e-06   2.0965300102912315e-05
-1.0436363923602557e-05   2.386676559093092e-06   2.0965300102912315e-05
-1.0436363923602557e-05   2.386676559093092e-06   2.0965300102912315e-05
1.3583894744670778e-07   1.73002900149535e-06   3.989461543253215e-05
1.3583894744670778e-07   1.73002900149535e-06   3.989461543253215e-05
1.3583894744670778e-07   1.73002900149535e-06   3.989461543253215e-05
1.3583894744670778e-07   1.73002900149535e-06   3.989461543253215e-05
-2.1862350127084947e-05   2.5766682416224207e-06   3.7389505190557008e-06
-2.1862350127084947e-05   2.5766682416224207e-06   3.7389505190557008e-06
-2.1862350127084947e-05   2.5766682416224207e-06   3.7389505190557008e-06
-2.1862350127084947e-05   2.5766682416224207e-06   3.7389505190557008e-06
-2.2818418049595833e-05   1.3902924276745082e-06   4.0782950640104454e-05
-2.2818418049595833e-05   1.3902924276745082e-06   4.0782950640104454e-05
-2.2818418049595833e-05   1.3902924276745082e-06   4.0782950640104454e-05
-2.2818418049595833e-05   1.3902924276745082e-06   4.0782950640104454e-05
-7.648899507989082e-07   2.128066771497298e-06   3.5844058691492954e-06
-7.648899507989082e-07   2.128066771497298e-06   3.5844058691492954e-06
-7.648899507989082e-07   2.128066771497298e-06   3.5844058691492954e-06
-7.648899507989082e-07   2.128066771497298e-06   3.5844058691492954e-06
-1.1277449576353712e-05   2.123106791114722e-06   2.1108314566636562e-05
-1.1277449576353712e-05   2.123106791114722e-06   2.1108314566636562e-05
-1.1277449576353712e-05   2.123106791114722e-06   2.1108314566636562e-05
-1.1277449576353712e-05   2.123106791114722e-06   2.1108314566636562e-05
-7.648899507989217e-07   1.3902924276745082e-06   4.0340286033810823e-05
-7.648899507989217e-07   1.3902924276745082e-06   4.0340286033810823e-05
-7.648899507989217e-07   1.3902924276745082e-06   4.0340286033810823e-05
-7.648899507989217e-07   1.3902924276745082e-06   4.0340286033810823e-05
-2.281841804959586e-05   2.128066771497298e-06   4.027070475442953e-06
-2.281841804959586e-05   2.128066771497298e-06   4.027070475442953e-06
-2.281841804959586e-05   2.128066771497298e-06   4.027070475442953e-06
-2.281841804959586e-05   2.128066771497298e-06   4.027070475442953e-06
-2.3804949962368308e-05   1.1457152608728045e-06   4.138767248239544e-05
-2.3804949962368308e-05   1.1457152608728045e-06   4.138767248239544e-05
-2.3804949962368308e-05   1.1457152608728045e-06   4.138767248239544e-05
-2.3804949962368308e-05   1.1457152608728045e-06   4.138767248239544e-05
-1.7026149144744334e-06   1.7287781858346674e-06   4.200609647595014e-06
-1.7026149144744334e-06   1.7287781858346674e-06   4.200609647595014e-06
-1.7026149144744334e-06   1.7287781858346674e-06   4.200609647595014e-06
-1.7026149144744334e-06   1.7287781858346674e-06   4.200609647595014e-06
-1.2187651654914861e-05   1.8706361579043027e-06   2.1590556098421585e-05
-1.2187651654914861e-05   1.8706361579043027e-06   2.1590556098421585e-05
-1.2187651654914861e-05   1.8706361579043027e-06   2.1590556098421585e-05
-1.2187651654914861e-05   1.8706361579043027e-06   2.1590556098421585e-05
-2.0956877707483523e-05   6.820569676459914e-06   3.477426844890807e-05
-2.0956877707483523e-05   6.820569676459914e-06   3.477426844890807e-05
-2.0956877707483523e-05   6.820569676459914e-06   3.477426844890807e-05
-2.0956877707483523e-05   6.820569676459914e-06   3.477426844890807e-05
-4.222781103274201e-05   6.906973106302668e-06   -6.254450352836645e-07
-4.222781103274201e-05   6.906973106302668e-06   -6.254450352836645e-07
-4.222781103274201e-05   6.906973106302668e-06   -6.254450352836645e-07
-4.222781103274201e-05   6.906973106302668e-06   -6.254450352836645e-07
-4.327896139125125e-05   6.454984211143062e-06   3.53829318082506e-05
-4.327896139125125e-05   6.454984211143062e-06   3.53829318082506e-05
-4.327896139125125e-05   6.454984211143062e-06   3.53829318082506e-05
-4.327896139125125e-05   6.454984211143062e-06   3.53829318082506e-05
-2.1862350127084947e-05   6.466064018858034e-06   -3.1806818332201807e-07
-2.1862350127084947e-05   6.466064018858034e-06   -3.1806818332201807e-07
-2.1862350127084947e-05   6.466064018858034e-06   -3.1806818332201807e-07
-2.1862350127084947e-05   6.466064018858034e-06   -3.1806818332201807e-07
-3.193815028522928e-05   6.645637342869888e-06   1.6367188085844413e-05
-3.193815028522928e-05   6.645637342869888e-06   1.6367188085844413e-05
-3.193815028522928e-05   6.645637342869888e-06   1.6367188085844413e-05
-3.193815028522928e-05   6.645637342869888e-06   1.6367188085844413e-05
-2.1862350127084947e-05   6.454984211143062e-06   3.537628392362175e-05
-2.1862350127084947e-05   6.454984211143062e-06   3.537628392362175e-05
-2.1862350127084947e-05   6.454984211143062e-06   3.537628392362175e-05
-2.1862350127084947e-05   6.454984211143062e-06   3.537628392362175e-05
-4.327896139125117e-05   6.466064018858034e-06   -3.114202986931108e-07
-4.327896139125117e-05   6.466064018858034e-06   -3.114202986931108e-07
-4.327896139125117e-05   6.466064018858034e-06   -3.114202986931108e-07
-4.327896139125117e-05   6.466064018858034e-06   -3.114202986931108e-07
-4.4443807320669674e-05   6.116599932529457e-06   3.7027663081092444e-05
-4.4443807320669674e-05   6.116599932529457e-06   3.7027663081092444e-05
-4.4443807320669674e-05   6.116599932529457e-06   3.7027663081092444e-05
-4.4443807320669674e-05   6.116599932529457e-06   3.7027663081092444e-05
-2.281841804959586e-05   6.059354439133958e-06   1.0196949253400353e-06
-2.281841804959586e-05   6.059354439133958e-06   1.0196949253400353e-06
-2.281841804959586e-05   6.059354439133958e-06   1.0196949253400353e-06
-2.281841804959586e-05   6.059354439133958e-06   1.0196949253400353e-06
-3.269762631215291e-05   6.396795781605201e-06   1.7282577224118955e-05
-3.269762631215291e-05   6.396795781605201e-06   1.7282577224118955e-05
-3.269762631215291e-05   6.396795781605201e-06   1.7282577224118955e-05
-3.269762631215291e-05   6.396795781605201e-06   1.7282577224118955e-05
-2.281841804959586e-05   6.1165999325298905e-06   3.706201037712931e-05
-2.281841804959586e-05   6.1165999325298905e-06   3.706201037712931e-05
-2.281841804959586e-05   6.1165999325298905e-06   3.706201037712931e-05
-2.281841804959586e-05   6.1165999325298905e-06   3.706201037712931e-05
-4.444380732066959e-05   6.059354439133958e-06   9.85347629302736e-07
-4.444380732066959e-05   6.059354439133958e-06   9.85347629302736e-07
-4.444380732066959e-05   6.059354439133958e-06   9.85347629302736e-07
-4.444380732066959e-05   6.059354439133958e-06   9.85347629302736e-07
-4.5553860095624675e-05   5.661395565222192e-06   3.821383580727305e-05
-4.5553860095624675e-05   5.661395565222192e-06   3.821383580727305e-05
-4.5553860095624675e-05   5.661395565222192e-06   3.821383580727305e-05
-4.5553860095624675e-05   5.661395565222192e-06   3.821383580727305e-05
-2.3804949962368416e-05   5.562448814627145e-06   2.0250203022032865e-06
-2.3804949962368416e-05   5.562448814627145e-06   2.0250203022032865e-06
-2.3804949962368416e-05   5.562448814627145e-06   2.0250203022032865e-06
-2.3804949962368416e-05   5.562448814627145e-06   2.0250203022032865e-06
-3.3906929279478465e-05   6.0732695152969016e-06   1.8555160076985807e-05
-3.3906929279478465e-05   6.0732695152969016e-06   1.8555160076985807e-05
-3.3906929279478465e-05   6.0732695152969016e-06   1.8555160076985807e-05
-3.3906929279478465e-05   6.0732695152969016e-06   1.8555160076985807e-05
-4.2227811032741956e-05   1.1092470126815388e-05   1.671727309903153e-05
-4.2227811032741956e-05   1.1092470126815388e-05   1.671727309903153e-05
-4.2227811032741956e-05   1.1092470126815388e-05   1.671727309903153e-05
-4.2227811032741956e-05   1.1092470126815388e-05   1.671727309903153e-05
-6.244526426349707e-05   9.947025241874297e-06   -1.7665749216525233e-05
-6.244526426349707e-05   9.947025241874297e-06   -1.7665749216525233e-05
-6.244526426349707e-05   9.947025241874297e-06   -1.7665749216525233e-05
-6.244526426349707e-05   9.947025241874297e-06   -1.7665749216525233e-05
-6.410065552705575e-05   1.130663890336293e-05   2.3193268748758185e-05
-6.410065552705575e-05   1.130663890336293e-05   2.3193268748758185e-05
-6.410065552705575e-05   1.130663890336293e-05   2.3193268748758185e-05
-6.410065552705575e-05   1.130663890336293e-05   2.3193268748758185e-05
-4.327896139125125e-05   1.0053364585177471e-05   -1.0757590220004942e-05
-4.327896139125125e-05   1.0053364585177471e-05   -1.0757590220004942e-05
-4.327896139125125e-05   1.0053364585177471e-05   -1.0757590220004942e-05
-4.327896139125125e-05   1.0053364585177471e-05   -1.0757590220004942e-05
-5.098312233400044e-05   1.053757604014367e-05   1.7921511449309614e-06
-5.098312233400044e-05   1.053757604014367e-05   1.7921511449309614e-06
-5.098312233400044e-05   1.053757604014367e-05   1.7921511449309614e-06
-5.098312233400044e-05   1.053757604014367e-05   1.7921511449309614e-06
-4.327896139125114e-05   1.130663890336293e-05   2.3945233339669244e-05
-4.327896139125114e-05   1.130663890336293e-05   2.3945233339669244e-05
-4.327896139125114e-05   1.130663890336293e-05   2.3945233339669244e-05
-4.327896139125114e-05   1.130663890336293e-05   2.3945233339669244e-05
-6.410065552705594e-05   1.0053364585177471e-05   -1.1509554810916218e-05
-6.410065552705594e-05   1.0053364585177471e-05   -1.1509554810916218e-05
-6.410065552705594e-05   1.0053364585177471e-05   -1.1509554810916218e-05
-6.410065552705594e-05   1.0053364585177471e-05   -1.1509554810916218e-05
-6.571682006935588e-05   1.1225635575820396e-05   2.8232959639697564e-05
-6.571682006935588e-05   1.1225635575820396e-05   2.8232959639697564e-05
-6.571682006935588e-05   1.1225635575820396e-05   2.8232959639697564e-05
-6.571682006935588e-05   1.1225635575820396e-05   2.8232959639697564e-05
-4.4443807320669674e-05   9.942949315262881e-06   -6.452449851778873e-06
-4.4443807320669674e-05   9.942949315262881e-06   -6.452449851778873e-06
-4.4443807320669674e-05   9.942949315262881e-06   -6.452449851778873e-06
-4.4443807320669674e-05   9.942949315262881e-06   -6.452449851778873e-06
-5.301865628352286e-05   1.0730257915224362e-05   7.3665799263338124e-06
-5.301865628352286e-05   1.0730257915224362e-05   7.3665799263338124e-06
-5.301865628352286e-05   1.0730257915224362e-05   7.3665799263338124e-06
-5.301865628352286e-05   1.0730257915224362e-05   7.3665799263338124e-06
-4.4443807320669674e-05   1.1225635575819962e-05   2.900257139603203e-05
-4.4443807320669674e-05   1.1225635575819962e-05   2.900257139603203e-05
-4.4443807320669674e-05   1.1225635575819962e-05   2.900257139603203e-05
-4.4443807320669674e-05   1.1225635575819962e-05   2.900257139603203e-05
-6.57168200693561e-05   9.942949315262881e-06   -7.222061608113122e-06
-6.57168200693561e-05   9.942949315262881e-06   -7.222061608113122e-06
-6.57168200693561e-05   9.942949315262881e-06   -7.222061608113122e-06
-6.57168200693561e-05   9.942949315262881e-06   -7.222061608113122e-06
-6.760406430906938e-05   1.0335340784233503e-05   3.686535366491991e-05
-6.760406430906938e-05   1.0335340784233503e-05   3.686535366491991e-05
-6.760406430906938e-05   1.0335340784233503e-05   3.686535366491991e-05
-6.760406430906938e-05   1.0335340784233503e-05   3.686535366491991e-05
-4.5553860095624675e-05   9.176863492931734e-06   8.100996839593977e-07
-4.5553860095624675e-05   9.176863492931734e-06   8.100996839593977e-07
-4.5553860095624675e-05   9.176863492931734e-06   8.100996839593977e-07
-4.5553860095624675e-05   9.176863492931734e-06   8.100996839593977e-07
-5.3533217246491335e-05   1.0414144047495542e-05   1.3366659936000385e-05
-5.3533217246491335e-05   1.0414144047495542e-05   1.3366659936000385e-05
-5.3533217246491335e-05   1.0414144047495542e-05   1.3366659936000385e-05
-5.3533217246491335e-05   1.0414144047495542e-05   1.3366659936000385e-05
3.6246359502882905e-05   -4.8968307271852855e-06   3.0742190478388757e-05
3.6246359502882905e-05   -4.8968307271852855e-06   3.0742190478388757e-05
3.6246359502882905e-05   -4.8968307271852855e-06   3.0742190478388757e-05
3.6246359502882905e-05   -4.8968307271852855e-06   3.0742190478388757e-05
1.7062038702387947e-05   -3.2387739747458642e-06   -2.3684347097235013e-07
1.7062038702387947e-05   -3.2387739747458642e-06   -2.3684347097235013e-07
1.7062038702387947e-05   -3.2387739747458642e-06   -2.3684347097235013e-07
1.7062038702387947e-05   -3.2387739747458642e-06   -2.3684347097235013e-07
1.625575537731415e-05   -5.680695510079745e-06   2.7009779152756784e-05
1.625575537731415e-05   -5.680695510079745e-06   2.7009779152756784e-05
1.625575537731415e-05   -5.680695510079745e-06   2.7009779152756784e-05
1.625575537731415e-05   -5.680695510079745e-06   2.7009779152756784e-05
3.468623759314598e-05   -3.9300890971017376e-06   -4.758055054749873e-06
3.468623759314598e-05   -3.9300890971017376e-06   -4.758055054749873e-06
3.468623759314598e-05   -3.9300890971017376e-06   -4.758055054749873e-06
3.468623759314598e-05   -3.9300890971017376e-06   -4.758055054749873e-06
2.483665871382815e-05   -4.470220539241725e-06   1.1981988609397138e-05
2.483665871382815e-05   -4.470220539241725e-06   1.1981988609397138e-05
2.483665871382815e-05   -4.470220539241725e-06   1.1981988609397138e-05
2.483665871382815e-05   -4.470220539241725e-06   1.1981988609397138e-05
3.468623759314598e-05   -5.680695510079745e-06   2.595941530496998e-05
3.468623759314598e-05   -5.680695510079745e-06   2.595941530496998e-05
3.468623759314598e-05   -5.680695510079745e-06   2.595941530496998e-05
3.468623759314598e-05   -5.680695510079745e-06   2.595941530496998e-05
1.625575537731418e-05   -3.9300890971017376e-06   -3.707691206962906e-06
1.625575537731418e-05   -3.9300890971017376e-06   -3.707691206962906e-06
1.625575537731418e-05   -3.9300890971017376e-06   -3.707691206962906e-06
1.625575537731418e-05   -3.9300890971017376e-06   -3.707691206962906e-06
1.536569635797424e-05   -5.837999662429948e-06   2.4386411405578814e-05
1.536569635797424e-05   -5.837999662429948e-06   2.4386411405578814e-05
1.536569635797424e-05   -5.837999662429948e-06   2.4386411405578814e-05
1.536569635797424e-05   -5.837999662429948e-06   2.4386411405578814e-05
3.3318804933555257e-05   -4.114640097823861e-06   -6.569451959153084e-06
3.3318804933555257e-05   -4.114640097823861e-06   -6.569451959153084e-06
3.3318804933555257e-05   -4.114640097823861e-06   -6.569451959153084e-06
3.3318804933555257e-05   -4.114640097823861e-06   -6.569451959153084e-06
2.4190980783219373e-05   -4.750778079244461e-06   9.025271080259655e-06
2.4190980783219373e-05   -4.750778079244461e-06   9.025271080259655e-06
2.4190980783219373e-05   -4.750778079244461e-06   9.025271080259655e-06
2.4190980783219373e-05   -4.750778079244461e-06   9.025271080259655e-06
3.33188049335552e-05   -5.837999662429948e-06   2.3352395666815205e-05
3.33188049335552e-05   -5.837999662429948e-06   2.3352395666815205e-05
3.33188049335552e-05   -5.837999662429948e-06   2.3352395666815205e-05
3.33188049335552e-05   -5.837999662429948e-06   2.3352395666815205e-05
1.5365696357974267e-05   -4.114640097823861e-06   -5.535436220389543e-06
1.5365696357974267e-05   -4.114640097823861e-06   -5.535436220389543e-06
1.5365696357974267e-05   -4.114640097823861e-06   -5.535436220389543e-06
1.5365696357974267e-05   -4.114640097823861e-06   -5.535436220389543e-06
1.4543779693690131e-05   -5.900713913883828e-06   2.083222008183029e-05
1.4543779693690131e-05   -5.900713913883828e-06   2.083222008183029e-05
1.4543779693690131e-05   -5.900713913883828e-06   2.083222008183029e-05
1.4543779693690131e-05   -5.900713913883828e-06   2.083222008183029e-05
3.1790758734670855e-05   -4.2864961300452965e-06   -8.881275656773827e-06
3.1790758734670855e-05   -4.2864961300452965e-06   -8.881275656773827e-06
3.1790758734670855e-05   -4.2864961300452965e-06   -8.881275656773827e-06
3.1790758734670855e-05   -4.2864961300452965e-06   -8.881275656773827e-06
2.276265234283166e-05   -4.723280967890544e-06   6.4276392323323614e-06
2.276265234283166e-05   -4.723280967890544e-06   6.4276392323323614e-06
2.276265234283166e-05   -4.723280967890544e-06   6.4276392323323614e-06
2.276265234283166e-05   -4.723280967890544e-06   6.4276392323323614e-06
1.7062038702387893e-05   -9.369554096277065e-07   3.49394080465127e-05
1.7062038702387893e-05   -9.369554096277065e-07   3.49394080465127e-05
1.7062038702387893e-05   -9.369554096277065e-07   3.49394080465127e-05
1.7062038702387893e-05   -9.369554096277065e-07   3.49394080465127e-05
-1.0952319758051986e-06   -1.7934603013846154e-08   5.228702733492841e-06
-1.0952319758051986e-06   -1.7934603013846154e-08   5.228702733492841e-06
-1.0952319758051986e-06   -1.7934603013846154e-08   5.228702733492841e-06
-1.0952319758051986e-06   -1.7934603013846154e-08   5.228702733492841e-06
-1.8533170525688344e-06   -1.492566418540616e-06   3.500066934752802e-05
-1.8533170525688344e-06   -1.492566418540616e-06   3.500066934752802e-05
-1.8533170525688344e-06   -1.492566418540616e-06   3.500066934752802e-05
-1.8533170525688344e-06   -1.492566418540616e-06   3.500066934752802e-05
1.625575537731418e-05   -6.190294343164093e-07   4.294759773855372e-06
1.625575537731418e-05   -6.190294343164093e-07   4.294759773855372e-06
1.625575537731418e-05   -6.190294343164093e-07   4.294759773855372e-06
1.625575537731418e-05   -6.190294343164093e-07   4.294759773855372e-06
7.46927744491213e-06   -7.884782188007609e-07   1.9040558931882664e-05
7.46927744491213e-06   -7.884782188007609e-07   1.9040558931882664e-05
7.46927744491213e-06   -7.884782188007609e-07   1.9040558931882664e-05
7.46927744491213e-06   -7.884782188007609e-07   1.9040558931882664e-05
1.625575537731413e-05   -1.4925664185401824e-06   3.447654715699362e-05
1.625575537731413e-05   -1.4925664185401824e-06   3.447654715699362e-05
1.625575537731413e-05   -1.4925664185401824e-06   3.447654715699362e-05
1.625575537731413e-05   -1.4925664185401824e-06   3.447654715699362e-05
-1.8533170525688344e-06   -6.190294343164093e-07   4.818881964389508e-06
-1.8533170525688344e-06   -6.190294343164093e-07   4.818881964389508e-06
-1.8533170525688344e-06   -6.190294343164093e-07   4.818881964389508e-06
-1.8533170525688344e-06   -6.190294343164093e-07   4.818881964389508e-06
-2.627558298700836e-06   -1.9050225937298007e-06   3.447282856357107e-05
-2.627558298700836e-06   -1.9050225937298007e-06   3.447282856357107e-05
-2.627558298700836e-06   -1.9050225937298007e-06   3.447282856357107e-05
-2.627558298700836e-06   -1.9050225937298007e-06   3.447282856357107e-05
1.5365696357974267e-05   -1.0926355956133137e-06   3.99663860357625e-06
1.5365696357974267e-05   -1.0926355956133137e-06   3.99663860357625e-06
1.5365696357974267e-05   -1.0926355956133137e-06   3.99663860357625e-06
1.5365696357974267e-05   -1.0926355956133137e-06   3.99663860357625e-06
6.61877743343164e-06   -1.1593347065555829e-06   1.8614856277713687e-05
6.61877743343164e-06   -1.1593347065555829e-06   1.8614856277713687e-05
6.61877743343164e-06   -1.1593347065555829e-06   1.8614856277713687e-05
6.61877743343164e-06   -1.1593347065555829e-06   1.8614856277713687e-05
1.536569635797424e-05   -1.9050225937298007e-06   3.398539636470131e-05
1.536569635797424e-05   -1.9050225937298007e-06   3.398539636470131e-05
1.536569635797424e-05   -1.9050225937298007e-06   3.398539636470131e-05
1.536569635797424e-05   -1.9050225937298007e-06   3.398539636470131e-05
-2.627558298700836e-06   -1.0926355956133137e-06   4.484070802446066e-06
-2.627558298700836e-06   -1.0926355956133137e-06   4.484070802446066e-06
-2.627558298700836e-06   -1.0926355956133137e-06   4.484070802446066e-06
-2.627558298700836e-06   -1.0926355956133137e-06   4.484070802446066e-06
-3.4060164822671173e-06   -2.2300547647606354e-06   3.4711941919799956e-05
-3.4060164822671173e-06   -2.2300547647606354e-06   3.4711941919799956e-05
-3.4060164822671173e-06   -2.2300547647606354e-06   3.4711941919799956e-05
-3.4060164822671173e-06   -2.2300547647606354e-06   3.4711941919799956e-05
1.4543779693690145e-05   -1.5310078306804767e-06   4.376186799423098e-06
1.4543779693690145e-05   -1.5310078306804767e-06   4.376186799423098e-06
1.4543779693690145e-05   -1.5310078306804767e-06   4.376186799423098e-06
1.4543779693690145e-05   -1.5310078306804767e-06   4.376186799423098e-06
5.969592582582261e-06   -1.4336191742417292e-06   1.8608065457407e-05
5.969592582582261e-06   -1.4336191742417292e-06   1.8608065457407e-05
5.969592582582261e-06   -1.4336191742417292e-06   1.8608065457407e-05
5.969592582582261e-06   -1.4336191742417292e-06   1.8608065457407e-05
-1.0952319758051986e-06   3.0386831262685723e-06   3.698770230378158e-05
-1.0952319758051986e-06   3.0386831262685723e-06   3.698770230378158e-05
-1.0952319758051986e-06   3.0386831262685723e-06   3.698770230378158e-05
-1.0952319758051986e-06   3.0386831262685723e-06   3.698770230378158e-05
-1.8871529407835688e-05   3.128178516537952e-06   7.4142371512258155e-06
-1.8871529407835688e-05   3.128178516537952e-06   7.4142371512258155e-06
-1.8871529407835688e-05   3.128178516537952e-06   7.4142371512258155e-06
-1.8871529407835688e-05   3.128178516537952e-06   7.4142371512258155e-06
-1.96337634033845e-05   2.5766682416224207e-06   3.6875821102632734e-05
-1.96337634033845e-05   2.5766682416224207e-06   3.6875821102632734e-05
-1.96337634033845e-05   2.5766682416224207e-06   3.6875821102632734e-05
-1.96337634033845e-05   2.5766682416224207e-06   3.6875821102632734e-05
-1.853317052568848e-06   2.6002357867785115e-06   7.227603324179519e-06
-1.853317052568848e-06   2.6002357867785115e-06   7.227603324179519e-06
-1.853317052568848e-06   2.6002357867785115e-06   7.227603324179519e-06
-1.853317052568848e-06   2.6002357867785115e-06   7.227603324179519e-06
-1.0390342233179025e-05   2.7862317484997953e-06   2.1344381048163798e-05
-1.0390342233179025e-05   2.7862317484997953e-06   2.1344381048163798e-05
-1.0390342233179025e-05   2.7862317484997953e-06   2.1344381048163798e-05
-1.0390342233179025e-05   2.7862317484997953e-06   2.1344381048163798e-05
-1.853317052568848e-06   2.5766682416224207e-06   3.686168057553908e-05
-1.853317052568848e-06   2.5766682416224207e-06   3.686168057553908e-05
-1.853317052568848e-06   2.5766682416224207e-06   3.686168057553908e-05
-1.853317052568848e-06   2.5766682416224207e-06   3.686168057553908e-05
-1.96337634033845e-05   2.6002357867785115e-06   7.2417438512733905e-06
-1.96337634033845e-05   2.6002357867785115e-06   7.2417438512733905e-06
-1.96337634033845e-05   2.6002357867785115e-06   7.2417438512733905e-06
-1.96337634033845e-05   2.6002357867785115e-06   7.2417438512733905e-06
-2.0414994860674783e-05   2.1280667714977317e-06   3.7077048001519586e-05
-2.0414994860674783e-05   2.1280667714977317e-06   3.7077048001519586e-05
-2.0414994860674783e-05   2.1280667714977317e-06   3.7077048001519586e-05
-2.0414994860674783e-05   2.1280667714977317e-06   3.7077048001519586e-05
-2.6275582987008496e-06   2.0806828521528677e-06   7.459750749836319e-06
-2.6275582987008496e-06   2.0806828521528677e-06   7.459750749836319e-06
-2.6275582987008496e-06   2.0806828521528677e-06   7.459750749836319e-06
-2.6275582987008496e-06   2.0806828521528677e-06   7.459750749836319e-06
-1.1097985494033586e-05   2.431366854355275e-06   2.1366719007403893e-05
-1.1097985494033586e-05   2.431366854355275e-06   2.1366719007403893e-05
-1.1097985494033586e-05   2.431366854355275e-06   2.1366719007403893e-05
-1.1097985494033586e-05   2.431366854355275e-06   2.1366719007403893e-05
-2.6275582987008496e-06   2.1280667714977317e-06   3.7105478353126374e-05
-2.6275582987008496e-06   2.1280667714977317e-06   3.7105478353126374e-05
-2.6275582987008496e-06   2.1280667714977317e-06   3.7105478353126374e-05
-2.6275582987008496e-06   2.1280667714977317e-06   3.7105478353126374e-05
-2.0414994860674783e-05   2.0806828521528677e-06   7.431320398229775e-06
-2.0414994860674783e-05   2.0806828521528677e-06   7.431320398229775e-06
-2.0414994860674783e-05   2.0806828521528677e-06   7.431320398229775e-06
-2.0414994860674783e-05   2.0806828521528677e-06   7.431320398229775e-06
-2.119588159481007e-05   1.7287781858346674e-06   3.7536978317550575e-05
-2.119588159481007e-05   1.7287781858346674e-06   3.7536978317550575e-05
-2.119588159481007e-05   1.7287781858346674e-06   3.7536978317550575e-05
-2.119588159481007e-05   1.7287781858346674e-06   3.7536978317550575e-05
-3.4060164822671173e-06   1.5876881862073988e-06   7.971857129755608e-06
-3.4060164822671173e-06   1.5876881862073988e-06   7.971857129755608e-06
-3.4060164822671173e-06   1.5876881862073988e-06   7.971857129755608e-06
-3.4060164822671173e-06   1.5876881862073988e-06   7.971857129755608e-06
-1.1838855119635214e-05   2.0856034847974853e-06   2.1727839012882313e-05
-1.1838855119635214e-05   2.0856034847974853e-06   2.1727839012882313e-05
-1.1838855119635214e-05   2.0856034847974853e-06   2.1727839012882313e-05
-1.1838855119635214e-05   2.0856034847974853e-06   2.1727839012882313e-05
-1.887152940783566e-05   6.906973106303102e-06   3.254179804133774e-05
-1.887152940783566e-05   6.906973106303102e-06   3.254179804133774e-05
-1.887152940783566e-05   6.906973106303102e-06   3.254179804133774e-05
-1.887152940783566e-05   6.906973106303102e-06   3.254179804133774e-05
-3.625711202644716e-05   6.156104723002405e-06   3.1153059803381124e-06
-3.625711202644716e-05   6.156104723002405e-06   3.1153059803381124e-06
-3.625711202644716e-05   6.156104723002405e-06   3.1153059803381124e-06
-3.625711202644716e-05   6.156104723002405e-06   3.1153059803381124e-06
-3.7077348873474784e-05   6.466064018858034e-06   3.232957591059915e-05
-3.7077348873474784e-05   6.466064018858034e-06   3.232957591059915e-05
-3.7077348873474784e-05   6.466064018858034e-06   3.232957591059915e-05
-3.7077348873474784e-05   6.466064018858034e-06   3.232957591059915e-05
-1.9633763403384554e-05   5.650686536098426e-06   3.746159950104703e-06
-1.9633763403384554e-05   5.650686536098426e-06   3.746159950104703e-06
-1.9633763403384554e-05   5.650686536098426e-06   3.746159950104703e-06
-1.9633763403384554e-05   5.650686536098426e-06   3.746159950104703e-06
-2.7867508845971024e-05   6.212638190620373e-06   1.7131898028369097e-05
-2.7867508845971024e-05   6.212638190620373e-06   1.7131898028369097e-05
-2.7867508845971024e-05   6.212638190620373e-06   1.7131898028369097e-05
-2.7867508845971024e-05   6.212638190620373e-06   1.7131898028369097e-05
-1.96337634033845e-05   6.466064018858034e-06   3.281880240025496e-05
-1.96337634033845e-05   6.466064018858034e-06   3.281880240025496e-05
-1.96337634033845e-05   6.466064018858034e-06   3.281880240025496e-05
-1.96337634033845e-05   6.466064018858034e-06   3.281880240025496e-05
-3.7077348873474784e-05   5.650686536098426e-06   3.256933460448895e-06
-3.7077348873474784e-05   5.650686536098426e-06   3.256933460448895e-06
-3.7077348873474784e-05   5.650686536098426e-06   3.256933460448895e-06
-3.7077348873474784e-05   5.650686536098426e-06   3.256933460448895e-06
-3.798021549539834e-05   6.059354439133958e-06   3.354181223189307e-05
-3.798021549539834e-05   6.059354439133958e-06   3.354181223189307e-05
-3.798021549539834e-05   6.059354439133958e-06   3.354181223189307e-05
-3.798021549539834e-05   6.059354439133958e-06   3.354181223189307e-05
-2.0414994860674837e-05   5.1795874065948405e-06   4.794304726877597e-06
-2.0414994860674837e-05   5.1795874065948405e-06   4.794304726877597e-06
-2.0414994860674837e-05   5.1795874065948405e-06   4.794304726877597e-06
-2.0414994860674837e-05   5.1795874065948405e-06   4.794304726877597e-06
-2.845592604112075e-05   5.890041287943482e-06   1.776958436547902e-05
-2.845592604112075e-05   5.890041287943482e-06   1.776958436547902e-05
-2.845592604112075e-05   5.890041287943482e-06   1.776958436547902e-05
-2.845592604112075e-05   5.890041287943482e-06   1.776958436547902e-05
-2.041499486067481e-05   6.059354439133958e-06   3.4069672451416885e-05
-2.041499486067481e-05   6.059354439133958e-06   3.4069672451416885e-05
-2.041499486067481e-05   6.059354439133958e-06   3.4069672451416885e-05
-2.041499486067481e-05   6.059354439133958e-06   3.4069672451416885e-05
-3.798021549539834e-05   5.1795874065948405e-06   4.266444507353942e-06
-3.798021549539834e-05   5.1795874065948405e-06   4.266444507353942e-06
-3.798021549539834e-05   5.1795874065948405e-06   4.266444507353942e-06
-3.798021549539834e-05   5.1795874065948405e-06   4.266444507353942e-06
-3.88056546337673e-05   5.562448814627145e-06   3.4452578996026174e-05
-3.88056546337673e-05   5.562448814627145e-06   3.4452578996026174e-05
-3.88056546337673e-05   5.562448814627145e-06   3.4452578996026174e-05
-3.88056546337673e-05   5.562448814627145e-06   3.4452578996026174e-05
-2.1195881594810123e-05   4.630828446034255e-06   5.661929485586384e-06
-2.1195881594810123e-05   4.630828446034255e-06   5.661929485586384e-06
-2.1195881594810123e-05   4.630828446034255e-06   5.661929485586384e-06
-2.1195881594810123e-05   4.630828446034255e-06   5.661929485586384e-06
-2.9392875385180392e-05   5.525964408387932e-06   1.878650422545969e-05
-2.9392875385180392e-05   5.525964408387932e-06   1.878650422545969e-05
-2.9392875385180392e-05   5.525964408387932e-06   1.878650422545969e-05
-2.9392875385180392e-05   5.525964408387932e-06   1.878650422545969e-05
-3.625711202644716e-05   9.947025241874297e-06   1.5738239761080514e-05
-3.625711202644716e-05   9.947025241874297e-06   1.5738239761080514e-05
-3.625711202644716e-05   9.947025241874297e-06   1.5738239761080514e-05
-3.625711202644716e-05   9.947025241874297e-06   1.5738239761080514e-05
-5.277078468150911e-05   8.486325151812416e-06   -1.266096805139312e-05
-5.277078468150911e-05   8.486325151812416e-06   -1.266096805139312e-05
-5.277078468150911e-05   8.486325151812416e-06   -1.266096805139312e-05
-5.277078468150911e-05   8.486325151812416e-06   -1.266096805139312e-05
-5.4245099518899326e-05   1.0053364585177471e-05   2.0918108562729965e-05
-5.4245099518899326e-05   1.0053364585177471e-05   2.0918108562729965e-05
-5.4245099518899326e-05   1.0053364585177471e-05   2.0918108562729965e-05
-5.4245099518899326e-05   1.0053364585177471e-05   2.0918108562729965e-05
-3.7077348873474784e-05   8.44453554091503e-06   -6.729511753087087e-06
-3.7077348873474784e-05   8.44453554091503e-06   -6.729511753087087e-06
-3.7077348873474784e-05   8.44453554091503e-06   -6.729511753087087e-06
-3.7077348873474784e-05   8.44453554091503e-06   -6.729511753087087e-06
-4.337211527929962e-05   9.097334211084817e-06   3.3700863878526445e-06
-4.337211527929962e-05   9.097334211084817e-06   3.3700863878526445e-06
-4.337211527929962e-05   9.097334211084817e-06   3.3700863878526445e-06
-4.337211527929962e-05   9.097334211084817e-06   3.3700863878526445e-06
-3.707734887347476e-05   1.0053364585177471e-05   2.188340598928743e-05
-3.707734887347476e-05   1.0053364585177471e-05   2.188340598928743e-05
-3.707734887347476e-05   1.0053364585177471e-05   2.188340598928743e-05
-3.707734887347476e-05   1.0053364585177471e-05   2.188340598928743e-05
-5.4245099518899435e-05   8.44453554091503e-06   -7.694809179644444e-06
-5.4245099518899435e-05   8.44453554091503e-06   -7.694809179644444e-06
-5.4245099518899435e-05   8.44453554091503e-06   -7.694809179644444e-06
-5.4245099518899435e-05   8.44453554091503e-06   -7.694809179644444e-06
-5.5564945729186504e-05   9.942949315262881e-06   2.5101844632338926e-05
-5.5564945729186504e-05   9.942949315262881e-06   2.5101844632338926e-05
-5.5564945729186504e-05   9.942949315262881e-06   2.5101844632338926e-05
-5.5564945729186504e-05   9.942949315262881e-06   2.5101844632338926e-05
-3.798021549539834e-05   8.272665784475218e-06   -3.2038689721689776e-06
-3.798021549539834e-05   8.272665784475218e-06   -3.2038689721689776e-06
-3.798021549539834e-05   8.272665784475218e-06   -3.2038689721689776e-06
-3.798021549539834e-05   8.272665784475218e-06   -3.2038689721689776e-06
-4.506757216099077e-05   9.198035985153851e-06   8.053170016746449e-06
-4.506757216099077e-05   9.198035985153851e-06   8.053170016746449e-06
-4.506757216099077e-05   9.198035985153851e-06   8.053170016746449e-06
-4.506757216099077e-05   9.198035985153851e-06   8.053170016746449e-06
-3.798021549539834e-05   9.942949315262881e-06   2.6104014750811567e-05
-3.798021549539834e-05   9.942949315262881e-06   2.6104014750811567e-05
-3.798021549539834e-05   9.942949315262881e-06   2.6104014750811567e-05
-3.798021549539834e-05   9.942949315262881e-06   2.6104014750811567e-05
-5.556494572918661e-05   8.272665784475218e-06   -4.206039090641402e-06
-5.556494572918661e-05   8.272665784475218e-06   -4.206039090641402e-06
-5.556494572918661e-05   8.272665784475218e-06   -4.206039090641402e-06
-5.556494572918661e-05   8.272665784475218e-06   -4.206039090641402e-06
-5.7081337854168474e-05   9.176863492931734e-06   3.229931063852072e-05
-5.7081337854168474e-05   9.176863492931734e-06   3.229931063852072e-05
-5.7081337854168474e-05   9.176863492931734e-06   3.229931063852072e-05
-5.7081337854168474e-05   9.176863492931734e-06   3.229931063852072e-05
-3.88056546337673e-05   7.514003843567306e-06   2.8375543941374227e-06
-3.88056546337673e-05   7.514003843567306e-06   2.8375543941374227e-06
-3.88056546337673e-05   7.514003843567306e-06   2.8375543941374227e-06
-3.88056546337673e-05   7.514003843567306e-06   2.8375543941374227e-06
-4.542865383878445e-05   8.883422877192359e-06   1.3054234982325184e-05
-4.542865383878445e-05   8.883422877192359e-06   1.3054234982325184e-05
-4.542865383878445e-05   8.883422877192359e-06   1.3054234982325184e-05
-4.542865383878445e-05   8.883422877192359e-06   1.3054234982325184e-05
2.499221163016666e-05   -3.2387739747458642e-06   2.5039748436846707e-05
2.499221163016666e-05   -3.2387739747458642e-06   2.5039748436846707e-05
2.499221163016666e-05   -3.2387739747458642e-06   2.5039748436846707e-05
2.499221163016666e-05   -3.2387739747458642e-06   2.5039748436846707e-05
1.0371469186798411e-05   -1.5948805292187104e-06   1.6581804318826273e-06
1.0371469186798411e-05   -1.5948805292187104e-06   1.6581804318826273e-06
1.0371469186798411e-05   -1.5948805292187104e-06   1.6581804318826273e-06
1.0371469186798411e-05   -1.5948805292187104e-06   1.6581804318826273e-06
9.722749780762172e-06   -3.9300890971017376e-06   2.2510709641260793e-05
9.722749780762172e-06   -3.9300890971017376e-06   2.2510709641260793e-05
9.722749780762172e-06   -3.9300890971017376e-06   2.2510709641260793e-05
9.722749780762172e-06   -3.9300890971017376e-06   2.2510709641260793e-05
2.3611042044675963e-05   -2.213496056064539e-06   -1.666399956551162e-06
2.3611042044675963e-05   -2.213496056064539e-06   -1.666399956551162e-06
2.3611042044675963e-05   -2.213496056064539e-06   -1.666399956551162e-06
2.3611042044675963e-05   -2.213496056064539e-06   -1.666399956551162e-06
1.6320001271525616e-05   -2.8100765490811017e-06   1.0843282961176589e-05
1.6320001271525616e-05   -2.8100765490811017e-06   1.0843282961176589e-05
1.6320001271525616e-05   -2.8100765490811017e-06   1.0843282961176589e-05
1.6320001271525616e-05   -2.8100765490811017e-06   1.0843282961176589e-05
2.3611042044676004e-05   -3.930089097101954e-06   2.1480753816638604e-05
2.3611042044676004e-05   -3.930089097101954e-06   2.1480753816638604e-05
2.3611042044676004e-05   -3.930089097101954e-06   2.1480753816638604e-05
2.3611042044676004e-05   -3.930089097101954e-06   2.1480753816638604e-05
9.722749780762138e-06   -2.213496056064539e-06   -6.364441319289729e-07
9.722749780762138e-06   -2.213496056064539e-06   -6.364441319289729e-07
9.722749780762138e-06   -2.213496056064539e-06   -6.364441319289729e-07
9.722749780762138e-06   -2.213496056064539e-06   -6.364441319289729e-07
8.994010573777425e-06   -4.114640097823861e-06   2.063290749466885e-05
8.994010573777425e-06   -4.114640097823861e-06   2.063290749466885e-05
8.994010573777425e-06   -4.114640097823861e-06   2.063290749466885e-05
8.994010573777425e-06   -4.114640097823861e-06   2.063290749466885e-05
2.2425266222068868e-05   -2.426326412030902e-06   -2.7655067972926812e-06
2.2425266222068868e-05   -2.426326412030902e-06   -2.7655067972926812e-06
2.2425266222068868e-05   -2.426326412030902e-06   -2.7655067972926812e-06
2.2425266222068868e-05   -2.426326412030902e-06   -2.7655067972926812e-06
1.570622693701141e-05   -3.072516054060826e-06   8.820605796355015e-06
1.570622693701141e-05   -3.072516054060826e-06   8.820605796355015e-06
1.570622693701141e-05   -3.072516054060826e-06   8.820605796355015e-06
1.570622693701141e-05   -3.072516054060826e-06   8.820605796355015e-06
2.242526622206891e-05   -4.114640097823861e-06   1.9619919283192988e-05
2.242526622206891e-05   -4.114640097823861e-06   1.9619919283192988e-05
2.242526622206891e-05   -4.114640097823861e-06   1.9619919283192988e-05
2.242526622206891e-05   -4.114640097823861e-06   1.9619919283192988e-05
8.994010573777408e-06   -2.426326412030902e-06   -1.7525185858169139e-06
8.994010573777408e-06   -2.426326412030902e-06   -1.7525185858169139e-06
8.994010573777408e-06   -2.426326412030902e-06   -1.7525185858169139e-06
8.994010573777408e-06   -2.426326412030902e-06   -1.7525185858169139e-06
8.340715166142227e-06   -4.2864961300452965e-06   1.8193618597913243e-05
8.340715166142227e-06   -4.2864961300452965e-06   1.8193618597913243e-05
8.340715166142227e-06   -4.2864961300452965e-06   1.8193618597913243e-05
8.340715166142227e-06   -4.2864961300452965e-06   1.8193618597913243e-05
2.1080114658857463e-05   -2.707262028897508e-06   -3.986254350633788e-06
2.1080114658857463e-05   -2.707262028897508e-06   -3.986254350633788e-06
2.1080114658857463e-05   -2.707262028897508e-06   -3.986254350633788e-06
2.1080114658857463e-05   -2.707262028897508e-06   -3.986254350633788e-06
1.45674154906147e-05   -3.123665341970812e-06   7.118086250947758e-06
1.45674154906147e-05   -3.123665341970812e-06   7.118086250947758e-06
1.45674154906147e-05   -3.123665341970812e-06   7.118086250947758e-06
1.45674154906147e-05   -3.123665341970812e-06   7.118086250947758e-06
1.0371469186798448e-05   -1.7934603013629313e-08   3.094021822465983e-05
1.0371469186798448e-05   -1.7934603013629313e-08   3.094021822465983e-05
1.0371469186798448e-05   -1.7934603013629313e-08   3.094021822465983e-05
1.0371469186798448e-05   -1.7934603013629313e-08   3.094021822465983e-05
-3.347227339562601e-06   8.169850290592421e-07   8.576675793302009e-06
-3.347227339562601e-06   8.169850290592421e-07   8.576675793302009e-06
-3.347227339562601e-06   8.169850290592421e-07   8.576675793302009e-06
-3.347227339562601e-06   8.169850290592421e-07   8.576675793302009e-06
-3.943368034109101e-06   -6.190294343164093e-07   3.099914746683874e-05
-3.943368034109101e-06   -6.190294343164093e-07   3.099914746683874e-05
-3.943368034109101e-06   -6.190294343164093e-07   3.099914746683874e-05
-3.943368034109101e-06   -6.190294343164093e-07   3.099914746683874e-05
9.722749780762138e-06   1.9094864028281963e-07   7.73629759729374e-06
9.722749780762138e-06   1.9094864028281963e-07   7.73629759729374e-06
9.722749780762138e-06   1.9094864028281963e-07   7.73629759729374e-06
9.722749780762138e-06   1.9094864028281963e-07   7.73629759729374e-06
3.1030663205023183e-06   3.89152827137175e-08   1.88603233789356e-05
3.1030663205023183e-06   3.89152827137175e-08   1.88603233789356e-05
3.1030663205023183e-06   3.89152827137175e-08   1.88603233789356e-05
3.1030663205023183e-06   3.89152827137175e-08   1.88603233789356e-05
9.722749780762165e-06   -6.190294343164093e-07   3.0513160622079247e-05
9.722749780762165e-06   -6.190294343164093e-07   3.0513160622079247e-05
9.722749780762165e-06   -6.190294343164093e-07   3.0513160622079247e-05
9.722749780762165e-06   -6.190294343164093e-07   3.0513160622079247e-05
-3.943368034109101e-06   1.9094864028281963e-07   8.222284442053465e-06
-3.943368034109101e-06   1.9094864028281963e-07   8.222284442053465e-06
-3.943368034109101e-06   1.9094864028281963e-07   8.222284442053465e-06
-3.943368034109101e-06   1.9094864028281963e-07   8.222284442053465e-06
-4.552907476709154e-06   -1.0926355956133137e-06   3.0627880755450644e-05
-4.552907476709154e-06   -1.0926355956133137e-06   3.0627880755450644e-05
-4.552907476709154e-06   -1.0926355956133137e-06   3.0627880755450644e-05
-4.552907476709154e-06   -1.0926355956133137e-06   3.0627880755450644e-05
8.994010573777408e-06   -3.2113820091941685e-07   7.5867855678236665e-06
8.994010573777408e-06   -3.2113820091941685e-07   7.5867855678236665e-06
8.994010573777408e-06   -3.2113820091941685e-07   7.5867855678236665e-06
8.994010573777408e-06   -3.2113820091941685e-07   7.5867855678236665e-06
2.4475089327554446e-06   -3.7853179473464754e-07   1.8532057792483667e-05
2.4475089327554446e-06   -3.7853179473464754e-07   1.8532057792483667e-05
2.4475089327554446e-06   -3.7853179473464754e-07   1.8532057792483667e-05
2.4475089327554446e-06   -3.7853179473464754e-07   1.8532057792483667e-05
8.994010573777438e-06   -1.0926355956133137e-06   3.016498231863448e-05
8.994010573777438e-06   -1.0926355956133137e-06   3.016498231863448e-05
8.994010573777438e-06   -1.0926355956133137e-06   3.016498231863448e-05
8.994010573777438e-06   -1.0926355956133137e-06   3.016498231863448e-05
-4.552907476709168e-06   -3.2113820091941685e-07   8.049684004640028e-06
-4.552907476709168e-06   -3.2113820091941685e-07   8.049684004640028e-06
-4.552907476709168e-06   -3.2113820091941685e-07   8.049684004640028e-06
-4.552907476709168e-06   -3.2113820091941685e-07   8.049684004640028e-06
-5.157347785728932e-06   -1.5310078306804767e-06   3.0905824877844974e-05
-5.157347785728932e-06   -1.5310078306804767e-06   3.0905824877844974e-05
-5.157347785728932e-06   -1.5310078306804767e-06   3.0905824877844974e-05
-5.157347785728932e-06   -1.5310078306804767e-06   3.0905824877844974e-05
8.340715166142193e-06   -8.255503406177835e-07   7.985778797355265e-06
8.340715166142193e-06   -8.255503406177835e-07   7.985778797355265e-06
8.340715166142193e-06   -8.255503406177835e-07   7.985778797355265e-06
8.340715166142193e-06   -8.255503406177835e-07   7.985778797355265e-06
1.9298132791118458e-06   -7.263470390482616e-07   1.8611093294797535e-05
1.9298132791118458e-06   -7.263470390482616e-07   1.8611093294797535e-05
1.9298132791118458e-06   -7.263470390482616e-07   1.8611093294797535e-05
1.9298132791118458e-06   -7.263470390482616e-07   1.8611093294797535e-05
-3.3472273395625875e-06   3.128178516537952e-06   3.357300718747486e-05
-3.3472273395625875e-06   3.128178516537952e-06   3.357300718747486e-05
-3.3472273395625875e-06   3.128178516537952e-06   3.357300718747486e-05
-3.3472273395625875e-06   3.128178516537952e-06   3.357300718747486e-05
-1.6839480268344292e-05   3.079004784981021e-06   1.1056414733904619e-05
-1.6839480268344292e-05   3.079004784981021e-06   1.1056414733904619e-05
-1.6839480268344292e-05   3.079004784981021e-06   1.1056414733904619e-05
-1.6839480268344292e-05   3.079004784981021e-06   1.1056414733904619e-05
-1.742768415573454e-05   2.6002357867785115e-06   3.335392339433546e-05
-1.742768415573454e-05   2.6002357867785115e-06   3.335392339433546e-05
-1.742768415573454e-05   2.6002357867785115e-06   3.335392339433546e-05
-1.742768415573454e-05   2.6002357867785115e-06   3.335392339433546e-05
-3.943368034109088e-06   2.510326732956718e-06   1.09340086239196e-05
-3.943368034109088e-06   2.510326732956718e-06   1.09340086239196e-05
-3.943368034109088e-06   2.510326732956718e-06   1.09340086239196e-05
-3.943368034109088e-06   2.510326732956718e-06   1.09340086239196e-05
-1.0415374750625328e-05   2.7591901100897445e-06   2.1571368458500812e-05
-1.0415374750625328e-05   2.7591901100897445e-06   2.1571368458500812e-05
-1.0415374750625328e-05   2.7591901100897445e-06   2.1571368458500812e-05
-1.0415374750625328e-05   2.7591901100897445e-06   2.1571368458500812e-05
-3.943368034109101e-06   2.6002357867787283e-06   3.3407868826628535e-05
-3.943368034109101e-06   2.6002357867787283e-06   3.3407868826628535e-05
-3.943368034109101e-06   2.6002357867787283e-06   3.3407868826628535e-05
-3.943368034109101e-06   2.6002357867787283e-06   3.3407868826628535e-05
-1.742768415573454e-05   2.510326732956718e-06   1.0880063191626523e-05
-1.742768415573454e-05   2.510326732956718e-06   1.0880063191626523e-05
-1.742768415573454e-05   2.510326732956718e-06   1.0880063191626523e-05
-1.742768415573454e-05   2.510326732956718e-06   1.0880063191626523e-05
-1.803001124810484e-05   2.0806828521528677e-06   3.352405792538416e-05
-1.803001124810484e-05   2.0806828521528677e-06   3.352405792538416e-05
-1.803001124810484e-05   2.0806828521528677e-06   3.352405792538416e-05
-1.803001124810484e-05   2.0806828521528677e-06   3.352405792538416e-05
-4.552907476709141e-06   1.9481782230579368e-06   1.1141721083848631e-05
-4.552907476709141e-06   1.9481782230579368e-06   1.1141721083848631e-05
-4.552907476709141e-06   1.9481782230579368e-06   1.1141721083848631e-05
-4.552907476709141e-06   1.9481782230579368e-06   1.1141721083848631e-05
-1.0954014284097875e-05   2.3465186878488236e-06   2.1571228150622378e-05
-1.0954014284097875e-05   2.3465186878488236e-06   2.1571228150622378e-05
-1.0954014284097875e-05   2.3465186878488236e-06   2.1571228150622378e-05
-1.0954014284097875e-05   2.3465186878488236e-06   2.1571228150622378e-05
-4.552907476709154e-06   2.0806828521528677e-06   3.360356070284125e-05
-4.552907476709154e-06   2.0806828521528677e-06   3.360356070284125e-05
-4.552907476709154e-06   2.0806828521528677e-06   3.360356070284125e-05
-4.552907476709154e-06   2.0806828521528677e-06   3.360356070284125e-05
-1.803001124810484e-05   1.9481782230579368e-06   1.1062218306391678e-05
-1.803001124810484e-05   1.9481782230579368e-06   1.1062218306391678e-05
-1.803001124810484e-05   1.9481782230579368e-06   1.1062218306391678e-05
-1.803001124810484e-05   1.9481782230579368e-06   1.1062218306391678e-05
-1.8625302908835742e-05   1.5876881862073988e-06   3.3973659187008006e-05
-1.8625302908835742e-05   1.5876881862073988e-06   3.3973659187008006e-05
-1.8625302908835742e-05   1.5876881862073988e-06   3.3973659187008006e-05
-1.8625302908835742e-05   1.5876881862073988e-06   3.3973659187008006e-05
-5.157347785728905e-06   1.4070084183386532e-06   1.1635475175884744e-05
-5.157347785728905e-06   1.4070084183386532e-06   1.1635475175884744e-05
-5.157347785728905e-06   1.4070084183386532e-06   1.1635475175884744e-05
-5.157347785728905e-06   1.4070084183386532e-06   1.1635475175884744e-05
-1.1517454640936672e-05   1.9435716119972288e-06   2.191371535170217e-05
-1.1517454640936672e-05   1.9435716119972288e-06   2.191371535170217e-05
-1.1517454640936672e-05   1.9435716119972288e-06   2.191371535170217e-05
-1.1517454640936672e-05   1.9435716119972288e-06   2.191371535170217e-05
-1.6839480268344292e-05   6.156104723002188e-06   2.969509280763326e-05
-1.6839480268344292e-05   6.156104723002188e-06   2.969509280763326e-05
-1.6839480268344292e-05   6.156104723002188e-06   2.969509280763326e-05
-1.6839480268344292e-05   6.156104723002188e-06   2.969509280763326e-05
-3.010618314584247e-05   5.279731035224286e-06   7.058097132469601e-06
-3.010618314584247e-05   5.279731035224286e-06   7.058097132469601e-06
-3.010618314584247e-05   5.279731035224286e-06   7.058097132469601e-06
-3.010618314584247e-05   5.279731035224286e-06   7.058097132469601e-06
-3.073720458969043e-05   5.650686536098426e-06   2.9302520168871882e-05
-3.073720458969043e-05   5.650686536098426e-06   2.9302520168871882e-05
-3.073720458969043e-05   5.650686536098426e-06   2.9302520168871882e-05
-3.073720458969043e-05   5.650686536098426e-06   2.9302520168871882e-05
-1.7427684155734514e-05   4.724320995607052e-06   7.675805436573838e-06
-1.7427684155734514e-05   4.724320995607052e-06   7.675805436573838e-06
-1.7427684155734514e-05   4.724320995607052e-06   7.675805436573838e-06
-1.7427684155734514e-05   4.724320995607052e-06   7.675805436573838e-06
-2.37104135600725e-05   5.359782683514273e-06   1.7765744097726784e-05
-2.37104135600725e-05   5.359782683514273e-06   1.7765744097726784e-05
-2.37104135600725e-05   5.359782683514273e-06   1.7765744097726784e-05
-2.37104135600725e-05   5.359782683514273e-06   1.7765744097726784e-05
-1.742768415573454e-05   5.650686536098426e-06   2.985833949316688e-05
-1.742768415573454e-05   5.650686536098426e-06   2.985833949316688e-05
-1.742768415573454e-05   5.650686536098426e-06   2.985833949316688e-05
-1.742768415573454e-05   5.650686536098426e-06   2.985833949316688e-05
-3.073720458969032e-05   4.724320995607052e-06   7.119986112278948e-06
-3.073720458969032e-05   4.724320995607052e-06   7.119986112278948e-06
-3.073720458969032e-05   4.724320995607052e-06   7.119986112278948e-06
-3.073720458969032e-05   4.724320995607052e-06   7.119986112278948e-06
-3.144731275346677e-05   5.1795874065948405e-06   3.030545378937869e-05
-3.144731275346677e-05   5.1795874065948405e-06   3.030545378937869e-05
-3.144731275346677e-05   5.1795874065948405e-06   3.030545378937869e-05
-3.144731275346677e-05   5.1795874065948405e-06   3.030545378937869e-05
-1.8030011248104758e-05   4.210273298839223e-06   8.52487307842904e-06
-1.8030011248104758e-05   4.210273298839223e-06   8.52487307842904e-06
-1.8030011248104758e-05   4.210273298839223e-06   8.52487307842904e-06
-1.8030011248104758e-05   4.210273298839223e-06   8.52487307842904e-06
-2.4147252628646583e-05   4.981493812762855e-06   1.8257543070978363e-05
-2.4147252628646583e-05   4.981493812762855e-06   1.8257543070978363e-05
-2.4147252628646583e-05   4.981493812762855e-06   1.8257543070978363e-05
-2.4147252628646583e-05   4.981493812762855e-06   1.8257543070978363e-05
-1.8030011248104812e-05   5.1795874065948405e-06   3.088704225403193e-05
-1.8030011248104812e-05   5.1795874065948405e-06   3.088704225403193e-05
-1.8030011248104812e-05   5.1795874065948405e-06   3.088704225403193e-05
-1.8030011248104812e-05   5.1795874065948405e-06   3.088704225403193e-05
-3.1447312753466665e-05   4.210273298839223e-06   7.943284613775746e-06
-3.1447312753466665e-05   4.210273298839223e-06   7.943284613775746e-06
-3.1447312753466665e-05   4.210273298839223e-06   7.943284613775746e-06
-3.1447312753466665e-05   4.210273298839223e-06   7.943284613775746e-06
-3.207856647171941e-05   4.630828446034255e-06   3.115119325054522e-05
-3.207856647171941e-05   4.630828446034255e-06   3.115119325054522e-05
-3.207856647171941e-05   4.630828446034255e-06   3.115119325054522e-05
-3.207856647171941e-05   4.630828446034255e-06   3.115119325054522e-05
-1.8625302908835688e-05   3.6355079592504964e-06   9.326279604476005e-06
-1.8625302908835688e-05   3.6355079592504964e-06   9.326279604476005e-06
-1.8625302908835688e-05   3.6355079592504964e-06   9.326279604476005e-06
-1.8625302908835688e-05   3.6355079592504964e-06   9.326279604476005e-06
-2.48591156999883e-05   4.583186090287338e-06   1.9147360711108618e-05
-2.48591156999883e-05   4.583186090287338e-06   1.9147360711108618e-05
-2.48591156999883e-05   4.583186090287338e-06   1.9147360711108618e-05
-2.48591156999883e-05   4.583186090287338e-06   1.9147360711108618e-05
-3.010618314584247e-05   8.486325151812633e-06   1.4269414617272286e-05
-3.010618314584247e-05   8.486325151812633e-06   1.4269414617272286e-05
-3.010618314584247e-05   8.486325151812633e-06   1.4269414617272286e-05
-3.010618314584247e-05   8.486325151812633e-06   1.4269414617272286e-05
-4.254897764636957e-05   6.927255296248439e-06   -7.404018130278175e-06
-4.254897764636957e-05   6.927255296248439e-06   -7.404018130278175e-06
-4.254897764636957e-05   6.927255296248439e-06   -7.404018130278175e-06
-4.254897764636957e-05   6.927255296248439e-06   -7.404018130278175e-06
-4.386858473327457e-05   8.44453554091503e-06   1.8298982321661656e-05
-4.386858473327457e-05   8.44453554091503e-06   1.8298982321661656e-05
-4.386858473327457e-05   8.44453554091503e-06   1.8298982321661656e-05
-4.386858473327457e-05   8.44453554091503e-06   1.8298982321661656e-05
-3.073720458969027e-05   6.749381151458173e-06   -2.569558617304549e-06
-3.073720458969027e-05   6.749381151458173e-06   -2.569558617304549e-06
-3.073720458969027e-05   6.749381151458173e-06   -2.569558617304549e-06
-3.073720458969027e-05   6.749381151458173e-06   -2.569558617304549e-06
-3.5435432441366274e-05   7.512427049488537e-06   4.802993596671342e-06
-3.5435432441366274e-05   7.512427049488537e-06   4.802993596671342e-06
-3.5435432441366274e-05   7.512427049488537e-06   4.802993596671342e-06
-3.5435432441366274e-05   7.512427049488537e-06   4.802993596671342e-06
-3.073720458969038e-05   8.44453554091503e-06   1.93160749553359e-05
-3.073720458969038e-05   8.44453554091503e-06   1.93160749553359e-05
-3.073720458969038e-05   8.44453554091503e-06   1.93160749553359e-05
-3.073720458969038e-05   8.44453554091503e-06   1.93160749553359e-05
-4.386858473327468e-05   6.749381151458173e-06   -3.5866512509786304e-06
-4.386858473327468e-05   6.749381151458173e-06   -3.5866512509786304e-06
-4.386858473327468e-05   6.749381151458173e-06   -3.5866512509786304e-06
-4.386858473327468e-05   6.749381151458173e-06   -3.5866512509786304e-06
-4.50197669404733e-05   8.272665784475434e-06   2.179039971282929e-05
-4.50197669404733e-05   8.272665784475434e-06   2.179039971282929e-05
-4.50197669404733e-05   8.272665784475434e-06   2.179039971282929e-05
-4.50197669404733e-05   8.272665784475434e-06   2.179039971282929e-05
-3.1447312753466665e-05   6.531431456097787e-06   2.143833315115069e-07
-3.1447312753466665e-05   6.531431456097787e-06   2.143833315115069e-07
-3.1447312753466665e-05   6.531431456097787e-06   2.143833315115069e-07
-3.1447312753466665e-05   6.531431456097787e-06   2.143833315115069e-07
-3.6833400418923745e-05   7.517523110168317e-06   8.599541114832172e-06
-3.6833400418923745e-05   7.517523110168317e-06   8.599541114832172e-06
-3.6833400418923745e-05   7.517523110168317e-06   8.599541114832172e-06
-3.6833400418923745e-05   7.517523110168317e-06   8.599541114832172e-06
-3.144731275346677e-05   8.272665784475218e-06   2.2835140309855877e-05
-3.144731275346677e-05   8.272665784475218e-06   2.2835140309855877e-05
-3.144731275346677e-05   8.272665784475218e-06   2.2835140309855877e-05
-3.144731275346677e-05   8.272665784475218e-06   2.2835140309855877e-05
-4.50197669404733e-05   6.531431456097787e-06   -8.303572655150274e-07
-4.50197669404733e-05   6.531431456097787e-06   -8.303572655150274e-07
-4.50197669404733e-05   6.531431456097787e-06   -8.303572655150274e-07
-4.50197669404733e-05   6.531431456097787e-06   -8.303572655150274e-07
-4.635500349292577e-05   7.514003843567306e-06   2.7857168169137308e-05
-4.635500349292577e-05   7.514003843567306e-06   2.7857168169137308e-05
-4.635500349292577e-05   7.514003843567306e-06   2.7857168169137308e-05
-4.635500349292577e-05   7.514003843567306e-06   2.7857168169137308e-05
-3.207856647171936e-05   5.799633491710603e-06   5.0917286782409385e-06
-3.207856647171936e-05   5.799633491710603e-06   5.0917286782409385e-06
-3.207856647171936e-05   5.799633491710603e-06   5.0917286782409385e-06
-3.207856647171936e-05   5.799633491710603e-06   5.0917286782409385e-06
-3.7144511780503795e-05   7.198784855943618e-06   1.2695480041008313e-05
-3.7144511780503795e-05   7.198784855943618e-06   1.2695480041008313e-05
-3.7144511780503795e-05   7.198784855943618e-06   1.2695480041008313e-05
-3.7144511780503795e-05   7.198784855943618e-06   1.2695480041008313e-05
1.3898173852126591e-05   -1.5948805292187104e-06   1.971245943697595e-05
1.3898173852126591e-05   -1.5948805292187104e-06   1.971245943697595e-05
1.3898173852126591e-05   -1.5948805292187104e-06   1.971245943697595e-05
1.3898173852126591e-05   -1.5948805292187104e-06   1.971245943697595e-05
3.6414314901585934e-06   3.2880621344578975e-08   3.5945455240338165e-06
3.6414314901585934e-06   3.2880621344578975e-08   3.5945455240338165e-06
3.6414314901585934e-06   3.2880621344578975e-08   3.5945455240338165e-06
3.6414314901585934e-06   3.2880621344578975e-08   3.5945455240338165e-06
3.1559018396631583e-06   -2.213496056064539e-06   1.837664769450964e-05
3.1559018396631583e-06   -2.213496056064539e-06   1.837664769450964e-05
3.1559018396631583e-06   -2.213496056064539e-06   1.837664769450964e-05
3.1559018396631583e-06   -2.213496056064539e-06   1.837664769450964e-05
1.2697825535864499e-05   -5.216239628831696e-07   1.4583182782656665e-06
1.2697825535864499e-05   -5.216239628831696e-07   1.4583182782656665e-06
1.2697825535864499e-05   -5.216239628831696e-07   1.4583182782656665e-06
1.2697825535864499e-05   -5.216239628831696e-07   1.4583182782656665e-06
7.85578350168328e-06   -1.1527693441074419e-06   9.907075563969604e-06
7.85578350168328e-06   -1.1527693441074419e-06   9.907075563969604e-06
7.85578350168328e-06   -1.1527693441074419e-06   9.907075563969604e-06
7.85578350168328e-06   -1.1527693441074419e-06   9.907075563969604e-06
1.2697825535864512e-05   -2.213496056064539e-06   1.736152443860108e-05
1.2697825535864512e-05   -2.213496056064539e-06   1.736152443860108e-05
1.2697825535864512e-05   -2.213496056064539e-06   1.736152443860108e-05
1.2697825535864512e-05   -2.213496056064539e-06   1.736152443860108e-05
3.1559018396631516e-06   -5.216239628831696e-07   2.473441534174472e-06
3.1559018396631516e-06   -5.216239628831696e-07   2.473441534174472e-06
3.1559018396631516e-06   -5.216239628831696e-07   2.473441534174472e-06
3.1559018396631516e-06   -5.216239628831696e-07   2.473441534174472e-06
2.58996236202837e-06   -2.426326412030685e-06   1.7245685402656982e-05
2.58996236202837e-06   -2.426326412030685e-06   1.7245685402656982e-05
2.58996236202837e-06   -2.426326412030685e-06   1.7245685402656982e-05
2.58996236202837e-06   -2.426326412030685e-06   1.7245685402656982e-05
1.1681398052818367e-05   -7.605326599652209e-07   1.0938163334345231e-06
1.1681398052818367e-05   -7.605326599652209e-07   1.0938163334345231e-06
1.1681398052818367e-05   -7.605326599652209e-07   1.0938163334345231e-06
1.1681398052818367e-05   -7.605326599652209e-07   1.0938163334345231e-06
7.2761128845423165e-06   -1.3948296962119563e-06   8.81653650230919e-06
7.2761128845423165e-06   -1.3948296962119563e-06   8.81653650230919e-06
7.2761128845423165e-06   -1.3948296962119563e-06   8.81653650230919e-06
7.2761128845423165e-06   -1.3948296962119563e-06   8.81653650230919e-06
1.168139805281838e-05   -2.426326412030685e-06   1.624620915141768e-05
1.168139805281838e-05   -2.426326412030685e-06   1.624620915141768e-05
1.168139805281838e-05   -2.426326412030685e-06   1.624620915141768e-05
1.168139805281838e-05   -2.426326412030685e-06   1.624620915141768e-05
2.5899623620283564e-06   -7.605326599652209e-07   2.093292584673715e-06
2.5899623620283564e-06   -7.605326599652209e-07   2.093292584673715e-06
2.5899623620283564e-06   -7.605326599652209e-07   2.093292584673715e-06
2.5899623620283564e-06   -7.605326599652209e-07   2.093292584673715e-06
2.099575505633876e-06   -2.7072620288977247e-06   1.5937602717910567e-05
2.099575505633876e-06   -2.7072620288977247e-06   1.5937602717910567e-05
2.099575505633876e-06   -2.7072620288977247e-06   1.5937602717910567e-05
2.099575505633876e-06   -2.7072620288977247e-06   1.5937602717910567e-05
1.049101021722952e-05   -1.1581635170829219e-06   1.0224190914959544e-06
1.049101021722952e-05   -1.1581635170829219e-06   1.0224190914959544e-06
1.049101021722952e-05   -1.1581635170829219e-06   1.0224190914959544e-06
1.049101021722952e-05   -1.1581635170829219e-06   1.0224190914959544e-06
6.4208396535233674e-06   -1.5193908992118272e-06   8.022773126950425e-06
6.4208396535233674e-06   -1.5193908992118272e-06   8.022773126950425e-06
6.4208396535233674e-06   -1.5193908992118272e-06   8.022773126950425e-06
6.4208396535233674e-06   -1.5193908992118272e-06   8.022773126950425e-06
3.641431490158597e-06   8.169850290592421e-07   2.7106659709489342e-05
3.641431490158597e-06   8.169850290592421e-07   2.7106659709489342e-05
3.641431490158597e-06   8.169850290592421e-07   2.7106659709489342e-05
3.641431490158597e-06   8.169850290592421e-07   2.7106659709489342e-05
-5.701682205685652e-06   1.5543856619491727e-06   1.1977243929482879e-05
-5.701682205685652e-06   1.5543856619491727e-06   1.1977243929482879e-05
-5.701682205685652e-06   1.5543856619491727e-06   1.1977243929482879e-05
-5.701682205685652e-06   1.5543856619491727e-06   1.1977243929482879e-05
-6.128256124563445e-06   1.9094864028303647e-07   2.7191632452685578e-05
-6.128256124563445e-06   1.9094864028303647e-07   2.7191632452685578e-05
-6.128256124563445e-06   1.9094864028303647e-07   2.7191632452685578e-05
-6.128256124563445e-06   1.9094864028303647e-07   2.7191632452685578e-05
3.1559018396631516e-06   9.280203552050181e-07   1.1275792816688225e-05
3.1559018396631516e-06   9.280203552050181e-07   1.1275792816688225e-05
3.1559018396631516e-06   9.280203552050181e-07   1.1275792816688225e-05
3.1559018396631516e-06   9.280203552050181e-07   1.1275792816688225e-05
-1.328107217299883e-06   8.100410653845598e-07   1.881992881885299e-05
-1.328107217299883e-06   8.100410653845598e-07   1.881992881885299e-05
-1.328107217299883e-06   8.100410653845598e-07   1.881992881885299e-05
-1.328107217299883e-06   8.100410653845598e-07   1.881992881885299e-05
3.155901839663155e-06   1.9094864028303647e-07   2.6749389423732367e-05
3.155901839663155e-06   1.9094864028303647e-07   2.6749389423732367e-05
3.155901839663155e-06   1.9094864028303647e-07   2.6749389423732367e-05
3.155901839663155e-06   1.9094864028303647e-07   2.6749389423732367e-05
-6.128256124563445e-06   9.280203552050181e-07   1.1718035845641639e-05
-6.128256124563445e-06   9.280203552050181e-07   1.1718035845641639e-05
-6.128256124563445e-06   9.280203552050181e-07   1.1718035845641639e-05
-6.128256124563445e-06   9.280203552050181e-07   1.1718035845641639e-05
-6.567306601107126e-06   -3.2113820091941685e-07   2.7016081803739713e-05
-6.567306601107126e-06   -3.2113820091941685e-07   2.7016081803739713e-05
-6.567306601107126e-06   -3.2113820091941685e-07   2.7016081803739713e-05
-6.567306601107126e-06   -3.2113820091941685e-07   2.7016081803739713e-05
2.5899623620283564e-06   3.9734887815126574e-07   1.1322874617738359e-05
2.5899623620283564e-06   3.9734887815126574e-07   1.1322874617738359e-05
2.5899623620283564e-06   3.9734887815126574e-07   1.1322874617738359e-05
2.5899623620283564e-06   3.9734887815126574e-07   1.1322874617738359e-05
-1.7835147178007077e-06   3.732942504622305e-07   1.8626435860733892e-05
-1.7835147178007077e-06   3.732942504622305e-07   1.8626435860733892e-05
-1.7835147178007077e-06   3.732942504622305e-07   1.8626435860733892e-05
-1.7835147178007077e-06   3.732942504622305e-07   1.8626435860733892e-05
2.58996236202837e-06   -3.2113820091941685e-07   2.6584989556297542e-05
2.58996236202837e-06   -3.2113820091941685e-07   2.6584989556297542e-05
2.58996236202837e-06   -3.2113820091941685e-07   2.6584989556297542e-05
2.58996236202837e-06   -3.2113820091941685e-07   2.6584989556297542e-05
-6.567306601107153e-06   3.9734887815126574e-07   1.175396686518078e-05
-6.567306601107153e-06   3.9734887815126574e-07   1.175396686518078e-05
-6.567306601107153e-06   3.9734887815126574e-07   1.175396686518078e-05
-6.567306601107153e-06   3.9734887815126574e-07   1.175396686518078e-05
-6.999829741749625e-06   -8.255503406175667e-07   2.7370578274168002e-05
-6.999829741749625e-06   -8.255503406175667e-07   2.7370578274168002e-05
-6.999829741749625e-06   -8.255503406175667e-07   2.7370578274168002e-05
-6.999829741749625e-06   -8.255503406175667e-07   2.7370578274168002e-05
2.0995755056338692e-06   -1.4474555902282103e-07   1.1796419992905505e-05
2.0995755056338692e-06   -1.4474555902282103e-07   1.1796419992905505e-05
2.0995755056338692e-06   -1.4474555902282103e-07   1.1796419992905505e-05
2.0995755056338692e-06   -1.4474555902282103e-07   1.1796419992905505e-05
-2.169024255465328e-06   -1.8435434751473342e-08   1.883496685350835e-05
-2.169024255465328e-06   -1.8435434751473342e-08   1.883496685350835e-05
-2.169024255465328e-06   -1.8435434751473342e-08   1.883496685350835e-05
-2.169024255465328e-06   -1.8435434751473342e-08   1.883496685350835e-05
-5.701682205685652e-06   3.079004784981021e-06   3.0058343268760113e-05
-5.701682205685652e-06   3.079004784981021e-06   3.0058343268760113e-05
-5.701682205685652e-06   3.079004784981021e-06   3.0058343268760113e-05
-5.701682205685652e-06   3.079004784981021e-06   3.0058343268760113e-05
-1.488581641905426e-05   2.9030401993625655e-06   1.464587416177463e-05
-1.488581641905426e-05   2.9030401993625655e-06   1.464587416177463e-05
-1.488581641905426e-05   2.9030401993625655e-06   1.464587416177463e-05
-1.488581641905426e-05   2.9030401993625655e-06   1.464587416177463e-05
-1.5295151031070322e-05   2.510326732956718e-06   2.9792611193569553e-05
-1.5295151031070322e-05   2.510326732956718e-06   2.9792611193569553e-05
-1.5295151031070322e-05   2.510326732956718e-06   2.9792611193569553e-05
-1.5295151031070322e-05   2.510326732956718e-06   2.9792611193569553e-05
-6.128256124563418e-06   2.325750997986308e-06   1.4625198457040667e-05
-6.128256124563418e-06   2.325750997986308e-06   1.4625198457040667e-05
-6.128256124563418e-06   2.325750997986308e-06   1.4625198457040667e-05
-6.128256124563418e-06   2.325750997986308e-06   1.4625198457040667e-05
-1.0522367217776605e-05   2.639751805752228e-06   2.176031646107068e-05
-1.0522367217776605e-05   2.639751805752228e-06   2.176031646107068e-05
-1.0522367217776605e-05   2.639751805752228e-06   2.176031646107068e-05
-1.0522367217776605e-05   2.639751805752228e-06   2.176031646107068e-05
-6.128256124563445e-06   2.510326732956718e-06   2.9903356634552038e-05
-6.128256124563445e-06   2.510326732956718e-06   2.9903356634552038e-05
-6.128256124563445e-06   2.510326732956718e-06   2.9903356634552038e-05
-6.128256124563445e-06   2.510326732956718e-06   2.9903356634552038e-05
-1.5295151031070295e-05   2.325750997986308e-06   1.4514453016058453e-05
-1.5295151031070295e-05   2.325750997986308e-06   1.4514453016058453e-05
-1.5295151031070295e-05   2.325750997986308e-06   1.4514453016058453e-05
-1.5295151031070295e-05   2.325750997986308e-06   1.4514453016058453e-05
-1.5717890733990553e-05   1.9481782230579368e-06   2.9990065668795626e-05
-1.5717890733990553e-05   1.9481782230579368e-06   2.9990065668795626e-05
-1.5717890733990553e-05   1.9481782230579368e-06   2.9990065668795626e-05
-1.5717890733990553e-05   1.9481782230579368e-06   2.9990065668795626e-05
-6.567306601107126e-06   1.7514228661365608e-06   1.485714532814284e-05
-6.567306601107126e-06   1.7514228661365608e-06   1.485714532814284e-05
-6.567306601107126e-06   1.7514228661365608e-06   1.485714532814284e-05
-6.567306601107126e-06   1.7514228661365608e-06   1.485714532814284e-05
-1.088679189715302e-05   2.200727972865961e-06   2.178670442418173e-05
-1.088679189715302e-05   2.200727972865961e-06   2.178670442418173e-05
-1.088679189715302e-05   2.200727972865961e-06   2.178670442418173e-05
-1.088679189715302e-05   2.200727972865961e-06   2.178670442418173e-05
-6.567306601107153e-06   1.9481782230579368e-06   3.0108118882948452e-05
-6.567306601107153e-06   1.9481782230579368e-06   3.0108118882948452e-05
-6.567306601107153e-06   1.9481782230579368e-06   3.0108118882948452e-05
-6.567306601107153e-06   1.9481782230579368e-06   3.0108118882948452e-05
-1.5717890733990525e-05   1.7514228661365608e-06   1.4739092113990205e-05
-1.5717890733990525e-05   1.7514228661365608e-06   1.4739092113990205e-05
-1.5717890733990525e-05   1.7514228661365608e-06   1.4739092113990205e-05
-1.5717890733990525e-05   1.7514228661365608e-06   1.4739092113990205e-05
-1.613401716650184e-05   1.4070084183384363e-06   3.0473713959423528e-05
-1.613401716650184e-05   1.4070084183384363e-06   3.0473713959423528e-05
-1.613401716650184e-05   1.4070084183384363e-06   3.0473713959423528e-05
-1.613401716650184e-05   1.4070084183384363e-06   3.0473713959423528e-05
-6.999829741749652e-06   1.2015314196115942e-06   1.5373354450739623e-05
-6.999829741749652e-06   1.2015314196115942e-06   1.5373354450739623e-05
-6.999829741749652e-06   1.2015314196115942e-06   1.5373354450739623e-05
-6.999829741749652e-06   1.2015314196115942e-06   1.5373354450739623e-05
-1.1274437007824277e-05   1.7705201178163342e-06   2.2156306675274757e-05
-1.1274437007824277e-05   1.7705201178163342e-06   2.2156306675274757e-05
-1.1274437007824277e-05   1.7705201178163342e-06   2.2156306675274757e-05
-1.1274437007824277e-05   1.7705201178163342e-06   2.2156306675274757e-05
-1.488581641905426e-05   5.279731035224286e-06   2.6480271128620915e-05
-1.488581641905426e-05   5.279731035224286e-06   2.6480271128620915e-05
-1.488581641905426e-05   5.279731035224286e-06   2.6480271128620915e-05
-1.488581641905426e-05   5.279731035224286e-06   2.6480271128620915e-05
-2.3903764600924056e-05   4.313393901602455e-06   1.0870555211998185e-05
-2.3903764600924056e-05   4.313393901602455e-06   1.0870555211998185e-05
-2.3903764600924056e-05   4.313393901602455e-06   1.0870555211998185e-05
-2.3903764600924056e-05   4.313393901602455e-06   1.0870555211998185e-05
-2.4349972579774915e-05   4.724320995607052e-06   2.5992527654173248e-05
-2.4349972579774915e-05   4.724320995607052e-06   2.5992527654173248e-05
-2.4349972579774915e-05   4.724320995607052e-06   2.5992527654173248e-05
-2.4349972579774915e-05   4.724320995607052e-06   2.5992527654173248e-05
-1.529515103107024e-05   3.7312780217008037e-06   1.1496984190676113e-05
-1.529515103107024e-05   3.7312780217008037e-06   1.1496984190676113e-05
-1.529515103107024e-05   3.7312780217008037e-06   1.1496984190676113e-05
-1.529515103107024e-05   3.7312780217008037e-06   1.1496984190676113e-05
-1.9561374408698595e-05   4.438572868055131e-06   1.8182979578911852e-05
-1.9561374408698595e-05   4.438572868055131e-06   1.8182979578911852e-05
-1.9561374408698595e-05   4.438572868055131e-06   1.8182979578911852e-05
-1.9561374408698595e-05   4.438572868055131e-06   1.8182979578911852e-05
-1.5295151031070322e-05   4.724320995607052e-06   2.6588353438517193e-05
-1.5295151031070322e-05   4.724320995607052e-06   2.6588353438517193e-05
-1.5295151031070322e-05   4.724320995607052e-06   2.6588353438517193e-05
-1.5295151031070322e-05   4.724320995607052e-06   2.6588353438517193e-05
-2.4349972579774915e-05   3.7312780217008037e-06   1.0901158406332386e-05
-2.4349972579774915e-05   3.7312780217008037e-06   1.0901158406332386e-05
-2.4349972579774915e-05   3.7312780217008037e-06   1.0901158406332386e-05
-2.4349972579774915e-05   3.7312780217008037e-06   1.0901158406332386e-05
-2.487835946752534e-05   4.210273298839006e-06   2.684772788061579e-05
-2.487835946752534e-05   4.210273298839006e-06   2.684772788061579e-05
-2.487835946752534e-05   4.210273298839006e-06   2.684772788061579e-05
-2.487835946752534e-05   4.210273298839006e-06   2.684772788061579e-05
-1.57178907339905e-05   3.2019523651435466e-06   1.2185272551608675e-05
-1.57178907339905e-05   3.2019523651435466e-06   1.2185272551608675e-05
-1.57178907339905e-05   3.2019523651435466e-06   1.2185272551608675e-05
-1.57178907339905e-05   3.2019523651435466e-06   1.2185272551608675e-05
-1.9850399959046833e-05   4.0269000427192465e-06   1.857781932015684e-05
-1.9850399959046833e-05   4.0269000427192465e-06   1.857781932015684e-05
-1.9850399959046833e-05   4.0269000427192465e-06   1.857781932015684e-05
-1.9850399959046833e-05   4.0269000427192465e-06   1.857781932015684e-05
-1.5717890733990553e-05   4.210273298839006e-06   2.7452720440832934e-05
-1.5717890733990553e-05   4.210273298839006e-06   2.7452720440832934e-05
-1.5717890733990553e-05   4.210273298839006e-06   2.7452720440832934e-05
-1.5717890733990553e-05   4.210273298839006e-06   2.7452720440832934e-05
-2.4878359467525233e-05   3.2019523651435466e-06   1.1580279991391205e-05
-2.4878359467525233e-05   3.2019523651435466e-06   1.1580279991391205e-05
-2.4878359467525233e-05   3.2019523651435466e-06   1.1580279991391205e-05
-2.4878359467525233e-05   3.2019523651435466e-06   1.1580279991391205e-05
-2.5331719050560053e-05   3.635507959250713e-06   2.7673337253451922e-05
-2.5331719050560053e-05   3.635507959250713e-06   2.7673337253451922e-05
-2.5331719050560053e-05   3.635507959250713e-06   2.7673337253451922e-05
-2.5331719050560053e-05   3.635507959250713e-06   2.7673337253451922e-05
-1.6134017166501786e-05   2.6361929671102607e-06   1.2943423108639285e-05
-1.6134017166501786e-05   2.6361929671102607e-06   1.2943423108639285e-05
-1.6134017166501786e-05   2.6361929671102607e-06   1.2943423108639285e-05
-1.6134017166501786e-05   2.6361929671102607e-06   1.2943423108639285e-05
-2.0347612761112372e-05   3.6145376085539027e-06   1.9379075648125275e-05
-2.0347612761112372e-05   3.6145376085539027e-06   1.9379075648125275e-05
-2.0347612761112372e-05   3.6145376085539027e-06   1.9379075648125275e-05
-2.0347612761112372e-05   3.6145376085539027e-06   1.9379075648125275e-05
-2.390376460092411e-05   6.927255296248222e-06   1.2373795499038805e-05
-2.390376460092411e-05   6.927255296248222e-06   1.2373795499038805e-05
-2.390376460092411e-05   6.927255296248222e-06   1.2373795499038805e-05
-2.390376460092411e-05   6.927255296248222e-06   1.2373795499038805e-05
-3.20392130569089e-05   5.308170960145438e-06   -2.156735862597701e-06
-3.20392130569089e-05   5.308170960145438e-06   -2.156735862597701e-06
-3.20392130569089e-05   5.308170960145438e-06   -2.156735862597701e-06
-3.20392130569089e-05   5.308170960145438e-06   -2.156735862597701e-06
-3.3183218064249435e-05   6.749381151458173e-06   1.525929025961636e-05
-3.3183218064249435e-05   6.749381151458173e-06   1.525929025961636e-05
-3.3183218064249435e-05   6.749381151458173e-06   1.525929025961636e-05
-3.3183218064249435e-05   6.749381151458173e-06   1.525929025961636e-05
-2.434997257977486e-05   5.009893376502379e-06   1.5809071171325436e-06
-2.434997257977486e-05   5.009893376502379e-06   1.5809071171325436e-06
-2.434997257977486e-05   5.009893376502379e-06   1.5809071171325436e-06
-2.434997257977486e-05   5.009893376502379e-06   1.5809071171325436e-06
-2.7335832655923074e-05   5.888289755825787e-06   6.030302749786688e-06
-2.7335832655923074e-05   5.888289755825787e-06   6.030302749786688e-06
-2.7335832655923074e-05   5.888289755825787e-06   6.030302749786688e-06
-2.7335832655923074e-05   5.888289755825787e-06   6.030302749786688e-06
-2.434997257977486e-05   6.749381151458173e-06   1.6302982924589642e-05
-2.434997257977486e-05   6.749381151458173e-06   1.6302982924589642e-05
-2.434997257977486e-05   6.749381151458173e-06   1.6302982924589642e-05
-2.434997257977486e-05   6.749381151458173e-06   1.6302982924589642e-05
-3.3183218064249435e-05   5.009893376502379e-06   5.372144521590728e-07
-3.3183218064249435e-05   5.009893376502379e-06   5.372144521590728e-07
-3.3183218064249435e-05   5.009893376502379e-06   5.372144521590728e-07
-3.3183218064249435e-05   5.009893376502379e-06   5.372144521590728e-07
-3.416806837941742e-05   6.531431456097787e-06   1.8056275354182832e-05
-3.416806837941742e-05   6.531431456097787e-06   1.8056275354182832e-05
-3.416806837941742e-05   6.531431456097787e-06   1.8056275354182832e-05
-3.416806837941742e-05   6.531431456097787e-06   1.8056275354182832e-05
-2.4878359467525233e-05   4.760512715816555e-06   3.6359784118646446e-06
-2.4878359467525233e-05   4.760512715816555e-06   3.6359784118646446e-06
-2.4878359467525233e-05   4.760512715816555e-06   3.6359784118646446e-06
-2.4878359467525233e-05   4.760512715816555e-06   3.6359784118646446e-06
-2.8434472155149267e-05   5.811071316086597e-06   8.932497731076422e-06
-2.8434472155149267e-05   5.811071316086597e-06   8.932497731076422e-06
-2.8434472155149267e-05   5.811071316086597e-06   8.932497731076422e-06
-2.8434472155149267e-05   5.811071316086597e-06   8.932497731076422e-06
-2.487835946752534e-05   6.531431456098004e-06   1.911882659835155e-05
-2.487835946752534e-05   6.531431456098004e-06   1.911882659835155e-05
-2.487835946752534e-05   6.531431456098004e-06   1.911882659835155e-05
-2.487835946752534e-05   6.531431456098004e-06   1.911882659835155e-05
-3.416806837941742e-05   4.760512715816555e-06   2.573427167695927e-06
-3.416806837941742e-05   4.760512715816555e-06   2.573427167695927e-06
-3.416806837941742e-05   4.760512715816555e-06   2.573427167695927e-06
-3.416806837941742e-05   4.760512715816555e-06   2.573427167695927e-06
-3.5346641121175636e-05   5.799633491710603e-06   2.30053728997755e-05
-3.5346641121175636e-05   5.799633491710603e-06   2.30053728997755e-05
-3.5346641121175636e-05   5.799633491710603e-06   2.30053728997755e-05
-3.5346641121175636e-05   5.799633491710603e-06   2.30053728997755e-05
-2.5331719050559944e-05   4.0819572925245105e-06   7.34444183492786e-06
-2.5331719050559944e-05   4.0819572925245105e-06   7.34444183492786e-06
-2.5331719050559944e-05   4.0819572925245105e-06   7.34444183492786e-06
-2.5331719050559944e-05   4.0819572925245105e-06   7.34444183492786e-06
-2.8707845368757982e-05   5.502501820667813e-06   1.211899231503904e-05
-2.8707845368757982e-05   5.502501820667813e-06   1.211899231503904e-05
-2.8707845368757982e-05   5.502501820667813e-06   1.211899231503904e-05
-2.8707845368757982e-05   5.502501820667813e-06   1.211899231503904e-05
2.8038485564025326e-06   3.2880621344578975e-08   1.4717856207435492e-05
2.8038485564025326e-06   3.2880621344578975e-08   1.4717856207435492e-05
2.8038485564025326e-06   3.2880621344578975e-08   1.4717856207435492e-05
2.8038485564025326e-06   3.2880621344578975e-08   1.4717856207435492e-05
-3.070884610935826e-06   1.5961537521346977e-06   5.864598140345695e-06
-3.070884610935826e-06   1.5961537521346977e-06   5.864598140345695e-06
-3.070884610935826e-06   1.5961537521346977e-06   5.864598140345695e-06
-3.070884610935826e-06   1.5961537521346977e-06   5.864598140345695e-06
-3.4150353745296134e-06   -5.216239628833864e-07   1.4514476961604195e-05
-3.4150353745296134e-06   -5.216239628833864e-07   1.4514476961604195e-05
-3.4150353745296134e-06   -5.216239628833864e-07   1.4514476961604195e-05
-3.4150353745296134e-06   -5.216239628833864e-07   1.4514476961604195e-05
1.7566949763367346e-06   1.078851899468129e-06   4.934640859415994e-06
1.7566949763367346e-06   1.078851899468129e-06   4.934640859415994e-06
1.7566949763367346e-06   1.078851899468129e-06   4.934640859415994e-06
1.7566949763367346e-06   1.078851899468129e-06   4.934640859415994e-06
-6.19438420391815e-07   4.57937322505134e-07   9.267411933474667e-06
-6.19438420391815e-07   4.57937322505134e-07   9.267411933474667e-06
-6.19438420391815e-07   4.57937322505134e-07   9.267411933474667e-06
-6.19438420391815e-07   4.57937322505134e-07   9.267411933474667e-06
1.7566949763367346e-06   -5.216239628833864e-07   1.3554191444193329e-05
1.7566949763367346e-06   -5.216239628833864e-07   1.3554191444193329e-05
1.7566949763367346e-06   -5.216239628833864e-07   1.3554191444193329e-05
1.7566949763367346e-06   -5.216239628833864e-07   1.3554191444193329e-05
-3.4150353745296134e-06   1.078851899468129e-06   5.894926376826914e-06
-3.4150353745296134e-06   1.078851899468129e-06   5.894926376826914e-06
-3.4150353745296134e-06   1.078851899468129e-06   5.894926376826914e-06
-3.4150353745296134e-06   1.078851899468129e-06   5.894926376826914e-06
-3.84021915382699e-06   -7.605326599654377e-07   1.4133399376947253e-05
-3.84021915382699e-06   -7.605326599654377e-07   1.4133399376947253e-05
-3.84021915382699e-06   -7.605326599654377e-07   1.4133399376947253e-05
-3.84021915382699e-06   -7.605326599654377e-07   1.4133399376947253e-05
8.479087105982513e-07   7.943307863878977e-07   5.3869348684265335e-06
8.479087105982513e-07   7.943307863878977e-07   5.3869348684265335e-06
8.479087105982513e-07   7.943307863878977e-07   5.3869348684265335e-06
8.479087105982513e-07   7.943307863878977e-07   5.3869348684265335e-06
-1.184299150443577e-06   2.3753124836641513e-07   9.108027692975864e-06
-1.184299150443577e-06   2.3753124836641513e-07   9.108027692975864e-06
-1.184299150443577e-06   2.3753124836641513e-07   9.108027692975864e-06
-1.184299150443577e-06   2.3753124836641513e-07   9.108027692975864e-06
8.479087105982513e-07   -7.605326599654377e-07   1.3200481309135121e-05
8.479087105982513e-07   -7.605326599654377e-07   1.3200481309135121e-05
8.479087105982513e-07   -7.605326599654377e-07   1.3200481309135121e-05
8.479087105982513e-07   -7.605326599654377e-07   1.3200481309135121e-05
-3.840219153826983e-06   7.943307863878977e-07   6.319852936238529e-06
-3.840219153826983e-06   7.943307863878977e-07   6.319852936238529e-06
-3.840219153826983e-06   7.943307863878977e-07   6.319852936238529e-06
-3.840219153826983e-06   7.943307863878977e-07   6.319852936238529e-06
-4.195651288987459e-06   -1.1581635170829219e-06   1.3995884573040295e-05
-4.195651288987459e-06   -1.1581635170829219e-06   1.3995884573040295e-05
-4.195651288987459e-06   -1.1581635170829219e-06   1.3995884573040295e-05
-4.195651288987459e-06   -1.1581635170829219e-06   1.3995884573040295e-05
-2.923212934276303e-07   1.9110060543237658e-07   6.680776106931553e-06
-2.923212934276303e-07   1.9110060543237658e-07   6.680776106931553e-06
-2.923212934276303e-07   1.9110060543237658e-07   6.680776106931553e-06
-2.923212934276303e-07   1.9110060543237658e-07   6.680776106931553e-06
-1.7935179253001897e-06   3.5839731690008245e-08   9.275927017631056e-06
-1.7935179253001897e-06   3.5839731690008245e-08   9.275927017631056e-06
-1.7935179253001897e-06   3.5839731690008245e-08   9.275927017631056e-06
-1.7935179253001897e-06   3.5839731690008245e-08   9.275927017631056e-06
-3.070884610935826e-06   1.5543856619491727e-06   2.3596078111624667e-05
-3.070884610935826e-06   1.5543856619491727e-06   2.3596078111624667e-05
-3.070884610935826e-06   1.5543856619491727e-06   2.3596078111624667e-05
-3.070884610935826e-06   1.5543856619491727e-06   2.3596078111624667e-05
-7.987646706481122e-06   1.8632637200130097e-06   1.5586801453887464e-05
-7.987646706481122e-06   1.8632637200130097e-06   1.5586801453887464e-05
-7.987646706481122e-06   1.8632637200130097e-06   1.5586801453887464e-05
-7.987646706481122e-06   1.8632637200130097e-06   1.5586801453887464e-05
-8.247288990158468e-06   9.280203552050181e-07   2.353143409835972e-05
-8.247288990158468e-06   9.280203552050181e-07   2.353143409835972e-05
-8.247288990158468e-06   9.280203552050181e-07   2.353143409835972e-05
-8.247288990158468e-06   9.280203552050181e-07   2.353143409835972e-05
-3.4150353745296134e-06   1.285696778941252e-06   1.5263072218069896e-05
-3.4150353745296134e-06   1.285696778941252e-06   1.5263072218069896e-05
-3.4150353745296134e-06   1.285696778941252e-06   1.5263072218069896e-05
-3.4150353745296134e-06   1.285696778941252e-06   1.5263072218069896e-05
-5.7143038348357765e-06   1.340713648324745e-06   1.9062176196950017e-05
-5.7143038348357765e-06   1.340713648324745e-06   1.9062176196950017e-05
-5.7143038348357765e-06   1.340713648324745e-06   1.9062176196950017e-05
-5.7143038348357765e-06   1.340713648324745e-06   1.9062176196950017e-05
-3.4150353745296168e-06   9.280203552050181e-07   2.3316828244117935e-05
-3.4150353745296168e-06   9.280203552050181e-07   2.3316828244117935e-05
-3.4150353745296168e-06   9.280203552050181e-07   2.3316828244117935e-05
-3.4150353745296168e-06   9.280203552050181e-07   2.3316828244117935e-05
-8.247288990158454e-06   1.285696778941252e-06   1.5477678072311585e-05
-8.247288990158454e-06   1.285696778941252e-06   1.5477678072311585e-05
-8.247288990158454e-06   1.285696778941252e-06   1.5477678072311585e-05
-8.247288990158454e-06   1.285696778941252e-06   1.5477678072311585e-05
-8.515109536743278e-06   3.9734887815126574e-07   2.3576220788207357e-05
-8.515109536743278e-06   3.9734887815126574e-07   2.3576220788207357e-05
-8.515109536743278e-06   3.9734887815126574e-07   2.3576220788207357e-05
-8.515109536743278e-06   3.9734887815126574e-07   2.3576220788207357e-05
-3.840219153826983e-06   7.527478418106357e-07   1.5571497438484654e-05
-3.840219153826983e-06   7.527478418106357e-07   1.5571497438484654e-05
-3.840219153826983e-06   7.527478418106357e-07   1.5571497438484654e-05
-3.840219153826983e-06   7.527478418106357e-07   1.5571497438484654e-05
-5.979440292169612e-06   9.187557271227338e-07   1.9037261271202116e-05
-5.979440292169612e-06   9.187557271227338e-07   1.9037261271202116e-05
-5.979440292169612e-06   9.187557271227338e-07   1.9037261271202116e-05
-5.979440292169612e-06   9.187557271227338e-07   1.9037261271202116e-05
-3.84021915382699e-06   3.9734887815126574e-07   2.3362981410011713e-05
-3.84021915382699e-06   3.9734887815126574e-07   2.3362981410011713e-05
-3.84021915382699e-06   3.9734887815126574e-07   2.3362981410011713e-05
-3.84021915382699e-06   3.9734887815126574e-07   2.3362981410011713e-05
-8.515109536743278e-06   7.527478418106357e-07   1.5784736816680284e-05
-8.515109536743278e-06   7.527478418106357e-07   1.5784736816680284e-05
-8.515109536743278e-06   7.527478418106357e-07   1.5784736816680284e-05
-8.515109536743278e-06   7.527478418106357e-07   1.5784736816680284e-05
-8.777864316986377e-06   -1.4474555902303787e-07   2.403261647164099e-05
-8.777864316986377e-06   -1.4474555902303787e-07   2.403261647164099e-05
-8.777864316986377e-06   -1.4474555902303787e-07   2.403261647164099e-05
-8.777864316986377e-06   -1.4474555902303787e-07   2.403261647164099e-05
-4.195651288987456e-06   1.755712814433116e-07   1.620340465402972e-05
-4.195651288987456e-06   1.755712814433116e-07   1.620340465402972e-05
-4.195651288987456e-06   1.755712814433116e-07   1.620340465402972e-05
-4.195651288987456e-06   1.755712814433116e-07   1.620340465402972e-05
-6.244200443135383e-06   5.042161768350258e-07   1.9420466307041348e-05
-6.244200443135383e-06   5.042161768350258e-07   1.9420466307041348e-05
-6.244200443135383e-06   5.042161768350258e-07   1.9420466307041348e-05
-6.244200443135383e-06   5.042161768350258e-07   1.9420466307041348e-05
-7.987646706481122e-06   2.9030401993625655e-06   2.655561393012575e-05
-7.987646706481122e-06   2.9030401993625655e-06   2.655561393012575e-05
-7.987646706481122e-06   2.9030401993625655e-06   2.655561393012575e-05
-7.987646706481122e-06   2.9030401993625655e-06   2.655561393012575e-05
-1.2886447419820606e-05   2.235737520387489e-06   1.7990564467174942e-05
-1.2886447419820606e-05   2.235737520387489e-06   1.7990564467174942e-05
-1.2886447419820606e-05   2.235737520387489e-06   1.7990564467174942e-05
-1.2886447419820606e-05   2.235737520387489e-06   1.7990564467174942e-05
-1.3106260254447963e-05   2.325750997986308e-06   2.6063545305366614e-05
-1.3106260254447963e-05   2.325750997986308e-06   2.6063545305366614e-05
-1.3106260254447963e-05   2.325750997986308e-06   2.6063545305366614e-05
-1.3106260254447963e-05   2.325750997986308e-06   2.6063545305366614e-05
-8.247288990158454e-06   1.7006653239991145e-06   1.8340311269276214e-05
-8.247288990158454e-06   1.7006653239991145e-06   1.8340311269276214e-05
-8.247288990158454e-06   1.7006653239991145e-06   1.8340311269276214e-05
-8.247288990158454e-06   1.7006653239991145e-06   1.8340311269276214e-05
-1.0562284426432302e-05   2.246924372396571e-06   2.1870881567360892e-05
-1.0562284426432302e-05   2.246924372396571e-06   2.1870881567360892e-05
-1.0562284426432302e-05   2.246924372396571e-06   2.1870881567360892e-05
-1.0562284426432302e-05   2.246924372396571e-06   2.1870881567360892e-05
-8.247288990158454e-06   2.325750997986308e-06   2.64385967097588e-05
-8.247288990158454e-06   2.325750997986308e-06   2.64385967097588e-05
-8.247288990158454e-06   2.325750997986308e-06   2.64385967097588e-05
-8.247288990158454e-06   2.325750997986308e-06   2.64385967097588e-05
-1.3106260254447963e-05   1.7006653239991145e-06   1.7965259864884e-05
-1.3106260254447963e-05   1.7006653239991145e-06   1.7965259864884e-05
-1.3106260254447963e-05   1.7006653239991145e-06   1.7965259864884e-05
-1.3106260254447963e-05   1.7006653239991145e-06   1.7965259864884e-05
-1.3341779044526446e-05   1.7514228661365608e-06   2.6322663038351934e-05
-1.3341779044526446e-05   1.7514228661365608e-06   2.6322663038351934e-05
-1.3341779044526446e-05   1.7514228661365608e-06   2.6322663038351934e-05
-1.3341779044526446e-05   1.7514228661365608e-06   2.6322663038351934e-05
-8.515109536743278e-06   1.1568625114405113e-06   1.8634950071531035e-05
-8.515109536743278e-06   1.1568625114405113e-06   1.8634950071531035e-05
-8.515109536743278e-06   1.1568625114405113e-06   1.8634950071531035e-05
-8.515109536743278e-06   1.1568625114405113e-06   1.8634950071531035e-05
-1.0750097098406759e-05   1.8185396532899387e-06   2.1962923055860524e-05
-1.0750097098406759e-05   1.8185396532899387e-06   2.1962923055860524e-05
-1.0750097098406759e-05   1.8185396532899387e-06   2.1962923055860524e-05
-1.0750097098406759e-05   1.8185396532899387e-06   2.1962923055860524e-05
-8.515109536743278e-06   1.7514228661365608e-06   2.66793992511695e-05
-8.515109536743278e-06   1.7514228661365608e-06   2.66793992511695e-05
-8.515109536743278e-06   1.7514228661365608e-06   2.66793992511695e-05
-8.515109536743278e-06   1.7514228661365608e-06   2.66793992511695e-05
-1.3341779044526419e-05   1.1568625114404029e-06   1.827821385871328e-05
-1.3341779044526419e-05   1.1568625114404029e-06   1.827821385871328e-05
-1.3341779044526419e-05   1.1568625114404029e-06   1.827821385871328e-05
-1.3341779044526419e-05   1.1568625114404029e-06   1.827821385871328e-05
-1.3572436438760943e-05   1.2015314196115942e-06   2.686499900260962e-05
-1.3572436438760943e-05   1.2015314196115942e-06   2.686499900260962e-05
-1.3572436438760943e-05   1.2015314196115942e-06   2.686499900260962e-05
-1.3572436438760943e-05   1.2015314196115942e-06   2.686499900260962e-05
-8.777864316986377e-06   6.414163230973168e-07   1.921011452422737e-05
-8.777864316986377e-06   6.414163230973168e-07   1.921011452422737e-05
-8.777864316986377e-06   6.414163230973168e-07   1.921011452422737e-05
-8.777864316986377e-06   6.414163230973168e-07   1.921011452422737e-05
-1.0959349757706305e-05   1.396634630058003e-06   2.2392792607917327e-05
-1.0959349757706305e-05   1.396634630058003e-06   2.2392792607917327e-05
-1.0959349757706305e-05   1.396634630058003e-06   2.2392792607917327e-05
-1.0959349757706305e-05   1.396634630058003e-06   2.2392792607917327e-05
-1.2886447419820687e-05   4.3133939016026714e-06   2.295971565313725e-05
-1.2886447419820687e-05   4.3133939016026714e-06   2.295971565313725e-05
-1.2886447419820687e-05   4.3133939016026714e-06   2.295971565313725e-05
-1.2886447419820687e-05   4.3133939016026714e-06   2.295971565313725e-05
-1.77051273712479e-05   3.023353163047961e-06   1.4154557957625849e-05
-1.77051273712479e-05   3.023353163047961e-06   1.4154557957625849e-05
-1.77051273712479e-05   3.023353163047961e-06   1.4154557957625849e-05
-1.77051273712479e-05   3.023353163047961e-06   1.4154557957625849e-05
-1.7946675108690164e-05   3.7312780217010205e-06   2.2283568422326247e-05
-1.7946675108690164e-05   3.7312780217010205e-06   2.2283568422326247e-05
-1.7946675108690164e-05   3.7312780217010205e-06   2.2283568422326247e-05
-1.7946675108690164e-05   3.7312780217010205e-06   2.2283568422326247e-05
-1.3106260254447963e-05   2.4604312589376594e-06   1.4978718389580751e-05
-1.3106260254447963e-05   2.4604312589376594e-06   1.4978718389580751e-05
-1.3106260254447963e-05   2.4604312589376594e-06   1.4978718389580751e-05
-1.3106260254447963e-05   2.4604312589376594e-06   1.4978718389580751e-05
-1.5378477856956764e-05   3.353092693479621e-06   1.8230150866370063e-05
-1.5378477856956764e-05   3.353092693479621e-06   1.8230150866370063e-05
-1.5378477856956764e-05   3.353092693479621e-06   1.8230150866370063e-05
-1.5378477856956764e-05   3.353092693479621e-06   1.8230150866370063e-05
-1.3106260254447963e-05   3.7312780217008037e-06   2.3046076479984112e-05
-1.3106260254447963e-05   3.7312780217008037e-06   2.3046076479984112e-05
-1.3106260254447963e-05   3.7312780217008037e-06   2.3046076479984112e-05
-1.3106260254447963e-05   3.7312780217008037e-06   2.3046076479984112e-05
-1.794667510869011e-05   2.4604312589376594e-06   1.4216210331922642e-05
-1.794667510869011e-05   2.4604312589376594e-06   1.4216210331922642e-05
-1.794667510869011e-05   2.4604312589376594e-06   1.4216210331922642e-05
-1.794667510869011e-05   2.4604312589376594e-06   1.4216210331922642e-05
-1.8280340418228675e-05   3.2019523651437634e-06   2.3023414574344743e-05
-1.8280340418228675e-05   3.2019523651437634e-06   2.3023414574344743e-05
-1.8280340418228675e-05   3.2019523651437634e-06   2.3023414574344743e-05
-1.8280340418228675e-05   3.2019523651437634e-06   2.3023414574344743e-05
-1.3341779044526446e-05   1.9595708624339835e-06   1.553790785313331e-05
-1.3341779044526446e-05   1.9595708624339835e-06   1.553790785313331e-05
-1.3341779044526446e-05   1.9595708624339835e-06   1.553790785313331e-05
-1.3341779044526446e-05   1.9595708624339835e-06   1.553790785313331e-05
-1.5509768638502446e-05   2.9379200002896573e-06   1.856421436038008e-05
-1.5509768638502446e-05   2.9379200002896573e-06   1.856421436038008e-05
-1.5509768638502446e-05   2.9379200002896573e-06   1.856421436038008e-05
-1.5509768638502446e-05   2.9379200002896573e-06   1.856421436038008e-05
-1.3341779044526419e-05   3.2019523651435466e-06   2.3768843475970025e-05
-1.3341779044526419e-05   3.2019523651435466e-06   2.3768843475970025e-05
-1.3341779044526419e-05   3.2019523651435466e-06   2.3768843475970025e-05
-1.3341779044526419e-05   3.2019523651435466e-06   2.3768843475970025e-05
-1.828034041822862e-05   1.959570862434092e-06   1.4792478951507594e-05
-1.828034041822862e-05   1.959570862434092e-06   1.4792478951507594e-05
-1.828034041822862e-05   1.959570862434092e-06   1.4792478951507594e-05
-1.828034041822862e-05   1.959570862434092e-06   1.4792478951507594e-05
-1.8547797410769953e-05   2.6361929671104775e-06   2.3846200884710886e-05
-1.8547797410769953e-05   2.6361929671104775e-06   2.3846200884710886e-05
-1.8547797410769953e-05   2.6361929671104775e-06   2.3846200884710886e-05
-1.8547797410769953e-05   2.6361929671104775e-06   2.3846200884710886e-05
-1.3572436438760943e-05   1.4492713420527145e-06   1.6266085573064066e-05
-1.3572436438760943e-05   1.4492713420527145e-06   1.6266085573064066e-05
-1.3572436438760943e-05   1.4492713420527145e-06   1.6266085573064066e-05
-1.3572436438760943e-05   1.4492713420527145e-06   1.6266085573064066e-05
-1.5786212671747008e-05   2.543049518130081e-06   1.9299445722394777e-05
-1.5786212671747008e-05   2.543049518130081e-06   1.9299445722394777e-05
-1.5786212671747008e-05   2.543049518130081e-06   1.9299445722394777e-05
-1.5786212671747008e-05   2.543049518130081e-06   1.9299445722394777e-05
-1.77051273712479e-05   5.308170960145438e-06   1.0129850737070523e-05
-1.77051273712479e-05   5.308170960145438e-06   1.0129850737070523e-05
-1.77051273712479e-05   5.308170960145438e-06   1.0129850737070523e-05
-1.77051273712479e-05   5.308170960145438e-06   1.0129850737070523e-05
-2.1491502976077185e-05   3.573483893230052e-06   2.7784124888727225e-06
-2.1491502976077185e-05   3.573483893230052e-06   2.7784124888727225e-06
-2.1491502976077185e-05   3.573483893230052e-06   2.7784124888727225e-06
-2.1491502976077185e-05   3.573483893230052e-06   2.7784124888727225e-06
-2.2407623672891926e-05   5.009893376502596e-06   1.1876734262990978e-05
-2.2407623672891926e-05   5.009893376502596e-06   1.1876734262990978e-05
-2.2407623672891926e-05   5.009893376502596e-06   1.1876734262990978e-05
-2.2407623672891926e-05   5.009893376502596e-06   1.1876734262990978e-05
-1.794667510869011e-05   3.1989219262770112e-06   5.5284028594563845e-06
-1.794667510869011e-05   3.1989219262770112e-06   5.5284028594563845e-06
-1.794667510869011e-05   3.1989219262770112e-06   5.5284028594563845e-06
-1.794667510869011e-05   3.1989219262770112e-06   5.5284028594563845e-06
-1.9197615359651106e-05   4.22932354431668e-06   6.995062306901158e-06
-1.9197615359651106e-05   4.22932354431668e-06   6.995062306901158e-06
-1.9197615359651106e-05   4.22932354431668e-06   6.995062306901158e-06
-1.9197615359651106e-05   4.22932354431668e-06   6.995062306901158e-06
-1.794667510869011e-05   5.009893376502596e-06   1.2963317133126134e-05
-1.794667510869011e-05   5.009893376502596e-06   1.2963317133126134e-05
-1.794667510869011e-05   5.009893376502596e-06   1.2963317133126134e-05
-1.794667510869011e-05   5.009893376502596e-06   1.2963317133126134e-05
-2.2407623672892035e-05   3.1989219262771196e-06   4.441819989321308e-06
-2.2407623672892035e-05   3.1989219262771196e-06   4.441819989321308e-06
-2.2407623672892035e-05   3.1989219262771196e-06   4.441819989321308e-06
-2.2407623672892035e-05   3.1989219262771196e-06   4.441819989321308e-06
-2.3194045126179576e-05   4.760512715816555e-06   1.3987795705892913e-05
-2.3194045126179576e-05   4.760512715816555e-06   1.3987795705892913e-05
-2.3194045126179576e-05   4.760512715816555e-06   1.3987795705892913e-05
-2.3194045126179576e-05   4.760512715816555e-06   1.3987795705892913e-05
-1.828034041822862e-05   2.9416505676079343e-06   6.889605148233005e-06
-1.828034041822862e-05   2.9416505676079343e-06   6.889605148233005e-06
-1.828034041822862e-05   2.9416505676079343e-06   6.889605148233005e-06
-1.828034041822862e-05   2.9416505676079343e-06   6.889605148233005e-06
-1.997404350669672e-05   4.082500160304103e-06   9.02793387339625e-06
-1.997404350669672e-05   4.082500160304103e-06   9.02793387339625e-06
-1.997404350669672e-05   4.082500160304103e-06   9.02793387339625e-06
-1.997404350669672e-05   4.082500160304103e-06   9.02793387339625e-06
-1.828034041822862e-05   4.760512715816555e-06   1.5079112994817912e-05
-1.828034041822862e-05   4.760512715816555e-06   1.5079112994817912e-05
-1.828034041822862e-05   4.760512715816555e-06   1.5079112994817912e-05
-1.828034041822862e-05   4.760512715816555e-06   1.5079112994817912e-05
-2.319404512617963e-05   2.9416505676079343e-06   5.798287859307972e-06
-2.319404512617963e-05   2.9416505676079343e-06   5.798287859307972e-06
-2.319404512617963e-05   2.9416505676079343e-06   5.798287859307972e-06
-2.319404512617963e-05   2.9416505676079343e-06   5.798287859307972e-06
-2.4195186655328368e-05   4.081957292524294e-06   1.780806638940896e-05
-2.4195186655328368e-05   4.081957292524294e-06   1.780806638940896e-05
-2.4195186655328368e-05   4.081957292524294e-06   1.780806638940896e-05
-2.4195186655328368e-05   4.081957292524294e-06   1.780806638940896e-05
-1.85477974107699e-05   2.3507202644003442e-06   9.434493198686215e-06
-1.85477974107699e-05   2.3507202644003442e-06   9.434493198686215e-06
-1.85477974107699e-05   2.3507202644003442e-06   9.434493198686215e-06
-1.85477974107699e-05   2.3507202644003442e-06   9.434493198686215e-06
-2.0195715190547768e-05   3.800784093466354e-06   1.131098453420942e-05
-2.0195715190547768e-05   3.800784093466354e-06   1.131098453420942e-05
-2.0195715190547768e-05   3.800784093466354e-06   1.131098453420942e-05
-2.0195715190547768e-05   3.800784093466354e-06   1.131098453420942e-05
-8.774855050341614e-06   1.5961537521346977e-06   1.0506837249042744e-05
-8.774855050341614e-06   1.5961537521346977e-06   1.0506837249042744e-05
-8.774855050341614e-06   1.5961537521346977e-06   1.0506837249042744e-05
-8.774855050341614e-06   1.5961537521346977e-06   1.0506837249042744e-05
-9.606261436317086e-06   3.016631778838771e-06   9.973446755105926e-06
-9.606261436317086e-06   3.016631778838771e-06   9.973446755105926e-06
-9.606261436317086e-06   3.016631778838771e-06   9.973446755105926e-06
-9.606261436317086e-06   3.016631778838771e-06   9.973446755105926e-06
-9.85382845890216e-06   1.078851899468129e-06   1.128387410407152e-05
-9.85382845890216e-06   1.078851899468129e-06   1.128387410407152e-05
-9.85382845890216e-06   1.078851899468129e-06   1.128387410407152e-05
-9.85382845890216e-06   1.078851899468129e-06   1.128387410407152e-05
-9.815711896530224e-06   2.356426622509146e-06   1.0453801666293735e-05
-9.815711896530224e-06   2.356426622509146e-06   1.0453801666293735e-05
-9.815711896530224e-06   2.356426622509146e-06   1.0453801666293735e-05
-9.815711896530224e-06   2.356426622509146e-06   1.0453801666293735e-05
-9.276685357714156e-06   1.880432435804073e-06   9.841020613623428e-06
-9.276685357714156e-06   1.880432435804073e-06   9.841020613623428e-06
-9.276685357714156e-06   1.880432435804073e-06   9.841020613623428e-06
-9.276685357714156e-06   1.880432435804073e-06   9.841020613623428e-06
-9.815711896530251e-06   1.078851899468129e-06   1.0517329270246737e-05
-9.815711896530251e-06   1.078851899468129e-06   1.0517329270246737e-05
-9.815711896530251e-06   1.078851899468129e-06   1.0517329270246737e-05
-9.815711896530251e-06   1.078851899468129e-06   1.0517329270246737e-05
-9.85382845890216e-06   2.356426622509146e-06   1.1220346500118356e-05
-9.85382845890216e-06   2.356426622509146e-06   1.1220346500118356e-05
-9.85382845890216e-06   2.356426622509146e-06   1.1220346500118356e-05
-9.85382845890216e-06   2.356426622509146e-06   1.1220346500118356e-05
-1.0175126212439209e-05   7.943307863878977e-07   1.1639158117246159e-05
-1.0175126212439209e-05   7.943307863878977e-07   1.1639158117246159e-05
-1.0175126212439209e-05   7.943307863878977e-07   1.1639158117246159e-05
-1.0175126212439209e-05   7.943307863878977e-07   1.1639158117246159e-05
-1.082815984813596e-05   1.9001755312542373e-06   1.2064040663153981e-05
-1.082815984813596e-05   1.9001755312542373e-06   1.2064040663153981e-05
-1.082815984813596e-05   1.9001755312542373e-06   1.2064040663153981e-05
-1.082815984813596e-05   1.9001755312542373e-06   1.2064040663153981e-05
-9.896154872962628e-06   1.5957148778651979e-06   1.0693375429898284e-05
-9.896154872962628e-06   1.5957148778651979e-06   1.0693375429898284e-05
-9.896154872962628e-06   1.5957148778651979e-06   1.0693375429898284e-05
-9.896154872962628e-06   1.5957148778651979e-06   1.0693375429898284e-05
-1.082815984813596e-05   7.943307863878977e-07   1.0975651270326062e-05
-1.082815984813596e-05   7.943307863878977e-07   1.0975651270326062e-05
-1.082815984813596e-05   7.943307863878977e-07   1.0975651270326062e-05
-1.082815984813596e-05   7.943307863878977e-07   1.0975651270326062e-05
-1.0175126212439209e-05   1.9001755312542373e-06   1.2727547510073874e-05
-1.0175126212439209e-05   1.9001755312542373e-06   1.2727547510073874e-05
-1.0175126212439209e-05   1.9001755312542373e-06   1.2727547510073874e-05
-1.0175126212439209e-05   1.9001755312542373e-06   1.2727547510073874e-05
-1.0379806560142324e-05   1.9110060543226816e-07   1.2789331670513674e-05
-1.0379806560142324e-05   1.9110060543226816e-07   1.2789331670513674e-05
-1.0379806560142324e-05   1.9110060543226816e-07   1.2789331670513674e-05
-1.0379806560142324e-05   1.9110060543226816e-07   1.2789331670513674e-05
-1.1906213037618827e-05   7.780658586462258e-07   1.4981163314379392e-05
-1.1906213037618827e-05   7.780658586462258e-07   1.4981163314379392e-05
-1.1906213037618827e-05   7.780658586462258e-07   1.4981163314379392e-05
-1.1906213037618827e-05   7.780658586462258e-07   1.4981163314379392e-05
-1.033123090581202e-05   1.246470756268163e-06   1.2075150156127883e-05
-1.033123090581202e-05   1.246470756268163e-06   1.2075150156127883e-05
-1.033123090581202e-05   1.246470756268163e-06   1.2075150156127883e-05
-1.033123090581202e-05   1.246470756268163e-06   1.2075150156127883e-05
-9.606261436317069e-06   1.8632637200131181e-06   2.0896000543768546e-05
-9.606261436317069e-06   1.8632637200131181e-06   2.0896000543768546e-05
-9.606261436317069e-06   1.8632637200131181e-06   2.0896000543768546e-05
-9.606261436317069e-06   1.8632637200131181e-06   2.0896000543768546e-05
-9.743487800975982e-06   7.809194846656285e-07   2.0017883394795244e-05
-9.743487800975982e-06   7.809194846656285e-07   2.0017883394795244e-05
-9.743487800975982e-06   7.809194846656285e-07   2.0017883394795244e-05
-9.743487800975982e-06   7.809194846656285e-07   2.0017883394795244e-05
-9.820289365384746e-06   1.285696778941252e-06   2.0104988337723575e-05
-9.820289365384746e-06   1.285696778941252e-06   2.0104988337723575e-05
-9.820289365384746e-06   1.285696778941252e-06   2.0104988337723575e-05
-9.820289365384746e-06   1.285696778941252e-06   2.0104988337723575e-05
-9.85382845890216e-06   3.7397743295620577e-07   2.0707918434510292e-05
-9.85382845890216e-06   3.7397743295620577e-07   2.0707918434510292e-05
-9.85382845890216e-06   3.7397743295620577e-07   2.0707918434510292e-05
-9.85382845890216e-06   3.7397743295620577e-07   2.0707918434510292e-05
-9.726238195181334e-06   9.513111731351224e-07   2.014886775086823e-05
-9.726238195181334e-06   9.513111731351224e-07   2.014886775086823e-05
-9.726238195181334e-06   9.513111731351224e-07   2.014886775086823e-05
-9.726238195181334e-06   9.513111731351224e-07   2.014886775086823e-05
-9.853828458902146e-06   1.2856967789411436e-06   2.06520199453143e-05
-9.853828458902146e-06   1.2856967789411436e-06   2.06520199453143e-05
-9.853828458902146e-06   1.2856967789411436e-06   2.06520199453143e-05
-9.853828458902146e-06   1.2856967789411436e-06   2.06520199453143e-05
-9.820289365384719e-06   3.7397743295620577e-07   2.0160886826919215e-05
-9.820289365384719e-06   3.7397743295620577e-07   2.0160886826919215e-05
-9.820289365384719e-06   3.7397743295620577e-07   2.0160886826919215e-05
-9.820289365384719e-06   3.7397743295620577e-07   2.0160886826919215e-05
-9.915396223944214e-06   7.527478418106357e-07   2.038065953072546e-05
-9.915396223944214e-06   7.527478418106357e-07   2.038065953072546e-05
-9.915396223944214e-06   7.527478418106357e-07   2.038065953072546e-05
-9.915396223944214e-06   7.527478418106357e-07   2.038065953072546e-05
-1.0175126212439209e-05   -9.749063946764853e-08   2.1323685933650563e-05
-1.0175126212439209e-05   -9.749063946764853e-08   2.1323685933650563e-05
-1.0175126212439209e-05   -9.749063946764853e-08   2.1323685933650563e-05
-1.0175126212439209e-05   -9.749063946764853e-08   2.1323685933650563e-05
-9.820298561600067e-06   6.144392431535863e-07   2.0305148586012393e-05
-9.820298561600067e-06   6.144392431535863e-07   2.0305148586012393e-05
-9.820298561600067e-06   6.144392431535863e-07   2.0305148586012393e-05
-9.820298561600067e-06   6.144392431535863e-07   2.0305148586012393e-05
-1.0175126212439209e-05   7.527478418106357e-07   2.0890802619492e-05
-1.0175126212439209e-05   7.527478418106357e-07   2.0890802619492e-05
-1.0175126212439209e-05   7.527478418106357e-07   2.0890802619492e-05
-1.0175126212439209e-05   7.527478418106357e-07   2.0890802619492e-05
-9.915396223944187e-06   -9.749063946764853e-08   2.0813542844883525e-05
-9.915396223944187e-06   -9.749063946764853e-08   2.0813542844883525e-05
-9.915396223944187e-06   -9.749063946764853e-08   2.0813542844883525e-05
-9.915396223944187e-06   -9.749063946764853e-08   2.0813542844883525e-05
-9.984739752940102e-06   1.7557128144342002e-07   2.0966986832197314e-05
-9.984739752940102e-06   1.7557128144342002e-07   2.0966986832197314e-05
-9.984739752940102e-06   1.7557128144342002e-07   2.0966986832197314e-05
-9.984739752940102e-06   1.7557128144342002e-07   2.0966986832197314e-05
-1.0379806560142314e-05   -7.167869050656289e-07   2.2160846422772927e-05
-1.0379806560142314e-05   -7.167869050656289e-07   2.2160846422772927e-05
-1.0379806560142314e-05   -7.167869050656289e-07   2.2160846422772927e-05
-1.0379806560142314e-05   -7.167869050656289e-07   2.2160846422772927e-05
-9.968753012959668e-06   2.1881315629725118e-07   2.0914397140650332e-05
-9.968753012959668e-06   2.1881315629725118e-07   2.0914397140650332e-05
-9.968753012959668e-06   2.1881315629725118e-07   2.0914397140650332e-05
-9.968753012959668e-06   2.1881315629725118e-07   2.0914397140650332e-05
-9.743487800976036e-06   2.2357375203875974e-06   2.3050738623232717e-05
-9.743487800976036e-06   2.2357375203875974e-06   2.3050738623232717e-05
-9.743487800976036e-06   2.2357375203875974e-06   2.3050738623232717e-05
-9.743487800976036e-06   2.2357375203875974e-06   2.3050738623232717e-05
-1.0497950216218933e-05   2.1740545291316134e-07   2.0582302024009833e-05
-1.0497950216218933e-05   2.1740545291316134e-07   2.0582302024009833e-05
-1.0497950216218933e-05   2.1740545291316134e-07   2.0582302024009833e-05
-1.0497950216218933e-05   2.1740545291316134e-07   2.0582302024009833e-05
-1.0523974774933345e-05   1.7006653239991145e-06   2.187157018251147e-05
-1.0523974774933345e-05   1.7006653239991145e-06   2.187157018251147e-05
-1.0523974774933345e-05   1.7006653239991145e-06   2.187157018251147e-05
-1.0523974774933345e-05   1.7006653239991145e-06   2.187157018251147e-05
-9.820289365384719e-06   -1.2608692962889217e-07   2.179481251877378e-05
-9.820289365384719e-06   -1.2608692962889217e-07   2.179481251877378e-05
-9.820289365384719e-06   -1.2608692962889217e-07   2.179481251877378e-05
-9.820289365384719e-06   -1.2608692962889217e-07   2.179481251877378e-05
-1.0129147509397435e-05   9.728283367111974e-07   2.165022693232445e-05
-1.0129147509397435e-05   9.728283367111974e-07   2.165022693232445e-05
-1.0129147509397435e-05   9.728283367111974e-07   2.165022693232445e-05
-1.0129147509397435e-05   9.728283367111974e-07   2.165022693232445e-05
-9.820289365384746e-06   1.7006653239991145e-06   2.2967621534688014e-05
-9.820289365384746e-06   1.7006653239991145e-06   2.2967621534688014e-05
-9.820289365384746e-06   1.7006653239991145e-06   2.2967621534688014e-05
-9.820289365384746e-06   1.7006653239991145e-06   2.2967621534688014e-05
-1.0523974774933291e-05   -1.2608692962889217e-07   2.0698761166597075e-05
-1.0523974774933291e-05   -1.2608692962889217e-07   2.0698761166597075e-05
-1.0523974774933291e-05   -1.2608692962889217e-07   2.0698761166597075e-05
-1.0523974774933291e-05   -1.2608692962889217e-07   2.0698761166597075e-05
-1.0571028890448076e-05   1.1568625114404029e-06   2.2214321784638758e-05
-1.0571028890448076e-05   1.1568625114404029e-06   2.2214321784638758e-05
-1.0571028890448076e-05   1.1568625114404029e-06   2.2214321784638758e-05
-1.0571028890448076e-05   1.1568625114404029e-06   2.2214321784638758e-05
-9.915396223944187e-06   -5.373891567884981e-07   2.2138151674736055e-05
-9.915396223944187e-06   -5.373891567884981e-07   2.2138151674736055e-05
-9.915396223944187e-06   -5.373891567884981e-07   2.2138151674736055e-05
-9.915396223944187e-06   -5.373891567884981e-07   2.2138151674736055e-05
-1.0135071330727536e-05   6.327146893753653e-07   2.1802214545009273e-05
-1.0135071330727536e-05   6.327146893753653e-07   2.1802214545009273e-05
-1.0135071330727536e-05   6.327146893753653e-07   2.1802214545009273e-05
-1.0135071330727536e-05   6.327146893753653e-07   2.1802214545009273e-05
-9.915396223944214e-06   1.1568625114405113e-06   2.323087278557575e-05
-9.915396223944214e-06   1.1568625114405113e-06   2.323087278557575e-05
-9.915396223944214e-06   1.1568625114405113e-06   2.323087278557575e-05
-9.915396223944214e-06   1.1568625114405113e-06   2.323087278557575e-05
-1.0571028890448049e-05   -5.373891567884981e-07   2.112160067379868e-05
-1.0571028890448049e-05   -5.373891567884981e-07   2.112160067379868e-05
-1.0571028890448049e-05   -5.373891567884981e-07   2.112160067379868e-05
-1.0571028890448049e-05   -5.373891567884981e-07   2.112160067379868e-05
-1.0601265225329548e-05   6.414163230972084e-07   2.282651211102393e-05
-1.0601265225329548e-05   6.414163230972084e-07   2.282651211102393e-05
-1.0601265225329548e-05   6.414163230972084e-07   2.282651211102393e-05
-1.0601265225329548e-05   6.414163230972084e-07   2.282651211102393e-05
-9.984739752940075e-06   -9.50241155388081e-07   2.275396414413259e-05
-9.984739752940075e-06   -9.50241155388081e-07   2.275396414413259e-05
-9.984739752940075e-06   -9.50241155388081e-07   2.275396414413259e-05
-9.984739752940075e-06   -9.50241155388081e-07   2.275396414413259e-05
-1.0157858801586748e-05   2.8308351333579743e-07   2.23025010906421e-05
-1.0157858801586748e-05   2.8308351333579743e-07   2.23025010906421e-05
-1.0157858801586748e-05   2.8308351333579743e-07   2.23025010906421e-05
-1.0157858801586748e-05   2.8308351333579743e-07   2.23025010906421e-05
-1.0497950216218933e-05   3.023353163047961e-06   1.8777757316331702e-05
-1.0497950216218933e-05   3.023353163047961e-06   1.8777757316331702e-05
-1.0497950216218933e-05   3.023353163047961e-06   1.8777757316331702e-05
-1.0497950216218933e-05   3.023353163047961e-06   1.8777757316331702e-05
-1.1585833650889035e-05   9.93240935387332e-07   1.5746550921951842e-05
-1.1585833650889035e-05   9.93240935387332e-07   1.5746550921951842e-05
-1.1585833650889035e-05   9.93240935387332e-07   1.5746550921951842e-05
-1.1585833650889035e-05   9.93240935387332e-07   1.5746550921951842e-05
-1.1605198618619254e-05   2.4604312589376594e-06   1.77331368760279e-05
-1.1605198618619254e-05   2.4604312589376594e-06   1.77331368760279e-05
-1.1605198618619254e-05   2.4604312589376594e-06   1.77331368760279e-05
-1.1605198618619254e-05   2.4604312589376594e-06   1.77331368760279e-05
-1.0523974774933345e-05   5.40611540304119e-07   1.708298896773168e-05
-1.0523974774933345e-05   5.40611540304119e-07   1.708298896773168e-05
-1.0523974774933345e-05   5.40611540304119e-07   1.708298896773168e-05
-1.0523974774933345e-05   5.40611540304119e-07   1.708298896773168e-05
-1.1024358461527925e-05   1.795775299930991e-06   1.716386352294645e-05
-1.1024358461527925e-05   1.795775299930991e-06   1.716386352294645e-05
-1.1024358461527925e-05   1.795775299930991e-06   1.716386352294645e-05
-1.1024358461527925e-05   1.795775299930991e-06   1.716386352294645e-05
-1.0523974774933345e-05   2.4604312589376594e-06   1.8885028707207895e-05
-1.0523974774933345e-05   2.4604312589376594e-06   1.8885028707207895e-05
-1.0523974774933345e-05   2.4604312589376594e-06   1.8885028707207895e-05
-1.0523974774933345e-05   2.4604312589376594e-06   1.8885028707207895e-05
-1.1605198618619254e-05   5.40611540304119e-07   1.5931097136551485e-05
-1.1605198618619254e-05   5.40611540304119e-07   1.5931097136551485e-05
-1.1605198618619254e-05   5.40611540304119e-07   1.5931097136551485e-05
-1.1605198618619254e-05   5.40611540304119e-07   1.5931097136551485e-05
-1.1731312042389446e-05   1.959570862434092e-06   1.8390067629016826e-05
-1.1731312042389446e-05   1.959570862434092e-06   1.8390067629016826e-05
-1.1731312042389446e-05   1.959570862434092e-06   1.8390067629016826e-05
-1.1731312042389446e-05   1.959570862434092e-06   1.8390067629016826e-05
-1.0571028890448076e-05   1.5299061236428123e-07   1.7540210525822874e-05
-1.0571028890448076e-05   1.5299061236428123e-07   1.7540210525822874e-05
-1.0571028890448076e-05   1.5299061236428123e-07   1.7540210525822874e-05
-1.0571028890448076e-05   1.5299061236428123e-07   1.7540210525822874e-05
-1.0993184970555523e-05   1.4240378341205803e-06   1.7481175659614205e-05
-1.0993184970555523e-05   1.4240378341205803e-06   1.7481175659614205e-05
-1.0993184970555523e-05   1.4240378341205803e-06   1.7481175659614205e-05
-1.0993184970555523e-05   1.4240378341205803e-06   1.7481175659614205e-05
-1.0571028890448076e-05   1.959570862434092e-06   1.9474015779058192e-05
-1.0571028890448076e-05   1.959570862434092e-06   1.9474015779058192e-05
-1.0571028890448076e-05   1.959570862434092e-06   1.9474015779058192e-05
-1.0571028890448076e-05   1.959570862434092e-06   1.9474015779058192e-05
-1.1731312042389446e-05   1.5299061236428123e-07   1.6456262375781037e-05
-1.1731312042389446e-05   1.5299061236428123e-07   1.6456262375781037e-05
-1.1731312042389446e-05   1.5299061236428123e-07   1.6456262375781037e-05
-1.1731312042389446e-05   1.5299061236428123e-07   1.6456262375781037e-05
-1.1806587941001442e-05   1.449271342052823e-06   1.9206318833740786e-05
-1.1806587941001442e-05   1.449271342052823e-06   1.9206318833740786e-05
-1.1806587941001442e-05   1.449271342052823e-06   1.9206318833740786e-05
-1.1806587941001442e-05   1.449271342052823e-06   1.9206318833740786e-05
-1.0601265225329521e-05   -2.3778429799465022e-07   1.820968102498249e-05
-1.0601265225329521e-05   -2.3778429799465022e-07   1.820968102498249e-05
-1.0601265225329521e-05   -2.3778429799465022e-07   1.820968102498249e-05
-1.0601265225329521e-05   -2.3778429799465022e-07   1.820968102498249e-05
-1.104863265897693e-05   1.0919632124008379e-06   1.8157444908157173e-05
-1.104863265897693e-05   1.0919632124008379e-06   1.8157444908157173e-05
-1.104863265897693e-05   1.0919632124008379e-06   1.8157444908157173e-05
-1.104863265897693e-05   1.0919632124008379e-06   1.8157444908157173e-05
-1.158583365088898e-05   3.5734838932301605e-06   7.224356751131251e-06
-1.158583365088898e-05   3.5734838932301605e-06   7.224356751131251e-06
-1.158583365088898e-05   3.5734838932301605e-06   7.224356751131251e-06
-1.158583365088898e-05   3.5734838932301605e-06   7.224356751131251e-06
-1.1447485164058275e-05   1.637661663623927e-06   6.29344422475197e-06
-1.1447485164058275e-05   1.637661663623927e-06   6.29344422475197e-06
-1.1447485164058275e-05   1.637661663623927e-06   6.29344422475197e-06
-1.1447485164058275e-05   1.637661663623927e-06   6.29344422475197e-06
-1.2036163891774492e-05   3.1989219262771196e-06   7.916331118265141e-06
-1.2036163891774492e-05   3.1989219262771196e-06   7.916331118265141e-06
-1.2036163891774492e-05   3.1989219262771196e-06   7.916331118265141e-06
-1.2036163891774492e-05   3.1989219262771196e-06   7.916331118265141e-06
-1.1605198618619254e-05   1.317258117449426e-06   8.327053948302887e-06
-1.1605198618619254e-05   1.317258117449426e-06   8.327053948302887e-06
-1.1605198618619254e-05   1.317258117449426e-06   8.327053948302887e-06
-1.1605198618619254e-05   1.317258117449426e-06   8.327053948302887e-06
-1.1289525088599276e-05   2.5143102081083427e-06   7.0827001438743525e-06
-1.1289525088599276e-05   2.5143102081083427e-06   7.0827001438743525e-06
-1.1289525088599276e-05   2.5143102081083427e-06   7.0827001438743525e-06
-1.1289525088599276e-05   2.5143102081083427e-06   7.0827001438743525e-06
-1.16051986186192e-05   3.1989219262770112e-06   9.045329403561454e-06
-1.16051986186192e-05   3.1989219262770112e-06   9.045329403561454e-06
-1.16051986186192e-05   3.1989219262770112e-06   9.045329403561454e-06
-1.16051986186192e-05   3.1989219262770112e-06   9.045329403561454e-06
-1.2036163891774492e-05   1.317258117449426e-06   7.1980556630063845e-06
-1.2036163891774492e-05   1.317258117449426e-06   7.1980556630063845e-06
-1.2036163891774492e-05   1.317258117449426e-06   7.1980556630063845e-06
-1.2036163891774492e-05   1.317258117449426e-06   7.1980556630063845e-06
-1.2553037313252043e-05   2.9416505676079343e-06   9.386867723950752e-06
-1.2553037313252043e-05   2.9416505676079343e-06   9.386867723950752e-06
-1.2553037313252043e-05   2.9416505676079343e-06   9.386867723950752e-06
-1.2553037313252043e-05   2.9416505676079343e-06   9.386867723950752e-06
-1.1731312042389446e-05   1.1077737312885404e-06   9.117651707637943e-06
-1.1731312042389446e-05   1.1077737312885404e-06   9.117651707637943e-06
-1.1731312042389446e-05   1.1077737312885404e-06   9.117651707637943e-06
-1.1731312042389446e-05   1.1077737312885404e-06   9.117651707637943e-06
-1.170917942707207e-05   2.3272944615342506e-06   8.349051577294245e-06
-1.170917942707207e-05   2.3272944615342506e-06   8.349051577294245e-06
-1.170917942707207e-05   2.3272944615342506e-06   8.349051577294245e-06
-1.170917942707207e-05   2.3272944615342506e-06   8.349051577294245e-06
-1.1731312042389446e-05   2.9416505676079343e-06   1.048719382574202e-05
-1.1731312042389446e-05   2.9416505676079343e-06   1.048719382574202e-05
-1.1731312042389446e-05   2.9416505676079343e-06   1.048719382574202e-05
-1.1731312042389446e-05   2.9416505676079343e-06   1.048719382574202e-05
-1.2553037313252097e-05   1.107773731288432e-06   8.017325605846242e-06
-1.2553037313252097e-05   1.107773731288432e-06   8.017325605846242e-06
-1.2553037313252097e-05   1.107773731288432e-06   8.017325605846242e-06
-1.2553037313252097e-05   1.107773731288432e-06   8.017325605846242e-06
-1.3321275748271063e-05   2.3507202644003442e-06   1.2088174755608364e-05
-1.3321275748271063e-05   2.3507202644003442e-06   1.2088174755608364e-05
-1.3321275748271063e-05   2.3507202644003442e-06   1.2088174755608364e-05
-1.3321275748271063e-05   2.3507202644003442e-06   1.2088174755608364e-05
-1.1806587941001442e-05   6.862124664187667e-07   1.0562399755614555e-05
-1.1806587941001442e-05   6.862124664187667e-07   1.0562399755614555e-05
-1.1806587941001442e-05   6.862124664187667e-07   1.0562399755614555e-05
-1.1806587941001442e-05   6.862124664187667e-07   1.0562399755614555e-05
-1.1851087817403257e-05   2.104763752205853e-06   9.78543544481107e-06
-1.1851087817403257e-05   2.104763752205853e-06   9.78543544481107e-06
-1.1851087817403257e-05   2.104763752205853e-06   9.78543544481107e-06
-1.1851087817403257e-05   2.104763752205853e-06   9.78543544481107e-06
-2.2780657165686888e-05   3.0166317788386625e-06   8.791862694262074e-06
-2.2780657165686888e-05   3.0166317788386625e-06   8.791862694262074e-06
-2.2780657165686888e-05   3.0166317788386625e-06   8.791862694262074e-06
-2.2780657165686888e-05   3.0166317788386625e-06   8.791862694262074e-06
-1.5381494344455176e-05   4.176846536637008e-06   2.1819929584327227e-05
-1.5381494344455176e-05   4.176846536637008e-06   2.1819929584327227e-05
-1.5381494344455176e-05   4.176846536637008e-06   2.1819929584327227e-05
-1.5381494344455176e-05   4.176846536637008e-06   2.1819929584327227e-05
-1.5374247372398863e-05   2.356426622509146e-06   9.985731795171993e-06
-1.5374247372398863e-05   2.356426622509146e-06   9.985731795171993e-06
-1.5374247372398863e-05   2.356426622509146e-06   9.985731795171993e-06
-1.5374247372398863e-05   2.356426622509146e-06   9.985731795171993e-06
-2.5093863349037225e-05   1.6916090037554735e-06   2.658398232748834e-05
-2.5093863349037225e-05   1.6916090037554735e-06   2.658398232748834e-05
-2.5093863349037225e-05   1.6916090037554735e-06   2.658398232748834e-05
-2.5093863349037225e-05   1.6916090037554735e-06   2.658398232748834e-05
-1.8643150960333404e-05   2.475027593906102e-06   1.536274385889163e-05
-1.8643150960333404e-05   2.475027593906102e-06   1.536274385889163e-05
-1.8643150960333404e-05   2.475027593906102e-06   1.536274385889163e-05
-1.8643150960333404e-05   2.475027593906102e-06   1.536274385889163e-05
-2.5093863349037272e-05   2.3564266225092542e-06   1.038462236642424e-05
-2.5093863349037272e-05   2.3564266225092542e-06   1.038462236642424e-05
-2.5093863349037272e-05   2.3564266225092542e-06   1.038462236642424e-05
-2.5093863349037272e-05   2.3564266225092542e-06   1.038462236642424e-05
-1.5374247372398863e-05   1.6916090037554735e-06   2.6185091756236094e-05
-1.5374247372398863e-05   1.6916090037554735e-06   2.6185091756236094e-05
-1.5374247372398863e-05   1.6916090037554735e-06   2.6185091756236094e-05
-1.5374247372398863e-05   1.6916090037554735e-06   2.6185091756236094e-05
-1.5584237254708696e-05   1.9001755312542373e-06   1.1168765605799554e-05
-1.5584237254708696e-05   1.9001755312542373e-06   1.1168765605799554e-05
-1.5584237254708696e-05   1.9001755312542373e-06   1.1168765605799554e-05
-1.5584237254708696e-05   1.9001755312542373e-06   1.1168765605799554e-05
-2.5182420919731792e-05   1.2137010320938287e-06   2.757762308033415e-05
-2.5182420919731792e-05   1.2137010320938287e-06   2.757762308033415e-05
-2.5182420919731792e-05   1.2137010320938287e-06   2.757762308033415e-05
-2.5182420919731792e-05   1.2137010320938287e-06   2.757762308033415e-05
-1.9894211021316536e-05   1.546089108148325e-06   1.856450707067586e-05
-1.9894211021316536e-05   1.546089108148325e-06   1.856450707067586e-05
-1.9894211021316536e-05   1.546089108148325e-06   1.856450707067586e-05
-1.9894211021316536e-05   1.546089108148325e-06   1.856450707067586e-05
-2.5182420919731833e-05   1.9001755312542373e-06   1.1580650305295745e-05
-2.5182420919731833e-05   1.9001755312542373e-06   1.1580650305295745e-05
-2.5182420919731833e-05   1.9001755312542373e-06   1.1580650305295745e-05
-2.5182420919731833e-05   1.9001755312542373e-06   1.1580650305295745e-05
-1.5584237254708676e-05   1.2137010320938287e-06   2.716573838083792e-05
-1.5584237254708676e-05   1.2137010320938287e-06   2.716573838083792e-05
-1.5584237254708676e-05   1.2137010320938287e-06   2.716573838083792e-05
-1.5584237254708676e-05   1.2137010320938287e-06   2.716573838083792e-05
-1.5418140651777816e-05   7.780658586462258e-07   1.323795326321959e-05
-1.5418140651777816e-05   7.780658586462258e-07   1.323795326321959e-05
-1.5418140651777816e-05   7.780658586462258e-07   1.323795326321959e-05
-1.5418140651777816e-05   7.780658586462258e-07   1.323795326321959e-05
-2.5455376835675206e-05   -8.187584015028715e-07   3.092477479247119e-05
-2.5455376835675206e-05   -8.187584015028715e-07   3.092477479247119e-05
-2.5455376835675206e-05   -8.187584015028715e-07   3.092477479247119e-05
-2.5455376835675206e-05   -8.187584015028715e-07   3.092477479247119e-05
-1.9590842066537827e-05   7.495433842839958e-07   2.0209569105770196e-05
-1.9590842066537827e-05   7.495433842839958e-07   2.0209569105770196e-05
-1.9590842066537827e-05   7.495433842839958e-07   2.0209569105770196e-05
-1.9590842066537827e-05   7.495433842839958e-07   2.0209569105770196e-05
-1.5381494344455203e-05   7.809194846656285e-07   2.018183472983872e-05
-1.5381494344455203e-05   7.809194846656285e-07   2.018183472983872e-05
-1.5381494344455203e-05   7.809194846656285e-07   2.018183472983872e-05
-1.5381494344455203e-05   7.809194846656285e-07   2.018183472983872e-05
-9.43886184425231e-06   -4.718045748754358e-06   2.678684309012496e-05
-9.43886184425231e-06   -4.718045748754358e-06   2.678684309012496e-05
-9.43886184425231e-06   -4.718045748754358e-06   2.678684309012496e-05
-9.43886184425231e-06   -4.718045748754358e-06   2.678684309012496e-05
-9.458208372000864e-06   3.7397743295609735e-07   1.693037131256052e-05
-9.458208372000864e-06   3.7397743295609735e-07   1.693037131256052e-05
-9.458208372000864e-06   3.7397743295609735e-07   1.693037131256052e-05
-9.458208372000864e-06   3.7397743295609735e-07   1.693037131256052e-05
-1.5374247372398863e-05   -3.864243262049517e-06   2.933336873022746e-05
-1.5374247372398863e-05   -3.864243262049517e-06   2.933336873022746e-05
-1.5374247372398863e-05   -3.864243262049517e-06   2.933336873022746e-05
-1.5374247372398863e-05   -3.864243262049517e-06   2.933336873022746e-05
-1.234743142347026e-05   -2.3332708743589465e-06   2.3370092049398907e-05
-1.234743142347026e-05   -2.3332708743589465e-06   2.3370092049398907e-05
-1.234743142347026e-05   -2.3332708743589465e-06   2.3370092049398907e-05
-1.234743142347026e-05   -2.3332708743589465e-06   2.3370092049398907e-05
-1.537424737239887e-05   3.7397743295609735e-07   1.9473303729563847e-05
-1.537424737239887e-05   3.7397743295609735e-07   1.9473303729563847e-05
-1.537424737239887e-05   3.7397743295609735e-07   1.9473303729563847e-05
-1.537424737239887e-05   3.7397743295609735e-07   1.9473303729563847e-05
-9.458208372000864e-06   -3.864243262049517e-06   2.679043631322404e-05
-9.458208372000864e-06   -3.864243262049517e-06   2.679043631322404e-05
-9.458208372000864e-06   -3.864243262049517e-06   2.679043631322404e-05
-9.458208372000864e-06   -3.864243262049517e-06   2.679043631322404e-05
-9.495698928226889e-06   -9.749063946764853e-08   1.7452472460104617e-05
-9.495698928226889e-06   -9.749063946764853e-08   1.7452472460104617e-05
-9.495698928226889e-06   -9.749063946764853e-08   1.7452472460104617e-05
-9.495698928226889e-06   -9.749063946764853e-08   1.7452472460104617e-05
-1.5584237254708676e-05   -3.951543254920192e-06   2.991246790684567e-05
-1.5584237254708676e-05   -3.951543254920192e-06   2.991246790684567e-05
-1.5584237254708676e-05   -3.951543254920192e-06   2.991246790684567e-05
-1.5584237254708676e-05   -3.951543254920192e-06   2.991246790684567e-05
-1.2257563923000986e-05   -2.038586070338632e-06   2.3220238043250433e-05
-1.2257563923000986e-05   -2.038586070338632e-06   2.3220238043250433e-05
-1.2257563923000986e-05   -2.038586070338632e-06   2.3220238043250433e-05
-1.2257563923000986e-05   -2.038586070338632e-06   2.3220238043250433e-05
-1.5584237254708696e-05   -9.749063946764853e-08   1.9764904029376175e-05
-1.5584237254708696e-05   -9.749063946764853e-08   1.9764904029376175e-05
-1.5584237254708696e-05   -9.749063946764853e-08   1.9764904029376175e-05
-1.5584237254708696e-05   -9.749063946764853e-08   1.9764904029376175e-05
-9.495698928226889e-06   -3.951543254920192e-06   2.7600036337574124e-05
-9.495698928226889e-06   -3.951543254920192e-06   2.7600036337574124e-05
-9.495698928226889e-06   -3.951543254920192e-06   2.7600036337574124e-05
-9.495698928226889e-06   -3.951543254920192e-06   2.7600036337574124e-05
-9.403415870291713e-06   -7.167869050656289e-07   1.810363660771744e-05
-9.403415870291713e-06   -7.167869050656289e-07   1.810363660771744e-05
-9.403415870291713e-06   -7.167869050656289e-07   1.810363660771744e-05
-9.403415870291713e-06   -7.167869050656289e-07   1.810363660771744e-05
-1.5418140651777775e-05   -3.98648792501136e-06   3.0089998522161524e-05
-1.5418140651777775e-05   -3.98648792501136e-06   3.0089998522161524e-05
-1.5418140651777775e-05   -3.98648792501136e-06   3.0089998522161524e-05
-1.5418140651777775e-05   -3.98648792501136e-06   3.0089998522161524e-05
-1.2314978183416609e-05   -2.288329343325536e-06   2.3899165925881456e-05
-1.2314978183416609e-05   -2.288329343325536e-06   2.3899165925881456e-05
-1.2314978183416609e-05   -2.288329343325536e-06   2.3899165925881456e-05
-1.2314978183416609e-05   -2.288329343325536e-06   2.3899165925881456e-05
-9.43886184425231e-06   2.1740545291316134e-07   1.8657873459485995e-05
-9.43886184425231e-06   2.1740545291316134e-07   1.8657873459485995e-05
-9.43886184425231e-06   2.1740545291316134e-07   1.8657873459485995e-05
-9.43886184425231e-06   2.1740545291316134e-07   1.8657873459485995e-05
-6.9476839711732775e-06   -3.6858241170061533e-06   2.046789883933276e-05
-6.9476839711732775e-06   -3.6858241170061533e-06   2.046789883933276e-05
-6.9476839711732775e-06   -3.6858241170061533e-06   2.046789883933276e-05
-6.9476839711732775e-06   -3.6858241170061533e-06   2.046789883933276e-05
-6.886077459803113e-06   -1.2608692962889217e-07   1.646800073503178e-05
-6.886077459803113e-06   -1.2608692962889217e-07   1.646800073503178e-05
-6.886077459803113e-06   -1.2608692962889217e-07   1.646800073503178e-05
-6.886077459803113e-06   -1.2608692962889217e-07   1.646800073503178e-05
-9.458208372000864e-06   -3.619914045267759e-06   2.2851181858078186e-05
-9.458208372000864e-06   -3.619914045267759e-06   2.2851181858078186e-05
-9.458208372000864e-06   -3.619914045267759e-06   2.2851181858078186e-05
-9.458208372000864e-06   -3.619914045267759e-06   2.2851181858078186e-05
-8.13249737062332e-06   -1.862491012637169e-06   1.9587209702870737e-05
-8.13249737062332e-06   -1.862491012637169e-06   1.9587209702870737e-05
-8.13249737062332e-06   -1.862491012637169e-06   1.9587209702870737e-05
-8.13249737062332e-06   -1.862491012637169e-06   1.9587209702870737e-05
-9.458208372000864e-06   -1.2608692962889217e-07   1.8564297004415088e-05
-9.458208372000864e-06   -1.2608692962889217e-07   1.8564297004415088e-05
-9.458208372000864e-06   -1.2608692962889217e-07   1.8564297004415088e-05
-9.458208372000864e-06   -1.2608692962889217e-07   1.8564297004415088e-05
-6.886077459803113e-06   -3.6199140452677046e-06   2.0754885588694857e-05
-6.886077459803113e-06   -3.6199140452677046e-06   2.0754885588694857e-05
-6.886077459803113e-06   -3.6199140452677046e-06   2.0754885588694857e-05
-6.886077459803113e-06   -3.6199140452677046e-06   2.0754885588694857e-05
-6.833390895691474e-06   -5.373891567884981e-07   1.6861364284247258e-05
-6.833390895691474e-06   -5.373891567884981e-07   1.6861364284247258e-05
-6.833390895691474e-06   -5.373891567884981e-07   1.6861364284247258e-05
-6.833390895691474e-06   -5.373891567884981e-07   1.6861364284247258e-05
-9.495698928226889e-06   -3.7302508329716553e-06   2.3214261344182703e-05
-9.495698928226889e-06   -3.7302508329716553e-06   2.3214261344182703e-05
-9.495698928226889e-06   -3.7302508329716553e-06   2.3214261344182703e-05
-9.495698928226889e-06   -3.7302508329716553e-06   2.3214261344182703e-05
-8.061185465134938e-06   -1.9858880008803226e-06   1.977678787310757e-05
-8.061185465134938e-06   -1.9858880008803226e-06   1.977678787310757e-05
-8.061185465134938e-06   -1.9858880008803226e-06   1.977678787310757e-05
-8.061185465134938e-06   -1.9858880008803226e-06   1.977678787310757e-05
-9.495698928226889e-06   -5.373891567884981e-07   1.8777081289957174e-05
-9.495698928226889e-06   -5.373891567884981e-07   1.8777081289957174e-05
-9.495698928226889e-06   -5.373891567884981e-07   1.8777081289957174e-05
-9.495698928226889e-06   -5.373891567884981e-07   1.8777081289957174e-05
-6.833390895691501e-06   -3.7302508329716553e-06   2.129854433847288e-05
-6.833390895691501e-06   -3.7302508329716553e-06   2.129854433847288e-05
-6.833390895691501e-06   -3.7302508329716553e-06   2.129854433847288e-05
-6.833390895691501e-06   -3.7302508329716553e-06   2.129854433847288e-05
-6.700063756244723e-06   -9.50241155388081e-07   1.7470569564550587e-05
-6.700063756244723e-06   -9.50241155388081e-07   1.7470569564550587e-05
-6.700063756244723e-06   -9.50241155388081e-07   1.7470569564550587e-05
-6.700063756244723e-06   -9.50241155388081e-07   1.7470569564550587e-05
-9.403415870291713e-06   -3.88624061610775e-06   2.3737756097727254e-05
-9.403415870291713e-06   -3.88624061610775e-06   2.3737756097727254e-05
-9.403415870291713e-06   -3.88624061610775e-06   2.3737756097727254e-05
-9.403415870291713e-06   -3.88624061610775e-06   2.3737756097727254e-05
-7.977855822128478e-06   -2.165979149780777e-06   2.0329665804325818e-05
-7.977855822128478e-06   -2.165979149780777e-06   2.0329665804325818e-05
-7.977855822128478e-06   -2.165979149780777e-06   2.0329665804325818e-05
-7.977855822128478e-06   -2.165979149780777e-06   2.0329665804325818e-05
-6.947683971173332e-06   9.93240935387332e-07   1.269825195207271e-05
-6.947683971173332e-06   9.93240935387332e-07   1.269825195207271e-05
-6.947683971173332e-06   9.93240935387332e-07   1.269825195207271e-05
-6.947683971173332e-06   9.93240935387332e-07   1.269825195207271e-05
-5.79677785388197e-06   -1.5127772626125167e-06   1.3112817895425072e-05
-5.79677785388197e-06   -1.5127772626125167e-06   1.3112817895425072e-05
-5.79677785388197e-06   -1.5127772626125167e-06   1.3112817895425072e-05
-5.79677785388197e-06   -1.5127772626125167e-06   1.3112817895425072e-05
-5.672809911661143e-06   5.40611540304119e-07   1.1465553212998848e-05
-5.672809911661143e-06   5.40611540304119e-07   1.1465553212998848e-05
-5.672809911661143e-06   5.40611540304119e-07   1.1465553212998848e-05
-5.672809911661143e-06   5.40611540304119e-07   1.1465553212998848e-05
-6.886077459803113e-06   -1.7705139983083306e-06   1.4874341116403198e-05
-6.886077459803113e-06   -1.7705139983083306e-06   1.4874341116403198e-05
-6.886077459803113e-06   -1.7705139983083306e-06   1.4874341116403198e-05
-6.886077459803113e-06   -1.7705139983083306e-06   1.4874341116403198e-05
-6.2797011900339724e-06   -3.4517202078017265e-07   1.3008508813604539e-05
-6.2797011900339724e-06   -3.4517202078017265e-07   1.3008508813604539e-05
-6.2797011900339724e-06   -3.4517202078017265e-07   1.3008508813604539e-05
-6.2797011900339724e-06   -3.4517202078017265e-07   1.3008508813604539e-05
-6.886077459803113e-06   5.40611540304119e-07   1.2852228536166328e-05
-6.886077459803113e-06   5.40611540304119e-07   1.2852228536166328e-05
-6.886077459803113e-06   5.40611540304119e-07   1.2852228536166328e-05
-6.886077459803113e-06   5.40611540304119e-07   1.2852228536166328e-05
-5.672809911661143e-06   -1.7705139983083306e-06   1.3487665793235717e-05
-5.672809911661143e-06   -1.7705139983083306e-06   1.3487665793235717e-05
-5.672809911661143e-06   -1.7705139983083306e-06   1.3487665793235717e-05
-5.672809911661143e-06   -1.7705139983083306e-06   1.3487665793235717e-05
-5.6172887794532825e-06   1.5299061236428123e-07   1.2007485819877568e-05
-5.6172887794532825e-06   1.5299061236428123e-07   1.2007485819877568e-05
-5.6172887794532825e-06   1.5299061236428123e-07   1.2007485819877568e-05
-5.6172887794532825e-06   1.5299061236428123e-07   1.2007485819877568e-05
-6.833390895691474e-06   -1.967823248292199e-06   1.5306810996668346e-05
-6.833390895691474e-06   -1.967823248292199e-06   1.5306810996668346e-05
-6.833390895691474e-06   -1.967823248292199e-06   1.5306810996668346e-05
-6.833390895691474e-06   -1.967823248292199e-06   1.5306810996668346e-05
-6.156754335650083e-06   -6.208422538462612e-07   1.337089479993116e-05
-6.156754335650083e-06   -6.208422538462612e-07   1.337089479993116e-05
-6.156754335650083e-06   -6.208422538462612e-07   1.337089479993116e-05
-6.156754335650083e-06   -6.208422538462612e-07   1.337089479993116e-05
-6.833390895691474e-06   1.5299061236428123e-07   1.3279974136271315e-05
-6.833390895691474e-06   1.5299061236428123e-07   1.3279974136271315e-05
-6.833390895691474e-06   1.5299061236428123e-07   1.3279974136271315e-05
-6.833390895691474e-06   1.5299061236428123e-07   1.3279974136271315e-05
-5.617288779453337e-06   -1.967823248292199e-06   1.4034322680274327e-05
-5.617288779453337e-06   -1.967823248292199e-06   1.4034322680274327e-05
-5.617288779453337e-06   -1.967823248292199e-06   1.4034322680274327e-05
-5.617288779453337e-06   -1.967823248292199e-06   1.4034322680274327e-05
-5.525234705032413e-06   -2.3778429799465022e-07   1.2688043804017337e-05
-5.525234705032413e-06   -2.3778429799465022e-07   1.2688043804017337e-05
-5.525234705032413e-06   -2.3778429799465022e-07   1.2688043804017337e-05
-5.525234705032413e-06   -2.3778429799465022e-07   1.2688043804017337e-05
-6.700063756244723e-06   -2.2265128454518985e-06   1.5839329351178784e-05
-6.700063756244723e-06   -2.2265128454518985e-06   1.5839329351178784e-05
-6.700063756244723e-06   -2.2265128454518985e-06   1.5839329351178784e-05
-6.700063756244723e-06   -2.2265128454518985e-06   1.5839329351178784e-05
-6.061656825479377e-06   -8.624942721447717e-07   1.3956906655919368e-05
-6.061656825479377e-06   -8.624942721447717e-07   1.3956906655919368e-05
-6.061656825479377e-06   -8.624942721447717e-07   1.3956906655919368e-05
-6.061656825479377e-06   -8.624942721447717e-07   1.3956906655919368e-05
-5.79677785388197e-06   1.637661663623927e-06   2.903027673836756e-06
-5.79677785388197e-06   1.637661663623927e-06   2.903027673836756e-06
-5.79677785388197e-06   1.637661663623927e-06   2.903027673836756e-06
-5.79677785388197e-06   1.637661663623927e-06   2.903027673836756e-06
-3.3589691130907922e-06   -1.6872827938931197e-07   5.8822082760140795e-06
-3.3589691130907922e-06   -1.6872827938931197e-07   5.8822082760140795e-06
-3.3589691130907922e-06   -1.6872827938931197e-07   5.8822082760140795e-06
-3.3589691130907922e-06   -1.6872827938931197e-07   5.8822082760140795e-06
-3.5501801824413463e-06   1.317258117449426e-06   2.9298664918430513e-06
-3.5501801824413463e-06   1.317258117449426e-06   2.9298664918430513e-06
-3.5501801824413463e-06   1.317258117449426e-06   2.9298664918430513e-06
-3.5501801824413463e-06   1.317258117449426e-06   2.9298664918430513e-06
-5.672809911661143e-06   -2.3548110406296056e-07   7.399226240116757e-06
-5.672809911661143e-06   -2.3548110406296056e-07   7.399226240116757e-06
-5.672809911661143e-06   -2.3548110406296056e-07   7.399226240116757e-06
-5.672809911661143e-06   -2.3548110406296056e-07   7.399226240116757e-06
-4.43666221542217e-06   8.420011201545094e-07   4.6924907451882355e-06
-4.43666221542217e-06   8.420011201545094e-07   4.6924907451882355e-06
-4.43666221542217e-06   8.420011201545094e-07   4.6924907451882355e-06
-4.43666221542217e-06   8.420011201545094e-07   4.6924907451882355e-06
-5.672809911661089e-06   1.317258117449426e-06   3.861510024750158e-06
-5.672809911661089e-06   1.317258117449426e-06   3.861510024750158e-06
-5.672809911661089e-06   1.317258117449426e-06   3.861510024750158e-06
-5.672809911661089e-06   1.317258117449426e-06   3.861510024750158e-06
-3.5501801824413463e-06   -2.3548110406296056e-07   6.4675827072093795e-06
-3.5501801824413463e-06   -2.3548110406296056e-07   6.4675827072093795e-06
-3.5501801824413463e-06   -2.3548110406296056e-07   6.4675827072093795e-06
-3.5501801824413463e-06   -2.3548110406296056e-07   6.4675827072093795e-06
-3.7071931642153463e-06   1.1077737312885404e-06   3.808749021540973e-06
-3.7071931642153463e-06   1.1077737312885404e-06   3.808749021540973e-06
-3.7071931642153463e-06   1.1077737312885404e-06   3.808749021540973e-06
-3.7071931642153463e-06   1.1077737312885404e-06   3.808749021540973e-06
-5.6172887794532825e-06   -3.257698190338985e-07   7.852367843797447e-06
-5.6172887794532825e-06   -3.257698190338985e-07   7.852367843797447e-06
-5.6172887794532825e-06   -3.257698190338985e-07   7.852367843797447e-06
-5.6172887794532825e-06   -3.257698190338985e-07   7.852367843797447e-06
-4.515442997928291e-06   6.836635883336085e-07   5.4102981635016645e-06
-4.515442997928291e-06   6.836635883336085e-07   5.4102981635016645e-06
-4.515442997928291e-06   6.836635883336085e-07   5.4102981635016645e-06
-4.515442997928291e-06   6.836635883336085e-07   5.4102981635016645e-06
-5.6172887794532825e-06   1.1077737312885404e-06   4.6688751517344365e-06
-5.6172887794532825e-06   1.1077737312885404e-06   4.6688751517344365e-06
-5.6172887794532825e-06   1.1077737312885404e-06   4.6688751517344365e-06
-5.6172887794532825e-06   1.1077737312885404e-06   4.6688751517344365e-06
-3.7071931642153463e-06   -3.257698190338985e-07   6.992241713604146e-06
-3.7071931642153463e-06   -3.257698190338985e-07   6.992241713604146e-06
-3.7071931642153463e-06   -3.257698190338985e-07   6.992241713604146e-06
-3.7071931642153463e-06   -3.257698190338985e-07   6.992241713604146e-06
-4.092637186710866e-06   6.862124664187667e-07   5.379911166108076e-06
-4.092637186710866e-06   6.862124664187667e-07   5.379911166108076e-06
-4.092637186710866e-06   6.862124664187667e-07   5.379911166108076e-06
-4.092637186710866e-06   6.862124664187667e-07   5.379911166108076e-06
-5.525234705032413e-06   -4.3559545453086216e-07   8.440658449213522e-06
-5.525234705032413e-06   -4.3559545453086216e-07   8.440658449213522e-06
-5.525234705032413e-06   -4.3559545453086216e-07   8.440658449213522e-06
-5.525234705032413e-06   -4.3559545453086216e-07   8.440658449213522e-06
-4.526238173358616e-06   5.76398639377492e-07   6.168467773412208e-06
-4.526238173358616e-06   5.76398639377492e-07   6.168467773412208e-06
-4.526238173358616e-06   5.76398639377492e-07   6.168467773412208e-06
-4.526238173358616e-06   5.76398639377492e-07   6.168467773412208e-06
-5.3371690543770516e-05   4.176846536637008e-06   2.2874254331372597e-05
-5.3371690543770516e-05   4.176846536637008e-06   2.2874254331372597e-05
-5.3371690543770516e-05   4.176846536637008e-06   2.2874254331372597e-05
-5.3371690543770516e-05   4.176846536637008e-06   2.2874254331372597e-05
-1.2546767479177607e-05   -2.60838278702919e-05   7.27593881282035e-05
-1.2546767479177607e-05   -2.60838278702919e-05   7.27593881282035e-05
-1.2546767479177607e-05   -2.60838278702919e-05   7.27593881282035e-05
-1.2546767479177607e-05   -2.60838278702919e-05   7.27593881282035e-05
-1.4726938263533492e-05   1.6916090037554735e-06   1.2556110881182931e-05
-1.4726938263533492e-05   1.6916090037554735e-06   1.2556110881182931e-05
-1.4726938263533492e-05   1.6916090037554735e-06   1.2556110881182931e-05
-1.4726938263533492e-05   1.6916090037554735e-06   1.2556110881182931e-05
-4.8676528033944395e-05   -2.0274179718607024e-05   8.231823373195181e-05
-4.8676528033944395e-05   -2.0274179718607024e-05   8.231823373195181e-05
-4.8676528033944395e-05   -2.0274179718607024e-05   8.231823373195181e-05
-4.8676528033944395e-05   -2.0274179718607024e-05   8.231823373195181e-05
-3.2454786517239126e-05   -1.0093469233886447e-05   4.917357157994401e-05
-3.2454786517239126e-05   -1.0093469233886447e-05   4.917357157994401e-05
-3.2454786517239126e-05   -1.0093469233886447e-05   4.917357157994401e-05
-3.2454786517239126e-05   -1.0093469233886447e-05   4.917357157994401e-05
-4.8676528033944314e-05   1.6916090037554735e-06   2.5735584114600394e-05
-4.8676528033944314e-05   1.6916090037554735e-06   2.5735584114600394e-05
-4.8676528033944314e-05   1.6916090037554735e-06   2.5735584114600394e-05
-4.8676528033944314e-05   1.6916090037554735e-06   2.5735584114600394e-05
-1.4726938263533512e-05   -2.0274179718607024e-05   6.913876049853432e-05
-1.4726938263533512e-05   -2.0274179718607024e-05   6.913876049853432e-05
-1.4726938263533512e-05   -2.0274179718607024e-05   6.913876049853432e-05
-1.4726938263533512e-05   -2.0274179718607024e-05   6.913876049853432e-05
-1.5060061948651675e-05   1.2137010320938287e-06   1.3797708149536369e-05
-1.5060061948651675e-05   1.2137010320938287e-06   1.3797708149536369e-05
-1.5060061948651675e-05   1.2137010320938287e-06   1.3797708149536369e-05
-1.5060061948651675e-05   1.2137010320938287e-06   1.3797708149536369e-05
-4.5927678138593513e-05   -1.7474842073059237e-05   7.645686099586452e-05
-4.5927678138593513e-05   -1.7474842073059237e-05   7.645686099586452e-05
-4.5927678138593513e-05   -1.7474842073059237e-05   7.645686099586452e-05
-4.5927678138593513e-05   -1.7474842073059237e-05   7.645686099586452e-05
-3.1484171866549176e-05   -9.562583632819822e-06   4.7636995478313696e-05
-3.1484171866549176e-05   -9.562583632819822e-06   4.7636995478313696e-05
-3.1484171866549176e-05   -9.562583632819822e-06   4.7636995478313696e-05
-3.1484171866549176e-05   -9.562583632819822e-06   4.7636995478313696e-05
-4.592767813859343e-05   1.2137010320938287e-06   2.5010834012628198e-05
-4.592767813859343e-05   1.2137010320938287e-06   2.5010834012628198e-05
-4.592767813859343e-05   1.2137010320938287e-06   2.5010834012628198e-05
-4.592767813859343e-05   1.2137010320938287e-06   2.5010834012628198e-05
-1.5060061948651688e-05   -1.7474842073059237e-05   6.524373513277267e-05
-1.5060061948651688e-05   -1.7474842073059237e-05   6.524373513277267e-05
-1.5060061948651688e-05   -1.7474842073059237e-05   6.524373513277267e-05
-1.5060061948651688e-05   -1.7474842073059237e-05   6.524373513277267e-05
-1.6496864496218642e-05   -8.187584015028715e-07   1.7277837315763468e-05
-1.6496864496218642e-05   -8.187584015028715e-07   1.7277837315763468e-05
-1.6496864496218642e-05   -8.187584015028715e-07   1.7277837315763468e-05
-1.6496864496218642e-05   -8.187584015028715e-07   1.7277837315763468e-05
-4.2404055478498256e-05   -1.3757293757646789e-05   6.821961016658236e-05
-4.2404055478498256e-05   -1.3757293757646789e-05   6.821961016658236e-05
-4.2404055478498256e-05   -1.3757293757646789e-05   6.821961016658236e-05
-4.2404055478498256e-05   -1.3757293757646789e-05   6.821961016658236e-05
-3.028330633875189e-05   -8.82715087279775e-06   4.506027586942908e-05
-3.028330633875189e-05   -8.82715087279775e-06   4.506027586942908e-05
-3.028330633875189e-05   -8.82715087279775e-06   4.506027586942908e-05
-3.028330633875189e-05   -8.82715087279775e-06   4.506027586942908e-05
-1.254676747917758e-05   -4.718045748754358e-06   1.298414233306494e-05
-1.254676747917758e-05   -4.718045748754358e-06   1.298414233306494e-05
-1.254676747917758e-05   -4.718045748754358e-06   1.298414233306494e-05
-1.254676747917758e-05   -4.718045748754358e-06   1.298414233306494e-05
-4.370456018999513e-06   -8.08692755853526e-06   2.458999901415993e-05
-4.370456018999513e-06   -8.08692755853526e-06   2.458999901415993e-05
-4.370456018999513e-06   -8.08692755853526e-06   2.458999901415993e-05
-4.370456018999513e-06   -8.08692755853526e-06   2.458999901415993e-05
-4.882387327272847e-06   -3.8642432620495716e-06   1.1590057337666694e-05
-4.882387327272847e-06   -3.8642432620495716e-06   1.1590057337666694e-05
-4.882387327272847e-06   -3.8642432620495716e-06   1.1590057337666694e-05
-4.882387327272847e-06   -3.8642432620495716e-06   1.1590057337666694e-05
-1.4726938263533512e-05   -1.0721460791228858e-05   3.2111972748941935e-05
-1.4726938263533512e-05   -1.0721460791228858e-05   3.2111972748941935e-05
-1.4726938263533512e-05   -1.0721460791228858e-05   3.2111972748941935e-05
-1.4726938263533512e-05   -1.0721460791228858e-05   3.2111972748941935e-05
-8.65545421836988e-06   -5.617113070609893e-06   1.8930224041297785e-05
-8.65545421836988e-06   -5.617113070609893e-06   1.8930224041297785e-05
-8.65545421836988e-06   -5.617113070609893e-06   1.8930224041297785e-05
-8.65545421836988e-06   -5.617113070609893e-06   1.8930224041297785e-05
-1.4726938263533478e-05   -3.8642432620495716e-06   1.5704387855174095e-05
-1.4726938263533478e-05   -3.8642432620495716e-06   1.5704387855174095e-05
-1.4726938263533478e-05   -3.8642432620495716e-06   1.5704387855174095e-05
-1.4726938263533478e-05   -3.8642432620495716e-06   1.5704387855174095e-05
-4.882387327272847e-06   -1.0721460791228858e-05   2.7997642231434385e-05
-4.882387327272847e-06   -1.0721460791228858e-05   2.7997642231434385e-05
-4.882387327272847e-06   -1.0721460791228858e-05   2.7997642231434385e-05
-4.882387327272847e-06   -1.0721460791228858e-05   2.7997642231434385e-05
-5.320995693068831e-06   -3.951543254920192e-06   1.3031893158314551e-05
-5.320995693068831e-06   -3.951543254920192e-06   1.3031893158314551e-05
-5.320995693068831e-06   -3.951543254920192e-06   1.3031893158314551e-05
-5.320995693068831e-06   -3.951543254920192e-06   1.3031893158314551e-05
-1.5060061948651688e-05   -9.805784116969598e-06   3.277621476818216e-05
-1.5060061948651688e-05   -9.805784116969598e-06   3.277621476818216e-05
-1.5060061948651688e-05   -9.805784116969598e-06   3.277621476818216e-05
-1.5060061948651688e-05   -9.805784116969598e-06   3.277621476818216e-05
-9.760308087947354e-06   -6.867357979072872e-06   2.218023598427038e-05
-9.760308087947354e-06   -6.867357979072872e-06   2.218023598427038e-05
-9.760308087947354e-06   -6.867357979072872e-06   2.218023598427038e-05
-9.760308087947354e-06   -6.867357979072872e-06   2.218023598427038e-05
-1.5060061948651675e-05   -3.951543254920192e-06   1.6544437675544146e-05
-1.5060061948651675e-05   -3.951543254920192e-06   1.6544437675544146e-05
-1.5060061948651675e-05   -3.951543254920192e-06   1.6544437675544146e-05
-1.5060061948651675e-05   -3.951543254920192e-06   1.6544437675544146e-05
-5.320995693068831e-06   -9.805784116969598e-06   2.9263670250952525e-05
-5.320995693068831e-06   -9.805784116969598e-06   2.9263670250952525e-05
-5.320995693068831e-06   -9.805784116969598e-06   2.9263670250952525e-05
-5.320995693068831e-06   -9.805784116969598e-06   2.9263670250952525e-05
-6.0344906079816255e-06   -3.98648792501136e-06   1.4256120896474235e-05
-6.0344906079816255e-06   -3.98648792501136e-06   1.4256120896474235e-05
-6.0344906079816255e-06   -3.98648792501136e-06   1.4256120896474235e-05
-6.0344906079816255e-06   -3.98648792501136e-06   1.4256120896474235e-05
-1.6496864496218663e-05   -9.228212433459773e-06   3.483844541527154e-05
-1.6496864496218663e-05   -9.228212433459773e-06   3.483844541527154e-05
-1.6496864496218663e-05   -9.228212433459773e-06   3.483844541527154e-05
-1.6496864496218663e-05   -9.228212433459773e-06   3.483844541527154e-05
-1.040533467173088e-05   -6.270228479706704e-06   2.2911105335540093e-05
-1.040533467173088e-05   -6.270228479706704e-06   2.2911105335540093e-05
-1.040533467173088e-05   -6.270228479706704e-06   2.2911105335540093e-05
-1.040533467173088e-05   -6.270228479706704e-06   2.2911105335540093e-05
-4.370456018999513e-06   -3.6858241170061533e-06   6.985806738355794e-06
-4.370456018999513e-06   -3.6858241170061533e-06   6.985806738355794e-06
-4.370456018999513e-06   -3.6858241170061533e-06   6.985806738355794e-06
-4.370456018999513e-06   -3.6858241170061533e-06   6.985806738355794e-06
-2.4384499334127448e-06   -2.2599024030083023e-06   1.1061369909399154e-05
-2.4384499334127448e-06   -2.2599024030083023e-06   1.1061369909399154e-05
-2.4384499334127448e-06   -2.2599024030083023e-06   1.1061369909399154e-05
-2.4384499334127448e-06   -2.2599024030083023e-06   1.1061369909399154e-05
-2.343945036110322e-06   -3.6199140452677046e-06   8.047990590037202e-06
-2.343945036110322e-06   -3.6199140452677046e-06   8.047990590037202e-06
-2.343945036110322e-06   -3.6199140452677046e-06   8.047990590037202e-06
-2.343945036110322e-06   -3.6199140452677046e-06   8.047990590037202e-06
-4.882387327272847e-06   -2.957934532740492e-06   1.1881540034458223e-05
-4.882387327272847e-06   -2.957934532740492e-06   1.1881540034458223e-05
-4.882387327272847e-06   -2.957934532740492e-06   1.1881540034458223e-05
-4.882387327272847e-06   -2.957934532740492e-06   1.1881540034458223e-05
-3.28675172659114e-06   -2.9634069851907795e-06   9.22543083812545e-06
-3.28675172659114e-06   -2.9634069851907795e-06   9.22543083812545e-06
-3.28675172659114e-06   -2.9634069851907795e-06   9.22543083812545e-06
-3.28675172659114e-06   -2.9634069851907795e-06   9.22543083812545e-06
-4.8823873272728195e-06   -3.6199140452677046e-06   7.650802882520853e-06
-4.8823873272728195e-06   -3.6199140452677046e-06   7.650802882520853e-06
-4.8823873272728195e-06   -3.6199140452677046e-06   7.650802882520853e-06
-4.8823873272728195e-06   -3.6199140452677046e-06   7.650802882520853e-06
-2.343945036110322e-06   -2.957934532740492e-06   1.2278727741974599e-05
-2.343945036110322e-06   -2.957934532740492e-06   1.2278727741974599e-05
-2.343945036110322e-06   -2.957934532740492e-06   1.2278727741974599e-05
-2.343945036110322e-06   -2.957934532740492e-06   1.2278727741974599e-05
-2.3483602310406335e-06   -3.7302508329716553e-06   8.605163953517229e-06
-2.3483602310406335e-06   -3.7302508329716553e-06   8.605163953517229e-06
-2.3483602310406335e-06   -3.7302508329716553e-06   8.605163953517229e-06
-2.3483602310406335e-06   -3.7302508329716553e-06   8.605163953517229e-06
-5.320995693068831e-06   -3.798507851981375e-06   1.3600510601636552e-05
-5.320995693068831e-06   -3.798507851981375e-06   1.3600510601636552e-05
-5.320995693068831e-06   -3.798507851981375e-06   1.3600510601636552e-05
-5.320995693068831e-06   -3.798507851981375e-06   1.3600510601636552e-05
-3.4856710502766775e-06   -3.2400669046228766e-06   1.0206571628567957e-05
-3.4856710502766775e-06   -3.2400669046228766e-06   1.0206571628567957e-05
-3.4856710502766775e-06   -3.2400669046228766e-06   1.0206571628567957e-05
-3.4856710502766775e-06   -3.2400669046228766e-06   1.0206571628567957e-05
-5.320995693068831e-06   -3.7302508329716553e-06   8.646118164923035e-06
-5.320995693068831e-06   -3.7302508329716553e-06   8.646118164923035e-06
-5.320995693068831e-06   -3.7302508329716553e-06   8.646118164923035e-06
-5.320995693068831e-06   -3.7302508329716553e-06   8.646118164923035e-06
-2.3483602310406335e-06   -3.798507851981375e-06   1.355955639023072e-05
-2.3483602310406335e-06   -3.798507851981375e-06   1.355955639023072e-05
-2.3483602310406335e-06   -3.798507851981375e-06   1.355955639023072e-05
-2.3483602310406335e-06   -3.798507851981375e-06   1.355955639023072e-05
-2.3848994949924565e-06   -3.88624061610775e-06   9.439067914682317e-06
-2.3848994949924565e-06   -3.88624061610775e-06   9.439067914682317e-06
-2.3848994949924565e-06   -3.88624061610775e-06   9.439067914682317e-06
-2.3848994949924565e-06   -3.88624061610775e-06   9.439067914682317e-06
-6.0344906079816255e-06   -4.597292564982728e-06   1.594835093898919e-05
-6.0344906079816255e-06   -4.597292564982728e-06   1.594835093898919e-05
-6.0344906079816255e-06   -4.597292564982728e-06   1.594835093898919e-05
-6.0344906079816255e-06   -4.597292564982728e-06   1.594835093898919e-05
-3.712400033167515e-06   -3.5378641576934184e-06   1.1442542936592132e-05
-3.712400033167515e-06   -3.5378641576934184e-06   1.1442542936592132e-05
-3.712400033167515e-06   -3.5378641576934184e-06   1.1442542936592132e-05
-3.712400033167515e-06   -3.5378641576934184e-06   1.1442542936592132e-05
-2.4384499334127448e-06   -1.5127772626125709e-06   1.9898897416466895e-06
-2.4384499334127448e-06   -1.5127772626125709e-06   1.9898897416466895e-06
-2.4384499334127448e-06   -1.5127772626125709e-06   1.9898897416466895e-06
-2.4384499334127448e-06   -1.5127772626125709e-06   1.9898897416466895e-06
-1.8115987884371283e-06   3.882314558250027e-07   4.175246881001895e-06
-1.8115987884371283e-06   3.882314558250027e-07   4.175246881001895e-06
-1.8115987884371283e-06   3.882314558250027e-07   4.175246881001895e-06
-1.8115987884371283e-06   3.882314558250027e-07   4.175246881001895e-06
-1.4664209820383894e-06   -1.7705139983083306e-06   3.312525588545557e-06
-1.4664209820383894e-06   -1.7705139983083306e-06   3.312525588545557e-06
-1.4664209820383894e-06   -1.7705139983083306e-06   3.312525588545557e-06
-1.4664209820383894e-06   -1.7705139983083306e-06   3.312525588545557e-06
-2.343945036110322e-06   1.3795178635821914e-07   3.629986207865374e-06
-2.343945036110322e-06   1.3795178635821914e-07   3.629986207865374e-06
-2.343945036110322e-06   1.3795178635821914e-07   3.629986207865374e-06
-2.343945036110322e-06   1.3795178635821914e-07   3.629986207865374e-06
-1.8907089909169167e-06   -7.109114991799112e-07   3.3839107705323744e-06
-1.8907089909169167e-06   -7.109114991799112e-07   3.3839107705323744e-06
-1.8907089909169167e-06   -7.109114991799112e-07   3.3839107705323744e-06
-1.8907089909169167e-06   -7.109114991799112e-07   3.3839107705323744e-06
-2.343945036110322e-06   -1.7705139983083306e-06   2.1674461177456042e-06
-2.343945036110322e-06   -1.7705139983083306e-06   2.1674461177456042e-06
-2.343945036110322e-06   -1.7705139983083306e-06   2.1674461177456042e-06
-2.343945036110322e-06   -1.7705139983083306e-06   2.1674461177456042e-06
-1.4664209820383894e-06   1.3795178635821914e-07   4.7750656786653e-06
-1.4664209820383894e-06   1.3795178635821914e-07   4.7750656786653e-06
-1.4664209820383894e-06   1.3795178635821914e-07   4.7750656786653e-06
-1.4664209820383894e-06   1.3795178635821914e-07   4.7750656786653e-06
-1.277273805016957e-06   -1.967823248292199e-06   3.639022590762428e-06
-1.277273805016957e-06   -1.967823248292199e-06   3.639022590762428e-06
-1.277273805016957e-06   -1.967823248292199e-06   3.639022590762428e-06
-1.277273805016957e-06   -1.967823248292199e-06   3.639022590762428e-06
-2.3483602310406335e-06   -2.585032832094089e-07   4.398574655085474e-06
-2.3483602310406335e-06   -2.585032832094089e-07   4.398574655085474e-06
-2.3483602310406335e-06   -2.585032832094089e-07   4.398574655085474e-06
-2.3483602310406335e-06   -2.585032832094089e-07   4.398574655085474e-06
-1.7142633525374135e-06   -9.104828625256694e-07   3.7329342718365414e-06
-1.7142633525374135e-06   -9.104828625256694e-07   3.7329342718365414e-06
-1.7142633525374135e-06   -9.104828625256694e-07   3.7329342718365414e-06
-1.7142633525374135e-06   -9.104828625256694e-07   3.7329342718365414e-06
-2.3483602310406335e-06   -1.967823248292199e-06   2.6134306117126254e-06
-2.3483602310406335e-06   -1.967823248292199e-06   2.6134306117126254e-06
-2.3483602310406335e-06   -1.967823248292199e-06   2.6134306117126254e-06
-2.3483602310406335e-06   -1.967823248292199e-06   2.6134306117126254e-06
-1.277273805016957e-06   -2.585032832094089e-07   5.424166634135168e-06
-1.277273805016957e-06   -2.585032832094089e-07   5.424166634135168e-06
-1.277273805016957e-06   -2.585032832094089e-07   5.424166634135168e-06
-1.277273805016957e-06   -2.585032832094089e-07   5.424166634135168e-06
-9.87182276635933e-07   -2.2265128454518985e-06   3.994712732498891e-06
-9.87182276635933e-07   -2.2265128454518985e-06   3.994712732498891e-06
-9.87182276635933e-07   -2.2265128454518985e-06   3.994712732498891e-06
-9.87182276635933e-07   -2.2265128454518985e-06   3.994712732498891e-06
-2.3848994949924565e-06   -1.0723930322300044e-06   5.631769541826449e-06
-2.3848994949924565e-06   -1.0723930322300044e-06   5.631769541826449e-06
-2.3848994949924565e-06   -1.0723930322300044e-06   5.631769541826449e-06
-2.3848994949924565e-06   -1.0723930322300044e-06   5.631769541826449e-06
-1.5707518114686304e-06   -1.2155980639099676e-06   4.360779754961682e-06
-1.5707518114686304e-06   -1.2155980639099676e-06   4.360779754961682e-06
-1.5707518114686304e-06   -1.2155980639099676e-06   4.360779754961682e-06
-1.5707518114686304e-06   -1.2155980639099676e-06   4.360779754961682e-06
-1.8115987884371283e-06   -1.6872827938931197e-07   -3.0162806808936744e-06
-1.8115987884371283e-06   -1.6872827938931197e-07   -3.0162806808936744e-06
-1.8115987884371283e-06   -1.6872827938931197e-07   -3.0162806808936744e-06
-1.8115987884371283e-06   -1.6872827938931197e-07   -3.0162806808936744e-06
-3.378311798521525e-07   2.590551197403069e-07   -3.033312937742068e-07
-3.378311798521525e-07   2.590551197403069e-07   -3.033312937742068e-07
-3.378311798521525e-07   2.590551197403069e-07   -3.033312937742068e-07
-3.378311798521525e-07   2.590551197403069e-07   -3.033312937742068e-07
1.093598566304782e-09   -2.3548110406296056e-07   -2.3658022730280084e-06
1.093598566304782e-09   -2.3548110406296056e-07   -2.3658022730280084e-06
1.093598566304782e-09   -2.3548110406296056e-07   -2.3658022730280084e-06
1.093598566304782e-09   -2.3548110406296056e-07   -2.3658022730280084e-06
-1.4664209820383894e-06   4.4803838184635954e-07   -3.300563302324625e-07
-1.4664209820383894e-06   4.4803838184635954e-07   -3.300563302324625e-07
-1.4664209820383894e-06   4.4803838184635954e-07   -3.300563302324625e-07
-1.4664209820383894e-06   4.4803838184635954e-07   -3.300563302324625e-07
-8.260252979816409e-07   1.1988482329024263e-07   -1.2004903351937012e-06
-8.260252979816409e-07   1.1988482329024263e-07   -1.2004903351937012e-06
-8.260252979816409e-07   1.1988482329024263e-07   -1.2004903351937012e-06
-8.260252979816409e-07   1.1988482329024263e-07   -1.2004903351937012e-06
-1.4664209820383894e-06   -2.3548110406296056e-07   -2.775913964573728e-06
-1.4664209820383894e-06   -2.3548110406296056e-07   -2.775913964573728e-06
-1.4664209820383894e-06   -2.3548110406296056e-07   -2.775913964573728e-06
-1.4664209820383894e-06   -2.3548110406296056e-07   -2.775913964573728e-06
1.093598566250572e-09   4.4803838184635954e-07   8.005536131314855e-08
1.093598566250572e-09   4.4803838184635954e-07   8.005536131314855e-08
1.093598566250572e-09   4.4803838184635954e-07   8.005536131314855e-08
1.093598566250572e-09   4.4803838184635954e-07   8.005536131314855e-08
1.783518812429317e-07   -3.257698190338985e-07   -2.1176222370800513e-06
1.783518812429317e-07   -3.257698190338985e-07   -2.1176222370800513e-06
1.783518812429317e-07   -3.257698190338985e-07   -2.1176222370800513e-06
1.783518812429317e-07   -3.257698190338985e-07   -2.1176222370800513e-06
-1.277273805016957e-06   3.8308019535664156e-07   -1.1688943528148556e-07
-1.277273805016957e-06   3.8308019535664156e-07   -1.1688943528148556e-07
-1.277273805016957e-06   3.8308019535664156e-07   -1.1688943528148556e-07
-1.277273805016957e-06   3.8308019535664156e-07   -1.1688943528148556e-07
-5.757430673786245e-07   7.825241408817457e-08   -1.1032106625838596e-06
-5.757430673786245e-07   7.825241408817457e-08   -1.1032106625838596e-06
-5.757430673786245e-07   7.825241408817457e-08   -1.1032106625838596e-06
-5.757430673786245e-07   7.825241408817457e-08   -1.1032106625838596e-06
-1.277273805016957e-06   -3.257698190338985e-07   -2.5429322457144255e-06
-1.277273805016957e-06   -3.257698190338985e-07   -2.5429322457144255e-06
-1.277273805016957e-06   -3.257698190338985e-07   -2.5429322457144255e-06
-1.277273805016957e-06   -3.257698190338985e-07   -2.5429322457144255e-06
1.783518812429859e-07   3.8308019535664156e-07   3.084205733528073e-07
1.783518812429859e-07   3.8308019535664156e-07   3.084205733528073e-07
1.783518812429859e-07   3.8308019535664156e-07   3.084205733528073e-07
1.783518812429859e-07   3.8308019535664156e-07   3.084205733528073e-07
3.9874455522371415e-07   -4.3559545453086216e-07   -1.7528762113569896e-06
3.9874455522371415e-07   -4.3559545453086216e-07   -1.7528762113569896e-06
3.9874455522371415e-07   -4.3559545453086216e-07   -1.7528762113569896e-06
3.9874455522371415e-07   -4.3559545453086216e-07   -1.7528762113569896e-06
-9.87182276635933e-07   3.274792615278522e-07   9.91570121071329e-08
-9.87182276635933e-07   3.274792615278522e-07   9.91570121071329e-08
-9.87182276635933e-07   3.274792615278522e-07   9.91570121071329e-08
-9.87182276635933e-07   3.274792615278522e-07   9.91570121071329e-08
-3.4928886363135817e-07   2.7764721667654455e-08   -7.841699523176114e-07
-3.4928886363135817e-07   2.7764721667654455e-08   -7.841699523176114e-07
-3.4928886363135817e-07   2.7764721667654455e-08   -7.841699523176114e-07
-3.4928886363135817e-07   2.7764721667654455e-08   -7.841699523176114e-07
              </DataArray>   
             <DataArray type="Float64" NumberOfComponents="3" Name="Stress" format="ascii">   
-2.7707180333010784   -0.6926795083252696   -0.6926795083252696
-2.7707180333010784   -0.6926795083252696   -0.6926795083252696
-2.7707180333010784   -0.6926795083252696   -0.6926795083252696
-2.7707180333010784   -0.6926795083252696   -0.6926795083252696
-1.6033294461027323   -0.05092357501139033   -0.03219548894913776
-1.6033294461027323   -0.05092357501139033   -0.03219548894913776
-1.6033294461027323   -0.05092357501139033   -0.03219548894913776
-1.6033294461027323   -0.05092357501139033   -0.03219548894913776
-1.728106492801594   -0.4320266232003985   -0.4320266232003985
-1.728106492801594   -0.4320266232003985   -0.4320266232003985
-1.728106492801594   -0.4320266232003985   -0.4320266232003985
-1.728106492801594   -0.4320266232003985   -0.4320266232003985
-2.6703470538951666   -0.21939250769189345   -0.08393357980761901
-2.6703470538951666   -0.21939250769189345   -0.08393357980761901
-2.6703470538951666   -0.21939250769189345   -0.08393357980761901
-2.6703470538951666   -0.21939250769189345   -0.08393357980761901
-2.0943107847674423   -0.34340881139449086   -0.005789928711723784
-2.0943107847674423   -0.34340881139449086   -0.005789928711723784
-2.0943107847674423   -0.34340881139449086   -0.005789928711723784
-2.0943107847674423   -0.34340881139449086   -0.005789928711723784
-2.8996464848836325   -0.7249116212209081   -0.7249116212209081
-2.8996464848836325   -0.7249116212209081   -0.7249116212209081
-2.8996464848836325   -0.7249116212209081   -0.7249116212209081
-2.8996464848836325   -0.7249116212209081   -0.7249116212209081
-1.553196083770338   0.01910346837141086   -0.008604669615928318
-1.553196083770338   0.01910346837141086   -0.008604669615928318
-1.553196083770338   0.01910346837141086   -0.008604669615928318
-1.553196083770338   0.01910346837141086   -0.008604669615928318
-1.7329441501829272   -0.4332360375457318   -0.4332360375457318
-1.7329441501829272   -0.4332360375457318   -0.4332360375457318
-1.7329441501829272   -0.4332360375457318   -0.4332360375457318
-1.7329441501829272   -0.4332360375457318   -0.4332360375457318
-2.760051985094023   -0.22148561510779008   -0.12298596359242234
-2.760051985094023   -0.22148561510779008   -0.12298596359242234
-2.760051985094023   -0.22148561510779008   -0.12298596359242234
-2.760051985094023   -0.22148561510779008   -0.12298596359242234
-2.17238526445493   -0.323311742901349   -0.11528565047356126
-2.17238526445493   -0.323311742901349   -0.11528565047356126
-2.17238526445493   -0.323311742901349   -0.11528565047356126
-2.17238526445493   -0.323311742901349   -0.11528565047356126
-2.9901751881710945   -0.7475437970427736   -0.7475437970427736
-2.9901751881710945   -0.7475437970427736   -0.7475437970427736
-2.9901751881710945   -0.7475437970427736   -0.7475437970427736
-2.9901751881710945   -0.7475437970427736   -0.7475437970427736
-1.54864824442747   0.0469948470676419   0.008012606618180998
-1.54864824442747   0.0469948470676419   0.008012606618180998
-1.54864824442747   0.0469948470676419   0.008012606618180998
-1.54864824442747   0.0469948470676419   0.008012606618180998
-1.731992797299587   -0.43299819932489675   -0.43299819932489675
-1.731992797299587   -0.43299819932489675   -0.43299819932489675
-1.731992797299587   -0.43299819932489675   -0.43299819932489675
-1.731992797299587   -0.43299819932489675   -0.43299819932489675
-2.9203205751293404   -0.19424149197330537   -0.07380572626746425
-2.9203205751293404   -0.19424149197330537   -0.07380572626746425
-2.9203205751293404   -0.19424149197330537   -0.07380572626746425
-2.9203205751293404   -0.19424149197330537   -0.07380572626746425
-2.2302993524453862   -0.31826961687303035   -0.20834917804488592
-2.2302993524453862   -0.31826961687303035   -0.20834917804488592
-2.2302993524453862   -0.31826961687303035   -0.20834917804488592
-2.2302993524453862   -0.31826961687303035   -0.20834917804488592
-1.7630062592340325   -0.44075156480850813   -0.44075156480850813
-1.7630062592340325   -0.44075156480850813   -0.44075156480850813
-1.7630062592340325   -0.44075156480850813   -0.44075156480850813
-1.7630062592340325   -0.44075156480850813   -0.44075156480850813
-0.7356231568384435   -0.049030408548898646   -0.015926881164493305
-0.7356231568384435   -0.049030408548898646   -0.015926881164493305
-0.7356231568384435   -0.049030408548898646   -0.015926881164493305
-0.7356231568384435   -0.049030408548898646   -0.015926881164493305
-0.7722060516977991   -0.19305151292444978   -0.19305151292444978
-0.7722060516977991   -0.19305151292444978   -0.19305151292444978
-0.7722060516977991   -0.19305151292444978   -0.19305151292444978
-0.7722060516977991   -0.19305151292444978   -0.19305151292444978
-1.605087635161072   -0.18883045536638293   -0.06012850283180343
-1.605087635161072   -0.18883045536638293   -0.06012850283180343
-1.605087635161072   -0.18883045536638293   -0.06012850283180343
-1.605087635161072   -0.18883045536638293   -0.06012850283180343
-1.1838556535958071   -0.2242951941480833   0.009244625765659108
-1.1838556535958071   -0.2242951941480833   0.009244625765659108
-1.1838556535958071   -0.2242951941480833   0.009244625765659108
-1.1838556535958071   -0.2242951941480833   0.009244625765659108
-1.7281064928015923   -0.4320266232003981   -0.4320266232003981
-1.7281064928015923   -0.4320266232003981   -0.4320266232003981
-1.7281064928015923   -0.4320266232003981   -0.4320266232003981
-1.7281064928015923   -0.4320266232003981   -0.4320266232003981
-0.6940050868234867   0.005326762143356062   -0.0004249636206935803
-0.6940050868234867   0.005326762143356062   -0.0004249636206935803
-0.6940050868234867   0.005326762143356062   -0.0004249636206935803
-0.6940050868234867   0.005326762143356062   -0.0004249636206935803
-0.7549391658382719   -0.18873479145956798   -0.18873479145956798
-0.7549391658382719   -0.18873479145956798   -0.18873479145956798
-0.7549391658382719   -0.18873479145956798   -0.18873479145956798
-0.7549391658382719   -0.18873479145956798   -0.18873479145956798
-1.6010162771303855   -0.15403608988877887   -0.05279661993997577
-1.6010162771303855   -0.15403608988877887   -0.05279661993997577
-1.6010162771303855   -0.15403608988877887   -0.05279661993997577
-1.6010162771303855   -0.15403608988877887   -0.05279661993997577
-1.1673404783038401   -0.18882012687833916   -0.06102953270117567
-1.1673404783038401   -0.18882012687833916   -0.06102953270117567
-1.1673404783038401   -0.18882012687833916   -0.06102953270117567
-1.1673404783038401   -0.18882012687833916   -0.06102953270117567
-1.7329441501829272   -0.4332360375457318   -0.4332360375457318
-1.7329441501829272   -0.4332360375457318   -0.4332360375457318
-1.7329441501829272   -0.4332360375457318   -0.4332360375457318
-1.7329441501829272   -0.4332360375457318   -0.4332360375457318
-0.6664198662546033   0.04705658272851185   0.018070332270695696
-0.6664198662546033   0.04705658272851185   0.018070332270695696
-0.6664198662546033   0.04705658272851185   0.018070332270695696
-0.6664198662546033   0.04705658272851185   0.018070332270695696
-0.7392103818595319   -0.18480259546488298   -0.18480259546488298
-0.7392103818595319   -0.18480259546488298   -0.18480259546488298
-0.7392103818595319   -0.18480259546488298   -0.18480259546488298
-0.7392103818595319   -0.18480259546488298   -0.18480259546488298
-1.5892170061241968   -0.11884777303180705   -0.03326966974105473
-1.5892170061241968   -0.11884777303180705   -0.03326966974105473
-1.5892170061241968   -0.11884777303180705   -0.03326966974105473
-1.5892170061241968   -0.11884777303180705   -0.03326966974105473
-1.1730797551678445   -0.16708523650117538   -0.13596584224251484
-1.1730797551678445   -0.16708523650117538   -0.13596584224251484
-1.1730797551678445   -0.16708523650117538   -0.13596584224251484
-1.1730797551678445   -0.16708523650117538   -0.13596584224251484
-0.8029241098841847   -0.20073102747104618   -0.20073102747104618
-0.8029241098841847   -0.20073102747104618   -0.20073102747104618
-0.8029241098841847   -0.20073102747104618   -0.20073102747104618
-0.8029241098841847   -0.20073102747104618   -0.20073102747104618
0.09512366265941034   0.006195888313834847   0.000781284839764371
0.09512366265941034   0.006195888313834847   0.000781284839764371
0.09512366265941034   0.006195888313834847   0.000781284839764371
0.09512366265941034   0.006195888313834847   0.000781284839764371
0.12376640717344257   0.030941601793360644   0.030941601793360644
0.12376640717344257   0.030941601793360644   0.030941601793360644
0.12376640717344257   0.030941601793360644   0.030941601793360644
0.12376640717344257   0.030941601793360644   0.030941601793360644
-0.725935230541115   -0.1254714215585262   -0.02927749850695293
-0.725935230541115   -0.1254714215585262   -0.02927749850695293
-0.725935230541115   -0.1254714215585262   -0.02927749850695293
-0.725935230541115   -0.1254714215585262   -0.02927749850695293
-0.31084626315130914   -0.0788514796200767   0.052724994962697405
-0.31084626315130914   -0.0788514796200767   0.052724994962697405
-0.31084626315130914   -0.0788514796200767   0.052724994962697405
-0.31084626315130914   -0.0788514796200767   0.052724994962697405
-0.7722060516977991   -0.19305151292444978   -0.19305151292444978
-0.7722060516977991   -0.19305151292444978   -0.19305151292444978
-0.7722060516977991   -0.19305151292444978   -0.19305151292444978
-0.7722060516977991   -0.19305151292444978   -0.19305151292444978
0.12597841046188182   0.054462875291039534   0.01848034473787697
0.12597841046188182   0.054462875291039534   0.01848034473787697
0.12597841046188182   0.054462875291039534   0.01848034473787697
0.12597841046188182   0.054462875291039534   0.01848034473787697
0.13925960411524546   0.034814901028811365   0.034814901028811365
0.13925960411524546   0.034814901028811365   0.034814901028811365
0.13925960411524546   0.034814901028811365   0.034814901028811365
0.13925960411524546   0.034814901028811365   0.034814901028811365
-0.7002635060552953   -0.08445773675711042   -0.019633547247148785
-0.7002635060552953   -0.08445773675711042   -0.019633547247148785
-0.7002635060552953   -0.08445773675711042   -0.019633547247148785
-0.7002635060552953   -0.08445773675711042   -0.019633547247148785
-0.2981768355933903   -0.04873164595138483   -0.018023024954821575
-0.2981768355933903   -0.04873164595138483   -0.018023024954821575
-0.2981768355933903   -0.04873164595138483   -0.018023024954821575
-0.2981768355933903   -0.04873164595138483   -0.018023024954821575
-0.7549391658382719   -0.18873479145956798   -0.18873479145956798
-0.7549391658382719   -0.18873479145956798   -0.18873479145956798
-0.7549391658382719   -0.18873479145956798   -0.18873479145956798
-0.7549391658382719   -0.18873479145956798   -0.18873479145956798
0.15076331258283165   0.0959200044158797   0.031228339979672913
0.15076331258283165   0.0959200044158797   0.031228339979672913
0.15076331258283165   0.0959200044158797   0.031228339979672913
0.15076331258283165   0.0959200044158797   0.031228339979672913
0.16009385450232536   0.04002346362558134   0.04002346362558134
0.16009385450232536   0.04002346362558134   0.04002346362558134
0.16009385450232536   0.04002346362558134   0.04002346362558134
0.16009385450232536   0.04002346362558134   0.04002346362558134
-0.6723253455993992   -0.03554827457094879   0.0003682649418441826
-0.6723253455993992   -0.03554827457094879   0.0003682649418441826
-0.6723253455993992   -0.03554827457094879   0.0003682649418441826
-0.6723253455993992   -0.03554827457094879   0.0003682649418441826
-0.28924727567214953   -0.019695109755727795   -0.08813931809914297
-0.28924727567214953   -0.019695109755727795   -0.08813931809914297
-0.28924727567214953   -0.019695109755727795   -0.08813931809914297
-0.28924727567214953   -0.019695109755727795   -0.08813931809914297
0.10414247558743407   0.026035618896858518   0.026035618896858518
0.10414247558743407   0.026035618896858518   0.026035618896858518
0.10414247558743407   0.026035618896858518   0.026035618896858518
0.10414247558743407   0.026035618896858518   0.026035618896858518
1.004534559335223   0.09217227077528278   0.030990167049078393
1.004534559335223   0.09217227077528278   0.030990167049078393
1.004534559335223   0.09217227077528278   0.030990167049078393
1.004534559335223   0.09217227077528278   0.030990167049078393
1.0907445828710804   0.2726861457177701   0.2726861457177701
1.0907445828710804   0.2726861457177701   0.2726861457177701
1.0907445828710804   0.2726861457177701   0.2726861457177701
1.0907445828710804   0.2726861457177701   0.2726861457177701
0.09428931184947287   -0.07073125837344942   -0.014771014659679785
0.09428931184947287   -0.07073125837344942   -0.014771014659679785
0.09428931184947287   -0.07073125837344942   -0.014771014659679785
0.09428931184947287   -0.07073125837344942   -0.014771014659679785
0.5727706404779275   0.0713112149767692   0.10404610588121019
0.5727706404779275   0.0713112149767692   0.10404610588121019
0.5727706404779275   0.0713112149767692   0.10404610588121019
0.5727706404779275   0.0713112149767692   0.10404610588121019
0.123766407173443   0.03094160179336075   0.03094160179336075
0.123766407173443   0.03094160179336075   0.03094160179336075
0.123766407173443   0.03094160179336075   0.03094160179336075
0.123766407173443   0.03094160179336075   0.03094160179336075
1.016482197854854   0.1262279958587034   0.047832370495703394
1.016482197854854   0.1262279958587034   0.047832370495703394
1.016482197854854   0.1262279958587034   0.047832370495703394
1.016482197854854   0.1262279958587034   0.047832370495703394
1.0860976160226279   0.27152440400565697   0.27152440400565697
1.0860976160226279   0.27152440400565697   0.27152440400565697
1.0860976160226279   0.27152440400565697   0.27152440400565697
1.0860976160226279   0.27152440400565697   0.27152440400565697
0.11923118574138025   -0.03062551212272764   0.00011322231102322763
0.11923118574138025   -0.03062551212272764   0.00011322231102322763
0.11923118574138025   -0.03062551212272764   0.00011322231102322763
0.11923118574138025   -0.03062551212272764   0.00011322231102322763
0.5685686172953461   0.09359924790191074   0.02704978638366017
0.5685686172953461   0.09359924790191074   0.02704978638366017
0.5685686172953461   0.09359924790191074   0.02704978638366017
0.5685686172953461   0.09359924790191074   0.02704978638366017
0.13925960411524557   0.03481490102881139   0.03481490102881139
0.13925960411524557   0.03481490102881139   0.03481490102881139
0.13925960411524557   0.03481490102881139   0.03481490102881139
0.13925960411524557   0.03481490102881139   0.03481490102881139
1.0217144487189218   0.16172924192427712   0.05940372956850562
1.0217144487189218   0.16172924192427712   0.05940372956850562
1.0217144487189218   0.16172924192427712   0.05940372956850562
1.0217144487189218   0.16172924192427712   0.05940372956850562
1.1071556326617835   0.2767889081654459   0.2767889081654459
1.1071556326617835   0.2767889081654459   0.2767889081654459
1.1071556326617835   0.2767889081654459   0.2767889081654459
1.1071556326617835   0.2767889081654459   0.2767889081654459
0.15192319485626968   0.02243109455808203   0.01676253446280098
0.15192319485626968   0.02243109455808203   0.01676253446280098
0.15192319485626968   0.02243109455808203   0.01676253446280098
0.15192319485626968   0.02243109455808203   0.01676253446280098
0.5774148438508672   0.12698275205446108   -0.04434281554843897
0.5774148438508672   0.12698275205446108   -0.04434281554843897
0.5774148438508672   0.12698275205446108   -0.04434281554843897
0.5774148438508672   0.12698275205446108   -0.04434281554843897
1.0887800797448344   0.2721950199362086   0.2721950199362086
1.0887800797448344   0.2721950199362086   0.2721950199362086
1.0887800797448344   0.2721950199362086   0.2721950199362086
1.0887800797448344   0.2721950199362086   0.2721950199362086
2.258656177847967   0.17217670716734818   0.0590825394163805
2.258656177847967   0.17217670716734818   0.0590825394163805
2.258656177847967   0.17217670716734818   0.0590825394163805
2.258656177847967   0.17217670716734818   0.0590825394163805
2.3087088670105724   0.5771772167526431   0.5771772167526431
2.3087088670105724   0.5771772167526431   0.5771772167526431
2.3087088670105724   0.5771772167526431   0.5771772167526431
2.3087088670105724   0.5771772167526431   0.5771772167526431
0.9695645681555963   -0.055074580666647   -0.005453201475232913
0.9695645681555963   -0.055074580666647   -0.005453201475232913
0.9695645681555963   -0.055074580666647   -0.005453201475232913
0.9695645681555963   -0.055074580666647   -0.005453201475232913
1.6108350095647177   0.22799813449341558   0.18182678313050826
1.6108350095647177   0.22799813449341558   0.18182678313050826
1.6108350095647177   0.22799813449341558   0.18182678313050826
1.6108350095647177   0.22799813449341558   0.18182678313050826
1.0907445828710796   0.2726861457177699   0.2726861457177699
1.0907445828710796   0.2726861457177699   0.2726861457177699
1.0907445828710796   0.2726861457177699   0.2726861457177699
1.0907445828710796   0.2726861457177699   0.2726861457177699
2.1395233886572114   0.2014110267303555   0.10701601500816108
2.1395233886572114   0.2014110267303555   0.10701601500816108
2.1395233886572114   0.2014110267303555   0.10701601500816108
2.1395233886572114   0.2014110267303555   0.10701601500816108
2.2397711446227935   0.5599427861556984   0.5599427861556984
2.2397711446227935   0.5599427861556984   0.5599427861556984
2.2397711446227935   0.5599427861556984   0.5599427861556984
2.2397711446227935   0.5599427861556984   0.5599427861556984
0.9729790654412358   -0.030358408114070673   0.007814463218424605
0.9729790654412358   -0.030358408114070673   0.007814463218424605
0.9729790654412358   -0.030358408114070673   0.007814463218424605
0.9729790654412358   -0.030358408114070673   0.007814463218424605
1.5630869717801388   0.23458896492727965   0.08718550711219987
1.5630869717801388   0.23458896492727965   0.08718550711219987
1.5630869717801388   0.23458896492727965   0.08718550711219987
1.5630869717801388   0.23458896492727965   0.08718550711219987
1.0860976160226279   0.27152440400565697   0.27152440400565697
1.0860976160226279   0.27152440400565697   0.27152440400565697
1.0860976160226279   0.27152440400565697   0.27152440400565697
1.0860976160226279   0.27152440400565697   0.27152440400565697
2.070673599395179   0.2020809793897545   0.07231686678360376
2.070673599395179   0.2020809793897545   0.07231686678360376
2.070673599395179   0.2020809793897545   0.07231686678360376
2.070673599395179   0.2020809793897545   0.07231686678360376
2.137125118921123   0.5342812797302807   0.5342812797302807
2.137125118921123   0.5342812797302807   0.5342812797302807
2.137125118921123   0.5342812797302807   0.5342812797302807
2.137125118921123   0.5342812797302807   0.5342812797302807
1.0090101710638997   0.03194456890735478   0.030905939434116715
1.0090101710638997   0.03194456890735478   0.030905939434116715
1.0090101710638997   0.03194456890735478   0.030905939434116715
1.0090101710638997   0.03194456890735478   0.030905939434116715
1.4967459080474281   0.25436756299723295   -0.02288917638353951
1.4967459080474281   0.25436756299723295   -0.02288917638353951
1.4967459080474281   0.25436756299723295   -0.02288917638353951
1.4967459080474281   0.25436756299723295   -0.02288917638353951
-2.189634484398438   -0.1567999976611285   0.024727436097879085
-2.189634484398438   -0.1567999976611285   0.024727436097879085
-2.189634484398438   -0.1567999976611285   0.024727436097879085
-2.189634484398438   -0.1567999976611285   0.024727436097879085
-1.393812083445187   -0.032228009544652936   -0.00904122281022958
-1.393812083445187   -0.032228009544652936   -0.00904122281022958
-1.393812083445187   -0.032228009544652936   -0.00904122281022958
-1.393812083445187   -0.032228009544652936   -0.00904122281022958
-1.403197103114891   0.05669514307898621   0.029354723266505567
-1.403197103114891   0.05669514307898621   0.029354723266505567
-1.403197103114891   0.05669514307898621   0.029354723266505567
-1.403197103114891   0.05669514307898621   0.029354723266505567
-2.222205148122581   -0.15162243077334409   -0.02634779609236619
-2.222205148122581   -0.15162243077334409   -0.02634779609236619
-2.222205148122581   -0.15162243077334409   -0.02634779609236619
-2.222205148122581   -0.15162243077334409   -0.02634779609236619
-1.7313011042438777   -0.05914848459734956   -0.006902905981312421
-1.7313011042438777   -0.05914848459734956   -0.006902905981312421
-1.7313011042438777   -0.05914848459734956   -0.006902905981312421
-1.7313011042438777   -0.05914848459734956   -0.006902905981312421
-2.2060164543058765   -0.10762085280745742   0.010594095025272476
-2.2060164543058765   -0.10762085280745742   0.010594095025272476
-2.2060164543058765   -0.10762085280745742   0.010594095025272476
-2.2060164543058765   -0.10762085280745742   0.010594095025272476
-1.4217137613053075   0.010365600739393743   -0.016899025345958885
-1.4217137613053075   0.010365600739393743   -0.016899025345958885
-1.4217137613053075   0.010365600739393743   -0.016899025345958885
-1.4217137613053075   0.010365600739393743   -0.016899025345958885
-1.4048454129676025   0.08083525646879713   0.0334118221640953
-1.4048454129676025   0.08083525646879713   0.0334118221640953
-1.4048454129676025   0.08083525646879713   0.0334118221640953
-1.4048454129676025   0.08083525646879713   0.0334118221640953
-2.235641967495533   -0.13354382307113344   -0.03477946790523645
-2.235641967495533   -0.13354382307113344   -0.03477946790523645
-2.235641967495533   -0.13354382307113344   -0.03477946790523645
-2.235641967495533   -0.13354382307113344   -0.03477946790523645
-1.7798891538702093   -0.039587199309155774   -0.016898594721611704
-1.7798891538702093   -0.039587199309155774   -0.016898594721611704
-1.7798891538702093   -0.039587199309155774   -0.016898594721611704
-1.7798891538702093   -0.039587199309155774   -0.016898594721611704
-2.195466826505127   -0.06455075656366571   0.09710317053930559
-2.195466826505127   -0.06455075656366571   0.09710317053930559
-2.195466826505127   -0.06455075656366571   0.09710317053930559
-2.195466826505127   -0.06455075656366571   0.09710317053930559
-1.4282936875174759   0.028569056401860804   -0.031563350518322375
-1.4282936875174759   0.028569056401860804   -0.031563350518322375
-1.4282936875174759   0.028569056401860804   -0.031563350518322375
-1.4282936875174759   0.028569056401860804   -0.031563350518322375
-1.3792648731096895   0.14086339164349887   0.06066298979690771
-1.3792648731096895   0.14086339164349887   0.06066298979690771
-1.3792648731096895   0.14086339164349887   0.06066298979690771
-1.3792648731096895   0.14086339164349887   0.06066298979690771
-2.173806111668976   -0.10773205773241401   -0.05687869077262865
-2.173806111668976   -0.10773205773241401   -0.05687869077262865
-2.173806111668976   -0.10773205773241401   -0.05687869077262865
-2.173806111668976   -0.10773205773241401   -0.05687869077262865
-1.7117819569733461   0.01598834871689353   0.03794631385592705
-1.7117819569733461   0.01598834871689353   0.03794631385592705
-1.7117819569733461   0.01598834871689353   0.03794631385592705
-1.7117819569733461   0.01598834871689353   0.03794631385592705
-1.4284161759920742   -0.18938464597049146   -0.024905049118826565
-1.4284161759920742   -0.18938464597049146   -0.024905049118826565
-1.4284161759920742   -0.18938464597049146   -0.024905049118826565
-1.4284161759920742   -0.18938464597049146   -0.024905049118826565
-0.6581565202033894   -0.014678024824298502   0.006974552449918389
-0.6581565202033894   -0.014678024824298502   0.006974552449918389
-0.6581565202033894   -0.014678024824298502   0.006974552449918389
-0.6581565202033894   -0.014678024824298502   0.006974552449918389
-0.6677625327457916   0.012656802870621653   0.00998268593794114
-0.6677625327457916   0.012656802870621653   0.00998268593794114
-0.6677625327457916   0.012656802870621653   0.00998268593794114
-0.6677625327457916   0.012656802870621653   0.00998268593794114
-1.4567109444492699   -0.1386199560202385   -0.04289938430616325
-1.4567109444492699   -0.1386199560202385   -0.04289938430616325
-1.4567109444492699   -0.1386199560202385   -0.04289938430616325
-1.4567109444492699   -0.1386199560202385   -0.04289938430616325
-1.052735863716098   -0.08549741462193763   -0.024151391700637376
-1.052735863716098   -0.08549741462193763   -0.024151391700637376
-1.052735863716098   -0.08549741462193763   -0.024151391700637376
-1.052735863716098   -0.08549741462193763   -0.024151391700637376
-1.4553337999555296   -0.15148392610871256   -0.023149691748992056
-1.4553337999555296   -0.15148392610871256   -0.023149691748992056
-1.4553337999555296   -0.15148392610871256   -0.023149691748992056
-1.4553337999555296   -0.15148392610871256   -0.023149691748992056
-0.6665442584682196   0.02811619173040822   0.0006146684660198951
-0.6665442584682196   0.02811619173040822   0.0006146684660198951
-0.6665442584682196   0.02811619173040822   0.0006146684660198951
-0.6665442584682196   0.02811619173040822   0.0006146684660198951
-0.6652270673000317   0.04638972253786694   0.013543232362899602
-0.6652270673000317   0.04638972253786694   0.013543232362899602
-0.6652270673000317   0.04638972253786694   0.013543232362899602
-0.6652270673000317   0.04638972253786694   0.013543232362899602
-1.4572890973583266   -0.10157010884690451   -0.046401234473823084
-1.4572890973583266   -0.10157010884690451   -0.046401234473823084
-1.4572890973583266   -0.10157010884690451   -0.046401234473823084
-1.4572890973583266   -0.10157010884690451   -0.046401234473823084
-1.050675173556661   -0.04757603038233263   -0.011483223032466391
-1.050675173556661   -0.04757603038233263   -0.011483223032466391
-1.050675173556661   -0.04757603038233263   -0.011483223032466391
-1.050675173556661   -0.04757603038233263   -0.011483223032466391
-1.4515859831003568   -0.11456821791746158   -0.004887554113417861
-1.4515859831003568   -0.11456821791746158   -0.004887554113417861
-1.4515859831003568   -0.11456821791746158   -0.004887554113417861
-1.4515859831003568   -0.11456821791746158   -0.004887554113417861
-0.666110504349892   0.06420750881653525   -0.008691739165058464
-0.666110504349892   0.06420750881653525   -0.008691739165058464
-0.666110504349892   0.06420750881653525   -0.008691739165058464
-0.666110504349892   0.06420750881653525   -0.008691739165058464
-0.6540683516714908   0.08027266201590397   0.027183851044796224
-0.6540683516714908   0.08027266201590397   0.027183851044796224
-0.6540683516714908   0.08027266201590397   0.027183851044796224
-0.6540683516714908   0.08027266201590397   0.027183851044796224
-1.4416630750783095   -0.058761324243197355   -0.05170330415950111
-1.4416630750783095   -0.058761324243197355   -0.05170330415950111
-1.4416630750783095   -0.058761324243197355   -0.05170330415950111
-1.4416630750783095   -0.058761324243197355   -0.05170330415950111
-1.046265158751752   -0.011690176048714362   0.005251369769840503
-1.046265158751752   -0.011690176048714362   0.005251369769840503
-1.046265158751752   -0.011690176048714362   0.005251369769840503
-1.046265158751752   -0.011690176048714362   0.005251369769840503
-0.694012381163076   -0.157653444044316   -0.029329333128503464
-0.694012381163076   -0.157653444044316   -0.029329333128503464
-0.694012381163076   -0.157653444044316   -0.029329333128503464
-0.694012381163076   -0.157653444044316   -0.029329333128503464
0.07180037916940582   0.016319477539288234   0.027036279632427124
0.07180037916940582   0.016319477539288234   0.027036279632427124
0.07180037916940582   0.016319477539288234   0.027036279632427124
0.07180037916940582   0.016319477539288234   0.027036279632427124
0.06854672853393907   0.03971438961276654   0.0021695982744566493
0.06854672853393907   0.03971438961276654   0.0021695982744566493
0.06854672853393907   0.03971438961276654   0.0021695982744566493
0.06854672853393907   0.03971438961276654   0.0021695982744566493
-0.6969224355896946   -0.1044308331237244   -0.018729192287227806
-0.6969224355896946   -0.1044308331237244   -0.018729192287227806
-0.6969224355896946   -0.1044308331237244   -0.018729192287227806
-0.6969224355896946   -0.1044308331237244   -0.018729192287227806
-0.3156709868417038   -0.05228184853243413   -0.009996563895192451
-0.3156709868417038   -0.05228184853243413   -0.009996563895192451
-0.3156709868417038   -0.05228184853243413   -0.009996563895192451
-0.3156709868417038   -0.05228184853243413   -0.009996563895192451
-0.7017444156843323   -0.12019312005217281   -0.027076805831968663
-0.7017444156843323   -0.12019312005217281   -0.027076805831968663
-0.7017444156843323   -0.12019312005217281   -0.027076805831968663
-0.7017444156843323   -0.12019312005217281   -0.027076805831968663
0.07604550703360934   0.05815347494624735   0.021224405439327087
0.07604550703360934   0.05815347494624735   0.021224405439327087
0.07604550703360934   0.05815347494624735   0.021224405439327087
0.07604550703360934   0.05815347494624735   0.021224405439327087
0.0740221554659468   0.07683896742985852   0.01256431216645377
0.0740221554659468   0.07683896742985852   0.01256431216645377
0.0740221554659468   0.07683896742985852   0.01256431216645377
0.0740221554659468   0.07683896742985852   0.01256431216645377
-0.6946314517092256   -0.06371913218078346   -0.023369834964419647
-0.6946314517092256   -0.06371913218078346   -0.023369834964419647
-0.6946314517092256   -0.06371913218078346   -0.023369834964419647
-0.6946314517092256   -0.06371913218078346   -0.023369834964419647
-0.3106974410152529   -0.012830691429148347   0.0037066138198132946
-0.3106974410152529   -0.012830691429148347   0.0037066138198132946
-0.3106974410152529   -0.012830691429148347   0.0037066138198132946
-0.3106974410152529   -0.012830691429148347   0.0037066138198132946
-0.6964972139559578   -0.08255110380298826   -0.013866674575875631
-0.6964972139559578   -0.08255110380298826   -0.013866674575875631
-0.6964972139559578   -0.08255110380298826   -0.013866674575875631
-0.6964972139559578   -0.08255110380298826   -0.013866674575875631
0.07876852389645082   0.09855154523583641   0.014583576512995609
0.07876852389645082   0.09855154523583641   0.014583576512995609
0.07876852389645082   0.09855154523583641   0.014583576512995609
0.07876852389645082   0.09855154523583641   0.014583576512995609
0.07578531015072607   0.11813536595075269   0.020675811800226387
0.07578531015072607   0.11813536595075269   0.020675811800226387
0.07578531015072607   0.11813536595075269   0.020675811800226387
0.07578531015072607   0.11813536595075269   0.020675811800226387
-0.6854894515344885   -0.020199963240834673   -0.02944902301345173
-0.6854894515344885   -0.020199963240834673   -0.02944902301345173
-0.6854894515344885   -0.020199963240834673   -0.02944902301345173
-0.6854894515344885   -0.020199963240834673   -0.02944902301345173
-0.3028709643559624   0.028425999526890622   0.01870833847366781
-0.3028709643559624   0.028425999526890622   0.01870833847366781
-0.3028709643559624   0.028425999526890622   0.01870833847366781
-0.3028709643559624   0.028425999526890622   0.01870833847366781
0.03280600307883038   -0.11557891545170287   -0.036037207829458975
0.03280600307883038   -0.11557891545170287   -0.036037207829458975
0.03280600307883038   -0.11557891545170287   -0.036037207829458975
0.03280600307883038   -0.11557891545170287   -0.036037207829458975
0.8261629736799584   0.056998218807057216   0.04963218009930894
0.8261629736799584   0.056998218807057216   0.04963218009930894
0.8261629736799584   0.056998218807057216   0.04963218009930894
0.8261629736799584   0.056998218807057216   0.04963218009930894
0.825211185851019   0.07681825728982547   -0.007945310344853511
0.825211185851019   0.07681825728982547   -0.007945310344853511
0.825211185851019   0.07681825728982547   -0.007945310344853511
0.825211185851019   0.07681825728982547   -0.007945310344853511
0.04728639411204978   -0.06940605944610131   0.00498837522387801
0.04728639411204978   -0.06940605944610131   0.00498837522387801
0.04728639411204978   -0.06940605944610131   0.00498837522387801
0.04728639411204978   -0.06940605944610131   0.00498837522387801
0.4275299129308979   -0.009922575901720854   0.000891294097954843
0.4275299129308979   -0.009922575901720854   0.000891294097954843
0.4275299129308979   -0.009922575901720854   0.000891294097954843
0.4275299129308979   -0.009922575901720854   0.000891294097954843
0.037899137111628414   -0.08443823686162323   -0.02691573236270626
0.037899137111628414   -0.08443823686162323   -0.02691573236270626
0.037899137111628414   -0.08443823686162323   -0.02691573236270626
0.037899137111628414   -0.08443823686162323   -0.02691573236270626
0.8394120333002739   0.09666402515417973   0.04321315903705897
0.8394120333002739   0.09666402515417973   0.04321315903705897
0.8394120333002739   0.09666402515417973   0.04321315903705897
0.8394120333002739   0.09666402515417973   0.04321315903705897
0.831807735278969   0.1135390927961906   0.008359697368023685
0.831807735278969   0.1135390927961906   0.008359697368023685
0.831807735278969   0.1135390927961906   0.008359697368023685
0.831807735278969   0.1135390927961906   0.008359697368023685
0.04905643299752265   -0.033017690323890625   -0.0024076424219178407
0.04905643299752265   -0.033017690323890625   -0.0024076424219178407
0.04905643299752265   -0.033017690323890625   -0.0024076424219178407
0.04905643299752265   -0.033017690323890625   -0.0024076424219178407
0.43331764410833645   0.025175833534597777   0.0177329850286037
0.43331764410833645   0.025175833534597777   0.0177329850286037
0.43331764410833645   0.025175833534597777   0.0177329850286037
0.43331764410833645   0.025175833534597777   0.0177329850286037
0.042212022509294386   -0.04998455522394914   -0.01966282996300031
0.042212022509294386   -0.04998455522394914   -0.01966282996300031
0.042212022509294386   -0.04998455522394914   -0.01966282996300031
0.042212022509294386   -0.04998455522394914   -0.01966282996300031
0.8421358971522371   0.13398970908128552   0.039549890449255984
0.8421358971522371   0.13398970908128552   0.039549890449255984
0.8421358971522371   0.13398970908128552   0.039549890449255984
0.8421358971522371   0.13398970908128552   0.039549890449255984
0.8185206417454703   0.15591864687620252   0.017602849164200844
0.8185206417454703   0.15591864687620252   0.017602849164200844
0.8185206417454703   0.15591864687620252   0.017602849164200844
0.8185206417454703   0.15591864687620252   0.017602849164200844
0.04868343135368381   0.012037945673744083   -0.00873616190797626
0.04868343135368381   0.012037945673744083   -0.00873616190797626
0.04868343135368381   0.012037945673744083   -0.00873616190797626
0.04868343135368381   0.012037945673744083   -0.00873616190797626
0.43980470716299014   0.06529956092659164   0.03332589561100049
0.43980470716299014   0.06529956092659164   0.03332589561100049
0.43980470716299014   0.06529956092659164   0.03332589561100049
0.43980470716299014   0.06529956092659164   0.03332589561100049
0.7610070389822768   -0.15249956950456173   -0.06664970507747939
0.7610070389822768   -0.15249956950456173   -0.06664970507747939
0.7610070389822768   -0.15249956950456173   -0.06664970507747939
0.7610070389822768   -0.15249956950456173   -0.06664970507747939
1.5672298424223914   0.10352104373016893   0.04839267519554829
1.5672298424223914   0.10352104373016893   0.04839267519554829
1.5672298424223914   0.10352104373016893   0.04839267519554829
1.5672298424223914   0.10352104373016893   0.04839267519554829
1.5850431016311124   0.04905904465771943   -0.10026360832891669
1.5850431016311124   0.04905904465771943   -0.10026360832891669
1.5850431016311124   0.04905904465771943   -0.10026360832891669
1.5850431016311124   0.04905904465771943   -0.10026360832891669
0.8109831903266483   -0.031219675286776244   0.028952644609880236
0.8109831903266483   -0.031219675286776244   0.028952644609880236
0.8109831903266483   -0.031219675286776244   0.028952644609880236
0.8109831903266483   -0.031219675286776244   0.028952644609880236
1.1223403066360362   -0.019652314465249482   -0.02811242042632757
1.1223403066360362   -0.019652314465249482   -0.02811242042632757
1.1223403066360362   -0.019652314465249482   -0.02811242042632757
1.1223403066360362   -0.019652314465249482   -0.02811242042632757
0.7825388509995485   -0.10023902438773885   -0.044249702924645945
0.7825388509995485   -0.10023902438773885   -0.044249702924645945
0.7825388509995485   -0.10023902438773885   -0.044249702924645945
0.7825388509995485   -0.10023902438773885   -0.044249702924645945
1.6278894343518475   0.1324803871523195   0.03054671278015953
1.6278894343518475   0.1324803871523195   0.03054671278015953
1.6278894343518475   0.1324803871523195   0.03054671278015953
1.6278894343518475   0.1324803871523195   0.03054671278015953
1.6026197973017544   0.0894556915547372   -0.0227557702980547
1.6026197973017544   0.0894556915547372   -0.0227557702980547
1.6026197973017544   0.0894556915547372   -0.0227557702980547
1.6026197973017544   0.0894556915547372   -0.0227557702980547
0.8078029562812029   -0.013069702855864812   0.014944598031235087
0.8078029562812029   -0.013069702855864812   0.014944598031235087
0.8078029562812029   -0.013069702855864812   0.014944598031235087
0.8078029562812029   -0.013069702855864812   0.014944598031235087
1.1812134460200232   0.029511789858687243   0.01941861642380495
1.1812134460200232   0.029511789858687243   0.01941861642380495
1.1812134460200232   0.029511789858687243   0.01941861642380495
1.1812134460200232   0.029511789858687243   0.01941861642380495
0.784974940716215   -0.0766459685272266   -0.03561921412233607
0.784974940716215   -0.0766459685272266   -0.03561921412233607
0.784974940716215   -0.0766459685272266   -0.03561921412233607
0.784974940716215   -0.0766459685272266   -0.03561921412233607
1.6235466167687604   0.15113076112811852   0.02020325746359418
1.6235466167687604   0.15113076112811852   0.02020325746359418
1.6235466167687604   0.15113076112811852   0.02020325746359418
1.6235466167687604   0.15113076112811852   0.02020325746359418
1.6000694208650745   0.1370116646048883   -0.03481783187939074
1.6000694208650745   0.1370116646048883   -0.03481783187939074
1.6000694208650745   0.1370116646048883   -0.03481783187939074
1.6000694208650745   0.1370116646048883   -0.03481783187939074
0.7912292002946707   0.028744732937422135   0.008319555848970019
0.7912292002946707   0.028744732937422135   0.008319555848970019
0.7912292002946707   0.028744732937422135   0.008319555848970019
0.7912292002946707   0.028744732937422135   0.008319555848970019
1.1511001464905375   0.0517640026953948   0.014424246108884507
1.1511001464905375   0.0517640026953948   0.014424246108884507
1.1511001464905375   0.0517640026953948   0.014424246108884507
1.1511001464905375   0.0517640026953948   0.014424246108884507
-1.7207823773662065   -0.07808497387926594   0.0886442494377248
-1.7207823773662065   -0.07808497387926594   0.0886442494377248
-1.7207823773662065   -0.07808497387926594   0.0886442494377248
-1.7207823773662065   -0.07808497387926594   0.0886442494377248
-1.1428936834282861   -0.043459876978826084   -0.023065522403744945
-1.1428936834282861   -0.043459876978826084   -0.023065522403744945
-1.1428936834282861   -0.043459876978826084   -0.023065522403744945
-1.1428936834282861   -0.043459876978826084   -0.023065522403744945
-1.101648009850001   0.09263124464915923   0.07436344274757008
-1.101648009850001   0.09263124464915923   0.07436344274757008
-1.101648009850001   0.09263124464915923   0.07436344274757008
-1.101648009850001   0.09263124464915923   0.07436344274757008
-1.7286942041371836   -0.12343059653761479   -0.03613809083611591
-1.7286942041371836   -0.12343059653761479   -0.03613809083611591
-1.7286942041371836   -0.12343059653761479   -0.03613809083611591
-1.7286942041371836   -0.12343059653761479   -0.03613809083611591
-1.3657091861396167   -0.02111582507275539   -0.002546374775616894
-1.3657091861396167   -0.02111582507275539   -0.002546374775616894
-1.3657091861396167   -0.02111582507275539   -0.002546374775616894
-1.3657091861396167   -0.02111582507275539   -0.002546374775616894
-1.6805488939922244   -0.01815837338215537   0.0993162367332205
-1.6805488939922244   -0.01815837338215537   0.0993162367332205
-1.6805488939922244   -0.01815837338215537   0.0993162367332205
-1.6805488939922244   -0.01815837338215537   0.0993162367332205
-1.14221103293107   -0.005058691442409946   -0.030761736566205372
-1.14221103293107   -0.005058691442409946   -0.030761736566205372
-1.14221103293107   -0.005058691442409946   -0.030761736566205372
-1.14221103293107   -0.005058691442409946   -0.030761736566205372
-1.0971296101577779   0.11489945721312317   0.06892457617829173
-1.0971296101577779   0.11489945721312317   0.06892457617829173
-1.0971296101577779   0.11489945721312317   0.06892457617829173
-1.0971296101577779   0.11489945721312317   0.06892457617829173
-1.701871637731696   -0.10324260764697274   -0.04947474411791128
-1.701871637731696   -0.10324260764697274   -0.04947474411791128
-1.701871637731696   -0.10324260764697274   -0.04947474411791128
-1.701871637731696   -0.10324260764697274   -0.04947474411791128
-1.3685757104443883   0.005046721284144462   0.015760946349810886
-1.3685757104443883   0.005046721284144462   0.015760946349810886
-1.3685757104443883   0.005046721284144462   0.015760946349810886
-1.3685757104443883   0.005046721284144462   0.015760946349810886
-1.657039795110613   0.0028507310458364965   0.0685911302946936
-1.657039795110613   0.0028507310458364965   0.0685911302946936
-1.657039795110613   0.0028507310458364965   0.0685911302946936
-1.657039795110613   0.0028507310458364965   0.0685911302946936
-1.1394627929110643   0.011304778388114611   -0.039146658763121525
-1.1394627929110643   0.011304778388114611   -0.039146658763121525
-1.1394627929110643   0.011304778388114611   -0.039146658763121525
-1.1394627929110643   0.011304778388114611   -0.039146658763121525
-1.0981682859303672   0.129709197159978   0.05468975795072277
-1.0981682859303672   0.129709197159978   0.05468975795072277
-1.0981682859303672   0.129709197159978   0.05468975795072277
-1.0981682859303672   0.129709197159978   0.05468975795072277
-1.6670682965992778   -0.08177938866904472   -0.06308694223728943
-1.6670682965992778   -0.08177938866904472   -0.06308694223728943
-1.6670682965992778   -0.08177938866904472   -0.06308694223728943
-1.6670682965992778   -0.08177938866904472   -0.06308694223728943
-1.3292076036006562   0.02848104365432791   0.03281901995463013
-1.3292076036006562   0.02848104365432791   0.03281901995463013
-1.3292076036006562   0.02848104365432791   0.03281901995463013
-1.3292076036006562   0.02848104365432791   0.03281901995463013
-1.146285902692487   -0.10866342579401406   0.025176930090438213
-1.146285902692487   -0.10866342579401406   0.025176930090438213
-1.146285902692487   -0.10866342579401406   0.025176930090438213
-1.146285902692487   -0.10866342579401406   0.025176930090438213
-0.5789707418695844   -0.020956613947647015   0.001105532261455145
-0.5789707418695844   -0.020956613947647015   0.001105532261455145
-0.5789707418695844   -0.020956613947647015   0.001105532261455145
-0.5789707418695844   -0.020956613947647015   0.001105532261455145
-0.5625253301436767   0.056879502903601   0.04041229600744086
-0.5625253301436767   0.056879502903601   0.04041229600744086
-0.5625253301436767   0.056879502903601   0.04041229600744086
-0.5625253301436767   0.056879502903601   0.04041229600744086
-1.16450477004629   -0.10716112437761793   -0.04012798920710446
-1.16450477004629   -0.10716112437761793   -0.04012798920710446
-1.16450477004629   -0.10716112437761793   -0.04012798920710446
-1.16450477004629   -0.10716112437761793   -0.04012798920710446
-0.8600093118628498   -0.0422027100165433   -0.017439858626912857
-0.8600093118628498   -0.0422027100165433   -0.017439858626912857
-0.8600093118628498   -0.0422027100165433   -0.017439858626912857
-0.8600093118628498   -0.0422027100165433   -0.017439858626912857
-1.142643075783143   -0.06235219489964752   0.024371552630664588
-1.142643075783143   -0.06235219489964752   0.024371552630664588
-1.142643075783143   -0.06235219489964752   0.024371552630664588
-1.142643075783143   -0.06235219489964752   0.024371552630664588
-0.5799578612424419   0.01649973659001383   -0.006370593172793593
-0.5799578612424419   0.01649973659001383   -0.006370593172793593
-0.5799578612424419   0.01649973659001383   -0.006370593172793593
-0.5799578612424419   0.01649973659001383   -0.006370593172793593
-0.560716501027063   0.09401672253723603   0.03496032611561636
-0.560716501027063   0.09401672253723603   0.03496032611561636
-0.560716501027063   0.09401672253723603   0.03496032611561636
-0.560716501027063   0.09401672253723603   0.03496032611561636
-1.1578711067117042   -0.0725011969536386   -0.04738225242457757
-1.1578711067117042   -0.0725011969536386   -0.04738225242457757
-1.1578711067117042   -0.0725011969536386   -0.04738225242457757
-1.1578711067117042   -0.0725011969536386   -0.04738225242457757
-0.8505911518467433   -0.004634963939572967   -7.018371240685717e-05
-0.8505911518467433   -0.004634963939572967   -7.018371240685717e-05
-0.8505911518467433   -0.004634963939572967   -7.018371240685717e-05
-0.8505911518467433   -0.004634963939572967   -7.018371240685717e-05
-1.1355633705888661   -0.024678058625877464   0.016333289861851917
-1.1355633705888661   -0.024678058625877464   0.016333289861851917
-1.1355633705888661   -0.024678058625877464   0.016333289861851917
-1.1355633705888661   -0.024678058625877464   0.016333289861851917
-0.5794177856728489   0.049800035686526106   -0.014329410262594093
-0.5794177856728489   0.049800035686526106   -0.014329410262594093
-0.5794177856728489   0.049800035686526106   -0.014329410262594093
-0.5794177856728489   0.049800035686526106   -0.014329410262594093
-0.560523790871362   0.13304584769121047   0.026193271305582994
-0.560523790871362   0.13304584769121047   0.026193271305582994
-0.560523790871362   0.13304584769121047   0.026193271305582994
-0.560523790871362   0.13304584769121047   0.026193271305582994
-1.1522646432099959   -0.035095705655764114   -0.050987125631683596
-1.1522646432099959   -0.035095705655764114   -0.050987125631683596
-1.1522646432099959   -0.035095705655764114   -0.050987125631683596
-1.1522646432099959   -0.035095705655764114   -0.050987125631683596
-0.8511119744660673   0.029823681259384865   0.01320899346221828
-0.8511119744660673   0.029823681259384865   0.01320899346221828
-0.8511119744660673   0.029823681259384865   0.01320899346221828
-0.8511119744660673   0.029823681259384865   0.01320899346221828
-0.600530137470834   -0.1242362447114451   -0.003411814980999817
-0.600530137470834   -0.1242362447114451   -0.003411814980999817
-0.600530137470834   -0.1242362447114451   -0.003411814980999817
-0.600530137470834   -0.1242362447114451   -0.003411814980999817
-0.020263936042009503   0.006115405361950782   0.025643984691171167
-0.020263936042009503   0.006115405361950782   0.025643984691171167
-0.020263936042009503   0.006115405361950782   0.025643984691171167
-0.020263936042009503   0.006115405361950782   0.025643984691171167
-0.022434269291042804   0.03666430154161193   0.012258314740802141
-0.022434269291042804   0.03666430154161193   0.012258314740802141
-0.022434269291042804   0.03666430154161193   0.012258314740802141
-0.022434269291042804   0.03666430154161193   0.012258314740802141
-0.6009068547052129   -0.07960454698374879   -0.015011276912890902
-0.6009068547052129   -0.07960454698374879   -0.015011276912890902
-0.6009068547052129   -0.07960454698374879   -0.015011276912890902
-0.6009068547052129   -0.07960454698374879   -0.015011276912890902
-0.31198873368534963   -0.0389572088534442   -0.009764649523837918
-0.31198873368534963   -0.0389572088534442   -0.009764649523837918
-0.31198873368534963   -0.0389572088534442   -0.009764649523837918
-0.31198873368534963   -0.0389572088534442   -0.009764649523837918
-0.600259718177305   -0.08302373286268404   -0.008356408394415624
-0.600259718177305   -0.08302373286268404   -0.008356408394415624
-0.600259718177305   -0.08302373286268404   -0.008356408394415624
-0.600259718177305   -0.08302373286268404   -0.008356408394415624
-0.01977989051688511   0.043385002722612934   0.018809507430589987
-0.01977989051688511   0.043385002722612934   0.018809507430589987
-0.01977989051688511   0.043385002722612934   0.018809507430589987
-0.01977989051688511   0.043385002722612934   0.018809507430589987
-0.019667515779548464   0.07712275330783866   0.005875656549013793
-0.019667515779548464   0.07712275330783866   0.005875656549013793
-0.019667515779548464   0.07712275330783866   0.005875656549013793
-0.019667515779548464   0.07712275330783866   0.005875656549013793
-0.5993673271045034   -0.042270540059280784   -0.022006541675064824
-0.5993673271045034   -0.042270540059280784   -0.022006541675064824
-0.5993673271045034   -0.042270540059280784   -0.022006541675064824
-0.5993673271045034   -0.042270540059280784   -0.022006541675064824
-0.30893196733389433   -0.001549734483849624   0.004270926164090465
-0.30893196733389433   -0.001549734483849624   0.004270926164090465
-0.30893196733389433   -0.001549734483849624   0.004270926164090465
-0.30893196733389433   -0.001549734483849624   0.004270926164090465
-0.5984660160930492   -0.04313848616673134   -0.01663204051034319
-0.5984660160930492   -0.04313848616673134   -0.01663204051034319
-0.5984660160930492   -0.04313848616673134   -0.01663204051034319
-0.5984660160930492   -0.04313848616673134   -0.01663204051034319
-0.01784286426582975   0.08071666194046347   0.011405005484982777
-0.01784286426582975   0.08071666194046347   0.011405005484982777
-0.01784286426582975   0.08071666194046347   0.011405005484982777
-0.01784286426582975   0.08071666194046347   0.011405005484982777
-0.019057332699520674   0.11878946287310005   -0.0009340112787459623
-0.019057332699520674   0.11878946287310005   -0.0009340112787459623
-0.019057332699520674   0.11878946287310005   -0.0009340112787459623
-0.019057332699520674   0.11878946287310005   -0.0009340112787459623
-0.5990472295045117   -0.004302306668937578   -0.029075767500019396
-0.5990472295045117   -0.004302306668937578   -0.029075767500019396
-0.5990472295045117   -0.004302306668937578   -0.029075767500019396
-0.5990472295045117   -0.004302306668937578   -0.029075767500019396
-0.3065517815737178   0.03589338062605987   0.017142318883418453
-0.3065517815737178   0.03589338062605987   0.017142318883418453
-0.3065517815737178   0.03589338062605987   0.017142318883418453
-0.3065517815737178   0.03589338062605987   0.017142318883418453
-0.059781044407956445   -0.13606854265475837   -0.029757609121854264
-0.059781044407956445   -0.13606854265475837   -0.029757609121854264
-0.059781044407956445   -0.13606854265475837   -0.029757609121854264
-0.059781044407956445   -0.13606854265475837   -0.029757609121854264
0.5362985870257406   0.03779926237250923   0.048755074358196815
0.5362985870257406   0.03779926237250923   0.048755074358196815
0.5362985870257406   0.03779926237250923   0.048755074358196815
0.5362985870257406   0.03779926237250923   0.048755074358196815
0.518749851545879   0.020040561852192995   -0.019241975718479767
0.518749851545879   0.020040561852192995   -0.019241975718479767
0.518749851545879   0.020040561852192995   -0.019241975718479767
0.518749851545879   0.020040561852192995   -0.019241975718479767
-0.04007822912679346   -0.04979602324846886   0.01049884035213006
-0.04007822912679346   -0.04979602324846886   0.01049884035213006
-0.04007822912679346   -0.04979602324846886   0.01049884035213006
-0.04007822912679346   -0.04979602324846886   0.01049884035213006
0.2354140288541106   -0.03151628112253584   -0.00551315959347138
0.2354140288541106   -0.03151628112253584   -0.00551315959347138
0.2354140288541106   -0.03151628112253584   -0.00551315959347138
0.2354140288541106   -0.03151628112253584   -0.00551315959347138
-0.05954210401667619   -0.09924395465481049   -0.03737260269094197
-0.05954210401667619   -0.09924395465481049   -0.03737260269094197
-0.05954210401667619   -0.09924395465481049   -0.03737260269094197
-0.05954210401667619   -0.09924395465481049   -0.03737260269094197
0.5419688064238884   0.07324357324666131   0.04364978727709898
0.5419688064238884   0.07324357324666131   0.04364978727709898
0.5419688064238884   0.07324357324666131   0.04364978727709898
0.5419688064238884   0.07324357324666131   0.04364978727709898
0.5271749930330585   0.05768139516474426   -0.027030775014271577
0.5271749930330585   0.05768139516474426   -0.027030775014271577
0.5271749930330585   0.05768139516474426   -0.027030775014271577
0.5271749930330585   0.05768139516474426   -0.027030775014271577
-0.038929739754530734   -0.016346039213830474   0.0030333291957721806
-0.038929739754530734   -0.016346039213830474   0.0030333291957721806
-0.038929739754530734   -0.016346039213830474   0.0030333291957721806
-0.038929739754530734   -0.016346039213830474   0.0030333291957721806
0.23751233433627728   0.0023278473999934074   0.008434471186095822
0.23751233433627728   0.0023278473999934074   0.008434471186095822
0.23751233433627728   0.0023278473999934074   0.008434471186095822
0.23751233433627728   0.0023278473999934074   0.008434471186095822
-0.05786018798781969   -0.06292706356123148   -0.04503788762327207
-0.05786018798781969   -0.06292706356123148   -0.04503788762327207
-0.05786018798781969   -0.06292706356123148   -0.04503788762327207
-0.05786018798781969   -0.06292706356123148   -0.04503788762327207
0.5501977187339131   0.10835469697971077   0.03740955167503458
0.5501977187339131   0.10835469697971077   0.03740955167503458
0.5501977187339131   0.10835469697971077   0.03740955167503458
0.5501977187339131   0.10835469697971077   0.03740955167503458
0.532376390957621   0.10487893693223277   -0.028224165219477786
0.532376390957621   0.10487893693223277   -0.028224165219477786
0.532376390957621   0.10487893693223277   -0.028224165219477786
0.532376390957621   0.10487893693223277   -0.028224165219477786
-0.038962984911110436   0.022741284640476422   -0.00441409410407077
-0.038962984911110436   0.022741284640476422   -0.00441409410407077
-0.038962984911110436   0.022741284640476422   -0.00441409410407077
-0.038962984911110436   0.022741284640476422   -0.00441409410407077
0.24575535783916883   0.040064280438719874   0.02499646193603709
0.24575535783916883   0.040064280438719874   0.02499646193603709
0.24575535783916883   0.040064280438719874   0.02499646193603709
0.24575535783916883   0.040064280438719874   0.02499646193603709
0.480374266813023   -0.13511838274782373   -0.05794888158505432
0.480374266813023   -0.13511838274782373   -0.05794888158505432
0.480374266813023   -0.13511838274782373   -0.05794888158505432
0.480374266813023   -0.13511838274782373   -0.05794888158505432
1.0563558126816546   0.078487120226749   0.054237078510962225
1.0563558126816546   0.078487120226749   0.054237078510962225
1.0563558126816546   0.078487120226749   0.054237078510962225
1.0563558126816546   0.078487120226749   0.054237078510962225
1.0481266812017798   -0.0050082699923393315   -0.0771338197930745
1.0481266812017798   -0.0050082699923393315   -0.0771338197930745
1.0481266812017798   -0.0050082699923393315   -0.0771338197930745
1.0481266812017798   -0.0050082699923393315   -0.0771338197930745
0.523620127277713   -0.01125797095100084   0.03640793574388927
0.523620127277713   -0.01125797095100084   0.03640793574388927
0.523620127277713   -0.01125797095100084   0.03640793574388927
0.523620127277713   -0.01125797095100084   0.03640793574388927
0.7393959052414244   -0.026367886862069034   -0.024266664350532305
0.7393959052414244   -0.026367886862069034   -0.024266664350532305
0.7393959052414244   -0.026367886862069034   -0.024266664350532305
0.7393959052414244   -0.026367886862069034   -0.024266664350532305
0.4808754562079515   -0.11728869095306249   -0.07128469960285433
0.4808754562079515   -0.11728869095306249   -0.07128469960285433
0.4808754562079515   -0.11728869095306249   -0.07128469960285433
0.4808754562079515   -0.11728869095306249   -0.07128469960285433
1.093941925244247   0.1040930229824272   0.04284110744449533
1.093941925244247   0.1040930229824272   0.04284110744449533
1.093941925244247   0.1040930229824272   0.04284110744449533
1.093941925244247   0.1040930229824272   0.04284110744449533
1.0738654068739575   0.016461493361732   -0.10346187147353554
1.0738654068739575   0.016461493361732   -0.10346187147353554
1.0738654068739575   0.016461493361732   -0.10346187147353554
1.0738654068739575   0.016461493361732   -0.10346187147353554
0.5274950485258357   0.005120480471843367   0.027130417142524836
0.5274950485258357   0.005120480471843367   0.027130417142524836
0.5274950485258357   0.005120480471843367   0.027130417142524836
0.5274950485258357   0.005120480471843367   0.027130417142524836
0.7728883412723198   -0.003155510037406828   -0.0073986704285483595
0.7728883412723198   -0.003155510037406828   -0.0073986704285483595
0.7728883412723198   -0.003155510037406828   -0.0073986704285483595
0.7728883412723198   -0.003155510037406828   -0.0073986704285483595
0.4863569531933475   -0.09586311574108193   -0.07757646330699507
0.4863569531933475   -0.09586311574108193   -0.07757646330699507
0.4863569531933475   -0.09586311574108193   -0.07757646330699507
0.4863569531933475   -0.09586311574108193   -0.07757646330699507
1.1217864869193706   0.12422807428758234   0.02837694782768508
1.1217864869193706   0.12422807428758234   0.02837694782768508
1.1217864869193706   0.12422807428758234   0.02837694782768508
1.1217864869193706   0.12422807428758234   0.02837694782768508
1.1147327868827421   0.07231709055978738   -0.09732224262727496
1.1147327868827421   0.07231709055978738   -0.09732224262727496
1.1147327868827421   0.07231709055978738   -0.09732224262727496
1.1147327868827421   0.07231709055978738   -0.09732224262727496
0.5292676427702233   0.04129869474118272   0.01981233603459103
0.5292676427702233   0.04129869474118272   0.01981233603459103
0.5292676427702233   0.04129869474118272   0.01981233603459103
0.5292676427702233   0.04129869474118272   0.01981233603459103
0.7786344377562763   0.023385295829586317   0.01126808252490661
0.7786344377562763   0.023385295829586317   0.01126808252490661
0.7786344377562763   0.023385295829586317   0.01126808252490661
0.7786344377562763   0.023385295829586317   0.01126808252490661
-1.2297712442970605   -0.04016225060827677   0.0803001703177763
-1.2297712442970605   -0.04016225060827677   0.0803001703177763
-1.2297712442970605   -0.04016225060827677   0.0803001703177763
-1.2297712442970605   -0.04016225060827677   0.0803001703177763
-0.8605013303245691   -0.057498379039467334   -0.030324090555528954
-0.8605013303245691   -0.057498379039467334   -0.030324090555528954
-0.8605013303245691   -0.057498379039467334   -0.030324090555528954
-0.8605013303245691   -0.057498379039467334   -0.030324090555528954
-0.8099231246243008   0.08124515675286292   0.0684695961033899
-0.8099231246243008   0.08124515675286292   0.0684695961033899
-0.8099231246243008   0.08124515675286292   0.0684695961033899
-0.8099231246243008   0.08124515675286292   0.0684695961033899
-1.2298661697286182   -0.10123759883472591   -0.04435787779257517
-1.2298661697286182   -0.10123759883472591   -0.04435787779257517
-1.2298661697286182   -0.10123759883472591   -0.04435787779257517
-1.2298661697286182   -0.10123759883472591   -0.04435787779257517
-0.9902196267746376   -0.015777548162623084   -0.002197271810111076
-0.9902196267746376   -0.015777548162623084   -0.002197271810111076
-0.9902196267746376   -0.015777548162623084   -0.002197271810111076
-0.9902196267746376   -0.015777548162623084   -0.002197271810111076
-1.1838623139438234   0.008040133439679187   0.07638366885699366
-1.1838623139438234   0.008040133439679187   0.07638366885699366
-1.1838623139438234   0.008040133439679187   0.07638366885699366
-1.1838623139438234   0.008040133439679187   0.07638366885699366
-0.8521838234135146   -0.02428941852596042   -0.03729932256385116
-0.8521838234135146   -0.02428941852596042   -0.03729932256385116
-0.8521838234135146   -0.02428941852596042   -0.03729932256385116
-0.8521838234135146   -0.02428941852596042   -0.03729932256385116
-0.8022948525496967   0.09813994351324962   0.05786122650120118
-0.8022948525496967   0.09813994351324962   0.05786122650120118
-0.8022948525496967   0.09813994351324962   0.05786122650120118
-0.8022948525496967   0.09813994351324962   0.05786122650120118
-1.200751014064026   -0.0824049382967659   -0.05607364409688876
-1.200751014064026   -0.0824049382967659   -0.05607364409688876
-1.200751014064026   -0.0824049382967659   -0.05607364409688876
-1.200751014064026   -0.0824049382967659   -0.05607364409688876
-0.9832932370623264   0.0065053765054522705   0.010382273658014383
-0.9832932370623264   0.0065053765054522705   0.010382273658014383
-0.9832932370623264   0.0065053765054522705   0.010382273658014383
-0.9832932370623264   0.0065053765054522705   0.010382273658014383
-1.155142201889405   0.028259436700798335   0.06130604177865298
-1.155142201889405   0.028259436700798335   0.06130604177865298
-1.155142201889405   0.028259436700798335   0.06130604177865298
-1.155142201889405   0.028259436700798335   0.06130604177865298
-0.8445199821857979   -0.00914074894579267   -0.04598372922025088
-0.8445199821857979   -0.00914074894579267   -0.04598372922025088
-0.8445199821857979   -0.00914074894579267   -0.04598372922025088
-0.8445199821857979   -0.00914074894579267   -0.04598372922025088
-0.7980712657107067   0.11459535849582586   0.04978976269849224
-0.7980712657107067   0.11459535849582586   0.04978976269849224
-0.7980712657107067   0.11459535849582586   0.04978976269849224
-0.7980712657107067   0.11459535849582586   0.04978976269849224
-1.1617571488592335   -0.05750493769320514   -0.06713485708260938
-1.1617571488592335   -0.05750493769320514   -0.06713485708260938
-1.1617571488592335   -0.05750493769320514   -0.06713485708260938
-1.1617571488592335   -0.05750493769320514   -0.06713485708260938
-0.9463919462623926   0.027384679930012562   0.02802902107225326
-0.9463919462623926   0.027384679930012562   0.02802902107225326
-0.9463919462623926   0.027384679930012562   0.02802902107225326
-0.9463919462623926   0.027384679930012562   0.02802902107225326
-0.850812702214061   -0.06951831523110767   0.030138986188643743
-0.850812702214061   -0.06951831523110767   0.030138986188643743
-0.850812702214061   -0.06951831523110767   0.030138986188643743
-0.850812702214061   -0.06951831523110767   0.030138986188643743
-0.49342285903218197   -0.03725754547611164   -0.004894501876089308
-0.49342285903218197   -0.03725754547611164   -0.004894501876089308
-0.49342285903218197   -0.03725754547611164   -0.004894501876089308
-0.49342285903218197   -0.03725754547611164   -0.004894501876089308
-0.46835014025384897   0.04747874426783068   0.036916724227697775
-0.46835014025384897   0.04747874426783068   0.036916724227697775
-0.46835014025384897   0.04747874426783068   0.036916724227697775
-0.46835014025384897   0.04747874426783068   0.036916724227697775
-0.8636119156159476   -0.08273555858005771   -0.03599364352192349
-0.8636119156159476   -0.08273555858005771   -0.03599364352192349
-0.8636119156159476   -0.08273555858005771   -0.03599364352192349
-0.8636119156159476   -0.08273555858005771   -0.03599364352192349
-0.6663601278909346   -0.03248876518189156   -0.013611389859908958
-0.6663601278909346   -0.03248876518189156   -0.013611389859908958
-0.6663601278909346   -0.03248876518189156   -0.013611389859908958
-0.6663601278909346   -0.03248876518189156   -0.013611389859908958
-0.8408351847224023   -0.029475599165226574   0.024630051530964828
-0.8408351847224023   -0.029475599165226574   0.024630051530964828
-0.8408351847224023   -0.029475599165226574   0.024630051530964828
-0.8408351847224023   -0.029475599165226574   0.024630051530964828
-0.4882052004791929   -0.002859544478800255   -0.012020288152390902
-0.4882052004791929   -0.002859544478800255   -0.012020288152390902
-0.4882052004791929   -0.002859544478800255   -0.012020288152390902
-0.4882052004791929   -0.002859544478800255   -0.012020288152390902
-0.46239346725456537   0.08212421779589633   0.030267181865958198
-0.46239346725456537   0.08212421779589633   0.030267181865958198
-0.46239346725456537   0.08212421779589633   0.030267181865958198
-0.46239346725456537   0.08212421779589633   0.030267181865958198
-0.8519853867541826   -0.05004145790098791   -0.04241004310699025
-0.8519853867541826   -0.05004145790098791   -0.04241004310699025
-0.8519853867541826   -0.05004145790098791   -0.04241004310699025
-0.8519853867541826   -0.05004145790098791   -0.04241004310699025
-0.6535639909130053   0.0015627902443745845   0.0010171558236896014
-0.6535639909130053   0.0015627902443745845   0.0010171558236896014
-0.6535639909130053   0.0015627902443745845   0.0010171558236896014
-0.6535639909130053   0.0015627902443745845   0.0010171558236896014
-0.8274849797764614   0.007552154745375739   0.02249837913525128
-0.8274849797764614   0.007552154745375739   0.02249837913525128
-0.8274849797764614   0.007552154745375739   0.02249837913525128
-0.8274849797764614   0.007552154745375739   0.02249837913525128
-0.4832656664620924   0.02815881291972737   -0.02012840929550403
-0.4832656664620924   0.02815881291972737   -0.02012840929550403
-0.4832656664620924   0.02815881291972737   -0.02012840929550403
-0.4832656664620924   0.02815881291972737   -0.02012840929550403
-0.45663815579945327   0.11904199861211881   0.024074908297203566
-0.45663815579945327   0.11904199861211881   0.024074908297203566
-0.45663815579945327   0.11904199861211881   0.024074908297203566
-0.45663815579945327   0.11904199861211881   0.024074908297203566
-0.8432836476758003   -0.014807063418377703   -0.04686972521276838
-0.8432836476758003   -0.014807063418377703   -0.04686972521276838
-0.8432836476758003   -0.014807063418377703   -0.04686972521276838
-0.8432836476758003   -0.014807063418377703   -0.04686972521276838
-0.6486058772160108   0.033606463775606304   0.014948287255685443
-0.6486058772160108   0.033606463775606304   0.014948287255685443
-0.6486058772160108   0.033606463775606304   0.014948287255685443
-0.6486058772160108   0.033606463775606304   0.014948287255685443
-0.5038442775527613   -0.09548440655787596   0.0012252666027739766
-0.5038442775527613   -0.09548440655787596   0.0012252666027739766
-0.5038442775527613   -0.09548440655787596   0.0012252666027739766
-0.5038442775527613   -0.09548440655787596   0.0012252666027739766
-0.13012626540550412   -0.01115992048205494   0.02054109504856233
-0.13012626540550412   -0.01115992048205494   0.02054109504856233
-0.13012626540550412   -0.01115992048205494   0.02054109504856233
-0.13012626540550412   -0.01115992048205494   0.02054109504856233
-0.1269354849647993   0.019593021993496565   0.007005198232922356
-0.1269354849647993   0.019593021993496565   0.007005198232922356
-0.1269354849647993   0.019593021993496565   0.007005198232922356
-0.1269354849647993   0.019593021993496565   0.007005198232922356
-0.4983179800612876   -0.05585142796248348   -0.009592302579184794
-0.4983179800612876   -0.05585142796248348   -0.009592302579184794
-0.4983179800612876   -0.05585142796248348   -0.009592302579184794
-0.4983179800612876   -0.05585142796248348   -0.009592302579184794
-0.31534308043276105   -0.034198686529107396   -0.00967471910196875
-0.31534308043276105   -0.034198686529107396   -0.00967471910196875
-0.31534308043276105   -0.034198686529107396   -0.00967471910196875
-0.31534308043276105   -0.034198686529107396   -0.00967471910196875
-0.49750467353173655   -0.056831079121048345   -0.004546118772864979
-0.49750467353173655   -0.056831079121048345   -0.004546118772864979
-0.49750467353173655   -0.056831079121048345   -0.004546118772864979
-0.49750467353173655   -0.056831079121048345   -0.004546118772864979
-0.1248197435096195   0.02350172113679226   0.013675206365525862
-0.1248197435096195   0.02350172113679226   0.013675206365525862
-0.1248197435096195   0.02350172113679226   0.013675206365525862
-0.1248197435096195   0.02350172113679226   0.013675206365525862
-0.11974239155275332   0.05842057991860197   0.0018241226626141555
-0.11974239155275332   0.05842057991860197   0.0018241226626141555
-0.11974239155275332   0.05842057991860197   0.0018241226626141555
-0.11974239155275332   0.05842057991860197   0.0018241226626141555
-0.49235508262534117   -0.02094860125513659   -0.016468075936887813
-0.49235508262534117   -0.02094860125513659   -0.016468075936887813
-0.49235508262534117   -0.02094860125513659   -0.016468075936887813
-0.49235508262534117   -0.02094860125513659   -0.016468075936887813
-0.3076601192639352   0.0006926600098998842   0.004112428812113385
-0.3076601192639352   0.0006926600098998842   0.004112428812113385
-0.3076601192639352   0.0006926600098998842   0.004112428812113385
-0.3076601192639352   0.0006926600098998842   0.004112428812113385
-0.4905246153656784   -0.01812796462937076   -0.010136376264339744
-0.4905246153656784   -0.01812796462937076   -0.010136376264339744
-0.4905246153656784   -0.01812796462937076   -0.010136376264339744
-0.4905246153656784   -0.01812796462937076   -0.010136376264339744
-0.11886845741705877   0.058304344688196216   0.0063100285714938475
-0.11886845741705877   0.058304344688196216   0.0063100285714938475
-0.11886845741705877   0.058304344688196216   0.0063100285714938475
-0.11886845741705877   0.058304344688196216   0.0063100285714938475
-0.11328956965721454   0.0978112970877619   -0.004265408563834498
-0.11328956965721454   0.0978112970877619   -0.004265408563834498
-0.11328956965721454   0.0978112970877619   -0.004265408563834498
-0.11328956965721454   0.0978112970877619   -0.004265408563834498
-0.48712175681666947   0.014358576478002302   -0.023659674654764457
-0.48712175681666947   0.014358576478002302   -0.023659674654764457
-0.48712175681666947   0.014358576478002302   -0.023659674654764457
-0.48712175681666947   0.014358576478002302   -0.023659674654764457
-0.30064550418674074   0.03575129118782629   0.01739500057477969
-0.30064550418674074   0.03575129118782629   0.01739500057477969
-0.30064550418674074   0.03575129118782629   0.01739500057477969
-0.30064550418674074   0.03575129118782629   0.01739500057477969
-0.16076327232008808   -0.11677074697464884   -0.027033113031764863
-0.16076327232008808   -0.11677074697464884   -0.027033113031764863
-0.16076327232008808   -0.11677074697464884   -0.027033113031764863
-0.16076327232008808   -0.11677074697464884   -0.027033113031764863
0.22834865984172678   0.018103968766879044   0.04454318250433298
0.22834865984172678   0.018103968766879044   0.04454318250433298
0.22834865984172678   0.018103968766879044   0.04454318250433298
0.22834865984172678   0.018103968766879044   0.04454318250433298
0.21241321951037076   -0.006368616578476816   -0.024855574935073985
0.21241321951037076   -0.006368616578476816   -0.024855574935073985
0.21241321951037076   -0.006368616578476816   -0.024855574935073985
0.21241321951037076   -0.006368616578476816   -0.024855574935073985
-0.1343749592493341   -0.027102076310385102   0.0165029251141303
-0.1343749592493341   -0.027102076310385102   0.0165029251141303
-0.1343749592493341   -0.027102076310385102   0.0165029251141303
-0.1343749592493341   -0.027102076310385102   0.0165029251141303
0.034962261938051215   -0.03211775886110899   -0.006887092340703789
0.034962261938051215   -0.03211775886110899   -0.006887092340703789
0.034962261938051215   -0.03211775886110899   -0.006887092340703789
0.034962261938051215   -0.03211775886110899   -0.006887092340703789
-0.1552256045956734   -0.08157978499855095   -0.03327259292940045
-0.1552256045956734   -0.08157978499855095   -0.03327259292940045
-0.1552256045956734   -0.08157978499855095   -0.03327259292940045
-0.1552256045956734   -0.08157978499855095   -0.03327259292940045
0.23674961564968172   0.05159484290266002   0.0388629462803401
0.23674961564968172   0.05159484290266002   0.0388629462803401
0.23674961564968172   0.05159484290266002   0.0388629462803401
0.23674961564968172   0.05159484290266002   0.0388629462803401
0.2257965363517334   0.030360285303057344   -0.028161324326052836
0.2257965363517334   0.030360285303057344   -0.028161324326052836
0.2257965363517334   0.030360285303057344   -0.028161324326052836
0.2257965363517334   0.030360285303057344   -0.028161324326052836
-0.12918418331136397   0.004111474675288024   0.008924269112876122
-0.12918418331136397   0.004111474675288024   0.008924269112876122
-0.12918418331136397   0.004111474675288024   0.008924269112876122
-0.12918418331136397   0.004111474675288024   0.008924269112876122
0.042081005856506856   -0.00047964991700345967   0.007138629659156043
0.042081005856506856   -0.00047964991700345967   0.007138629659156043
0.042081005856506856   -0.00047964991700345967   0.007138629659156043
0.042081005856506856   -0.00047964991700345967   0.007138629659156043
-0.14930606650778033   -0.04711892070201546   -0.04045475149190313
-0.14930606650778033   -0.04711892070201546   -0.04045475149190313
-0.14930606650778033   -0.04711892070201546   -0.04045475149190313
-0.14930606650778033   -0.04711892070201546   -0.04045475149190313
0.24894143706345584   0.08461369819566614   0.03330976633994688
0.24894143706345584   0.08461369819566614   0.03330976633994688
0.24894143706345584   0.08461369819566614   0.03330976633994688
0.24894143706345584   0.08461369819566614   0.03330976633994688
0.2365735416894487   0.07222308766191587   -0.03254160559741726
0.2365735416894487   0.07222308766191587   -0.03254160559741726
0.2365735416894487   0.07222308766191587   -0.03254160559741726
0.2365735416894487   0.07222308766191587   -0.03254160559741726
-0.12363654549938263   0.04009622274641324   0.0017147865666724792
-0.12363654549938263   0.04009622274641324   0.0017147865666724792
-0.12363654549938263   0.04009622274641324   0.0017147865666724792
-0.12363654549938263   0.04009622274641324   0.0017147865666724792
0.05307797248129362   0.033937302527389364   0.021662845000541057
0.05307797248129362   0.033937302527389364   0.021662845000541057
0.05307797248129362   0.033937302527389364   0.021662845000541057
0.05307797248129362   0.033937302527389364   0.021662845000541057
0.18155026800464036   -0.11799197166141082   -0.053352836252807255
0.18155026800464036   -0.11799197166141082   -0.053352836252807255
0.18155026800464036   -0.11799197166141082   -0.053352836252807255
0.18155026800464036   -0.11799197166141082   -0.053352836252807255
0.5469391687181001   0.05393207922048182   0.0576941309997505
0.5469391687181001   0.05393207922048182   0.0576941309997505
0.5469391687181001   0.05393207922048182   0.0576941309997505
0.5469391687181001   0.05393207922048182   0.0576941309997505
0.5414837164538296   -0.029014367938065416   -0.07023763836756566
0.5414837164538296   -0.029014367938065416   -0.07023763836756566
0.5414837164538296   -0.029014367938065416   -0.07023763836756566
0.5414837164538296   -0.029014367938065416   -0.07023763836756566
0.22922569818135333   0.00978367118539638   0.04305453065596175
0.22922569818135333   0.00978367118539638   0.04305453065596175
0.22922569818135333   0.00978367118539638   0.04305453065596175
0.22922569818135333   0.00978367118539638   0.04305453065596175
0.35526182013537   -0.024410156521384827   -0.018775420344471903
0.35526182013537   -0.024410156521384827   -0.018775420344471903
0.35526182013537   -0.024410156521384827   -0.018775420344471903
0.35526182013537   -0.024410156521384827   -0.018775420344471903
0.18665998862222044   -0.0982747125181151   -0.061715633436189535
0.18665998862222044   -0.0982747125181151   -0.061715633436189535
0.18665998862222044   -0.0982747125181151   -0.061715633436189535
0.18665998862222044   -0.0982747125181151   -0.061715633436189535
0.587603376850721   0.08259796660320341   0.048748329075629385
0.587603376850721   0.08259796660320341   0.048748329075629385
0.587603376850721   0.08259796660320341   0.048748329075629385
0.587603376850721   0.08259796660320341   0.048748329075629385
0.5710682346503814   -0.008438971651984581   -0.08424002960116056
0.5710682346503814   -0.008438971651984581   -0.08424002960116056
0.5710682346503814   -0.008438971651984581   -0.08424002960116056
0.5710682346503814   -0.008438971651984581   -0.08424002960116056
0.2370425693109438   0.024855464450827   0.03357366132222591
0.2370425693109438   0.024855464450827   0.03357366132222591
0.2370425693109438   0.024855464450827   0.03357366132222591
0.2370425693109438   0.024855464450827   0.03357366132222591
0.38514729740674514   -0.0036629409137791807   -0.002251770260705808
0.38514729740674514   -0.0036629409137791807   -0.002251770260705808
0.38514729740674514   -0.0036629409137791807   -0.002251770260705808
0.38514729740674514   -0.0036629409137791807   -0.002251770260705808
0.194811509026615   -0.08115628832185331   -0.07156988732673783
0.194811509026615   -0.08115628832185331   -0.07156988732673783
0.194811509026615   -0.08115628832185331   -0.07156988732673783
0.194811509026615   -0.08115628832185331   -0.07156988732673783
0.6170027959979091   0.10127628218389648   0.03571752330060813
0.6170027959979091   0.10127628218389648   0.03571752330060813
0.6170027959979091   0.10127628218389648   0.03571752330060813
0.6170027959979091   0.10127628218389648   0.03571752330060813
0.6164951615698975   0.036746192577348014   -0.09017769358425673
0.6164951615698975   0.036746192577348014   -0.09017769358425673
0.6164951615698975   0.036746192577348014   -0.09017769358425673
0.6164951615698975   0.036746192577348014   -0.09017769358425673
0.24504216739446275   0.05534786485212654   0.026676745737440343
0.24504216739446275   0.05534786485212654   0.026676745737440343
0.24504216739446275   0.05534786485212654   0.026676745737440343
0.24504216739446275   0.05534786485212654   0.026676745737440343
0.4000516881005987   0.019202845884131944   0.011968567151409249
0.4000516881005987   0.019202845884131944   0.011968567151409249
0.4000516881005987   0.019202845884131944   0.011968567151409249
0.4000516881005987   0.019202845884131944   0.011968567151409249
-0.7370390281455426   -0.01234384003579081   0.07198630228382696
-0.7370390281455426   -0.01234384003579081   0.07198630228382696
-0.7370390281455426   -0.01234384003579081   0.07198630228382696
-0.7370390281455426   -0.01234384003579081   0.07198630228382696
-0.5749568435209494   -0.07298590270608944   -0.035610528967680424
-0.5749568435209494   -0.07298590270608944   -0.035610528967680424
-0.5749568435209494   -0.07298590270608944   -0.035610528967680424
-0.5749568435209494   -0.07298590270608944   -0.035610528967680424
-0.5204353068818739   0.06183115341804074   0.061555020624514005
-0.5204353068818739   0.06183115341804074   0.061555020624514005
-0.5204353068818739   0.06183115341804074   0.061555020624514005
-0.5204353068818739   0.06183115341804074   0.061555020624514005
-0.7339285592128811   -0.07995027519984   -0.04847163747814001
-0.7339285592128811   -0.07995027519984   -0.04847163747814001
-0.7339285592128811   -0.07995027519984   -0.04847163747814001
-0.7339285592128811   -0.07995027519984   -0.04847163747814001
-0.6170369535152556   -0.01698023230132112   -0.009090842682475245
-0.6170369535152556   -0.01698023230132112   -0.009090842682475245
-0.6170369535152556   -0.01698023230132112   -0.009090842682475245
-0.6170369535152556   -0.01698023230132112   -0.009090842682475245
-0.6885588749067663   0.029650614548898724   0.06877589430369618
-0.6885588749067663   0.029650614548898724   0.06877589430369618
-0.6885588749067663   0.029650614548898724   0.06877589430369618
-0.6885588749067663   0.029650614548898724   0.06877589430369618
-0.5626523722596664   -0.04461711740237485   -0.043082035444029054
-0.5626523722596664   -0.04461711740237485   -0.043082035444029054
-0.5626523722596664   -0.04461711740237485   -0.043082035444029054
-0.5626523722596664   -0.04461711740237485   -0.043082035444029054
-0.5075263605641018   0.07786742913004377   0.05206353953723527
-0.5075263605641018   0.07786742913004377   0.05206353953723527
-0.5075263605641018   0.07786742913004377   0.05206353953723527
-0.5075263605641018   0.07786742913004377   0.05206353953723527
-0.7002391080227336   -0.0617781355964689   -0.06056026760934087
-0.7002391080227336   -0.0617781355964689   -0.06056026760934087
-0.7002391080227336   -0.0617781355964689   -0.06056026760934087
-0.7002391080227336   -0.0617781355964689   -0.06056026760934087
-0.599425638191697   0.004009882573429713   0.004304157428170544
-0.599425638191697   0.004009882573429713   0.004304157428170544
-0.599425638191697   0.004009882573429713   0.004304157428170544
-0.599425638191697   0.004009882573429713   0.004304157428170544
-0.6548355988786086   0.049107251718881945   0.05557189079593302
-0.6548355988786086   0.049107251718881945   0.05557189079593302
-0.6548355988786086   0.049107251718881945   0.05557189079593302
-0.6548355988786086   0.049107251718881945   0.05557189079593302
-0.5499458684056414   -0.03003395688272105   -0.05213261365769377
-0.5499458684056414   -0.03003395688272105   -0.05213261365769377
-0.5499458684056414   -0.03003395688272105   -0.05213261365769377
-0.5499458684056414   -0.03003395688272105   -0.05213261365769377
-0.4970709762349114   0.0978397006249955   0.04490216188408711
-0.4970709762349114   0.0978397006249955   0.04490216188408711
-0.4970709762349114   0.0978397006249955   0.04490216188408711
-0.4970709762349114   0.0978397006249955   0.04490216188408711
-0.6549785820632276   -0.032685228194201874   -0.07008429185774774
-0.6549785820632276   -0.032685228194201874   -0.07008429185774774
-0.6549785820632276   -0.032685228194201874   -0.07008429185774774
-0.6549785820632276   -0.032685228194201874   -0.07008429185774774
-0.5638819504789112   0.024706506894236036   0.02092342217954575
-0.5638819504789112   0.024706506894236036   0.02092342217954575
-0.5638819504789112   0.024706506894236036   0.02092342217954575
-0.5638819504789112   0.024706506894236036   0.02092342217954575
-0.5547967918672115   -0.04176055529076317   0.03396438188568264
-0.5547967918672115   -0.04176055529076317   0.03396438188568264
-0.5547967918672115   -0.04176055529076317   0.03396438188568264
-0.5547967918672115   -0.04176055529076317   0.03396438188568264
-0.4073531280757429   -0.05533641668535139   -0.010542961811374962
-0.4073531280757429   -0.05533641668535139   -0.010542961811374962
-0.4073531280757429   -0.05533641668535139   -0.010542961811374962
-0.4073531280757429   -0.05533641668535139   -0.010542961811374962
-0.3769543172363236   0.028088367620739227   0.03146838910245253
-0.3769543172363236   0.028088367620739227   0.03146838910245253
-0.3769543172363236   0.028088367620739227   0.03146838910245253
-0.3769543172363236   0.028088367620739227   0.03146838910245253
-0.5630012888582796   -0.05901791528794555   -0.030425820551516925
-0.5630012888582796   -0.05901791528794555   -0.030425820551516925
-0.5630012888582796   -0.05901791528794555   -0.030425820551516925
-0.5630012888582796   -0.05901791528794555   -0.030425820551516925
-0.47421414735322936   -0.02948323089911252   -0.0127752689294993
-0.47421414735322936   -0.02948323089911252   -0.0127752689294993
-0.47421414735322936   -0.02948323089911252   -0.0127752689294993
-0.47421414735322936   -0.02948323089911252   -0.0127752689294993
-0.5403525799138841   -0.005104167465635467   0.02890397634813953
-0.5403525799138841   -0.005104167465635467   0.02890397634813953
-0.5403525799138841   -0.005104167465635467   0.02890397634813953
-0.5403525799138841   -0.005104167465635467   0.02890397634813953
-0.3970603180660286   -0.023282672086887238   -0.017690575338445803
-0.3970603180660286   -0.023282672086887238   -0.017690575338445803
-0.3970603180660286   -0.023282672086887238   -0.017690575338445803
-0.3970603180660286   -0.023282672086887238   -0.017690575338445803
-0.36582310133294427   0.060706891582477635   0.025169418889114413
-0.36582310133294427   0.060706891582477635   0.025169418889114413
-0.36582310133294427   0.060706891582477635   0.025169418889114413
-0.36582310133294427   0.060706891582477635   0.025169418889114413
-0.5463291452946301   -0.027657490345677063   -0.03642546463968145
-0.5463291452946301   -0.027657490345677063   -0.03642546463968145
-0.5463291452946301   -0.027657490345677063   -0.03642546463968145
-0.5463291452946301   -0.027657490345677063   -0.03642546463968145
-0.45811755999157733   0.0019674940636464633   0.001311068141825876
-0.45811755999157733   0.0019674940636464633   0.001311068141825876
-0.45811755999157733   0.0019674940636464633   0.001311068141825876
-0.45811755999157733   0.0019674940636464633   0.001311068141825876
-0.5223511589202554   0.0296073263870789   0.026199650499431924
-0.5223511589202554   0.0296073263870789   0.026199650499431924
-0.5223511589202554   0.0296073263870789   0.026199650499431924
-0.5223511589202554   0.0296073263870789   0.026199650499431924
-0.3868656511162965   0.006377511440742764   -0.02571394988591592
-0.3868656511162965   0.006377511440742764   -0.02571394988591592
-0.3868656511162965   0.006377511440742764   -0.02571394988591592
-0.3868656511162965   0.006377511440742764   -0.02571394988591592
-0.35472732368482457   0.09611213099747395   0.019169922875498846
-0.35472732368482457   0.09611213099747395   0.019169922875498846
-0.35472732368482457   0.09611213099747395   0.019169922875498846
-0.35472732368482457   0.09611213099747395   0.019169922875498846
-0.5325666180220798   0.0065946881480718755   -0.041331034574823636
-0.5325666180220798   0.0065946881480718755   -0.041331034574823636
-0.5325666180220798   0.0065946881480718755   -0.041331034574823636
-0.5325666180220798   0.0065946881480718755   -0.041331034574823636
-0.4464773364799629   0.03279890322287622   0.01508918053983152
-0.4464773364799629   0.03279890322287622   0.01508918053983152
-0.4464773364799629   0.03279890322287622   0.01508918053983152
-0.4464773364799629   0.03279890322287622   0.01508918053983152
-0.40686397691407794   -0.06941867194263378   0.005985049254226678
-0.40686397691407794   -0.06941867194263378   0.005985049254226678
-0.40686397691407794   -0.06941867194263378   0.005985049254226678
-0.40686397691407794   -0.06941867194263378   0.005985049254226678
-0.24200837485099627   -0.029200867199336577   0.014945968571444479
-0.24200837485099627   -0.029200867199336577   0.014945968571444479
-0.24200837485099627   -0.029200867199336577   0.014945968571444479
-0.24200837485099627   -0.029200867199336577   0.014945968571444479
-0.2337229481215693   -0.0006283463941122377   0.0019280733229378299
-0.2337229481215693   -0.0006283463941122377   0.0019280733229378299
-0.2337229481215693   -0.0006283463941122377   0.0019280733229378299
-0.2337229481215693   -0.0006283463941122377   0.0019280733229378299
-0.39590079777998305   -0.031658694649960746   -0.0035169513451448597
-0.39590079777998305   -0.031658694649960746   -0.0035169513451448597
-0.39590079777998305   -0.031658694649960746   -0.0035169513451448597
-0.39590079777998305   -0.031658694649960746   -0.0035169513451448597
-0.3201325340926316   -0.031195813607324353   -0.009303831293172466
-0.3201325340926316   -0.031195813607324353   -0.009303831293172466
-0.3201325340926316   -0.031195813607324353   -0.009303831293172466
-0.3201325340926316   -0.031195813607324353   -0.009303831293172466
-0.3954276069219521   -0.03326402596647497   0.00045433426152231837
-0.3954276069219521   -0.03326402596647497   0.00045433426152231837
-0.3954276069219521   -0.03326402596647497   0.00045433426152231837
-0.3954276069219521   -0.03326402596647497   0.00045433426152231837
-0.23166744934908928   0.0035056745529101   0.008071546238315535
-0.23166744934908928   0.0035056745529101   0.008071546238315535
-0.23166744934908928   0.0035056745529101   0.008071546238315535
-0.23166744934908928   0.0035056745529101   0.008071546238315535
-0.22163184346568243   0.03584598978496537   -0.003218359896052101
-0.22163184346568243   0.03584598978496537   -0.003218359896052101
-0.22163184346568243   0.03584598978496537   -0.003218359896052101
-0.22163184346568243   0.03584598978496537   -0.003218359896052101
-0.38474921837467496   0.0015146218714435777   -0.010268896608508916
-0.38474921837467496   0.0015146218714435777   -0.010268896608508916
-0.38474921837467496   0.0015146218714435777   -0.010268896608508916
-0.38474921837467496   0.0015146218714435777   -0.010268896608508916
-0.3073785362135048   0.0015963635863721626   0.004357045056312146
-0.3073785362135048   0.0015963635863721626   0.004357045056312146
-0.3073785362135048   0.0015963635863721626   0.004357045056312146
-0.3073785362135048   0.0015963635863721626   0.004357045056312146
-0.3834123505107672   0.0030996443930435963   -0.005169579810576131
-0.3834123505107672   0.0030996443930435963   -0.005169579810576131
-0.3834123505107672   0.0030996443930435963   -0.005169579810576131
-0.3834123505107672   0.0030996443930435963   -0.005169579810576131
-0.2206818577850546   0.03654782080790023   0.0008297374841540126
-0.2206818577850546   0.03654782080790023   0.0008297374841540126
-0.2206818577850546   0.03654782080790023   0.0008297374841540126
-0.2206818577850546   0.03654782080790023   0.0008297374841540126
-0.21021139252338392   0.0726548945730491   -0.00908844847280061
-0.21021139252338392   0.0726548945730491   -0.00908844847280061
-0.21021139252338392   0.0726548945730491   -0.00908844847280061
-0.21021139252338392   0.0726548945730491   -0.00908844847280061
-0.3742921988962513   0.034943699621580004   -0.01748602180573905
-0.3742921988962513   0.034943699621580004   -0.01748602180573905
-0.3742921988962513   0.034943699621580004   -0.01748602180573905
-0.3742921988962513   0.034943699621580004   -0.01748602180573905
-0.295314968309895   0.03450632387322128   0.017468087074566332
-0.295314968309895   0.03450632387322128   0.017468087074566332
-0.295314968309895   0.03450632387322128   0.017468087074566332
-0.295314968309895   0.03450632387322128   0.017468087074566332
-0.262307124438313   -0.09340462825240958   -0.02234401831207038
-0.262307124438313   -0.09340462825240958   -0.02234401831207038
-0.262307124438313   -0.09340462825240958   -0.02234401831207038
-0.262307124438313   -0.09340462825240958   -0.02234401831207038
-0.08131766616460027   -0.0014513677611704611   0.03918647792273003
-0.08131766616460027   -0.0014513677611704611   0.03918647792273003
-0.08131766616460027   -0.0014513677611704611   0.03918647792273003
-0.08131766616460027   -0.0014513677611704611   0.03918647792273003
-0.09243645867341643   -0.02777280021712701   -0.02878919499549688
-0.09243645867341643   -0.02777280021712701   -0.02878919499549688
-0.09243645867341643   -0.02777280021712701   -0.02878919499549688
-0.09243645867341643   -0.02777280021712701   -0.02878919499549688
-0.23020936797054486   -0.003565263086213896   0.022432890770159294
-0.23020936797054486   -0.003565263086213896   0.022432890770159294
-0.23020936797054486   -0.003565263086213896   0.022432890770159294
-0.23020936797054486   -0.003565263086213896   0.022432890770159294
-0.16653685474802213   -0.030172104770564725   -0.006714441527339926
-0.16653685474802213   -0.030172104770564725   -0.006714441527339926
-0.16653685474802213   -0.030172104770564725   -0.006714441527339926
-0.16653685474802213   -0.030172104770564725   -0.006714441527339926
-0.25153345352016315   -0.059487433500172215   -0.028265366563976154
-0.25153345352016315   -0.059487433500172215   -0.028265366563976154
-0.25153345352016315   -0.059487433500172215   -0.028265366563976154
-0.25153345352016315   -0.059487433500172215   -0.028265366563976154
-0.0682790909034914   0.030982652417137664   0.03324219121986364
-0.0682790909034914   0.030982652417137664   0.03324219121986364
-0.0682790909034914   0.030982652417137664   0.03324219121986364
-0.0682790909034914   0.030982652417137664   0.03324219121986364
-0.0747523204380805   0.0067309495039797294   -0.03241021961694879
-0.0747523204380805   0.0067309495039797294   -0.03241021961694879
-0.0747523204380805   0.0067309495039797294   -0.03241021961694879
-0.0747523204380805   0.0067309495039797294   -0.03241021961694879
-0.21992039626414148   0.026220869959912435   0.014963995936705565
-0.21992039626414148   0.026220869959912435   0.014963995936705565
-0.21992039626414148   0.026220869959912435   0.014963995936705565
-0.21992039626414148   0.026220869959912435   0.014963995936705565
-0.1529682261266463   0.00037035070504370937   0.007207683288608345
-0.1529682261266463   0.00037035070504370937   0.007207683288608345
-0.1529682261266463   0.00037035070504370937   0.007207683288608345
-0.1529682261266463   0.00037035070504370937   0.007207683288608345
-0.24056754698377944   -0.026966857851737712   -0.035084029849837065
-0.24056754698377944   -0.026966857851737712   -0.035084029849837065
-0.24056754698377944   -0.026966857851737712   -0.035084029849837065
-0.24056754698377944   -0.026966857851737712   -0.035084029849837065
-0.051467671300396915   0.06255617573368043   0.02818779984177032
-0.051467671300396915   0.06255617573368043   0.02818779984177032
-0.051467671300396915   0.06255617573368043   0.02818779984177032
-0.051467671300396915   0.06255617573368043   0.02818779984177032
-0.05979399432560381   0.04526017057545624   -0.036308025461906646
-0.05979399432560381   0.04526017057545624   -0.036308025461906646
-0.05979399432560381   0.04526017057545624   -0.036308025461906646
-0.05979399432560381   0.04526017057545624   -0.036308025461906646
-0.20938721628583606   0.05992352138797538   0.007763805900012365
-0.20938721628583606   0.05992352138797538   0.007763805900012365
-0.20938721628583606   0.05992352138797538   0.007763805900012365
-0.20938721628583606   0.05992352138797538   0.007763805900012365
-0.1389244652649499   0.03220630857464602   0.021131124187346507
-0.1389244652649499   0.03220630857464602   0.021131124187346507
-0.1389244652649499   0.03220630857464602   0.021131124187346507
-0.1389244652649499   0.03220630857464602   0.021131124187346507
-0.11866685464670093   -0.10044176508518135   -0.04856906716376426
-0.11866685464670093   -0.10044176508518135   -0.04856906716376426
-0.11866685464670093   -0.10044176508518135   -0.04856906716376426
-0.11866685464670093   -0.10044176508518135   -0.04856906716376426
0.03999785602341463   0.029674108019022948   0.05975978443933024
0.03999785602341463   0.029674108019022948   0.05975978443933024
0.03999785602341463   0.029674108019022948   0.05975978443933024
0.03999785602341463   0.029674108019022948   0.05975978443933024
0.04029278747775472   -0.0494772180260403   -0.06431700469762301
0.04029278747775472   -0.0494772180260403   -0.06431700469762301
0.04029278747775472   -0.0494772180260403   -0.06431700469762301
0.04029278747775472   -0.0494772180260403   -0.06431700469762301
-0.0651425153475011   0.03099661648214075   0.04891110493481211
-0.0651425153475011   0.03099661648214075   0.04891110493481211
-0.0651425153475011   0.03099661648214075   0.04891110493481211
-0.0651425153475011   0.03099661648214075   0.04891110493481211
-0.027181351364725683   -0.02132943634337534   -0.011359396369055284
-0.027181351364725683   -0.02132943634337534   -0.011359396369055284
-0.027181351364725683   -0.02132943634337534   -0.011359396369055284
-0.027181351364725683   -0.02132943634337534   -0.011359396369055284
-0.1077707107043779   -0.07739430649702403   -0.05583894887040902
-0.1077707107043779   -0.07739430649702403   -0.05583894887040902
-0.1077707107043779   -0.07739430649702403   -0.05583894887040902
-0.1077707107043779   -0.07739430649702403   -0.05583894887040902
0.08594994549422683   0.06194266761271946   0.05254889974597775
0.08594994549422683   0.06194266761271946   0.05254889974597775
0.08594994549422683   0.06194266761271946   0.05254889974597775
0.08594994549422683   0.06194266761271946   0.05254889974597775
0.07415607852963424   -0.029717407033047812   -0.07640420531583858
0.07415607852963424   -0.029717407033047812   -0.07640420531583858
0.07415607852963424   -0.029717407033047812   -0.07640420531583858
0.07415607852963424   -0.029717407033047812   -0.07640420531583858
-0.0527040049745826   0.04533469106858702   0.03922761613593527
-0.0527040049745826   0.04533469106858702   0.03922761613593527
-0.0527040049745826   0.04533469106858702   0.03922761613593527
-0.0527040049745826   0.04533469106858702   0.03922761613593527
0.0006587008295058102   -0.000998355774581334   0.0037269629708207965
0.0006587008295058102   -0.000998355774581334   0.0037269629708207965
0.0006587008295058102   -0.000998355774581334   0.0037269629708207965
0.0006587008295058102   -0.000998355774581334   0.0037269629708207965
-0.094759696680453   -0.06113579273071989   -0.06458035859411171
-0.094759696680453   -0.06113579273071989   -0.06458035859411171
-0.094759696680453   -0.06113579273071989   -0.06458035859411171
-0.094759696680453   -0.06113579273071989   -0.06458035859411171
0.11924369378814391   0.07978500031889806   0.039531463624763924
0.11924369378814391   0.07978500031889806   0.039531463624763924
0.11924369378814391   0.07978500031889806   0.039531463624763924
0.11924369378814391   0.07978500031889806   0.039531463624763924
0.12161427087404246   0.008962342467047503   -0.08182296966753459
0.12161427087404246   0.008962342467047503   -0.08182296966753459
0.12161427087404246   0.008962342467047503   -0.08182296966753459
0.12161427087404246   0.008962342467047503   -0.08182296966753459
-0.04108403210373236   0.07062388640711609   0.03187806981579075
-0.04108403210373236   0.07062388640711609   0.03187806981579075
-0.04108403210373236   0.07062388640711609   0.03187806981579075
-0.04108403210373236   0.07062388640711609   0.03187806981579075
0.0257490391322696   0.020361983091770643   0.018474560799393695
0.0257490391322696   0.020361983091770643   0.018474560799393695
0.0257490391322696   0.020361983091770643   0.018474560799393695
0.0257490391322696   0.020361983091770643   0.018474560799393695
-0.244107264764251   0.013961098051142845   0.0682748960617826
-0.244107264764251   0.013961098051142845   0.0682748960617826
-0.244107264764251   0.013961098051142845   0.0682748960617826
-0.244107264764251   0.013961098051142845   0.0682748960617826
-0.29026143510253494   -0.08900256373609841   -0.04023489759049853
-0.29026143510253494   -0.08900256373609841   -0.04023489759049853
-0.29026143510253494   -0.08900256373609841   -0.04023489759049853
-0.29026143510253494   -0.08900256373609841   -0.04023489759049853
-0.23173748583216333   0.04136288707728178   0.05590310052675104
-0.23173748583216333   0.04136288707728178   0.05590310052675104
-0.23173748583216333   0.04136288707728178   0.05590310052675104
-0.23173748583216333   0.04136288707728178   0.05590310052675104
-0.23704803711494318   -0.0585225663053327   -0.05184967870901948
-0.23704803711494318   -0.0585225663053327   -0.05184967870901948
-0.23704803711494318   -0.0585225663053327   -0.05184967870901948
-0.23704803711494318   -0.0585225663053327   -0.05184967870901948
-0.24445060609969538   -0.018802599647223958   -0.018678205567956505
-0.24445060609969538   -0.018802599647223958   -0.018678205567956505
-0.24445060609969538   -0.018802599647223958   -0.018678205567956505
-0.24445060609969538   -0.018802599647223958   -0.018678205567956505
-0.19208927977650606   0.050830180432190154   0.06359136124563568
-0.19208927977650606   0.050830180432190154   0.06359136124563568
-0.19208927977650606   0.050830180432190154   0.06359136124563568
-0.19208927977650606   0.050830180432190154   0.06359136124563568
-0.27387827643955714   -0.06517189292919334   -0.04826607250373934
-0.27387827643955714   -0.06517189292919334   -0.04826607250373934
-0.27387827643955714   -0.06517189292919334   -0.04826607250373934
-0.27387827643955714   -0.06517189292919334   -0.04826607250373934
-0.2136861978960218   0.05705356722143394   0.04704533635346163
-0.2136861978960218   0.05705356722143394   0.04704533635346163
-0.2136861978960218   0.05705356722143394   0.04704533635346163
-0.2136861978960218   0.05705356722143394   0.04704533635346163
-0.19836799980052916   -0.04079005928334169   -0.06458640765456444
-0.19836799980052916   -0.04079005928334169   -0.06458640765456444
-0.19836799980052916   -0.04079005928334169   -0.06458640765456444
-0.19836799980052916   -0.04079005928334169   -0.06458640765456444
-0.2159153548238189   0.0012439551968722665   -0.003889504228088689
-0.2159153548238189   0.0012439551968722665   -0.003889504228088689
-0.2159153548238189   0.0012439551968722665   -0.003889504228088689
-0.2159153548238189   0.0012439551968722665   -0.003889504228088689
-0.1531501710911395   0.06991186719460414   0.05080080941443031
-0.1531501710911395   0.06991186719460414   0.05080080941443031
-0.1531501710911395   0.06991186719460414   0.05080080941443031
-0.1531501710911395   0.06991186719460414   0.05080080941443031
-0.2562466990764466   -0.05099103172754258   -0.05771257059968214
-0.2562466990764466   -0.05099103172754258   -0.05771257059968214
-0.2562466990764466   -0.05099103172754258   -0.05771257059968214
-0.2562466990764466   -0.05099103172754258   -0.05771257059968214
-0.197172107080349   0.08101949080281788   0.0406328281444725
-0.197172107080349   0.08101949080281788   0.0406328281444725
-0.197172107080349   0.08101949080281788   0.0406328281444725
-0.197172107080349   0.08101949080281788   0.0406328281444725
-0.14673707692697724   -0.007083075390249292   -0.07275779305395223
-0.14673707692697724   -0.007083075390249292   -0.07275779305395223
-0.14673707692697724   -0.007083075390249292   -0.07275779305395223
-0.14673707692697724   -0.007083075390249292   -0.07275779305395223
-0.18161037204260214   0.02218920228776057   0.011943731298464018
-0.18161037204260214   0.02218920228776057   0.011943731298464018
-0.18161037204260214   0.02218920228776057   0.011943731298464018
-0.18161037204260214   0.02218920228776057   0.011943731298464018
-0.259843041605296   -0.015962421497561975   0.03881692765715576
-0.259843041605296   -0.015962421497561975   0.03881692765715576
-0.259843041605296   -0.015962421497561975   0.03881692765715576
-0.259843041605296   -0.015962421497561975   0.03881692765715576
-0.3225991980409054   -0.07259884221982814   -0.015719698999759397
-0.3225991980409054   -0.07259884221982814   -0.015719698999759397
-0.3225991980409054   -0.07259884221982814   -0.015719698999759397
-0.3225991980409054   -0.07259884221982814   -0.015719698999759397
-0.28760448373349345   0.0073348124230668   0.025941012878758576
-0.28760448373349345   0.0073348124230668   0.025941012878758576
-0.28760448373349345   0.0073348124230668   0.025941012878758576
-0.28760448373349345   0.0073348124230668   0.025941012878758576
-0.2628094432057337   -0.03429151066658054   -0.02380228859723471
-0.2628094432057337   -0.03429151066658054   -0.02380228859723471
-0.2628094432057337   -0.03429151066658054   -0.02380228859723471
-0.2628094432057337   -0.03429151066658054   -0.02380228859723471
-0.28341652325217526   -0.026665611686711943   -0.013145273725902556
-0.28341652325217526   -0.026665611686711943   -0.013145273725902556
-0.28341652325217526   -0.026665611686711943   -0.013145273725902556
-0.28341652325217526   -0.026665611686711943   -0.013145273725902556
-0.24075649009152406   0.018292001530962346   0.03387896477626687
-0.24075649009152406   0.018292001530962346   0.03387896477626687
-0.24075649009152406   0.018292001530962346   0.03387896477626687
-0.24075649009152406   0.018292001530962346   0.03387896477626687
-0.30745026245631885   -0.04304152538309826   -0.022911542929207416
-0.30745026245631885   -0.04304152538309826   -0.022911542929207416
-0.30745026245631885   -0.04304152538309826   -0.022911542929207416
-0.30745026245631885   -0.04304152538309826   -0.022911542929207416
-0.2714863289786226   0.038554497109107605   0.019791656318234357
-0.2714863289786226   0.038554497109107605   0.019791656318234357
-0.2714863289786226   0.038554497109107605   0.019791656318234357
-0.2714863289786226   0.038554497109107605   0.019791656318234357
-0.24125524408671137   -0.004199366609344196   -0.029546960769200353
-0.24125524408671137   -0.004199366609344196   -0.029546960769200353
-0.24125524408671137   -0.004199366609344196   -0.029546960769200353
-0.24125524408671137   -0.004199366609344196   -0.029546960769200353
-0.26416255654192344   0.0024683949517589412   0.0005052348483339485
-0.26416255654192344   0.0024683949517589412   0.0005052348483339485
-0.26416255654192344   0.0024683949517589412   0.0005052348483339485
-0.26416255654192344   0.0024683949517589412   0.0005052348483339485
-0.21812975872301102   0.051369749820477456   0.030511349619472005
-0.21812975872301102   0.051369749820477456   0.030511349619472005
-0.21812975872301102   0.051369749820477456   0.030511349619472005
-0.21812975872301102   0.051369749820477456   0.030511349619472005
-0.29225914765136624   -0.01466195262975923   -0.030855987306620702
-0.29225914765136624   -0.01466195262975923   -0.030855987306620702
-0.29225914765136624   -0.01466195262975923   -0.030855987306620702
-0.29225914765136624   -0.01466195262975923   -0.030855987306620702
-0.2552899314704657   0.07310559450456226   0.013946810656014143
-0.2552899314704657   0.07310559450456226   0.013946810656014143
-0.2552899314704657   0.07310559450456226   0.013946810656014143
-0.2552899314704657   0.07310559450456226   0.013946810656014143
-0.22265481603402673   0.029195634853826667   -0.034956860674925094
-0.22265481603402673   0.029195634853826667   -0.034956860674925094
-0.22265481603402673   0.029195634853826667   -0.034956860674925094
-0.22265481603402673   0.029195634853826667   -0.034956860674925094
-0.245959487961936   0.03255171175760442   0.01439731196921764
-0.245959487961936   0.03255171175760442   0.01439731196921764
-0.245959487961936   0.03255171175760442   0.01439731196921764
-0.245959487961936   0.03255171175760442   0.01439731196921764
-0.311537610552925   -0.043915024008291254   0.010904420228599873
-0.311537610552925   -0.043915024008291254   0.010904420228599873
-0.311537610552925   -0.043915024008291254   0.010904420228599873
-0.311537610552925   -0.043915024008291254   0.010904420228599873
-0.35483279304065574   -0.045836637448144466   0.009508426322572084
-0.35483279304065574   -0.045836637448144466   0.009508426322572084
-0.35483279304065574   -0.045836637448144466   0.009508426322572084
-0.35483279304065574   -0.045836637448144466   0.009508426322572084
-0.3419157152078826   -0.020830576123463306   -0.0033614412847581387
-0.3419157152078826   -0.020830576123463306   -0.0033614412847581387
-0.3419157152078826   -0.020830576123463306   -0.0033614412847581387
-0.3419157152078826   -0.020830576123463306   -0.0033614412847581387
-0.29488292145003425   -0.006216406702715838   0.003100043421837298
-0.29488292145003425   -0.006216406702715838   0.003100043421837298
-0.29488292145003425   -0.006216406702715838   0.003100043421837298
-0.29488292145003425   -0.006216406702715838   0.003100043421837298
-0.3262809155481727   -0.027544339449463544   -0.008722868186625278
-0.3262809155481727   -0.027544339449463544   -0.008722868186625278
-0.3262809155481727   -0.027544339449463544   -0.008722868186625278
-0.3262809155481727   -0.027544339449463544   -0.008722868186625278
-0.2951210325856182   -0.009717279278183395   0.0054103603193770295
-0.2951210325856182   -0.009717279278183395   0.0054103603193770295
-0.2951210325856182   -0.009717279278183395   0.0054103603193770295
-0.2951210325856182   -0.009717279278183395   0.0054103603193770295
-0.33959658933932657   -0.015248688815019396   0.0026523007495811955
-0.33959658933932657   -0.015248688815019396   0.0026523007495811955
-0.33959658933932657   -0.015248688815019396   0.0026523007495811955
-0.33959658933932657   -0.015248688815019396   0.0026523007495811955
-0.3249842359885702   0.013815425489931032   -0.008529860902176452
-0.3249842359885702   0.013815425489931032   -0.008529860902176452
-0.3249842359885702   0.013815425489931032   -0.008529860902176452
-0.3249842359885702   0.013815425489931032   -0.008529860902176452
-0.2788191207580181   0.02521600336940985   -0.0035338088390456553
-0.2788191207580181   0.02521600336940985   -0.0035338088390456553
-0.2788191207580181   0.02521600336940985   -0.0035338088390456553
-0.2788191207580181   0.02521600336940985   -0.0035338088390456553
-0.30859302669774114   0.0034257534518853383   0.00475455468307627
-0.30859302669774114   0.0034257534518853383   0.00475455468307627
-0.30859302669774114   0.0034257534518853383   0.00475455468307627
-0.30859302669774114   0.0034257534518853383   0.00475455468307627
-0.27825564326085706   0.02480586051595178   -0.0003062784997858378
-0.27825564326085706   0.02480586051595178   -0.0003062784997858378
-0.27825564326085706   0.02480586051595178   -0.0003062784997858378
-0.27825564326085706   0.02480586051595178   -0.0003062784997858378
-0.32373246677236694   0.016040815056752755   -0.004496404387982347
-0.32373246677236694   0.016040815056752755   -0.004496404387982347
-0.32373246677236694   0.016040815056752755   -0.004496404387982347
-0.32373246677236694   0.016040815056752755   -0.004496404387982347
-0.30877195048971445   0.048672275646211974   -0.014363390089115996
-0.30877195048971445   0.048672275646211974   -0.014363390089115996
-0.30877195048971445   0.048672275646211974   -0.014363390089115996
-0.30877195048971445   0.048672275646211974   -0.014363390089115996
-0.2635086031486965   0.05677711220796616   -0.010818065438541684
-0.2635086031486965   0.05677711220796616   -0.010818065438541684
-0.2635086031486965   0.05677711220796616   -0.010818065438541684
-0.2635086031486965   0.05677711220796616   -0.010818065438541684
-0.29172318596331603   0.034452470719080516   0.017601310367454298
-0.29172318596331603   0.034452470719080516   0.017601310367454298
-0.29172318596331603   0.034452470719080516   0.017601310367454298
-0.29172318596331603   0.034452470719080516   0.017601310367454298
-0.3650294212203999   -0.0695777373014417   -0.017733614722857272
-0.3650294212203999   -0.0695777373014417   -0.017733614722857272
-0.3650294212203999   -0.0695777373014417   -0.017733614722857272
-0.3650294212203999   -0.0695777373014417   -0.017733614722857272
-0.3898123760186659   -0.01962593054333453   0.0336181380958845
-0.3898123760186659   -0.01962593054333453   0.0336181380958845
-0.3898123760186659   -0.01962593054333453   0.0336181380958845
-0.3898123760186659   -0.01962593054333453   0.0336181380958845
-0.3960886493891117   -0.04783665266452787   -0.03304477570284374
-0.3960886493891117   -0.04783665266452787   -0.03304477570284374
-0.3960886493891117   -0.04783665266452787   -0.03304477570284374
-0.3960886493891117   -0.04783665266452787   -0.03304477570284374
-0.32723356939009235   0.020852594282013637   0.028366117398716383
-0.32723356939009235   0.020852594282013637   0.028366117398716383
-0.32723356939009235   0.020852594282013637   0.028366117398716383
-0.32723356939009235   0.020852594282013637   0.028366117398716383
-0.3680053483336675   -0.02716713087709477   -0.005482051281705536
-0.3680053483336675   -0.02716713087709477   -0.005482051281705536
-0.3680053483336675   -0.02716713087709477   -0.005482051281705536
-0.3680053483336675   -0.02716713087709477   -0.005482051281705536
-0.3490598092648714   -0.036503689198120554   -0.023408798495047414
-0.3490598092648714   -0.036503689198120554   -0.023408798495047414
-0.3490598092648714   -0.036503689198120554   -0.023408798495047414
-0.3490598092648714   -0.036503689198120554   -0.023408798495047414
-0.3720803654927767   0.011701674837161821   0.02745831627714166
-0.3720803654927767   0.011701674837161821   0.02745831627714166
-0.3720803654927767   0.011701674837161821   0.02745831627714166
-0.3720803654927767   0.011701674837161821   0.02745831627714166
-0.3738998612657829   -0.014982834265584721   -0.03707506018913875
-0.3738998612657829   -0.014982834265584721   -0.03707506018913875
-0.3738998612657829   -0.014982834265584721   -0.03707506018913875
-0.3738998612657829   -0.014982834265584721   -0.03707506018913875
-0.3119881141140607   0.04920203366888391   0.02106414029141504
-0.3119881141140607   0.04920203366888391   0.02106414029141504
-0.3119881141140607   0.04920203366888391   0.02106414029141504
-0.3119881141140607   0.04920203366888391   0.02106414029141504
-0.3479085740535405   0.0026569149478688214   0.008429791978112056
-0.3479085740535405   0.0026569149478688214   0.008429791978112056
-0.3479085740535405   0.0026569149478688214   0.008429791978112056
-0.3479085740535405   0.0026569149478688214   0.008429791978112056
-0.3331379724220817   -0.0054267233124823955   -0.030056394267328316
-0.3331379724220817   -0.0054267233124823955   -0.030056394267328316
-0.3331379724220817   -0.0054267233124823955   -0.030056394267328316
-0.3331379724220817   -0.0054267233124823955   -0.030056394267328316
-0.35054479302457897   0.04185113264896444   0.022866314102335916
-0.35054479302457897   0.04185113264896444   0.022866314102335916
-0.35054479302457897   0.04185113264896444   0.022866314102335916
-0.35054479302457897   0.04185113264896444   0.022866314102335916
-0.3544828352563138   0.021214940411091177   -0.040683480013930906
-0.3544828352563138   0.021214940411091177   -0.040683480013930906
-0.3544828352563138   0.021214940411091177   -0.040683480013930906
-0.3544828352563138   0.021214940411091177   -0.040683480013930906
-0.29670067542423795   0.08080289167848828   0.013862369205990183
-0.29670067542423795   0.08080289167848828   0.013862369205990183
-0.29670067542423795   0.08080289167848828   0.013862369205990183
-0.29670067542423795   0.08080289167848828   0.013862369205990183
-0.3308393697138004   0.03225383582407333   0.021732394901030055
-0.3308393697138004   0.03225383582407333   0.021732394901030055
-0.3308393697138004   0.03225383582407333   0.021732394901030055
-0.3308393697138004   0.03225383582407333   0.021732394901030055
-0.41805011263398356   -0.08277228142094296   -0.044424194103101125
-0.41805011263398356   -0.08277228142094296   -0.044424194103101125
-0.41805011263398356   -0.08277228142094296   -0.044424194103101125
-0.41805011263398356   -0.08277228142094296   -0.044424194103101125
-0.46237656485711104   0.006380652506991588   0.06048517221287328
-0.46237656485711104   0.006380652506991588   0.06048517221287328
-0.46237656485711104   0.006380652506991588   0.06048517221287328
-0.46237656485711104   0.006380652506991588   0.06048517221287328
-0.4561582336141974   -0.06882291580891041   -0.05917083825377807
-0.4561582336141974   -0.06882291580891041   -0.05917083825377807
-0.4561582336141974   -0.06882291580891041   -0.05917083825377807
-0.4561582336141974   -0.06882291580891041   -0.05917083825377807
-0.3586320808890562   0.052185025752026104   0.05421638838087783
-0.3586320808890562   0.052185025752026104   0.05421638838087783
-0.3586320808890562   0.052185025752026104   0.05421638838087783
-0.3586320808890562   0.052185025752026104   0.05421638838087783
-0.40682089726457965   -0.01778215528409187   -0.0027111113483905963
-0.40682089726457965   -0.01778215528409187   -0.0027111113483905963
-0.40682089726457965   -0.01778215528409187   -0.0027111113483905963
-0.40682089726457965   -0.01778215528409187   -0.0027111113483905963
-0.40130696593909176   -0.05617758070549646   -0.05079543041178326
-0.40130696593909176   -0.05617758070549646   -0.05079543041178326
-0.40130696593909176   -0.05617758070549646   -0.05079543041178326
-0.40130696593909176   -0.05617758070549646   -0.05079543041178326
-0.4111767428050918   0.041846296407675426   0.05506740357516008
-0.4111767428050918   0.041846296407675426   0.05506740357516008
-0.4111767428050918   0.041846296407675426   0.05506740357516008
-0.4111767428050918   0.041846296407675426   0.05506740357516008
-0.41783718013253046   -0.04964258226101367   -0.07052557535412035
-0.41783718013253046   -0.04964258226101367   -0.07052557535412035
-0.41783718013253046   -0.04964258226101367   -0.07052557535412035
-0.41783718013253046   -0.04964258226101367   -0.07052557535412035
-0.3414736739206908   0.06569476887217553   0.04437827339856158
-0.3414736739206908   0.06569476887217553   0.04437827339856158
-0.3414736739206908   0.06569476887217553   0.04437827339856158
-0.3414736739206908   0.06569476887217553   0.04437827339856158
-0.3808824780541197   0.002262928076349341   0.010637479532115239
-0.3808824780541197   0.002262928076349341   0.010637479532115239
-0.3808824780541197   0.002262928076349341   0.010637479532115239
-0.3808824780541197   0.002262928076349341   0.010637479532115239
-0.38332029491886704   -0.04038841890957174   -0.05877164381057414
-0.38332029491886704   -0.04038841890957174   -0.05877164381057414
-0.38332029491886704   -0.04038841890957174   -0.05877164381057414
-0.38332029491886704   -0.04038841890957174   -0.05877164381057414
-0.3735731691033484   0.05885799555173912   0.04229390197903719
-0.3735731691033484   0.05885799555173912   0.04229390197903719
-0.3735731691033484   0.05885799555173912   0.04229390197903719
-0.3735731691033484   0.05885799555173912   0.04229390197903719
-0.36754035099330773   -0.016457771263560933   -0.07707389964801897
-0.36754035099330773   -0.016457771263560933   -0.07707389964801897
-0.36754035099330773   -0.016457771263560933   -0.07707389964801897
-0.36754035099330773   -0.016457771263560933   -0.07707389964801897
-0.3261081449572133   0.08585124558886925   0.03655366630379001
-0.3261081449572133   0.08585124558886925   0.03655366630379001
-0.3261081449572133   0.08585124558886925   0.03655366630379001
-0.3261081449572133   0.08585124558886925   0.03655366630379001
-0.34540088076637393   0.022291767550047983   0.026090868940214475
-0.34540088076637393   0.022291767550047983   0.026090868940214475
-0.34540088076637393   0.022291767550047983   0.026090868940214475
-0.34540088076637393   0.022291767550047983   0.026090868940214475
0.25297753392101197   0.04090020764432513   0.0660399902881031
0.25297753392101197   0.04090020764432513   0.0660399902881031
0.25297753392101197   0.04090020764432513   0.0660399902881031
0.25297753392101197   0.04090020764432513   0.0660399902881031
-0.006121613597363577   -0.1061322907373534   -0.04361536428808607
-0.006121613597363577   -0.1061322907373534   -0.04361536428808607
-0.006121613597363577   -0.1061322907373534   -0.04361536428808607
-0.006121613597363577   -0.1061322907373534   -0.04361536428808607
0.056300450711330455   0.020721526526692464   0.05102229762483272
0.056300450711330455   0.020721526526692464   0.05102229762483272
0.056300450711330455   0.020721526526692464   0.05102229762483272
0.056300450711330455   0.020721526526692464   0.05102229762483272
0.26393350973440677   -0.03718328052955634   -0.054589478474906285
0.26393350973440677   -0.03718328052955634   -0.054589478474906285
0.26393350973440677   -0.03718328052955634   -0.054589478474906285
0.26393350973440677   -0.03718328052955634   -0.054589478474906285
0.12909404822042594   -0.020621180990560102   -0.03145813053611195
0.12909404822042594   -0.020621180990560102   -0.03145813053611195
0.12909404822042594   -0.020621180990560102   -0.03145813053611195
0.12909404822042594   -0.020621180990560102   -0.03145813053611195
0.3087928964341314   0.07293365920426387   0.05959051528988877
0.3087928964341314   0.07293365920426387   0.05959051528988877
0.3087928964341314   0.07293365920426387   0.05959051528988877
0.3087928964341314   0.07293365920426387   0.05959051528988877
0.014199820107398904   -0.08663665711133599   -0.052122671756796586
0.014199820107398904   -0.08663665711133599   -0.052122671756796586
0.014199820107398904   -0.08663665711133599   -0.052122671756796586
0.014199820107398904   -0.08663665711133599   -0.052122671756796586
0.07906300019094975   0.03612993179948659   0.04258254776809802
0.07906300019094975   0.03612993179948659   0.04258254776809802
0.07906300019094975   0.03612993179948659   0.04258254776809802
0.07906300019094975   0.03612993179948659   0.04258254776809802
0.3075142726942726   -0.01977675888118228   -0.06829410210503545
0.3075142726942726   -0.01977675888118228   -0.06829410210503545
0.3075142726942726   -0.01977675888118228   -0.06829410210503545
0.3075142726942726   -0.01977675888118228   -0.06829410210503545
0.16842082868740935   -0.0014097859579361646   -0.014784734463765707
0.16842082868740935   -0.0014097859579361646   -0.014784734463765707
0.16842082868740935   -0.0014097859579361646   -0.014784734463765707
0.16842082868740935   -0.0014097859579361646   -0.014784734463765707
0.35286689977312263   0.09176054753658879   0.04693172687143612
0.35286689977312263   0.09176054753658879   0.04693172687143612
0.35286689977312263   0.09176054753658879   0.04693172687143612
0.35286689977312263   0.09176054753658879   0.04693172687143612
0.03640918270698734   -0.07270856502339748   -0.06184804282882615
0.03640918270698734   -0.07270856502339748   -0.06184804282882615
0.03640918270698734   -0.07270856502339748   -0.06184804282882615
0.03640918270698734   -0.07270856502339748   -0.06184804282882615
0.10115424954202659   0.06441657667525622   0.03684914080457149
0.10115424954202659   0.06441657667525622   0.03684914080457149
0.10115424954202659   0.06441657667525622   0.03684914080457149
0.10115424954202659   0.06441657667525622   0.03684914080457149
0.36536488273348466   0.019183744872679466   -0.07531755476258892
0.36536488273348466   0.019183744872679466   -0.07531755476258892
0.36536488273348466   0.019183744872679466   -0.07531755476258892
0.36536488273348466   0.019183744872679466   -0.07531755476258892
0.20143541431051498   0.020118988551485213   0.0009817948335355464
0.20143541431051498   0.020118988551485213   0.0009817948335355464
0.20143541431051498   0.020118988551485213   0.0009817948335355464
0.20143541431051498   0.020118988551485213   0.0009817948335355464
0.03499847472123062   0.011029324538381041   0.04482346202915046
0.03499847472123062   0.011029324538381041   0.04482346202915046
0.03499847472123062   0.011029324538381041   0.04482346202915046
0.03499847472123062   0.011029324538381041   0.04482346202915046
-0.2404836441626224   -0.09010665390682704   -0.020008243556246186
-0.2404836441626224   -0.09010665390682704   -0.020008243556246186
-0.2404836441626224   -0.09010665390682704   -0.020008243556246186
-0.2404836441626224   -0.09010665390682704   -0.020008243556246186
-0.20109221150442344   -0.013090951308934545   0.020483276489715718
-0.20109221150442344   -0.013090951308934545   0.020483276489715718
-0.20109221150442344   -0.013090951308934545   0.020483276489715718
-0.20109221150442344   -0.013090951308934545   0.020483276489715718
0.03670371567097629   -0.010346675636081833   -0.015893175414163782
0.03670371567097629   -0.010346675636081833   -0.015893175414163782
0.03670371567097629   -0.010346675636081833   -0.015893175414163782
0.03670371567097629   -0.010346675636081833   -0.015893175414163782
-0.09445153833323525   -0.02332127955447458   -0.015123216306198832
-0.09445153833323525   -0.02332127955447458   -0.015123216306198832
-0.09445153833323525   -0.02332127955447458   -0.015123216306198832
-0.09445153833323525   -0.02332127955447458   -0.015123216306198832
0.05843931683003488   0.042671941674191305   0.03976621307085599
0.05843931683003488   0.042671941674191305   0.03976621307085599
0.05843931683003488   0.042671941674191305   0.03976621307085599
0.05843931683003488   0.042671941674191305   0.03976621307085599
-0.22081973185663092   -0.06410148781235146   -0.027143788767904714
-0.22081973185663092   -0.06410148781235146   -0.027143788767904714
-0.22081973185663092   -0.06410148781235146   -0.027143788767904714
-0.22081973185663092   -0.06410148781235146   -0.027143788767904714
-0.18033640298127385   0.016789271431320446   0.014477388328685328
-0.18033640298127385   0.016789271431320446   0.014477388328685328
-0.18033640298127385   0.016789271431320446   0.014477388328685328
-0.18033640298127385   0.016789271431320446   0.014477388328685328
0.06262226179195766   0.01801636630853484   -0.021507578735910672
0.06262226179195766   0.01801636630853484   -0.021507578735910672
0.06262226179195766   0.01801636630853484   -0.021507578735910672
0.06262226179195766   0.01801636630853484   -0.021507578735910672
-0.07245203344416178   0.0030431778104443932   -0.001835878403071406
-0.07245203344416178   0.0030431778104443932   -0.001835878403071406
-0.07245203344416178   0.0030431778104443932   -0.001835878403071406
-0.07245203344416178   0.0030431778104443932   -0.001835878403071406
0.08527168528685677   0.07413882702386121   0.035617078023258524
0.08527168528685677   0.07413882702386121   0.035617078023258524
0.08527168528685677   0.07413882702386121   0.035617078023258524
0.08527168528685677   0.07413882702386121   0.035617078023258524
-0.20105346028323806   -0.03740082309107102   -0.03491780365874424
-0.20105346028323806   -0.03740082309107102   -0.03491780365874424
-0.20105346028323806   -0.03740082309107102   -0.03491780365874424
-0.20105346028323806   -0.03740082309107102   -0.03491780365874424
-0.15945724313478912   0.05057695665957779   0.008752175454562118
-0.15945724313478912   0.05057695665957779   0.008752175454562118
-0.15945724313478912   0.05057695665957779   0.008752175454562118
-0.15945724313478912   0.05057695665957779   0.008752175454562118
0.08544295370577262   0.050174011602456194   -0.027464773303898363
0.08544295370577262   0.050174011602456194   -0.027464773303898363
0.08544295370577262   0.050174011602456194   -0.027464773303898363
0.08544295370577262   0.050174011602456194   -0.027464773303898363
-0.048126158219345634   0.032148199232003516   0.01232856007348686
-0.048126158219345634   0.032148199232003516   0.01232856007348686
-0.048126158219345634   0.032148199232003516   0.01232856007348686
-0.048126158219345634   0.032148199232003516   0.01232856007348686
-0.21869292048115918   -0.017285503343258832   0.01612422428750371
-0.21869292048115918   -0.017285503343258832   0.01612422428750371
-0.21869292048115918   -0.017285503343258832   0.01612422428750371
-0.21869292048115918   -0.017285503343258832   0.01612422428750371
-0.4706025215780832   -0.0640110974192979   0.004153918988719616
-0.4706025215780832   -0.0640110974192979   0.004153918988719616
-0.4706025215780832   -0.0640110974192979   0.004153918988719616
-0.4706025215780832   -0.0640110974192979   0.004153918988719616
-0.45242704792932636   -0.04011860428754398   -0.008866818023041945
-0.45242704792932636   -0.04011860428754398   -0.008866818023041945
-0.45242704792932636   -0.04011860428754398   -0.008866818023041945
-0.45242704792932636   -0.04011860428754398   -0.008866818023041945
-0.19722912948527493   0.016703120929945116   0.010004614346578504
-0.19722912948527493   0.016703120929945116   0.010004614346578504
-0.19722912948527493   0.016703120929945116   0.010004614346578504
-0.19722912948527493   0.016703120929945116   0.010004614346578504
-0.3352271036378358   -0.024035512038361587   -0.008803064726494725
-0.3352271036378358   -0.024035512038361587   -0.008803064726494725
-0.3352271036378358   -0.024035512038361587   -0.008803064726494725
-0.3352271036378358   -0.024035512038361587   -0.008803064726494725
-0.19748770072797756   0.014771337141608484   0.010643541921402197
-0.19748770072797756   0.014771337141608484   0.010643541921402197
-0.19748770072797756   0.014771337141608484   0.010643541921402197
-0.19748770072797756   0.014771337141608484   0.010643541921402197
-0.45044622394262857   -0.0364645677552121   -0.00261673462188468
-0.45044622394262857   -0.0364645677552121   -0.00261673462188468
-0.45044622394262857   -0.0364645677552121   -0.00261673462188468
-0.45044622394262857   -0.0364645677552121   -0.00261673462188468
-0.43060246825346116   -0.007222637308247903   -0.013943664731891427
-0.43060246825346116   -0.007222637308247903   -0.013943664731891427
-0.43060246825346116   -0.007222637308247903   -0.013943664731891427
-0.43060246825346116   -0.007222637308247903   -0.013943664731891427
-0.1766787684937247   0.04587510894217111   0.003679723255580268
-0.1766787684937247   0.04587510894217111   0.003679723255580268
-0.1766787684937247   0.04587510894217111   0.003679723255580268
-0.1766787684937247   0.04587510894217111   0.003679723255580268
-0.31269408545925126   0.0048598754671104055   0.004582671349508398
-0.31269408545925126   0.0048598754671104055   0.004582671349508398
-0.31269408545925126   0.0048598754671104055   0.004582671349508398
-0.31269408545925126   0.0048598754671104055   0.004582671349508398
-0.17615114380407584   0.047412459714338856   0.004780495931656987
-0.17615114380407584   0.047412459714338856   0.004780495931656987
-0.17615114380407584   0.047412459714338856   0.004780495931656987
-0.17615114380407584   0.047412459714338856   0.004780495931656987
-0.42975389649038176   -0.007383791627687819   -0.009539651597057303
-0.42975389649038176   -0.007383791627687819   -0.009539651597057303
-0.42975389649038176   -0.007383791627687819   -0.009539651597057303
-0.42975389649038176   -0.007383791627687819   -0.009539651597057303
-0.4096588888105822   0.02576322687698135   -0.01973720643158005
-0.4096588888105822   0.02576322687698135   -0.01973720643158005
-0.4096588888105822   0.02576322687698135   -0.01973720643158005
-0.4096588888105822   0.02576322687698135   -0.01973720643158005
-0.15701723189651345   0.07513298472392035   -0.003603796418400279
-0.15701723189651345   0.07513298472392035   -0.003603796418400279
-0.15701723189651345   0.07513298472392035   -0.003603796418400279
-0.15701723189651345   0.07513298472392035   -0.003603796418400279
-0.29133592384876283   0.03367564627232923   0.017094611447559253
-0.29133592384876283   0.03367564627232923   0.017094611447559253
-0.29133592384876283   0.03367564627232923   0.017094611447559253
-0.29133592384876283   0.03367564627232923   0.017094611447559253
-0.4703525316961996   -0.04514919591854123   -0.013458033102615272
-0.4703525316961996   -0.04514919591854123   -0.013458033102615272
-0.4703525316961996   -0.04514919591854123   -0.013458033102615272
-0.4703525316961996   -0.04514919591854123   -0.013458033102615272
-0.6983213950116658   -0.039485713099177006   0.027877824596620283
-0.6983213950116658   -0.039485713099177006   0.027877824596620283
-0.6983213950116658   -0.039485713099177006   0.027877824596620283
-0.6983213950116658   -0.039485713099177006   0.027877824596620283
-0.6985327584793148   -0.06658397653446871   -0.037517547594472865
-0.6985327584793148   -0.06658397653446871   -0.037517547594472865
-0.6985327584793148   -0.06658397653446871   -0.037517547594472865
-0.6985327584793148   -0.06658397653446871   -0.037517547594472865
-0.42730389544626046   0.04251206367149933   0.034118276433244374
-0.42730389544626046   0.04251206367149933   0.034118276433244374
-0.42730389544626046   0.04251206367149933   0.034118276433244374
-0.42730389544626046   0.04251206367149933   0.034118276433244374
-0.5704207580965946   -0.024382928981285634   -0.0037047762669517106
-0.5704207580965946   -0.024382928981285634   -0.0037047762669517106
-0.5704207580965946   -0.024382928981285634   -0.0037047762669517106
-0.5704207580965946   -0.024382928981285634   -0.0037047762669517106
-0.44896455911336125   -0.012917852323778956   -0.01875512590697765
-0.44896455911336125   -0.012917852323778956   -0.01875512590697765
-0.44896455911336125   -0.012917852323778956   -0.01875512590697765
-0.44896455911336125   -0.012917852323778956   -0.01875512590697765
-0.6754486883051342   -0.009730654032113845   0.021049480774082883
-0.6754486883051342   -0.009730654032113845   0.021049480774082883
-0.6754486883051342   -0.009730654032113845   0.021049480774082883
-0.6754486883051342   -0.009730654032113845   0.021049480774082883
-0.6711933798309029   -0.035200804004532016   -0.04174478235882234
-0.6711933798309029   -0.035200804004532016   -0.04174478235882234
-0.6711933798309029   -0.035200804004532016   -0.04174478235882234
-0.6711933798309029   -0.035200804004532016   -0.04174478235882234
-0.40712613374867895   0.06906264459652026   0.027152725887251712
-0.40712613374867895   0.06906264459652026   0.027152725887251712
-0.40712613374867895   0.06906264459652026   0.027152725887251712
-0.40712613374867895   0.06906264459652026   0.027152725887251712
-0.5434000107251634   0.004743930300613139   0.010086876776465536
-0.5434000107251634   0.004743930300613139   0.010086876776465536
-0.5434000107251634   0.004743930300613139   0.010086876776465536
-0.5434000107251634   0.004743930300613139   0.010086876776465536
-0.428068910275883   0.016727786623155355   -0.025226298775405415
-0.428068910275883   0.016727786623155355   -0.025226298775405415
-0.428068910275883   0.016727786623155355   -0.025226298775405415
-0.428068910275883   0.016727786623155355   -0.025226298775405415
-0.6486497663097482   0.018734890962783107   0.017037590279635327
-0.6486497663097482   0.018734890962783107   0.017037590279635327
-0.6486497663097482   0.018734890962783107   0.017037590279635327
-0.6486497663097482   0.018734890962783107   0.017037590279635327
-0.6467347919951341   -0.0009633207512527164   -0.04493457637181855
-0.6467347919951341   -0.0009633207512527164   -0.04493457637181855
-0.6467347919951341   -0.0009633207512527164   -0.04493457637181855
-0.6467347919951341   -0.0009633207512527164   -0.04493457637181855
-0.3871581203954129   0.09839466714481143   0.020135195376436314
-0.3871581203954129   0.09839466714481143   0.020135195376436314
-0.3871581203954129   0.09839466714481143   0.020135195376436314
-0.3871581203954129   0.09839466714481143   0.020135195376436314
-0.523164838271884   0.031915235198771874   0.02244967883586317
-0.523164838271884   0.031915235198771874   0.02244967883586317
-0.523164838271884   0.031915235198771874   0.02244967883586317
-0.523164838271884   0.031915235198771874   0.02244967883586317
-0.7171484830001372   -0.06484952604430926   -0.040893802400604695
-0.7171484830001372   -0.06484952604430926   -0.040893802400604695
-0.7171484830001372   -0.06484952604430926   -0.040893802400604695
-0.7171484830001372   -0.06484952604430926   -0.040893802400604695
-0.9578839941610823   -0.01684508927034095   0.06037601199450553
-0.9578839941610823   -0.01684508927034095   0.06037601199450553
-0.9578839941610823   -0.01684508927034095   0.06037601199450553
-0.9578839941610823   -0.01684508927034095   0.06037601199450553
-0.9445186547514285   -0.08674941869802252   -0.05456926000699303
-0.9445186547514285   -0.08674941869802252   -0.05456926000699303
-0.9445186547514285   -0.08674941869802252   -0.05456926000699303
-0.9445186547514285   -0.08674941869802252   -0.05456926000699303
-0.6514408981217237   0.07183892588714197   0.05951885177187251
-0.6514408981217237   0.07183892588714197   0.05951885177187251
-0.6514408981217237   0.07183892588714197   0.05951885177187251
-0.6514408981217237   0.07183892588714197   0.05951885177187251
-0.7824970408983039   -0.013882596318018858   0.006490218529061301
-0.7824970408983039   -0.013882596318018858   0.006490218529061301
-0.7824970408983039   -0.013882596318018858   0.006490218529061301
-0.7824970408983039   -0.013882596318018858   0.006490218529061301
-0.6939576655422731   -0.0349738172862821   -0.046252242157446395
-0.6939576655422731   -0.0349738172862821   -0.046252242157446395
-0.6939576655422731   -0.0349738172862821   -0.046252242157446395
-0.6939576655422731   -0.0349738172862821   -0.046252242157446395
-0.9007103223799309   0.02135488942634775   0.05636809372610861
-0.9007103223799309   0.02135488942634775   0.05636809372610861
-0.9007103223799309   0.02135488942634775   0.05636809372610861
-0.9007103223799309   0.02135488942634775   0.05636809372610861
-0.9012678655570442   -0.06812889602725059   -0.06494585946221558
-0.9012678655570442   -0.06812889602725059   -0.06494585946221558
-0.9012678655570442   -0.06812889602725059   -0.06494585946221558
-0.9012678655570442   -0.06812889602725059   -0.06494585946221558
-0.6291746678592018   0.0840812981878788   0.049066675307267486
-0.6291746678592018   0.0840812981878788   0.049066675307267486
-0.6291746678592018   0.0840812981878788   0.049066675307267486
-0.6291746678592018   0.0840812981878788   0.049066675307267486
-0.7579640004663962   0.005657200080652042   0.017629602806878572
-0.7579640004663962   0.005657200080652042   0.017629602806878572
-0.7579640004663962   0.005657200080652042   0.017629602806878572
-0.7579640004663962   0.005657200080652042   0.017629602806878572
-0.6704161541885744   -0.019651061242879908   -0.05340839690883205
-0.6704161541885744   -0.019651061242879908   -0.05340839690883205
-0.6704161541885744   -0.019651061242879908   -0.05340839690883205
-0.6704161541885744   -0.019651061242879908   -0.05340839690883205
-0.8584464475202254   0.03718339511095389   0.0438489395836665
-0.8584464475202254   0.03718339511095389   0.0438489395836665
-0.8584464475202254   0.03718339511095389   0.0438489395836665
-0.8584464475202254   0.03718339511095389   0.0438489395836665
-0.8479869499622875   -0.04032014513908658   -0.072424482330915
-0.8479869499622875   -0.04032014513908658   -0.072424482330915
-0.8479869499622875   -0.04032014513908658   -0.072424482330915
-0.8479869499622875   -0.04032014513908658   -0.072424482330915
-0.6096073025554143   0.09886703769798519   0.04087251237754254
-0.6096073025554143   0.09886703769798519   0.04087251237754254
-0.6096073025554143   0.09886703769798519   0.04087251237754254
-0.6096073025554143   0.09886703769798519   0.04087251237754254
-0.7120460457131202   0.023962673870745493   0.0333181655889549
-0.7120460457131202   0.023962673870745493   0.0333181655889549
-0.7120460457131202   0.023962673870745493   0.0333181655889549
-0.7120460457131202   0.023962673870745493   0.0333181655889549
0.760443601130803   0.06909756692495188   0.06596870929527383
0.760443601130803   0.06909756692495188   0.06596870929527383
0.760443601130803   0.06909756692495188   0.06596870929527383
0.760443601130803   0.06909756692495188   0.06596870929527383
0.2785143172860229   -0.12641602138371677   -0.04342295739368518
0.2785143172860229   -0.12641602138371677   -0.04342295739368518
0.2785143172860229   -0.12641602138371677   -0.04342295739368518
0.2785143172860229   -0.12641602138371677   -0.04342295739368518
0.34392196197794894   -0.0007747214489346038   0.047464864684660206
0.34392196197794894   -0.0007747214489346038   0.047464864684660206
0.34392196197794894   -0.0007747214489346038   0.047464864684660206
0.34392196197794894   -0.0007747214489346038   0.047464864684660206
0.774245186043975   -0.017541124729015534   -0.05543717667359587
0.774245186043975   -0.017541124729015534   -0.05543717667359587
0.774245186043975   -0.017541124729015534   -0.05543717667359587
0.774245186043975   -0.017541124729015534   -0.05543717667359587
0.5061105098736478   -0.022877028233755453   -0.048865725713146846
0.5061105098736478   -0.022877028233755453   -0.048865725713146846
0.5061105098736478   -0.022877028233755453   -0.048865725713146846
0.5061105098736478   -0.022877028233755453   -0.048865725713146846
0.8195749149024664   0.09633080398083829   0.05733953890900741
0.8195749149024664   0.09633080398083829   0.05733953890900741
0.8195749149024664   0.09633080398083829   0.05733953890900741
0.8195749149024664   0.09633080398083829   0.05733953890900741
0.301801287937277   -0.11143759534096837   -0.0524756316266621
0.301801287937277   -0.11143759534096837   -0.0524756316266621
0.301801287937277   -0.11143759534096837   -0.0524756316266621
0.301801287937277   -0.11143759534096837   -0.0524756316266621
0.36972901310014894   0.014153238826879383   0.039141146029396494
0.36972901310014894   0.014153238826879383   0.039141146029396494
0.36972901310014894   0.014153238826879383   0.039141146029396494
0.36972901310014894   0.014153238826879383   0.039141146029396494
0.821298373810494   -0.0005746330745652617   -0.06983437267663908
0.821298373810494   -0.0005746330745652617   -0.06983437267663908
0.821298373810494   -0.0005746330745652617   -0.06983437267663908
0.821298373810494   -0.0005746330745652617   -0.06983437267663908
0.5552455837365398   -0.0045507231303585916   -0.02959715124781256
0.5552455837365398   -0.0045507231303585916   -0.02959715124781256
0.5552455837365398   -0.0045507231303585916   -0.02959715124781256
0.5552455837365398   -0.0045507231303585916   -0.02959715124781256
0.8671312851555816   0.11463047852244326   0.04412507245178323
0.8671312851555816   0.11463047852244326   0.04412507245178323
0.8671312851555816   0.11463047852244326   0.04412507245178323
0.8671312851555816   0.11463047852244326   0.04412507245178323
0.32731000964234697   -0.09763796488283381   -0.061162667549896174
0.32731000964234697   -0.09763796488283381   -0.061162667549896174
0.32731000964234697   -0.09763796488283381   -0.061162667549896174
0.32731000964234697   -0.09763796488283381   -0.061162667549896174
0.39550032902863774   0.04705908851277556   0.03392371714273853
0.39550032902863774   0.04705908851277556   0.03392371714273853
0.39550032902863774   0.04705908851277556   0.03392371714273853
0.39550032902863774   0.04705908851277556   0.03392371714273853
0.8830871546953828   0.04367385049979347   -0.07533189141075891
0.8830871546953828   0.04367385049979347   -0.07533189141075891
0.8830871546953828   0.04367385049979347   -0.07533189141075891
0.8830871546953828   0.04367385049979347   -0.07533189141075891
0.5855641864016299   0.01774450921565361   -0.012929350048485753
0.5855641864016299   0.01774450921565361   -0.012929350048485753
0.5855641864016299   0.01774450921565361   -0.012929350048485753
0.5855641864016299   0.01774450921565361   -0.012929350048485753
0.33076544232828337   0.03869011782448557   0.0527265286094111
0.33076544232828337   0.03869011782448557   0.0527265286094111
0.33076544232828337   0.03869011782448557   0.0527265286094111
0.33076544232828337   0.03869011782448557   0.0527265286094111
-0.16115406608830837   -0.1179526471740345   -0.022747405117992395
-0.16115406608830837   -0.1179526471740345   -0.022747405117992395
-0.16115406608830837   -0.1179526471740345   -0.022747405117992395
-0.16115406608830837   -0.1179526471740345   -0.022747405117992395
-0.1161718045567687   -0.03455005580160426   0.015965443985969108
-0.1161718045567687   -0.03455005580160426   0.015965443985969108
-0.1161718045567687   -0.03455005580160426   0.015965443985969108
-0.1161718045567687   -0.03455005580160426   0.015965443985969108
0.33338511774117   0.0009762625647894152   -0.006970340512954511
0.33338511774117   0.0009762625647894152   -0.006970340512954511
0.33338511774117   0.0009762625647894152   -0.006970340512954511
0.33338511774117   0.0009762625647894152   -0.006970340512954511
0.092354681552072   -0.02493343950901744   -0.02082048101723056
0.092354681552072   -0.02493343950901744   -0.02082048101723056
0.092354681552072   -0.02493343950901744   -0.02082048101723056
0.092354681552072   -0.02493343950901744   -0.02082048101723056
0.35727545702215613   0.06636485950694926   0.0470927589498119
0.35727545702215613   0.06636485950694926   0.0470927589498119
0.35727545702215613   0.06636485950694926   0.0470927589498119
0.35727545702215613   0.06636485950694926   0.0470927589498119
-0.1381286945057455   -0.09800520341175582   -0.030363858148765167
-0.1381286945057455   -0.09800520341175582   -0.030363858148765167
-0.1381286945057455   -0.09800520341175582   -0.030363858148765167
-0.1381286945057455   -0.09800520341175582   -0.030363858148765167
-0.09212979940202184   -0.00661419908956401   0.010091655467574588
-0.09212979940202184   -0.00661419908956401   0.010091655467574588
-0.09212979940202184   -0.00661419908956401   0.010091655467574588
-0.09212979940202184   -0.00661419908956401   0.010091655467574588
0.3616777778205338   0.026042519200017523   -0.013004310741813562
0.3616777778205338   0.026042519200017523   -0.013004310741813562
0.3616777778205338   0.026042519200017523   -0.013004310741813562
0.3616777778205338   0.026042519200017523   -0.013004310741813562
0.11558333531201292   -0.0028583671139524244   -0.008279526988615052
0.11558333531201292   -0.0028583671139524244   -0.008279526988615052
0.11558333531201292   -0.0028583671139524244   -0.008279526988615052
0.11558333531201292   -0.0028583671139524244   -0.008279526988615052
0.3865238355131546   0.09545991348684761   0.041808583434456315
0.3865238355131546   0.09545991348684761   0.041808583434456315
0.3865238355131546   0.09545991348684761   0.041808583434456315
0.3865238355131546   0.09545991348684761   0.041808583434456315
-0.11503813132518317   -0.07409386760693532   -0.03697033563086079
-0.11503813132518317   -0.07409386760693532   -0.03697033563086079
-0.11503813132518317   -0.07409386760693532   -0.03697033563086079
-0.11503813132518317   -0.07409386760693532   -0.03697033563086079
-0.06839007756247886   0.02574934115657284   0.004244905734936369
-0.06839007756247886   0.02574934115657284   0.004244905734936369
-0.06839007756247886   0.02574934115657284   0.004244905734936369
-0.06839007756247886   0.02574934115657284   0.004244905734936369
0.38676859501918576   0.055889577588516606   -0.018565441980258328
0.38676859501918576   0.055889577588516606   -0.018565441980258328
0.38676859501918576   0.055889577588516606   -0.018565441980258328
0.38676859501918576   0.055889577588516606   -0.018565441980258328
0.14427842468920468   0.02421333997107354   0.006361738688853917
0.14427842468920468   0.02421333997107354   0.006361738688853917
0.14427842468920468   0.02421333997107354   0.006361738688853917
0.14427842468920468   0.02421333997107354   0.006361738688853917
-0.12685216204538752   0.008391736895010986   0.0224177310275684
-0.12685216204538752   0.008391736895010986   0.0224177310275684
-0.12685216204538752   0.008391736895010986   0.0224177310275684
-0.12685216204538752   0.008391736895010986   0.0224177310275684
-0.5920946077281786   -0.10415073904424091   -0.0030074463727429567
-0.5920946077281786   -0.10415073904424091   -0.0030074463727429567
-0.5920946077281786   -0.10415073904424091   -0.0030074463727429567
-0.5920946077281786   -0.10415073904424091   -0.0030074463727429567
-0.5635873129871849   -0.06135166937666735   -0.013911153684573851
-0.5635873129871849   -0.06135166937666735   -0.013911153684573851
-0.5635873129871849   -0.06135166937666735   -0.013911153684573851
-0.5635873129871849   -0.06135166937666735   -0.013911153684573851
-0.10636920797054442   0.015523562645930342   0.014904808469554129
-0.10636920797054442   0.015523562645930342   0.014904808469554129
-0.10636920797054442   0.015523562645930342   0.014904808469554129
-0.10636920797054442   0.015523562645930342   0.014904808469554129
-0.34783644255089224   -0.032019167061320936   -0.012998500338088553
-0.34783644255089224   -0.032019167061320936   -0.012998500338088553
-0.34783644255089224   -0.032019167061320936   -0.012998500338088553
-0.34783644255089224   -0.032019167061320936   -0.012998500338088553
-0.10161973601416405   0.03721601911194103   0.016959711785447154
-0.10161973601416405   0.03721601911194103   0.016959711785447154
-0.10161973601416405   0.03721601911194103   0.016959711785447154
-0.10161973601416405   0.03721601911194103   0.016959711785447154
-0.5670448981511594   -0.08175223905027182   -0.0107985098308417
-0.5670448981511594   -0.08175223905027182   -0.0107985098308417
-0.5670448981511594   -0.08175223905027182   -0.0107985098308417
-0.5670448981511594   -0.08175223905027182   -0.0107985098308417
-0.5370891863557268   -0.030701460408372627   -0.018792705635136422
-0.5370891863557268   -0.030701460408372627   -0.018792705635136422
-0.5370891863557268   -0.030701460408372627   -0.018792705635136422
-0.5370891863557268   -0.030701460408372627   -0.018792705635136422
-0.08296861790022479   0.04084513836025791   0.008438225526741722
-0.08296861790022479   0.04084513836025791   0.008438225526741722
-0.08296861790022479   0.04084513836025791   0.008438225526741722
-0.08296861790022479   0.04084513836025791   0.008438225526741722
-0.3211100867084784   -0.006374681290044856   -0.0001989357890191841
-0.3211100867084784   -0.006374681290044856   -0.0001989357890191841
-0.3211100867084784   -0.006374681290044856   -0.0001989357890191841
-0.3211100867084784   -0.006374681290044856   -0.0001989357890191841
-0.07723699769571682   0.06717984286047045   0.010761622049069068
-0.07723699769571682   0.06717984286047045   0.010761622049069068
-0.07723699769571682   0.06717984286047045   0.010761622049069068
-0.07723699769571682   0.06717984286047045   0.010761622049069068
-0.5416209500766358   -0.05583630842498633   -0.016316676223068427
-0.5416209500766358   -0.05583630842498633   -0.016316676223068427
-0.5416209500766358   -0.05583630842498633   -0.016316676223068427
-0.5416209500766358   -0.05583630842498633   -0.016316676223068427
-0.5124232678015734   -0.0001529340418368469   -0.024627354342126227
-0.5124232678015734   -0.0001529340418368469   -0.024627354342126227
-0.5124232678015734   -0.0001529340418368469   -0.024627354342126227
-0.5124232678015734   -0.0001529340418368469   -0.024627354342126227
-0.06063352618162971   0.06670637073043263   0.0020706330653242587
-0.06063352618162971   0.06670637073043263   0.0020706330653242587
-0.06063352618162971   0.06670637073043263   0.0020706330653242587
-0.06063352618162971   0.06670637073043263   0.0020706330653242587
-0.29655929127068753   0.01917339823468639   0.011980580873963129
-0.29655929127068753   0.01917339823468639   0.011980580873963129
-0.29655929127068753   0.01917339823468639   0.011980580873963129
-0.29655929127068753   0.01917339823468639   0.011980580873963129
-0.5769367330019735   -0.022548423311460786   -0.008820388474491007
-0.5769367330019735   -0.022548423311460786   -0.008820388474491007
-0.5769367330019735   -0.022548423311460786   -0.008820388474491007
-0.5769367330019735   -0.022548423311460786   -0.008820388474491007
-1.0132317029936926   -0.08438856143549534   0.019538155267671192
-1.0132317029936926   -0.08438856143549534   0.019538155267671192
-1.0132317029936926   -0.08438856143549534   0.019538155267671192
-1.0132317029936926   -0.08438856143549534   0.019538155267671192
-0.9993771885979049   -0.08709738390170507   -0.04185566828113316
-0.9993771885979049   -0.08709738390170507   -0.04185566828113316
-0.9993771885979049   -0.08709738390170507   -0.04185566828113316
-0.9993771885979049   -0.08709738390170507   -0.04185566828113316
-0.5331928901153198   0.039255205282843944   0.03745408601524504
-0.5331928901153198   0.039255205282843944   0.03745408601524504
-0.5331928901153198   0.039255205282843944   0.03745408601524504
-0.5331928901153198   0.039255205282843944   0.03745408601524504
-0.7752836550287403   -0.0338211064838764   -0.004531663355690968
-0.7752836550287403   -0.0338211064838764   -0.004531663355690968
-0.7752836550287403   -0.0338211064838764   -0.004531663355690968
-0.7752836550287403   -0.0338211064838764   -0.004531663355690968
-0.5495067728633232   0.008563173677543556   -0.013423296119471712
-0.5495067728633232   0.008563173677543556   -0.013423296119471712
-0.5495067728633232   0.008563173677543556   -0.013423296119471712
-0.5495067728633232   0.008563173677543556   -0.013423296119471712
-0.9829953482716258   -0.05633739471812754   0.009293544166693715
-0.9829953482716258   -0.05633739471812754   0.009293544166693715
-0.9829953482716258   -0.05633739471812754   0.009293544166693715
-0.9829953482716258   -0.05633739471812754   0.009293544166693715
-0.9647508421587905   -0.05715188135520577   -0.046295195461266765
-0.9647508421587905   -0.05715188135520577   -0.046295195461266765
-0.9647508421587905   -0.05715188135520577   -0.046295195461266765
-0.9647508421587905   -0.05715188135520577   -0.046295195461266765
-0.5085234452172924   0.06339859256890153   0.02993594707976637
-0.5085234452172924   0.06339859256890153   0.02993594707976637
-0.5085234452172924   0.06339859256890153   0.02993594707976637
-0.5085234452172924   0.06339859256890153   0.02993594707976637
-0.7400577834835502   -0.005476523689330909   0.00830475115315498
-0.7400577834835502   -0.005476523689330909   0.00830475115315498
-0.7400577834835502   -0.005476523689330909   0.00830475115315498
-0.7400577834835502   -0.005476523689330909   0.00830475115315498
-0.5238378334424275   0.036368565987431586   -0.01960596746444298
-0.5238378334424275   0.036368565987431586   -0.01960596746444298
-0.5238378334424275   0.036368565987431586   -0.01960596746444298
-0.5238378334424275   0.036368565987431586   -0.01960596746444298
-0.9486246495954934   -0.02931005043557436   0.006493936435587898
-0.9486246495954934   -0.02931005043557436   0.006493936435587898
-0.9486246495954934   -0.02931005043557436   0.006493936435587898
-0.9486246495954934   -0.02931005043557436   0.006493936435587898
-0.9337887422026944   -0.02469368011482731   -0.048675919114475975
-0.9337887422026944   -0.02469368011482731   -0.048675919114475975
-0.9337887422026944   -0.02469368011482731   -0.048675919114475975
-0.9337887422026944   -0.02469368011482731   -0.048675919114475975
-0.48463037450968793   0.08994623125012473   0.024237946825343373
-0.48463037450968793   0.08994623125012473   0.024237946825343373
-0.48463037450968793   0.08994623125012473   0.024237946825343373
-0.48463037450968793   0.08994623125012473   0.024237946825343373
-0.7162294738415967   0.018755683894069147   0.019378102406916405
-0.7162294738415967   0.018755683894069147   0.019378102406916405
-0.7162294738415967   0.018755683894069147   0.019378102406916405
-0.7162294738415967   0.018755683894069147   0.019378102406916405
-1.0174863149052051   -0.04838787413594825   -0.03773559158943877
-1.0174863149052051   -0.04838787413594825   -0.03773559158943877
-1.0174863149052051   -0.04838787413594825   -0.03773559158943877
-1.0174863149052051   -0.04838787413594825   -0.03773559158943877
-1.4502259534242443   -0.05230360894343472   0.06538952417426137
-1.4502259534242443   -0.05230360894343472   0.06538952417426137
-1.4502259534242443   -0.05230360894343472   0.06538952417426137
-1.4502259534242443   -0.05230360894343472   0.06538952417426137
-1.4223682575193113   -0.10425070928267133   -0.05000196467960634
-1.4223682575193113   -0.10425070928267133   -0.05000196467960634
-1.4223682575193113   -0.10425070928267133   -0.05000196467960634
-1.4223682575193113   -0.10425070928267133   -0.05000196467960634
-0.9440724600234276   0.08110239545060455   0.0664681952389434
-0.9440724600234276   0.08110239545060455   0.0664681952389434
-0.9440724600234276   0.08110239545060455   0.0664681952389434
-0.9440724600234276   0.08110239545060455   0.0664681952389434
-1.154934059914533   -0.014276486089006862   0.013390793537742578
-1.154934059914533   -0.014276486089006862   0.013390793537742578
-1.154934059914533   -0.014276486089006862   0.013390793537742578
-1.154934059914533   -0.014276486089006862   0.013390793537742578
-0.9850104522907515   -0.015168857858709583   -0.041950512788357416
-0.9850104522907515   -0.015168857858709583   -0.041950512788357416
-0.9850104522907515   -0.015168857858709583   -0.041950512788357416
-0.9850104522907515   -0.015168857858709583   -0.041950512788357416
-1.3807539302816232   -0.007303121002989077   0.061122083229140325
-1.3807539302816232   -0.007303121002989077   0.061122083229140325
-1.3807539302816232   -0.007303121002989077   0.061122083229140325
-1.3807539302816232   -0.007303121002989077   0.061122083229140325
-1.3699657575183803   -0.08566775941956298   -0.058887523070762705
-1.3699657575183803   -0.08566775941956298   -0.058887523070762705
-1.3699657575183803   -0.08566775941956298   -0.058887523070762705
-1.3699657575183803   -0.08566775941956298   -0.058887523070762705
-0.9150145959093042   0.09256415070681273   0.05267000372414608
-0.9150145959093042   0.09256415070681273   0.05267000372414608
-0.9150145959093042   0.09256415070681273   0.05267000372414608
-0.9150145959093042   0.09256415070681273   0.05267000372414608
-1.127896443034755   0.00600734750006951   0.02407248657816241
-1.127896443034755   0.00600734750006951   0.02407248657816241
-1.127896443034755   0.00600734750006951   0.02407248657816241
-1.127896443034755   0.00600734750006951   0.02407248657816241
-0.9536450680929688   -0.00017479851483395703   -0.047743407972529496
-0.9536450680929688   -0.00017479851483395703   -0.047743407972529496
-0.9536450680929688   -0.00017479851483395703   -0.047743407972529496
-0.9536450680929688   -0.00017479851483395703   -0.047743407972529496
-1.3306609579589443   0.007745517177846828   0.04422319812898731
-1.3306609579589443   0.007745517177846828   0.04422319812898731
-1.3306609579589443   0.007745517177846828   0.04422319812898731
-1.3306609579589443   0.007745517177846828   0.04422319812898731
-1.3126891666947478   -0.06334488985424547   -0.06710526124427711
-1.3126891666947478   -0.06334488985424547   -0.06710526124427711
-1.3126891666947478   -0.06334488985424547   -0.06710526124427711
-1.3126891666947478   -0.06334488985424547   -0.06710526124427711
-0.8894776460770668   0.10333377847703906   0.044852102921795894
-0.8894776460770668   0.10333377847703906   0.044852102921795894
-0.8894776460770668   0.10333377847703906   0.044852102921795894
-0.8894776460770668   0.10333377847703906   0.044852102921795894
-1.070111237230227   0.022870104134076696   0.04021586834225176
-1.070111237230227   0.022870104134076696   0.04021586834225176
-1.070111237230227   0.022870104134076696   0.04021586834225176
-1.070111237230227   0.022870104134076696   0.04021586834225176
1.2765855686193803   0.09540692220746008   0.06762050922878032
1.2765855686193803   0.09540692220746008   0.06762050922878032
1.2765855686193803   0.09540692220746008   0.06762050922878032
1.2765855686193803   0.09540692220746008   0.06762050922878032
0.5631025717957362   -0.15032683419386997   -0.031077738224969134
0.5631025717957362   -0.15032683419386997   -0.031077738224969134
0.5631025717957362   -0.15032683419386997   -0.031077738224969134
0.5631025717957362   -0.15032683419386997   -0.031077738224969134
0.6278762379214613   -0.02643849251746866   0.04644493250665211
0.6278762379214613   -0.02643849251746866   0.04644493250665211
0.6278762379214613   -0.02643849251746866   0.04644493250665211
0.6278762379214613   -0.02643849251746866   0.04644493250665211
1.2906689573270866   -0.002352701934806467   -0.04870828253379643
1.2906689573270866   -0.002352701934806467   -0.04870828253379643
1.2906689573270866   -0.002352701934806467   -0.04870828253379643
1.2906689573270866   -0.002352701934806467   -0.04870828253379643
0.8845267552043967   -0.026811350111590804   -0.06918035940595131
0.8845267552043967   -0.026811350111590804   -0.06918035940595131
0.8845267552043967   -0.026811350111590804   -0.06918035940595131
0.8845267552043967   -0.026811350111590804   -0.06918035940595131
1.335622991515644   0.11713642416239381   0.05657276231178197
1.335622991515644   0.11713642416239381   0.05657276231178197
1.335622991515644   0.11713642416239381   0.05657276231178197
1.335622991515644   0.11713642416239381   0.05657276231178197
0.5872393126506616   -0.14161050969691188   -0.04156767666789869
0.5872393126506616   -0.14161050969691188   -0.04156767666789869
0.5872393126506616   -0.14161050969691188   -0.04156767666789869
0.5872393126506616   -0.14161050969691188   -0.04156767666789869
0.6532065047269401   -0.012716193954211558   0.03754969200862189
0.6532065047269401   -0.012716193954211558   0.03754969200862189
0.6532065047269401   -0.012716193954211558   0.03754969200862189
0.6532065047269401   -0.012716193954211558   0.03754969200862189
1.3349343933860802   0.012778243040772908   -0.06085927119345791
1.3349343933860802   0.012778243040772908   -0.06085927119345791
1.3349343933860802   0.012778243040772908   -0.06085927119345791
1.3349343933860802   0.012778243040772908   -0.06085927119345791
0.9401139061048152   -0.010640439165440801   -0.047057950984675335
0.9401139061048152   -0.010640439165440801   -0.047057950984675335
0.9401139061048152   -0.010640439165440801   -0.047057950984675335
0.9401139061048152   -0.010640439165440801   -0.047057950984675335
1.3796252417542645   0.13344354815598003   0.04192966553225547
1.3796252417542645   0.13344354815598003   0.04192966553225547
1.3796252417542645   0.13344354815598003   0.04192966553225547
1.3796252417542645   0.13344354815598003   0.04192966553225547
0.6122941185342169   -0.12960303689394762   -0.050125396015258394
0.6122941185342169   -0.12960303689394762   -0.050125396015258394
0.6122941185342169   -0.12960303689394762   -0.050125396015258394
0.6122941185342169   -0.12960303689394762   -0.050125396015258394
0.6761529419357162   0.02393759229905512   0.03292103034515467
0.6761529419357162   0.02393759229905512   0.03292103034515467
0.6761529419357162   0.02393759229905512   0.03292103034515467
0.6761529419357162   0.02393759229905512   0.03292103034515467
1.3893943233963866   0.057050664943054635   -0.06373196095054812
1.3893943233963866   0.057050664943054635   -0.06373196095054812
1.3893943233963866   0.057050664943054635   -0.06373196095054812
1.3893943233963866   0.057050664943054635   -0.06373196095054812
0.960899638414677   0.011130508719695092   -0.031745383029852435
0.960899638414677   0.011130508719695092   -0.031745383029852435
0.960899638414677   0.011130508719695092   -0.031745383029852435
0.960899638414677   0.011130508719695092   -0.031745383029852435
0.6229219376697462   0.05579207165950334   0.06190018529170351
0.6229219376697462   0.05579207165950334   0.06190018529170351
0.6229219376697462   0.05579207165950334   0.06190018529170351
0.6229219376697462   0.05579207165950334   0.06190018529170351
-0.07704143274621836   -0.18521624910804096   -0.0176981884705635
-0.07704143274621836   -0.18521624910804096   -0.0176981884705635
-0.07704143274621836   -0.18521624910804096   -0.0176981884705635
-0.07704143274621836   -0.18521624910804096   -0.0176981884705635
-0.021255947118435214   -0.06540972154416165   0.015740803801956808
-0.021255947118435214   -0.06540972154416165   0.015740803801956808
-0.021255947118435214   -0.06540972154416165   0.015740803801956808
-0.021255947118435214   -0.06540972154416165   0.015740803801956808
0.6176591796770808   -0.03414816785232666   0.0030693166196084573
0.6176591796770808   -0.03414816785232666   0.0030693166196084573
0.6176591796770808   -0.03414816785232666   0.0030693166196084573
0.6176591796770808   -0.03414816785232666   0.0030693166196084573
0.2778326461408835   -0.05162374027543408   -0.03296896982828279
0.2778326461408835   -0.05162374027543408   -0.03296896982828279
0.2778326461408835   -0.05162374027543408   -0.03296896982828279
0.2778326461408835   -0.05162374027543408   -0.03296896982828279
0.6501790935188079   0.07669439118173248   0.054826326794184255
0.6501790935188079   0.07669439118173248   0.054826326794184255
0.6501790935188079   0.07669439118173248   0.054826326794184255
0.6501790935188079   0.07669439118173248   0.054826326794184255
-0.051500625708193526   -0.1739770453262521   -0.02691526536474428
-0.051500625708193526   -0.1739770453262521   -0.02691526536474428
-0.051500625708193526   -0.1739770453262521   -0.02691526536474428
-0.051500625708193526   -0.1739770453262521   -0.02691526536474428
0.004573885408664472   -0.040856101490312526   0.009606478218405488
0.004573885408664472   -0.040856101490312526   0.009606478218405488
0.004573885408664472   -0.040856101490312526   0.009606478218405488
0.004573885408664472   -0.040856101490312526   0.009606478218405488
0.6441133237459754   -0.015634695284133193   -0.004997711566280205
0.6441133237459754   -0.015634695284133193   -0.004997711566280205
0.6441133237459754   -0.015634695284133193   -0.004997711566280205
0.6441133237459754   -0.015634695284133193   -0.004997711566280205
0.30026877519238426   -0.036548239433255233   -0.021371220396003643
0.30026877519238426   -0.036548239433255233   -0.021371220396003643
0.30026877519238426   -0.036548239433255233   -0.021371220396003643
0.30026877519238426   -0.036548239433255233   -0.021371220396003643
0.6783805471518597   0.10177056437536225   0.048933145803645564
0.6783805471518597   0.10177056437536225   0.048933145803645564
0.6783805471518597   0.10177056437536225   0.048933145803645564
0.6783805471518597   0.10177056437536225   0.048933145803645564
-0.02833980495572599   -0.15690782810833462   -0.03891024698552472
-0.02833980495572599   -0.15690782810833462   -0.03891024698552472
-0.02833980495572599   -0.15690782810833462   -0.03891024698552472
-0.02833980495572599   -0.15690782810833462   -0.03891024698552472
0.024849610741500532   -0.012099930843966978   0.0034060001350703865
0.024849610741500532   -0.012099930843966978   0.0034060001350703865
0.024849610741500532   -0.012099930843966978   0.0034060001350703865
0.024849610741500532   -0.012099930843966978   0.0034060001350703865
0.6639201686538253   0.007978612372743221   -0.012283856137999316
0.6639201686538253   0.007978612372743221   -0.012283856137999316
0.6639201686538253   0.007978612372743221   -0.012283856137999316
0.6639201686538253   0.007978612372743221   -0.012283856137999316
0.3277528762671378   -0.013998818816063768   -0.008928156582912801
0.3277528762671378   -0.013998818816063768   -0.008928156582912801
0.3277528762671378   -0.013998818816063768   -0.008928156582912801
0.3277528762671378   -0.013998818816063768   -0.008928156582912801
-0.027191825447658413   0.015581688724375662   0.030751910189819633
-0.027191825447658413   0.015581688724375662   0.030751910189819633
-0.027191825447658413   0.015581688724375662   0.030751910189819633
-0.027191825447658413   0.015581688724375662   0.030751910189819633
-0.7122429976344593   -0.23244233902410122   -0.014231478707442513
-0.7122429976344593   -0.23244233902410122   -0.014231478707442513
-0.7122429976344593   -0.23244233902410122   -0.014231478707442513
-0.7122429976344593   -0.23244233902410122   -0.014231478707442513
-0.65581482718233   -0.1003445743555027   -0.014990257325825583
-0.65581482718233   -0.1003445743555027   -0.014990257325825583
-0.65581482718233   -0.1003445743555027   -0.014990257325825583
-0.65581482718233   -0.1003445743555027   -0.014990257325825583
-0.02452286639860348   -0.07987690730301154   0.013873393159965358
-0.02452286639860348   -0.07987690730301154   0.013873393159965358
-0.02452286639860348   -0.07987690730301154   0.013873393159965358
-0.02452286639860348   -0.07987690730301154   0.013873393159965358
-0.35655721723565786   -0.09394926008130472   -0.02945089764658909
-0.35655721723565786   -0.09394926008130472   -0.02945089764658909
-0.35655721723565786   -0.09394926008130472   -0.02945089764658909
-0.35655721723565786   -0.09394926008130472   -0.02945089764658909
0.0014974193613607727   0.039112924458139874   0.02498499019863523
0.0014974193613607727   0.039112924458139874   0.02498499019863523
0.0014974193613607727   0.039112924458139874   0.02498499019863523
0.0014974193613607727   0.039112924458139874   0.02498499019863523
-0.6801919408133514   -0.21769123398769086   -0.019529165848744607
-0.6801919408133514   -0.21769123398769086   -0.019529165848744607
-0.6801919408133514   -0.21769123398769086   -0.019529165848744607
-0.6801919408133514   -0.21769123398769086   -0.019529165848744607
-0.6237771110618787   -0.07308656906041161   -0.020411818415013522
-0.6237771110618787   -0.07308656906041161   -0.020411818415013522
-0.6237771110618787   -0.07308656906041161   -0.020411818415013522
-0.6237771110618787   -0.07308656906041161   -0.020411818415013522
-0.00045904787172330874   -0.062085624118038425   0.005671334444192495
-0.00045904787172330874   -0.062085624118038425   0.005671334444192495
-0.00045904787172330874   -0.062085624118038425   0.005671334444192495
-0.00045904787172330874   -0.062085624118038425   0.005671334444192495
-0.3254563919061835   -0.07435256427056047   -0.016353683586460763
-0.3254563919061835   -0.07435256427056047   -0.016353683586460763
-0.3254563919061835   -0.07435256427056047   -0.016353683586460763
-0.3254563919061835   -0.07435256427056047   -0.016353683586460763
0.02775070034519833   0.06519020598846577   0.019444245422296495
0.02775070034519833   0.06519020598846577   0.019444245422296495
0.02775070034519833   0.06519020598846577   0.019444245422296495
0.02775070034519833   0.06519020598846577   0.019444245422296495
-0.6519965237252526   -0.20037206361336735   -0.034223387178922746
-0.6519965237252526   -0.20037206361336735   -0.034223387178922746
-0.6519965237252526   -0.20037206361336735   -0.034223387178922746
-0.6519965237252526   -0.20037206361336735   -0.034223387178922746
-0.6011370876009924   -0.0471031214324016   -0.02647326632942278
-0.6011370876009924   -0.0471031214324016   -0.02647326632942278
-0.6011370876009924   -0.0471031214324016   -0.02647326632942278
-0.6011370876009924   -0.0471031214324016   -0.02647326632942278
0.015341651623263635   -0.04786778021001927   -0.008365946090063723
0.015341651623263635   -0.04786778021001927   -0.008365946090063723
0.015341651623263635   -0.04786778021001927   -0.008365946090063723
0.015341651623263635   -0.04786778021001927   -0.008365946090063723
-0.30264507115112127   -0.05607484830344221   -0.008153272245636892
-0.30264507115112127   -0.05607484830344221   -0.008153272245636892
-0.30264507115112127   -0.05607484830344221   -0.008153272245636892
-0.30264507115112127   -0.05607484830344221   -0.008153272245636892
-0.6669558792392046   -0.01924056074097888   -0.0009976650142957469
-0.6669558792392046   -0.01924056074097888   -0.0009976650142957469
-0.6669558792392046   -0.01924056074097888   -0.0009976650142957469
-0.6669558792392046   -0.01924056074097888   -0.0009976650142957469
-1.3503828966913285   -0.24990332323884892   -0.011442881279874523
-1.3503828966913285   -0.24990332323884892   -0.011442881279874523
-1.3503828966913285   -0.24990332323884892   -0.011442881279874523
-1.3503828966913285   -0.24990332323884892   -0.011442881279874523
-1.289787749219095   -0.1284725542489814   -0.044589852540106514
-1.289787749219095   -0.1284725542489814   -0.044589852540106514
-1.289787749219095   -0.1284725542489814   -0.044589852540106514
-1.289787749219095   -0.1284725542489814   -0.044589852540106514
-0.6434618015152077   -0.0829857763891254   0.02941607304340298
-0.6434618015152077   -0.0829857763891254   0.02941607304340298
-0.6434618015152077   -0.0829857763891254   0.02941607304340298
-0.6434618015152077   -0.0829857763891254   0.02941607304340298
-0.9789975196046522   -0.11294644529180141   -0.02075781789142053
-0.9789975196046522   -0.11294644529180141   -0.02075781789142053
-0.9789975196046522   -0.11294644529180141   -0.02075781789142053
-0.9789975196046522   -0.11294644529180141   -0.02075781789142053
-0.631563211019986   0.011062478104115814   -0.0051392289737294955
-0.631563211019986   0.011062478104115814   -0.0051392289737294955
-0.631563211019986   0.011062478104115814   -0.0051392289737294955
-0.631563211019986   0.011062478104115814   -0.0051392289737294955
-1.3022052996236457   -0.22303976865155992   -0.012110390160270273
-1.3022052996236457   -0.22303976865155992   -0.012110390160270273
-1.3022052996236457   -0.22303976865155992   -0.012110390160270273
-1.3022052996236457   -0.22303976865155992   -0.012110390160270273
-1.2439897465534824   -0.10000982127447935   -0.05163982080094796
-1.2439897465534824   -0.10000982127447935   -0.05163982080094796
-1.2439897465534824   -0.10000982127447935   -0.05163982080094796
-1.2439897465534824   -0.10000982127447935   -0.05163982080094796
-0.6123496257761717   -0.06161542083592891   0.025254459789043726
-0.6123496257761717   -0.06161542083592891   0.025254459789043726
-0.6123496257761717   -0.06161542083592891   0.025254459789043726
-0.6123496257761717   -0.06161542083592891   0.025254459789043726
-0.9319299238989048   -0.08563872324501531   -0.006816882177695341
-0.9319299238989048   -0.08563872324501531   -0.006816882177695341
-0.9319299238989048   -0.08563872324501531   -0.006816882177695341
-0.9319299238989048   -0.08563872324501531   -0.006816882177695341
-0.5994496851648639   0.03737825297113603   -0.00923951096148954
-0.5994496851648639   0.03737825297113603   -0.00923951096148954
-0.5994496851648639   0.03737825297113603   -0.00923951096148954
-0.5994496851648639   0.03737825297113603   -0.00923951096148954
-1.2590954344007217   -0.2012092423174858   -0.02596883899412932
-1.2590954344007217   -0.2012092423174858   -0.02596883899412932
-1.2590954344007217   -0.2012092423174858   -0.02596883899412932
-1.2590954344007217   -0.2012092423174858   -0.02596883899412932
-1.2068349501102946   -0.06999947494906725   -0.053286008570071285
-1.2068349501102946   -0.06999947494906725   -0.053286008570071285
-1.2068349501102946   -0.06999947494906725   -0.053286008570071285
-1.2068349501102946   -0.06999947494906725   -0.053286008570071285
-0.5944778603463663   -0.04802917475684762   0.0077489232681584586
-0.5944778603463663   -0.04802917475684762   0.0077489232681584586
-0.5944778603463663   -0.04802917475684762   0.0077489232681584586
-0.5944778603463663   -0.04802917475684762   0.0077489232681584586
-0.9059711065121608   -0.06899169403613911   -0.002266057883241121
-0.9059711065121608   -0.06899169403613911   -0.002266057883241121
-0.9059711065121608   -0.06899169403613911   -0.002266057883241121
-0.9059711065121608   -0.06899169403613911   -0.002266057883241121
-1.3135357605806255   -0.04455465000216566   -0.032555873963042554
-1.3135357605806255   -0.04455465000216566   -0.032555873963042554
-1.3135357605806255   -0.04455465000216566   -0.032555873963042554
-1.3135357605806255   -0.04455465000216566   -0.032555873963042554
-1.9806575069532966   -0.16899324980183184   0.07485713569605827
-1.9806575069532966   -0.16899324980183184   0.07485713569605827
-1.9806575069532966   -0.16899324980183184   0.07485713569605827
-1.9806575069532966   -0.16899324980183184   0.07485713569605827
-1.9127068812693258   -0.13463262059122638   -0.043572463724313254
-1.9127068812693258   -0.13463262059122638   -0.043572463724313254
-1.9127068812693258   -0.13463262059122638   -0.043572463724313254
-1.9127068812693258   -0.13463262059122638   -0.043572463724313254
-1.2343311681566391   0.03539364120695615   0.06882685731622354
-1.2343311681566391   0.03539364120695615   0.06882685731622354
-1.2343311681566391   0.03539364120695615   0.06882685731622354
-1.2343311681566391   0.03539364120695615   0.06882685731622354
-1.5382604802505049   -0.053024532496831756   0.0073812521708425255
-1.5382604802505049   -0.053024532496831756   0.0073812521708425255
-1.5382604802505049   -0.053024532496831756   0.0073812521708425255
-1.5382604802505049   -0.053024532496831756   0.0073812521708425255
-1.2630327028536006   -0.003200605962950631   -0.036086568998659724
-1.2630327028536006   -0.003200605962950631   -0.036086568998659724
-1.2630327028536006   -0.003200605962950631   -0.036086568998659724
-1.2630327028536006   -0.003200605962950631   -0.036086568998659724
-1.8793764534175568   -0.09140948026650914   0.07985653520981453
-1.8793764534175568   -0.09140948026650914   0.07985653520981453
-1.8793764534175568   -0.09140948026650914   0.07985653520981453
-1.8793764534175568   -0.09140948026650914   0.07985653520981453
-1.83981101247524   -0.11330716161770882   -0.05189014133252583
-1.83981101247524   -0.11330716161770882   -0.05189014133252583
-1.83981101247524   -0.11330716161770882   -0.05189014133252583
-1.83981101247524   -0.11330716161770882   -0.05189014133252583
-1.1890396763907942   0.056641683767834794   0.06645902497017897
-1.1890396763907942   0.056641683767834794   0.06645902497017897
-1.1890396763907942   0.056641683767834794   0.06645902497017897
-1.1890396763907942   0.056641683767834794   0.06645902497017897
-1.4952453552782392   -0.021388952435184294   0.030643400856282435
-1.4952453552782392   -0.021388952435184294   0.030643400856282435
-1.4952453552782392   -0.021388952435184294   0.030643400856282435
-1.4952453552782392   -0.021388952435184294   0.030643400856282435
-1.2187570352688748   0.013487037466322627   -0.03897312311870324
-1.2187570352688748   0.013487037466322627   -0.03897312311870324
-1.2187570352688748   0.013487037466322627   -0.03897312311870324
-1.2187570352688748   0.013487037466322627   -0.03897312311870324
-1.809156266913245   -0.0692151286322985   0.05729155349202478
-1.809156266913245   -0.0692151286322985   0.05729155349202478
-1.809156266913245   -0.0692151286322985   0.05729155349202478
-1.809156266913245   -0.0692151286322985   0.05729155349202478
-1.7644202227894117   -0.09316740531701706   -0.06271123933607854
-1.7644202227894117   -0.09316740531701706   -0.06271123933607854
-1.7644202227894117   -0.09316740531701706   -0.06271123933607854
-1.7644202227894117   -0.09316740531701706   -0.06271123933607854
-1.1554836534168822   0.08206302856815617   0.05140797137976699
-1.1554836534168822   0.08206302856815617   0.05140797137976699
-1.1554836534168822   0.08206302856815617   0.05140797137976699
-1.1554836534168822   0.08206302856815617   0.05140797137976699
-1.4141745984399023   0.005652916030029875   0.05395322194804279
-1.4141745984399023   0.005652916030029875   0.05395322194804279
-1.4141745984399023   0.005652916030029875   0.05395322194804279
-1.4141745984399023   0.005652916030029875   0.05395322194804279
1.7431963041766354   0.10454271392908182   0.06317627000889063
1.7431963041766354   0.10454271392908182   0.06317627000889063
1.7431963041766354   0.10454271392908182   0.06317627000889063
1.7431963041766354   0.10454271392908182   0.06317627000889063
0.8309629668406748   -0.1556056938270648   0.01411777639875314
0.8309629668406748   -0.1556056938270648   0.01411777639875314
0.8309629668406748   -0.1556056938270648   0.01411777639875314
0.8309629668406748   -0.1556056938270648   0.01411777639875314
0.8768032008356363   -0.06566525608539606   0.04859470320470567
0.8768032008356363   -0.06566525608539606   0.04859470320470567
0.8768032008356363   -0.06566525608539606   0.04859470320470567
0.8768032008356363   -0.06566525608539606   0.04859470320470567
1.7523752755685418   0.014917463863725666   -0.014073003197390715
1.7523752755685418   0.014917463863725666   -0.014073003197390715
1.7523752755685418   0.014917463863725666   -0.014073003197390715
1.7523752755685418   0.014917463863725666   -0.014073003197390715
1.2255588239261517   -0.033416920507479964   -0.08142739115254964
1.2255588239261517   -0.033416920507479964   -0.08142739115254964
1.2255588239261517   -0.033416920507479964   -0.08142739115254964
1.2255588239261517   -0.033416920507479964   -0.08142739115254964
1.785466360658002   0.11634034371738583   0.04995954239624974
1.785466360658002   0.11634034371738583   0.04995954239624974
1.785466360658002   0.11634034371738583   0.04995954239624974
1.785466360658002   0.11634034371738583   0.04995954239624974
0.8516510563558788   -0.15914919532935368   0.016317920049875423
0.8516510563558788   -0.15914919532935368   0.016317920049875423
0.8516510563558788   -0.15914919532935368   0.016317920049875423
0.8516510563558788   -0.15914919532935368   0.016317920049875423
0.8941638976167666   -0.055808472314005264   0.03697764780190363
0.8941638976167666   -0.055808472314005264   0.03697764780190363
0.8941638976167666   -0.055808472314005264   0.03697764780190363
0.8941638976167666   -0.055808472314005264   0.03697764780190363
1.7830661476641796   0.02602966173232968   -0.004311772676393141
1.7830661476641796   0.02602966173232968   -0.004311772676393141
1.7830661476641796   0.02602966173232968   -0.004311772676393141
1.7830661476641796   0.02602966173232968   -0.004311772676393141
1.276098081527615   -0.02642391094864177   -0.0556308446230247
1.276098081527615   -0.02642391094864177   -0.0556308446230247
1.276098081527615   -0.02642391094864177   -0.0556308446230247
1.276098081527615   -0.02642391094864177   -0.0556308446230247
1.8110645942766093   0.12709846823433274   0.03461165388375123
1.8110645942766093   0.12709846823433274   0.03461165388375123
1.8110645942766093   0.12709846823433274   0.03461165388375123
1.8110645942766093   0.12709846823433274   0.03461165388375123
0.8716879537673573   -0.1513547760529882   0.020144232293839895
0.8716879537673573   -0.1513547760529882   0.020144232293839895
0.8716879537673573   -0.1513547760529882   0.020144232293839895
0.8716879537673573   -0.1513547760529882   0.020144232293839895
0.9197154933908737   -0.017377928751006272   0.03380390058466045
0.9197154933908737   -0.017377928751006272   0.03380390058466045
0.9197154933908737   -0.017377928751006272   0.03380390058466045
0.9197154933908737   -0.017377928751006272   0.03380390058466045
1.8149887645889358   0.05149743612093427   -0.0007152985725263905
1.8149887645889358   0.05149743612093427   -0.0007152985725263905
1.8149887645889358   0.05149743612093427   -0.0007152985725263905
1.8149887645889358   0.05149743612093427   -0.0007152985725263905
1.2823606512955046   -0.012177474423087087   -0.04158853839089953
1.2823606512955046   -0.012177474423087087   -0.04158853839089953
1.2823606512955046   -0.012177474423087087   -0.04158853839089953
1.2823606512955046   -0.012177474423087087   -0.04158853839089953
0.8769836085264782   0.022376212533960077   0.06623907846674526
0.8769836085264782   0.022376212533960077   0.06623907846674526
0.8769836085264782   0.022376212533960077   0.06623907846674526
0.8769836085264782   0.022376212533960077   0.06623907846674526
0.04603952090923179   -0.3098687682875748   0.03179093969282802
0.04603952090923179   -0.3098687682875748   0.03179093969282802
0.04603952090923179   -0.3098687682875748   0.03179093969282802
0.04603952090923179   -0.3098687682875748   0.03179093969282802
0.10576827746668885   -0.1312070947287516   0.029665584447875808
0.10576827746668885   -0.1312070947287516   0.029665584447875808
0.10576827746668885   -0.1312070947287516   0.029665584447875808
0.10576827746668885   -0.1312070947287516   0.029665584447875808
0.8544910902121647   -0.14881303819710345   0.020181932199043406
0.8544910902121647   -0.14881303819710345   0.020181932199043406
0.8544910902121647   -0.14881303819710345   0.020181932199043406
0.8544910902121647   -0.14881303819710345   0.020181932199043406
0.45552808587983734   -0.13887141569490932   -0.05204590860422257
0.45552808587983734   -0.13887141569490932   -0.05204590860422257
0.45552808587983734   -0.13887141569490932   -0.05204590860422257
0.45552808587983734   -0.13887141569490932   -0.05204590860422257
0.8977449836879948   0.03231900158512968   0.05531935979597626
0.8977449836879948   0.03231900158512968   0.05531935979597626
0.8977449836879948   0.03231900158512968   0.05531935979597626
0.8977449836879948   0.03231900158512968   0.05531935979597626
0.07393396898980133   -0.30091954951204947   0.04020649684673806
0.07393396898980133   -0.30091954951204947   0.04020649684673806
0.07393396898980133   -0.30091954951204947   0.04020649684673806
0.07393396898980133   -0.30091954951204947   0.04020649684673806
0.12977908006214164   -0.11320290076742631   0.02149550470108791
0.12977908006214164   -0.11320290076742631   0.02149550470108791
0.12977908006214164   -0.11320290076742631   0.02149550470108791
0.12977908006214164   -0.11320290076742631   0.02149550470108791
0.8750443737599829   -0.13937905532715678   0.024950611531136396
0.8750443737599829   -0.13937905532715678   0.024950611531136396
0.8750443737599829   -0.13937905532715678   0.024950611531136396
0.8750443737599829   -0.13937905532715678   0.024950611531136396
0.4759626958883692   -0.1319758156139288   -0.026024613588210718
0.4759626958883692   -0.1319758156139288   -0.026024613588210718
0.4759626958883692   -0.1319758156139288   -0.026024613588210718
0.4759626958883692   -0.1319758156139288   -0.026024613588210718
0.917110783337042   0.04928754980431577   0.0466160542849593
0.917110783337042   0.04928754980431577   0.0466160542849593
0.917110783337042   0.04928754980431577   0.0466160542849593
0.917110783337042   0.04928754980431577   0.0466160542849593
0.09869877813582278   -0.2908833982481685   0.0437744925502378
0.09869877813582278   -0.2908833982481685   0.0437744925502378
0.09869877813582278   -0.2908833982481685   0.0437744925502378
0.09869877813582278   -0.2908833982481685   0.0437744925502378
0.16663475614588746   -0.08617547159369948   0.014231136537725002
0.16663475614588746   -0.08617547159369948   0.014231136537725002
0.16663475614588746   -0.08617547159369948   0.014231136537725002
0.16663475614588746   -0.08617547159369948   0.014231136537725002
0.8975375030620187   -0.12504089764498533   0.030576917834371997
0.8975375030620187   -0.12504089764498533   0.030576917834371997
0.8975375030620187   -0.12504089764498533   0.030576917834371997
0.8975375030620187   -0.12504089764498533   0.030576917834371997
0.5118089498772618   -0.11527753913993657   0.004259286275706153
0.5118089498772618   -0.11527753913993657   0.004259286275706153
0.5118089498772618   -0.11527753913993657   0.004259286275706153
0.5118089498772618   -0.11527753913993657   0.004259286275706153
0.0983961807381401   -0.05893926124843467   0.04264473179822945
0.0983961807381401   -0.05893926124843467   0.04264473179822945
0.0983961807381401   -0.05893926124843467   0.04264473179822945
0.0983961807381401   -0.05893926124843467   0.04264473179822945
-0.7453278830102162   -0.5321938933459175   0.0460768405834109
-0.7453278830102162   -0.5321938933459175   0.0460768405834109
-0.7453278830102162   -0.5321938933459175   0.0460768405834109
-0.7453278830102162   -0.5321938933459175   0.0460768405834109
-0.6509115862048908   -0.20731737043708728   0.003059797295873981
-0.6509115862048908   -0.20731737043708728   0.003059797295873981
-0.6509115862048908   -0.20731737043708728   0.003059797295873981
-0.6509115862048908   -0.20731737043708728   0.003059797295873981
0.052185533692782476   -0.3870409375478823   0.017585708397476668
0.052185533692782476   -0.3870409375478823   0.017585708397476668
0.052185533692782476   -0.3870409375478823   0.017585708397476668
0.052185533692782476   -0.3870409375478823   0.017585708397476668
-0.3211537069842281   -0.298495642747374   -0.06245049549756338
-0.3211537069842281   -0.298495642747374   -0.06245049549756338
-0.3211537069842281   -0.298495642747374   -0.06245049549756338
-0.3211537069842281   -0.298495642747374   -0.06245049549756338
0.12353877063286538   -0.046314222848924225   0.03362517839893307
0.12353877063286538   -0.046314222848924225   0.03362517839893307
0.12353877063286538   -0.046314222848924225   0.03362517839893307
0.12353877063286538   -0.046314222848924225   0.03362517839893307
-0.7057347584882837   -0.5315140204793646   0.05314058592119292
-0.7057347584882837   -0.5315140204793646   0.05314058592119292
-0.7057347584882837   -0.5315140204793646   0.05314058592119292
-0.7057347584882837   -0.5315140204793646   0.05314058592119292
-0.6144919773908093   -0.18603818977503522   -5.8564321705464883e-05
-0.6144919773908093   -0.18603818977503522   -5.8564321705464883e-05
-0.6144919773908093   -0.18603818977503522   -5.8564321705464883e-05
-0.6144919773908093   -0.18603818977503522   -5.8564321705464883e-05
0.07749919823573308   -0.3785085481639279   0.025401742965548688
0.07749919823573308   -0.3785085481639279   0.025401742965548688
0.07749919823573308   -0.3785085481639279   0.025401742965548688
0.07749919823573308   -0.3785085481639279   0.025401742965548688
-0.28426379095651266   -0.2882866542368493   -0.02327659820786533
-0.28426379095651266   -0.2882866542368493   -0.02327659820786533
-0.28426379095651266   -0.2882866542368493   -0.02327659820786533
-0.28426379095651266   -0.2882866542368493   -0.02327659820786533
0.14652595424899745   -0.02951457967428687   0.021541554542229523
0.14652595424899745   -0.02951457967428687   0.021541554542229523
0.14652595424899745   -0.02951457967428687   0.021541554542229523
0.14652595424899745   -0.02951457967428687   0.021541554542229523
-0.6686019720421938   -0.520115396902795   0.06346866954914072
-0.6686019720421938   -0.520115396902795   0.06346866954914072
-0.6686019720421938   -0.520115396902795   0.06346866954914072
-0.6686019720421938   -0.520115396902795   0.06346866954914072
-0.5543922911962   -0.16152813036040323   -0.00693375402251978
-0.5543922911962   -0.16152813036040323   -0.00693375402251978
-0.5543922911962   -0.16152813036040323   -0.00693375402251978
-0.5543922911962   -0.16152813036040323   -0.00693375402251978
0.11701307901752425   -0.35472229422833723   0.0346695735305447
0.11701307901752425   -0.35472229422833723   0.0346695735305447
0.11701307901752425   -0.35472229422833723   0.0346695735305447
0.11701307901752425   -0.35472229422833723   0.0346695735305447
-0.23639334772285545   -0.2654572493696988   0.01771354186368341
-0.23639334772285545   -0.2654572493696988   0.01771354186368341
-0.23639334772285545   -0.2654572493696988   0.01771354186368341
-0.23639334772285545   -0.2654572493696988   0.01771354186368341
-0.6653473524586684   -0.10654209844775737   0.020327698442984442
-0.6653473524586684   -0.10654209844775737   0.020327698442984442
-0.6653473524586684   -0.10654209844775737   0.020327698442984442
-0.6653473524586684   -0.10654209844775737   0.020327698442984442
-1.6579447865002603   -0.8283282795978063   -0.03892547891753717
-1.6579447865002603   -0.8283282795978063   -0.03892547891753717
-1.6579447865002603   -0.8283282795978063   -0.03892547891753717
-1.6579447865002603   -0.8283282795978063   -0.03892547891753717
-1.5021452020165234   -0.2697589652474064   -0.045766470746624995
-1.5021452020165234   -0.2697589652474064   -0.045766470746624995
-1.5021452020165234   -0.2697589652474064   -0.045766470746624995
-1.5021452020165234   -0.2697589652474064   -0.045766470746624995
-0.7457564053137187   -0.6924263195643723   0.013944650879019471
-0.7457564053137187   -0.6924263195643723   0.013944650879019471
-0.7457564053137187   -0.6924263195643723   0.013944650879019471
-0.7457564053137187   -0.6924263195643723   0.013944650879019471
-1.1415111927212738   -0.48995479219230265   -0.06561015996956829
-1.1415111927212738   -0.48995479219230265   -0.06561015996956829
-1.1415111927212738   -0.48995479219230265   -0.06561015996956829
-1.1415111927212738   -0.48995479219230265   -0.06561015996956829
-0.6223248466360816   -0.08075531256784514   0.019431437270678104
-0.6223248466360816   -0.08075531256784514   0.019431437270678104
-0.6223248466360816   -0.08075531256784514   0.019431437270678104
-0.6223248466360816   -0.08075531256784514   0.019431437270678104
-1.6217951886503135   -0.8776484002000762   -0.03612696896290532
-1.6217951886503135   -0.8776484002000762   -0.03612696896290532
-1.6217951886503135   -0.8776484002000762   -0.03612696896290532
-1.6217951886503135   -0.8776484002000762   -0.03612696896290532
-1.453649973263148   -0.244254850544497   -0.04664234126675892
-1.453649973263148   -0.244254850544497   -0.04664234126675892
-1.453649973263148   -0.244254850544497   -0.04664234126675892
-1.453649973263148   -0.244254850544497   -0.04664234126675892
-0.7104389003185554   -0.6869449419887311   0.02111357325326413
-0.7104389003185554   -0.6869449419887311   0.02111357325326413
-0.7104389003185554   -0.6869449419887311   0.02111357325326413
-0.7104389003185554   -0.6869449419887311   0.02111357325326413
-1.0906017641678605   -0.47665796500191526   -0.04596207914188927
-1.0906017641678605   -0.47665796500191526   -0.04596207914188927
-1.0906017641678605   -0.47665796500191526   -0.04596207914188927
-1.0906017641678605   -0.47665796500191526   -0.04596207914188927
-0.588065712120989   -0.06050217967686742   0.0065367519292299555
-0.588065712120989   -0.06050217967686742   0.0065367519292299555
-0.588065712120989   -0.06050217967686742   0.0065367519292299555
-0.588065712120989   -0.06050217967686742   0.0065367519292299555
-1.5759273502222553   -0.8706018016178995   -0.03168227498887799
-1.5759273502222553   -0.8706018016178995   -0.03168227498887799
-1.5759273502222553   -0.8706018016178995   -0.03168227498887799
-1.5759273502222553   -0.8706018016178995   -0.03168227498887799
-1.3779872102054933   -0.21685614429230182   -0.05287657455004721
-1.3779872102054933   -0.21685614429230182   -0.05287657455004721
-1.3779872102054933   -0.21685614429230182   -0.05287657455004721
-1.3779872102054933   -0.21685614429230182   -0.05287657455004721
-0.6340278309094044   -0.6175384667543268   0.05089888380539226
-0.6340278309094044   -0.6175384667543268   0.05089888380539226
-0.6340278309094044   -0.6175384667543268   0.05089888380539226
-0.6340278309094044   -0.6175384667543268   0.05089888380539226
-1.0338275608495051   -0.4319647302532065   -0.025496131299245273
-1.0338275608495051   -0.4319647302532065   -0.025496131299245273
-1.0338275608495051   -0.4319647302532065   -0.025496131299245273
-1.0338275608495051   -0.4319647302532065   -0.025496131299245273
-1.5047763755647194   -0.09089232619237991   -0.010519377645258912
-1.5047763755647194   -0.09089232619237991   -0.010519377645258912
-1.5047763755647194   -0.09089232619237991   -0.010519377645258912
-1.5047763755647194   -0.09089232619237991   -0.010519377645258912
-2.6549879004218195   -0.5255782873087144   0.0270964638782476
-2.6549879004218195   -0.5255782873087144   0.0270964638782476
-2.6549879004218195   -0.5255782873087144   0.0270964638782476
-2.6549879004218195   -0.5255782873087144   0.0270964638782476
-2.550537026640458   -0.25278846417630574   -0.0558778111162673
-2.550537026640458   -0.25278846417630574   -0.0558778111162673
-2.550537026640458   -0.25278846417630574   -0.0558778111162673
-2.550537026640458   -0.25278846417630574   -0.0558778111162673
-1.4716198124913284   -0.27241971680989974   0.10952122844182971
-1.4716198124913284   -0.27241971680989974   0.10952122844182971
-1.4716198124913284   -0.27241971680989974   0.10952122844182971
-1.4716198124913284   -0.27241971680989974   0.10952122844182971
-1.9626332763725909   -0.30480305091146287   0.028026425939319144
-1.9626332763725909   -0.30480305091146287   0.028026425939319144
-1.9626332763725909   -0.30480305091146287   0.028026425939319144
-1.9626332763725909   -0.30480305091146287   0.028026425939319144
-1.4429798145558446   -0.02003429939520518   0.00033580070456089295
-1.4429798145558446   -0.02003429939520518   0.00033580070456089295
-1.4429798145558446   -0.02003429939520518   0.00033580070456089295
-1.4429798145558446   -0.02003429939520518   0.00033580070456089295
-2.58910565698418   -0.5151025139992305   0.013593086988027414
-2.58910565698418   -0.5151025139992305   0.013593086988027414
-2.58910565698418   -0.5151025139992305   0.013593086988027414
-2.58910565698418   -0.5151025139992305   0.013593086988027414
-2.493058307653974   -0.23163899520382314   -0.07092573862493096
-2.493058307653974   -0.23163899520382314   -0.07092573862493096
-2.493058307653974   -0.23163899520382314   -0.07092573862493096
-2.493058307653974   -0.23163899520382314   -0.07092573862493096
-1.4217001085545626   -0.25880799613714633   0.12766012786883119
-1.4217001085545626   -0.25880799613714633   0.12766012786883119
-1.4217001085545626   -0.25880799613714633   0.12766012786883119
-1.4217001085545626   -0.25880799613714633   0.12766012786883119
-1.9323417165571255   -0.25104307068325393   0.026965195613214116
-1.9323417165571255   -0.25104307068325393   0.026965195613214116
-1.9323417165571255   -0.25104307068325393   0.026965195613214116
-1.9323417165571255   -0.25104307068325393   0.026965195613214116
-1.3985089525561503   -0.001318661762112594   -0.013873426514140391
-1.3985089525561503   -0.001318661762112594   -0.013873426514140391
-1.3985089525561503   -0.001318661762112594   -0.013873426514140391
-1.3985089525561503   -0.001318661762112594   -0.013873426514140391
-2.519877747076502   -0.49275661300298623   0.056094682061570755
-2.519877747076502   -0.49275661300298623   0.056094682061570755
-2.519877747076502   -0.49275661300298623   0.056094682061570755
-2.519877747076502   -0.49275661300298623   0.056094682061570755
-2.37369336793571   -0.18772403834246287   -0.07931764865450036
-2.37369336793571   -0.18772403834246287   -0.07931764865450036
-2.37369336793571   -0.18772403834246287   -0.07931764865450036
-2.37369336793571   -0.18772403834246287   -0.07931764865450036
-1.344038641769152   -0.24067141973829775   0.14068154307766328
-1.344038641769152   -0.24067141973829775   0.14068154307766328
-1.344038641769152   -0.24067141973829775   0.14068154307766328
-1.344038641769152   -0.24067141973829775   0.14068154307766328
-1.8168121762150977   -0.19192929849073329   0.05536294795671375
-1.8168121762150977   -0.19192929849073329   0.05536294795671375
-1.8168121762150977   -0.19192929849073329   0.05536294795671375
-1.8168121762150977   -0.19192929849073329   0.05536294795671375
1.9093415409346701   0.06261855951312667   0.02686046900571515
1.9093415409346701   0.06261855951312667   0.02686046900571515
1.9093415409346701   0.06261855951312667   0.02686046900571515
1.9093415409346701   0.06261855951312667   0.02686046900571515
0.974835258370531   -0.051375659617958924   0.019746650172671715
0.974835258370531   -0.051375659617958924   0.019746650172671715
0.974835258370531   -0.051375659617958924   0.019746650172671715
0.974835258370531   -0.051375659617958924   0.019746650172671715
0.9367679157332419   -0.13761398591179191   0.03887710776032113
0.9367679157332419   -0.13761398591179191   0.03887710776032113
0.9367679157332419   -0.13761398591179191   0.03887710776032113
0.9367679157332419   -0.13761398591179191   0.03887710776032113
1.8954841119053425   0.10679386322142137   0.014283910192179061
1.8954841119053425   0.10679386322142137   0.014283910192179061
1.8954841119053425   0.10679386322142137   0.014283910192179061
1.8954841119053425   0.10679386322142137   0.014283910192179061
1.3529418637053188   -0.019200662425371384   -0.04996368242088671
1.3529418637053188   -0.019200662425371384   -0.04996368242088671
1.3529418637053188   -0.019200662425371384   -0.04996368242088671
1.3529418637053188   -0.019200662425371384   -0.04996368242088671
1.885055639923414   0.048379350062474846   0.02055606344148278
1.885055639923414   0.048379350062474846   0.02055606344148278
1.885055639923414   0.048379350062474846   0.02055606344148278
1.885055639923414   0.048379350062474846   0.02055606344148278
0.9440826725097377   -0.08231318795827822   0.020150093689286164
0.9440826725097377   -0.08231318795827822   0.020150093689286164
0.9440826725097377   -0.08231318795827822   0.020150093689286164
0.9440826725097377   -0.08231318795827822   0.020150093689286164
0.9124895767396484   -0.14079188049874786   0.03215708709275049
0.9124895767396484   -0.14079188049874786   0.03215708709275049
0.9124895767396484   -0.14079188049874786   0.03215708709275049
0.9124895767396484   -0.14079188049874786   0.03215708709275049
1.873299650444524   0.10216989605643345   0.024732167196867536
1.873299650444524   0.10216989605643345   0.024732167196867536
1.873299650444524   0.10216989605643345   0.024732167196867536
1.873299650444524   0.10216989605643345   0.024732167196867536
1.3489183789791195   -0.02648613542505973   -0.05783016133584323
1.3489183789791195   -0.02648613542505973   -0.05783016133584323
1.3489183789791195   -0.02648613542505973   -0.05783016133584323
1.3489183789791195   -0.02648613542505973   -0.05783016133584323
1.8577619997765942   0.04306162389401552   0.006152186019621544
1.8577619997765942   0.04306162389401552   0.006152186019621544
1.8577619997765942   0.04306162389401552   0.006152186019621544
1.8577619997765942   0.04306162389401552   0.006152186019621544
0.9224335739550859   -0.08727726178882467   0.028362454460015188
0.9224335739550859   -0.08727726178882467   0.028362454460015188
0.9224335739550859   -0.08727726178882467   0.028362454460015188
0.9224335739550859   -0.08727726178882467   0.028362454460015188
0.8868773263436738   -0.12842831188507603   0.0277673996426841
0.8868773263436738   -0.12842831188507603   0.0277673996426841
0.8868773263436738   -0.12842831188507603   0.0277673996426841
0.8868773263436738   -0.12842831188507603   0.0277673996426841
1.839115294625462   0.10333024972582494   0.03557769303574408
1.839115294625462   0.10333024972582494   0.03557769303574408
1.839115294625462   0.10333024972582494   0.03557769303574408
1.839115294625462   0.10333024972582494   0.03557769303574408
1.2982449570840966   -0.026686797079702396   -0.0780735542602675
1.2982449570840966   -0.026686797079702396   -0.0780735542602675
1.2982449570840966   -0.026686797079702396   -0.0780735542602675
1.2982449570840966   -0.026686797079702396   -0.0780735542602675
0.9661821395628883   -0.12264779432675765   0.047753190843257284
0.9661821395628883   -0.12264779432675765   0.047753190843257284
0.9661821395628883   -0.12264779432675765   0.047753190843257284
0.9661821395628883   -0.12264779432675765   0.047753190843257284
0.18749491042354316   -0.11505412823756934   0.010205718166428804
0.18749491042354316   -0.11505412823756934   0.010205718166428804
0.18749491042354316   -0.11505412823756934   0.010205718166428804
0.18749491042354316   -0.11505412823756934   0.010205718166428804
0.12184716418210813   -0.2891593390020334   0.0510943542045116
0.12184716418210813   -0.2891593390020334   0.0510943542045116
0.12184716418210813   -0.2891593390020334   0.0510943542045116
0.12184716418210813   -0.2891593390020334   0.0510943542045116
0.9714329623788029   0.03770586014868066   0.036882494927654025
0.9714329623788029   0.03770586014868066   0.036882494927654025
0.9714329623788029   0.03770586014868066   0.036882494927654025
0.9714329623788029   0.03770586014868066   0.036882494927654025
0.553104599796074   -0.12277939269917856   -0.002127420421882964
0.553104599796074   -0.12277939269917856   -0.002127420421882964
0.553104599796074   -0.12277939269917856   -0.002127420421882964
0.553104599796074   -0.12277939269917856   -0.002127420421882964
0.9389252973942698   -0.12796048097479817   0.04001051112846471
0.9389252973942698   -0.12796048097479817   0.04001051112846471
0.9389252973942698   -0.12796048097479817   0.04001051112846471
0.9389252973942698   -0.12796048097479817   0.04001051112846471
0.14614434529867337   -0.13170348174651264   0.015124402531817058
0.14614434529867337   -0.13170348174651264   0.015124402531817058
0.14614434529867337   -0.13170348174651264   0.015124402531817058
0.14614434529867337   -0.13170348174651264   0.015124402531817058
0.09244021687364157   -0.29174133098486366   0.04574339012894324
0.09244021687364157   -0.29174133098486366   0.04574339012894324
0.09244021687364157   -0.29174133098486366   0.04574339012894324
0.09244021687364157   -0.29174133098486366   0.04574339012894324
0.9490437513365146   0.030442610443363854   0.043693469134969964
0.9490437513365146   0.030442610443363854   0.043693469134969964
0.9490437513365146   0.030442610443363854   0.043693469134969964
0.9490437513365146   0.030442610443363854   0.043693469134969964
0.513163100821389   -0.13085902317789727   -0.02651051727491263
0.513163100821389   -0.13085902317789727   -0.02651051727491263
0.513163100821389   -0.13085902317789727   -0.02651051727491263
0.513163100821389   -0.13085902317789727   -0.02651051727491263
0.914879357235828   -0.12978279926936337   0.03309690834425824
0.914879357235828   -0.12978279926936337   0.03309690834425824
0.914879357235828   -0.12978279926936337   0.03309690834425824
0.914879357235828   -0.12978279926936337   0.03309690834425824
0.11768145531745344   -0.14043907692901214   0.02064732829215106
0.11768145531745344   -0.14043907692901214   0.02064732829215106
0.11768145531745344   -0.14043907692901214   0.02064732829215106
0.11768145531745344   -0.14043907692901214   0.02064732829215106
0.05953518490823595   -0.29159693138723475   0.035799067276907556
0.05953518490823595   -0.29159693138723475   0.035799067276907556
0.05953518490823595   -0.29159693138723475   0.035799067276907556
0.05953518490823595   -0.29159693138723475   0.035799067276907556
0.923634184139029   0.030887789899850304   0.05223558683453806
0.923634184139029   0.030887789899850304   0.05223558683453806
0.923634184139029   0.030887789899850304   0.05223558683453806
0.923634184139029   0.030887789899850304   0.05223558683453806
0.48877275966947953   -0.12985152498336966   -0.04724876604876668
0.48877275966947953   -0.12985152498336966   -0.04724876604876668
0.48877275966947953   -0.12985152498336966   -0.04724876604876668
0.48877275966947953   -0.12985152498336966   -0.04724876604876668
0.14613096501639594   -0.3545425993988771   0.042874462292000384
0.14613096501639594   -0.3545425993988771   0.042874462292000384
0.14613096501639594   -0.3545425993988771   0.042874462292000384
0.14613096501639594   -0.3545425993988771   0.042874462292000384
-0.5694231497729401   -0.17850964175713807   0.000622121498720072
-0.5694231497729401   -0.17850964175713807   0.000622121498720072
-0.5694231497729401   -0.17850964175713807   0.000622121498720072
-0.5694231497729401   -0.17850964175713807   0.000622121498720072
-0.6881896387624366   -0.5269213126020872   0.05855900558173291
-0.6881896387624366   -0.5269213126020872   0.05855900558173291
-0.6881896387624366   -0.5269213126020872   0.05855900558173291
-0.6881896387624366   -0.5269213126020872   0.05855900558173291
0.1681095903339535   -0.030076944861934705   0.0233240908236378
0.1681095903339535   -0.030076944861934705   0.0233240908236378
0.1681095903339535   -0.030076944861934705   0.0233240908236378
0.1681095903339535   -0.030076944861934705   0.0233240908236378
-0.23269057030061022   -0.2686745185551507   0.010105793692661576
-0.23269057030061022   -0.2686745185551507   0.010105793692661576
-0.23269057030061022   -0.2686745185551507   0.010105793692661576
-0.23269057030061022   -0.2686745185551507   0.010105793692661576
0.10068029765325096   -0.37469915826970457   0.03079984082789694
0.10068029765325096   -0.37469915826970457   0.03079984082789694
0.10068029765325096   -0.37469915826970457   0.03079984082789694
0.10068029765325096   -0.37469915826970457   0.03079984082789694
-0.6322513014030214   -0.19379005451559478   0.00511943429231251
-0.6322513014030214   -0.19379005451559478   0.00511943429231251
-0.6322513014030214   -0.19379005451559478   0.00511943429231251
-0.6322513014030214   -0.19379005451559478   0.00511943429231251
-0.7291493973812934   -0.5353817952424481   0.04768410318997428
-0.7291493973812934   -0.5353817952424481   0.04768410318997428
-0.7291493973812934   -0.5353817952424481   0.04768410318997428
-0.7291493973812934   -0.5353817952424481   0.04768410318997428
0.14055575631520428   -0.03813968727711054   0.03271944362900366
0.14055575631520428   -0.03813968727711054   0.03271944362900366
0.14055575631520428   -0.03813968727711054   0.03271944362900366
0.14055575631520428   -0.03813968727711054   0.03271944362900366
-0.28387408213745025   -0.2850079333229481   -0.024081311206590246
-0.28387408213745025   -0.2850079333229481   -0.024081311206590246
-0.28387408213745025   -0.2850079333229481   -0.024081311206590246
-0.28387408213745025   -0.2850079333229481   -0.024081311206590246
0.06935608342995445   -0.38125103444421   0.019832426369855827
0.06935608342995445   -0.38125103444421   0.019832426369855827
0.06935608342995445   -0.38125103444421   0.019832426369855827
0.06935608342995445   -0.38125103444421   0.019832426369855827
-0.6716193736914382   -0.20594009727073384   0.005892523667529653
-0.6716193736914382   -0.20594009727073384   0.005892523667529653
-0.6716193736914382   -0.20594009727073384   0.005892523667529653
-0.6716193736914382   -0.20594009727073384   0.005892523667529653
-0.7735399971335718   -0.5317354118566464   0.040157061540094824
-0.7735399971335718   -0.5317354118566464   0.040157061540094824
-0.7735399971335718   -0.5317354118566464   0.040157061540094824
-0.7735399971335718   -0.5317354118566464   0.040157061540094824
0.1098986155279414   -0.04263273894320922   0.03865202793140925
0.1098986155279414   -0.04263273894320922   0.03865202793140925
0.1098986155279414   -0.04263273894320922   0.03865202793140925
0.1098986155279414   -0.04263273894320922   0.03865202793140925
-0.32540209910124485   -0.29121497615320613   -0.05823369171711824
-0.32540209910124485   -0.29121497615320613   -0.05823369171711824
-0.32540209910124485   -0.29121497615320613   -0.05823369171711824
-0.32540209910124485   -0.29121497615320613   -0.05823369171711824
-0.6452098926512887   -0.6078003766454464   0.05097914199529063
-0.6452098926512887   -0.6078003766454464   0.05097914199529063
-0.6452098926512887   -0.6078003766454464   0.05097914199529063
-0.6452098926512887   -0.6078003766454464   0.05097914199529063
-1.429916395757755   -0.22223865876855609   -0.03310903727184383
-1.429916395757755   -0.22223865876855609   -0.03310903727184383
-1.429916395757755   -0.22223865876855609   -0.03310903727184383
-1.429916395757755   -0.22223865876855609   -0.03310903727184383
-1.637472920688627   -0.8826996278982163   -0.04570537541529249
-1.637472920688627   -0.8826996278982163   -0.04570537541529249
-1.637472920688627   -0.8826996278982163   -0.04570537541529249
-1.637472920688627   -0.8826996278982163   -0.04570537541529249
-0.6004522002850217   -0.04982779531751201   0.02015268068422898
-0.6004522002850217   -0.04982779531751201   0.02015268068422898
-0.6004522002850217   -0.04982779531751201   0.02015268068422898
-0.6004522002850217   -0.04982779531751201   0.02015268068422898
-1.067930131507149   -0.42351878082354466   -0.03643221683433948
-1.067930131507149   -0.42351878082354466   -0.03643221683433948
-1.067930131507149   -0.42351878082354466   -0.03643221683433948
-1.067930131507149   -0.42351878082354466   -0.03643221683433948
-0.7287617601100481   -0.6883840862092703   0.017161172450858492
-0.7287617601100481   -0.6883840862092703   0.017161172450858492
-0.7287617601100481   -0.6883840862092703   0.017161172450858492
-0.7287617601100481   -0.6883840862092703   0.017161172450858492
-1.505889054883429   -0.24086903102628587   -0.029616643261233092
-1.505889054883429   -0.24086903102628587   -0.029616643261233092
-1.505889054883429   -0.24086903102628587   -0.029616643261233092
-1.505889054883429   -0.24086903102628587   -0.029616643261233092
-1.6861943401467485   -0.8968897588015187   -0.05285507098248082
-1.6861943401467485   -0.8968897588015187   -0.05285507098248082
-1.6861943401467485   -0.8968897588015187   -0.05285507098248082
-1.6861943401467485   -0.8968897588015187   -0.05285507098248082
-0.6382075099525467   -0.06306204866189426   0.030073793753147556
-0.6382075099525467   -0.06306204866189426   0.030073793753147556
-0.6382075099525467   -0.06306204866189426   0.030073793753147556
-0.6382075099525467   -0.06306204866189426   0.030073793753147556
-1.1274721133982217   -0.46925346551186464   -0.05159379938590844
-1.1274721133982217   -0.46925346551186464   -0.05159379938590844
-1.1274721133982217   -0.46925346551186464   -0.05159379938590844
-1.1274721133982217   -0.46925346551186464   -0.05159379938590844
-0.770640880311312   -0.7018658949820419   0.006710788279466973
-0.770640880311312   -0.7018658949820419   0.006710788279466973
-0.770640880311312   -0.7018658949820419   0.006710788279466973
-0.770640880311312   -0.7018658949820419   0.006710788279466973
-1.553988025897651   -0.25831296859104136   -0.030400289947483703
-1.553988025897651   -0.25831296859104136   -0.030400289947483703
-1.553988025897651   -0.25831296859104136   -0.030400289947483703
-1.553988025897651   -0.25831296859104136   -0.030400289947483703
-1.727747489950175   -0.8583826706726414   -0.05960247674541033
-1.727747489950175   -0.8583826706726414   -0.05960247674541033
-1.727747489950175   -0.8583826706726414   -0.05960247674541033
-1.727747489950175   -0.8583826706726414   -0.05960247674541033
-0.6860042876329706   -0.08175280262243859   0.02785299980888186
-0.6860042876329706   -0.08175280262243859   0.02785299980888186
-0.6860042876329706   -0.08175280262243859   0.02785299980888186
-0.6860042876329706   -0.08175280262243859   0.02785299980888186
-1.1823169255542394   -0.4848435331848893   -0.06608947634912452
-1.1823169255542394   -0.4848435331848893   -0.06608947634912452
-1.1823169255542394   -0.4848435331848893   -0.06608947634912452
-1.1823169255542394   -0.4848435331848893   -0.06608947634912452
-1.404738414415724   -0.25569936729099885   0.12624157796073
-1.404738414415724   -0.25569936729099885   0.12624157796073
-1.404738414415724   -0.25569936729099885   0.12624157796073
-1.404738414415724   -0.25569936729099885   0.12624157796073
-2.4733729572183774   -0.1850502159340348   -0.043900569005758505
-2.4733729572183774   -0.1850502159340348   -0.043900569005758505
-2.4733729572183774   -0.1850502159340348   -0.043900569005758505
-2.4733729572183774   -0.1850502159340348   -0.043900569005758505
-2.6247885656883434   -0.5180284536253453   0.034646297561616635
-2.6247885656883434   -0.5180284536253453   0.034646297561616635
-2.6247885656883434   -0.5180284536253453   0.034646297561616635
-2.6247885656883434   -0.5180284536253453   0.034646297561616635
-1.4451250211416042   0.02086460418041186   0.012469890241179907
-1.4451250211416042   0.02086460418041186   0.012469890241179907
-1.4451250211416042   0.02086460418041186   0.012469890241179907
-1.4451250211416042   0.02086460418041186   0.012469890241179907
-1.8923798616287724   -0.18196994824616325   0.038028748172685145
-1.8923798616287724   -0.18196994824616325   0.038028748172685145
-1.8923798616287724   -0.18196994824616325   0.038028748172685145
-1.8923798616287724   -0.18196994824616325   0.038028748172685145
-1.4842794253601426   -0.2744528253385413   0.11201529866743581
-1.4842794253601426   -0.2744528253385413   0.11201529866743581
-1.4842794253601426   -0.2744528253385413   0.11201529866743581
-1.4842794253601426   -0.2744528253385413   0.11201529866743581
-2.579013378771444   -0.2160902414080283   -0.03841598007118034
-2.579013378771444   -0.2160902414080283   -0.03841598007118034
-2.579013378771444   -0.2160902414080283   -0.03841598007118034
-2.579013378771444   -0.2160902414080283   -0.03841598007118034
-2.6890274377699823   -0.5400829591956811   -0.011387358208423182
-2.6890274377699823   -0.5400829591956811   -0.011387358208423182
-2.6890274377699823   -0.5400829591956811   -0.011387358208423182
-2.6890274377699823   -0.5400829591956811   -0.011387358208423182
-1.4904729719982486   0.006018026197856741   0.022843984760631195
-1.4904729719982486   0.006018026197856741   0.022843984760631195
-1.4904729719982486   0.006018026197856741   0.022843984760631195
-1.4904729719982486   0.006018026197856741   0.022843984760631195
-2.0055652527716874   -0.24022596251052147   0.01565787594828745
-2.0055652527716874   -0.24022596251052147   0.01565787594828745
-2.0055652527716874   -0.24022596251052147   0.01565787594828745
-2.0055652527716874   -0.24022596251052147   0.01565787594828745
-1.5353772059390645   -0.2885060607807761   0.09284690203518403
-1.5353772059390645   -0.2885060607807761   0.09284690203518403
-1.5353772059390645   -0.2885060607807761   0.09284690203518403
-1.5353772059390645   -0.2885060607807761   0.09284690203518403
-2.6308218798153944   -0.23225754820326833   -0.02818497942784816
-2.6308218798153944   -0.23225754820326833   -0.02818497942784816
-2.6308218798153944   -0.23225754820326833   -0.02818497942784816
-2.6308218798153944   -0.23225754820326833   -0.02818497942784816
-2.7449057125494836   -0.5490136043712316   -0.00016230930667460175
-2.7449057125494836   -0.5490136043712316   -0.00016230930667460175
-2.7449057125494836   -0.5490136043712316   -0.00016230930667460175
-2.7449057125494836   -0.5490136043712316   -0.00016230930667460175
-1.5541549096916167   -0.059375977614327724   0.009353731489067041
-1.5541549096916167   -0.059375977614327724   0.009353731489067041
-1.5541549096916167   -0.059375977614327724   0.009353731489067041
-1.5541549096916167   -0.059375977614327724   0.009353731489067041
-2.0299702799928423   -0.29024718663099514   0.024715008904769197
-2.0299702799928423   -0.29024718663099514   0.024715008904769197
-2.0299702799928423   -0.29024718663099514   0.024715008904769197
-2.0299702799928423   -0.29024718663099514   0.024715008904769197
1.6723823688549215   0.07692228149159858   -0.03631075476387002
1.6723823688549215   0.07692228149159858   -0.03631075476387002
1.6723823688549215   0.07692228149159858   -0.03631075476387002
1.6723823688549215   0.07692228149159858   -0.03631075476387002
0.841761823845892   -0.01696538459405933   0.017862063952158898
0.841761823845892   -0.01696538459405933   0.017862063952158898
0.841761823845892   -0.01696538459405933   0.017862063952158898
0.841761823845892   -0.01696538459405933   0.017862063952158898
0.7882043741948426   -0.12393723469466361   -0.03209184167780692
0.7882043741948426   -0.12393723469466361   -0.03209184167780692
0.7882043741948426   -0.12393723469466361   -0.03209184167780692
0.7882043741948426   -0.12393723469466361   -0.03209184167780692
1.6530162933455599   0.12072969428024702   0.020898403605224748
1.6530162933455599   0.12072969428024702   0.020898403605224748
1.6530162933455599   0.12072969428024702   0.020898403605224748
1.6530162933455599   0.12072969428024702   0.020898403605224748
1.1739019649409905   0.002879931172755701   -0.04534535858191223
1.1739019649409905   0.002879931172755701   -0.04534535858191223
1.1739019649409905   0.002879931172755701   -0.04534535858191223
1.1739019649409905   0.002879931172755701   -0.04534535858191223
1.62590033660346   0.042691657464682176   -0.03664334328969525
1.62590033660346   0.042691657464682176   -0.03664334328969525
1.62590033660346   0.042691657464682176   -0.03664334328969525
1.62590033660346   0.042691657464682176   -0.03664334328969525
0.8138143713628201   -0.04740515745321974   0.01942606692063068
0.8138143713628201   -0.04740515745321974   0.01942606692063068
0.8138143713628201   -0.04740515745321974   0.01942606692063068
0.8138143713628201   -0.04740515745321974   0.01942606692063068
0.7593672115249159   -0.13086364307298554   -0.026503089530619264
0.7593672115249159   -0.13086364307298554   -0.026503089530619264
0.7593672115249159   -0.13086364307298554   -0.026503089530619264
0.7593672115249159   -0.13086364307298554   -0.026503089530619264
1.6129569807742883   0.11091534129413658   0.03054981678737869
1.6129569807742883   0.11091534129413658   0.03054981678737869
1.6129569807742883   0.11091534129413658   0.03054981678737869
1.6129569807742883   0.11091534129413658   0.03054981678737869
1.1581537195014748   -0.011749691377574284   -0.05413165941329799
1.1581537195014748   -0.011749691377574284   -0.05413165941329799
1.1581537195014748   -0.011749691377574284   -0.05413165941329799
1.1581537195014748   -0.011749691377574284   -0.05413165941329799
1.5856410870348838   0.033890739843358886   -0.029005050458865103
1.5856410870348838   0.033890739843358886   -0.029005050458865103
1.5856410870348838   0.033890739843358886   -0.029005050458865103
1.5856410870348838   0.033890739843358886   -0.029005050458865103
0.7845937816814451   -0.05592836520508296   0.024694483384124048
0.7845937816814451   -0.05592836520508296   0.024694483384124048
0.7845937816814451   -0.05592836520508296   0.024694483384124048
0.7845937816814451   -0.05592836520508296   0.024694483384124048
0.7314376208798594   -0.1289552920727971   -0.018172342211824594
0.7314376208798594   -0.1289552920727971   -0.018172342211824594
0.7314376208798594   -0.1289552920727971   -0.018172342211824594
0.7314376208798594   -0.1289552920727971   -0.018172342211824594
1.5633558946508066   0.10424588712641117   0.039749933514638965
1.5633558946508066   0.10424588712641117   0.039749933514638965
1.5633558946508066   0.10424588712641117   0.039749933514638965
1.5633558946508066   0.10424588712641117   0.039749933514638965
1.100864793346306   -0.020502516427392814   -0.07110079210347105
1.100864793346306   -0.020502516427392814   -0.07110079210347105
1.100864793346306   -0.020502516427392814   -0.07110079210347105
1.100864793346306   -0.020502516427392814   -0.07110079210347105
0.8463306745454684   0.01618338960393756   0.0075575432520381194
0.8463306745454684   0.01618338960393756   0.0075575432520381194
0.8463306745454684   0.01618338960393756   0.0075575432520381194
0.8463306745454684   0.01618338960393756   0.0075575432520381194
0.0814218698314863   -0.0507072096395849   -0.001923724117840555
0.0814218698314863   -0.0507072096395849   -0.001923724117840555
0.0814218698314863   -0.0507072096395849   -0.001923724117840555
0.0814218698314863   -0.0507072096395849   -0.001923724117840555
0.03095416533052016   -0.16394241592441572   -0.030880088389545073
0.03095416533052016   -0.16394241592441572   -0.030880088389545073
0.03095416533052016   -0.16394241592441572   -0.030880088389545073
0.03095416533052016   -0.16394241592441572   -0.030880088389545073
0.8473395341412162   0.09773003369113004   0.041916689668261606
0.8473395341412162   0.09773003369113004   0.041916689668261606
0.8473395341412162   0.09773003369113004   0.041916689668261606
0.8473395341412162   0.09773003369113004   0.041916689668261606
0.44322568794395195   -0.02303328583921238   -0.017571262458149283
0.44322568794395195   -0.02303328583921238   -0.017571262458149283
0.44322568794395195   -0.02303328583921238   -0.017571262458149283
0.44322568794395195   -0.02303328583921238   -0.017571262458149283
0.8226332564843704   0.0031604058327468765   0.012954929242417729
0.8226332564843704   0.0031604058327468765   0.012954929242417729
0.8226332564843704   0.0031604058327468765   0.012954929242417729
0.8226332564843704   0.0031604058327468765   0.012954929242417729
0.05659734734593591   -0.06843588370746229   0.00182928947058026
0.05659734734593591   -0.06843588370746229   0.00182928947058026
0.05659734734593591   -0.06843588370746229   0.00182928947058026
0.05659734734593591   -0.06843588370746229   0.00182928947058026
0.003149270251098485   -0.17177266961081267   -0.021488450050557918
0.003149270251098485   -0.17177266961081267   -0.021488450050557918
0.003149270251098485   -0.17177266961081267   -0.021488450050557918
0.003149270251098485   -0.17177266961081267   -0.021488450050557918
0.8168149496042323   0.08363728644451643   0.046234671348460356
0.8168149496042323   0.08363728644451643   0.046234671348460356
0.8168149496042323   0.08363728644451643   0.046234671348460356
0.8168149496042323   0.08363728644451643   0.046234671348460356
0.41122792032249933   -0.036004316419761165   -0.02487859425312286
0.41122792032249933   -0.036004316419761165   -0.02487859425312286
0.41122792032249933   -0.036004316419761165   -0.02487859425312286
0.41122792032249933   -0.036004316419761165   -0.02487859425312286
0.7934968307106591   -0.005624329036481551   0.018905692361598447
0.7934968307106591   -0.005624329036481551   0.018905692361598447
0.7934968307106591   -0.005624329036481551   0.018905692361598447
0.7934968307106591   -0.005624329036481551   0.018905692361598447
0.026335150036976118   -0.08264329323751947   0.005311572505537061
0.026335150036976118   -0.08264329323751947   0.005311572505537061
0.026335150036976118   -0.08264329323751947   0.005311572505537061
0.026335150036976118   -0.08264329323751947   0.005311572505537061
-0.026700606986391116   -0.17255681192574657   -0.014652631167964728
-0.026700606986391116   -0.17255681192574657   -0.014652631167964728
-0.026700606986391116   -0.17255681192574657   -0.014652631167964728
-0.026700606986391116   -0.17255681192574657   -0.014652631167964728
0.7860179443328007   0.07467416168723005   0.051099821292858144
0.7860179443328007   0.07467416168723005   0.051099821292858144
0.7860179443328007   0.07467416168723005   0.051099821292858144
0.7860179443328007   0.07467416168723005   0.051099821292858144
0.38619159209724263   -0.041178680406482274   -0.03115876308936204
0.38619159209724263   -0.041178680406482274   -0.03115876308936204
0.38619159209724263   -0.041178680406482274   -0.03115876308936204
0.38619159209724263   -0.041178680406482274   -0.03115876308936204
0.08298898665522932   -0.04759225724915859   0.0027969076104481863
0.08298898665522932   -0.04759225724915859   0.0027969076104481863
0.08298898665522932   -0.04759225724915859   0.0027969076104481863
0.08298898665522932   -0.04759225724915859   0.0027969076104481863
-0.6535334203970918   -0.07553093565300177   -0.020562954372737145
-0.6535334203970918   -0.07553093565300177   -0.020562954372737145
-0.6535334203970918   -0.07553093565300177   -0.020562954372737145
-0.6535334203970918   -0.07553093565300177   -0.020562954372737145
-0.709639818092037   -0.21732864736936947   -0.035185013287545586
-0.709639818092037   -0.21732864736936947   -0.035185013287545586
-0.709639818092037   -0.21732864736936947   -0.035185013287545586
-0.709639818092037   -0.21732864736936947   -0.035185013287545586
0.08904661926648523   0.07158091472399031   0.024058850641874272
0.08904661926648523   0.07158091472399031   0.024058850641874272
0.08904661926648523   0.07158091472399031   0.024058850641874272
0.08904661926648523   0.07158091472399031   0.024058850641874272
-0.2986664956904954   -0.06399845055862996   -0.01744103925819327
-0.2986664956904954   -0.06399845055862996   -0.01744103925819327
-0.2986664956904954   -0.06399845055862996   -0.01744103925819327
-0.2986664956904954   -0.06399845055862996   -0.01744103925819327
0.06209644819477256   -0.05313884121086518   0.014027751218166396
0.06209644819477256   -0.05313884121086518   0.014027751218166396
0.06209644819477256   -0.05313884121086518   0.014027751218166396
0.06209644819477256   -0.05313884121086518   0.014027751218166396
-0.6806271246918869   -0.0905463691060664   -0.016903824550098402
-0.6806271246918869   -0.0905463691060664   -0.016903824550098402
-0.6806271246918869   -0.0905463691060664   -0.016903824550098402
-0.6806271246918869   -0.0905463691060664   -0.016903824550098402
-0.7422473074436988   -0.2259047291221301   -0.02330270183712965
-0.7422473074436988   -0.2259047291221301   -0.02330270183712965
-0.7422473074436988   -0.2259047291221301   -0.02330270183712965
-0.7422473074436988   -0.2259047291221301   -0.02330270183712965
0.0585411803276534   0.05649433159415649   0.027204099127247514
0.0585411803276534   0.05649433159415649   0.027204099127247514
0.0585411803276534   0.05649433159415649   0.027204099127247514
0.0585411803276534   0.05649433159415649   0.027204099127247514
-0.32564176950036   -0.07298280063695196   -0.020920423844649625
-0.32564176950036   -0.07298280063695196   -0.020920423844649625
-0.32564176950036   -0.07298280063695196   -0.020920423844649625
-0.32564176950036   -0.07298280063695196   -0.020920423844649625
0.033225028356111415   -0.0622718228516592   0.01938949371535325
0.033225028356111415   -0.0622718228516592   0.01938949371535325
0.033225028356111415   -0.0622718228516592   0.01938949371535325
0.033225028356111415   -0.0622718228516592   0.01938949371535325
-0.7164984674967595   -0.10670588670090778   -0.013757344523660937
-0.7164984674967595   -0.10670588670090778   -0.013757344523660937
-0.7164984674967595   -0.10670588670090778   -0.013757344523660937
-0.7164984674967595   -0.10670588670090778   -0.013757344523660937
-0.7784284783981409   -0.23217168633190424   -0.020715615086044963
-0.7784284783981409   -0.23217168633190424   -0.020715615086044963
-0.7784284783981409   -0.23217168633190424   -0.020715615086044963
-0.7784284783981409   -0.23217168633190424   -0.020715615086044963
0.025545019321597084   0.04361373619688843   0.03040495224934322
0.025545019321597084   0.04361373619688843   0.03040495224934322
0.025545019321597084   0.04361373619688843   0.03040495224934322
0.025545019321597084   0.04361373619688843   0.03040495224934322
-0.36068786578633666   -0.08373933329194233   -0.029302111277136035
-0.36068786578633666   -0.08373933329194233   -0.029302111277136035
-0.36068786578633666   -0.08373933329194233   -0.029302111277136035
-0.36068786578633666   -0.08373933329194233   -0.029302111277136035
-0.6435231838682447   -0.056288958677167   0.010246251295652629
-0.6435231838682447   -0.056288958677167   0.010246251295652629
-0.6435231838682447   -0.056288958677167   0.010246251295652629
-0.6435231838682447   -0.056288958677167   0.010246251295652629
-1.3708509196408067   -0.0883961914996731   -0.036240647076636434
-1.3708509196408067   -0.0883961914996731   -0.036240647076636434
-1.3708509196408067   -0.0883961914996731   -0.036240647076636434
-1.3708509196408067   -0.0883961914996731   -0.036240647076636434
-1.4346296717132503   -0.22772356029359364   -0.03514867276795042
-1.4346296717132503   -0.22772356029359364   -0.03514867276795042
-1.4346296717132503   -0.22772356029359364   -0.03514867276795042
-1.4346296717132503   -0.22772356029359364   -0.03514867276795042
-0.6468395482861042   0.0546714009938957   0.006816287378839471
-0.6468395482861042   0.0546714009938957   0.006816287378839471
-0.6468395482861042   0.0546714009938957   0.006816287378839471
-0.6468395482861042   0.0546714009938957   0.006816287378839471
-1.015524435160247   -0.07575375465882395   -0.014654177302445344
-1.015524435160247   -0.07575375465882395   -0.014654177302445344
-1.015524435160247   -0.07575375465882395   -0.014654177302445344
-1.015524435160247   -0.07575375465882395   -0.014654177302445344
-0.6666634804899759   -0.06218915168721699   0.024557179040597166
-0.6666634804899759   -0.06218915168721699   0.024557179040597166
-0.6666634804899759   -0.06218915168721699   0.024557179040597166
-0.6666634804899759   -0.06218915168721699   0.024557179040597166
-1.4107624751049281   -0.10681974320801069   -0.03671650681192987
-1.4107624751049281   -0.10681974320801069   -0.03671650681192987
-1.4107624751049281   -0.10681974320801069   -0.03671650681192987
-1.4107624751049281   -0.10681974320801069   -0.03671650681192987
-1.479740994359159   -0.24231890550422744   -0.024677006051967383
-1.479740994359159   -0.24231890550422744   -0.024677006051967383
-1.479740994359159   -0.24231890550422744   -0.024677006051967383
-1.479740994359159   -0.24231890550422744   -0.024677006051967383
-0.6831090646409151   0.038145601477786145   0.00833818157686645
-0.6831090646409151   0.038145601477786145   0.00833818157686645
-0.6831090646409151   0.038145601477786145   0.00833818157686645
-0.6831090646409151   0.038145601477786145   0.00833818157686645
-1.0440479190190337   -0.08383604021479882   -0.014697455257400599
-1.0440479190190337   -0.08383604021479882   -0.014697455257400599
-1.0440479190190337   -0.08383604021479882   -0.014697455257400599
-1.0440479190190337   -0.08383604021479882   -0.014697455257400599
-0.7026817146026192   -0.07687295141109395   0.02549348465722145
-0.7026817146026192   -0.07687295141109395   0.02549348465722145
-0.7026817146026192   -0.07687295141109395   0.02549348465722145
-0.7026817146026192   -0.07687295141109395   0.02549348465722145
-1.457458475937355   -0.12459048415526852   -0.030992835291905788
-1.457458475937355   -0.12459048415526852   -0.030992835291905788
-1.457458475937355   -0.12459048415526852   -0.030992835291905788
-1.457458475937355   -0.12459048415526852   -0.030992835291905788
-1.5307871640128228   -0.2615619610735907   -0.026409916067026758
-1.5307871640128228   -0.2615619610735907   -0.026409916067026758
-1.5307871640128228   -0.2615619610735907   -0.026409916067026758
-1.5307871640128228   -0.2615619610735907   -0.026409916067026758
-0.7223064032351489   0.017750690606798736   0.009972383790202474
-0.7223064032351489   0.017750690606798736   0.009972383790202474
-0.7223064032351489   0.017750690606798736   0.009972383790202474
-0.7223064032351489   0.017750690606798736   0.009972383790202474
-1.0946870720281308   -0.103567629895462   -0.023893840567162497
-1.0946870720281308   -0.103567629895462   -0.023893840567162497
-1.0946870720281308   -0.103567629895462   -0.023893840567162497
-1.0946870720281308   -0.103567629895462   -0.023893840567162497
-1.3244354846549917   0.06250454970862296   0.04493578664414388
-1.3244354846549917   0.06250454970862296   0.04493578664414388
-1.3244354846549917   0.06250454970862296   0.04493578664414388
-1.3244354846549917   0.06250454970862296   0.04493578664414388
-2.0535563727115793   -0.10231428512516377   -0.0275995758585557
-2.0535563727115793   -0.10231428512516377   -0.0275995758585557
-2.0535563727115793   -0.10231428512516377   -0.0275995758585557
-2.0535563727115793   -0.10231428512516377   -0.0275995758585557
-2.1040566079825176   -0.10418869003164072   0.046135006021892244
-2.1040566079825176   -0.10418869003164072   0.046135006021892244
-2.1040566079825176   -0.10418869003164072   0.046135006021892244
-2.1040566079825176   -0.10418869003164072   0.046135006021892244
-1.3757317345242024   0.04262918719755665   -0.011011734313868815
-1.3757317345242024   0.04262918719755665   -0.011011734313868815
-1.3757317345242024   0.04262918719755665   -0.011011734313868815
-1.3757317345242024   0.04262918719755665   -0.011011734313868815
-1.6345443533611408   0.0012348222950447352   0.04148827609406926
-1.6345443533611408   0.0012348222950447352   0.04148827609406926
-1.6345443533611408   0.0012348222950447352   0.04148827609406926
-1.6345443533611408   0.0012348222950447352   0.04148827609406926
-1.3614139711451554   0.04646174173936379   0.05674452803955199
-1.3614139711451554   0.04646174173936379   0.05674452803955199
-1.3614139711451554   0.04646174173936379   0.05674452803955199
-1.3614139711451554   0.04646174173936379   0.05674452803955199
-2.1174321025435177   -0.1070789757554017   -0.01785218105934544
-2.1174321025435177   -0.1070789757554017   -0.01785218105934544
-2.1174321025435177   -0.1070789757554017   -0.01785218105934544
-2.1174321025435177   -0.1070789757554017   -0.01785218105934544
-2.1678054269825595   -0.12146721878905353   0.0627502148103911
-2.1678054269825595   -0.12146721878905353   0.0627502148103911
-2.1678054269825595   -0.12146721878905353   0.0627502148103911
-2.1678054269825595   -0.12146721878905353   0.0627502148103911
-1.422467173484808   0.03088890888487772   -0.011515716069328136
-1.422467173484808   0.03088890888487772   -0.011515716069328136
-1.422467173484808   0.03088890888487772   -0.011515716069328136
-1.422467173484808   0.03088890888487772   -0.011515716069328136
-1.7167907059888121   -0.018986767561928464   0.022690771469622575
-1.7167907059888121   -0.018986767561928464   0.022690771469622575
-1.7167907059888121   -0.018986767561928464   0.022690771469622575
-1.7167907059888121   -0.018986767561928464   0.022690771469622575
-1.4093787543322323   0.028859275412182805   0.05595601316624525
-1.4093787543322323   0.028859275412182805   0.05595601316624525
-1.4093787543322323   0.028859275412182805   0.05595601316624525
-1.4093787543322323   0.028859275412182805   0.05595601316624525
-2.183358733414467   -0.12190247259569043   -0.014581063542509626
-2.183358733414467   -0.12190247259569043   -0.014581063542509626
-2.183358733414467   -0.12190247259569043   -0.014581063542509626
-2.183358733414467   -0.12190247259569043   -0.014581063542509626
-2.258434096181578   -0.19120181648149198   0.05450372364326847
-2.258434096181578   -0.19120181648149198   0.05450372364326847
-2.258434096181578   -0.19120181648149198   0.05450372364326847
-2.258434096181578   -0.19120181648149198   0.05450372364326847
-1.4763511259495457   -0.004948681967470281   -0.010843004856785063
-1.4763511259495457   -0.004948681967470281   -0.010843004856785063
-1.4763511259495457   -0.004948681967470281   -0.010843004856785063
-1.4763511259495457   -0.004948681967470281   -0.010843004856785063
-1.7517983051386015   -0.04445081186579841   0.006159645676092812
-1.7517983051386015   -0.04445081186579841   0.006159645676092812
-1.7517983051386015   -0.04445081186579841   0.006159645676092812
-1.7517983051386015   -0.04445081186579841   0.006159645676092812
1.3552875779223406   0.07250906017052591   -0.04829146630136332
1.3552875779223406   0.07250906017052591   -0.04829146630136332
1.3552875779223406   0.07250906017052591   -0.04829146630136332
1.3552875779223406   0.07250906017052591   -0.04829146630136332
0.671845444356595   -0.0007130289258007738   0.017490958911119008
0.671845444356595   -0.0007130289258007738   0.017490958911119008
0.671845444356595   -0.0007130289258007738   0.017490958911119008
0.671845444356595   -0.0007130289258007738   0.017490958911119008
0.6140662466737874   -0.10010082363315631   -0.044304139290081035
0.6140662466737874   -0.10010082363315631   -0.044304139290081035
0.6140662466737874   -0.10010082363315631   -0.044304139290081035
0.6140662466737874   -0.10010082363315631   -0.044304139290081035
1.3297765175270382   0.10957899253329373   0.02193685981577584
1.3297765175270382   0.10957899253329373   0.02193685981577584
1.3297765175270382   0.10957899253329373   0.02193685981577584
1.3297765175270382   0.10957899253329373   0.02193685981577584
0.9414203078347061   0.00831425357240309   -0.030983308173492784
0.9414203078347061   0.00831425357240309   -0.030983308173492784
0.9414203078347061   0.00831425357240309   -0.030983308173492784
0.9414203078347061   0.00831425357240309   -0.030983308173492784
1.301559859859079   0.03695436638647931   -0.04652180237719422
1.301559859859079   0.03695436638647931   -0.04652180237719422
1.301559859859079   0.03695436638647931   -0.04652180237719422
1.301559859859079   0.03695436638647931   -0.04652180237719422
0.6410740553291515   -0.028685046498937078   0.0193191268525085
0.6410740553291515   -0.028685046498937078   0.0193191268525085
0.6410740553291515   -0.028685046498937078   0.0193191268525085
0.6410740553291515   -0.028685046498937078   0.0193191268525085
0.5851679090954918   -0.10845507834118398   -0.03851320971042783
0.5851679090954918   -0.10845507834118398   -0.03851320971042783
0.5851679090954918   -0.10845507834118398   -0.03851320971042783
0.5851679090954918   -0.10845507834118398   -0.03851320971042783
1.2865523783231165   0.09809477488158888   0.0299984483186655
1.2865523783231165   0.09809477488158888   0.0299984483186655
1.2865523783231165   0.09809477488158888   0.0299984483186655
1.2865523783231165   0.09809477488158888   0.0299984483186655
0.9188230328327025   -0.006745983219149737   -0.04069073875487548
0.9188230328327025   -0.006745983219149737   -0.04069073875487548
0.9188230328327025   -0.006745983219149737   -0.04069073875487548
0.9188230328327025   -0.006745983219149737   -0.04069073875487548
1.25893847046479   0.026672010547074937   -0.03664832663843124
1.25893847046479   0.026672010547074937   -0.03664832663843124
1.25893847046479   0.026672010547074937   -0.03664832663843124
1.25893847046479   0.026672010547074937   -0.03664832663843124
0.611696765045343   -0.038117365915142504   0.02379335761278207
0.611696765045343   -0.038117365915142504   0.02379335761278207
0.611696765045343   -0.038117365915142504   0.02379335761278207
0.611696765045343   -0.038117365915142504   0.02379335761278207
0.5587822229004007   -0.11091173436751187   -0.03146450220457025
0.5587822229004007   -0.11091173436751187   -0.03146450220457025
0.5587822229004007   -0.11091173436751187   -0.03146450220457025
0.5587822229004007   -0.11091173436751187   -0.03146450220457025
1.2378240984587199   0.08804202775999151   0.03733705915579907
1.2378240984587199   0.08804202775999151   0.03733705915579907
1.2378240984587199   0.08804202775999151   0.03733705915579907
1.2378240984587199   0.08804202775999151   0.03733705915579907
0.866108349094816   -0.017110621515462776   -0.0552596965969642
0.866108349094816   -0.017110621515462776   -0.0552596965969642
0.866108349094816   -0.017110621515462776   -0.0552596965969642
0.866108349094816   -0.017110621515462776   -0.0552596965969642
0.68340426965489   0.0708236887033521   0.003748367773440772
0.68340426965489   0.0708236887033521   0.003748367773440772
0.68340426965489   0.0708236887033521   0.003748367773440772
0.68340426965489   0.0708236887033521   0.003748367773440772
0.02332664240621793   -0.02240949748437079   -0.0027949393656900396
0.02332664240621793   -0.02240949748437079   -0.0027949393656900396
0.02332664240621793   -0.02240949748437079   -0.0027949393656900396
0.02332664240621793   -0.02240949748437079   -0.0027949393656900396
-0.020225249548897588   -0.09019646061849729   -0.03015099818969981
-0.020225249548897588   -0.09019646061849729   -0.03015099818969981
-0.020225249548897588   -0.09019646061849729   -0.03015099818969981
-0.020225249548897588   -0.09019646061849729   -0.03015099818969981
0.6702260564483393   0.09923699902906909   0.037157086920441854
0.6702260564483393   0.09923699902906909   0.037157086920441854
0.6702260564483393   0.09923699902906909   0.037157086920441854
0.6702260564483393   0.09923699902906909   0.037157086920441854
0.3338980554833389   0.014136282073234085   -0.0038186289735706452
0.3338980554833389   0.014136282073234085   -0.0038186289735706452
0.3338980554833389   0.014136282073234085   -0.0038186289735706452
0.3338980554833389   0.014136282073234085   -0.0038186289735706452
0.6549477694726921   0.05239072753169027   0.007611923539587076
0.6549477694726921   0.05239072753169027   0.007611923539587076
0.6549477694726921   0.05239072753169027   0.007611923539587076
0.6549477694726921   0.05239072753169027   0.007611923539587076
-0.004675593700116746   -0.04307882024797456   0.00047964068367976204
-0.004675593700116746   -0.04307882024797456   0.00047964068367976204
-0.004675593700116746   -0.04307882024797456   0.00047964068367976204
-0.004675593700116746   -0.04307882024797456   0.00047964068367976204
-0.04760032873154847   -0.10370553884689232   -0.026064176772802625
-0.04760032873154847   -0.10370553884689232   -0.026064176772802625
-0.04760032873154847   -0.10370553884689232   -0.026064176772802625
-0.04760032873154847   -0.10370553884689232   -0.026064176772802625
0.6392154034742146   0.08215398171724088   0.041115202124756695
0.6392154034742146   0.08215398171724088   0.041115202124756695
0.6392154034742146   0.08215398171724088   0.041115202124756695
0.6392154034742146   0.08215398171724088   0.041115202124756695
0.30045832484559687   -0.002699661702465675   -0.013385299884624714
0.30045832484559687   -0.002699661702465675   -0.013385299884624714
0.30045832484559687   -0.002699661702465675   -0.013385299884624714
0.30045832484559687   -0.002699661702465675   -0.013385299884624714
0.6245097303239129   0.038231226614049346   0.011509591476444432
0.6245097303239129   0.038231226614049346   0.011509591476444432
0.6245097303239129   0.038231226614049346   0.011509591476444432
0.6245097303239129   0.038231226614049346   0.011509591476444432
-0.03286831222892185   -0.05975644039137507   0.0036468072848132686
-0.03286831222892185   -0.05975644039137507   0.0036468072848132686
-0.03286831222892185   -0.05975644039137507   0.0036468072848132686
-0.03286831222892185   -0.05975644039137507   0.0036468072848132686
-0.07469783294743385   -0.11183565741266321   -0.020733496926373683
-0.07469783294743385   -0.11183565741266321   -0.020733496926373683
-0.07469783294743385   -0.11183565741266321   -0.020733496926373683
-0.07469783294743385   -0.11183565741266321   -0.020733496926373683
0.609721335778692   0.06774798573073802   0.044571342088627994
0.609721335778692   0.06774798573073802   0.044571342088627994
0.609721335778692   0.06774798573073802   0.044571342088627994
0.609721335778692   0.06774798573073802   0.044571342088627994
0.2757349841072067   -0.013466810461229141   -0.02043597974986869
0.2757349841072067   -0.013466810461229141   -0.02043597974986869
0.2757349841072067   -0.013466810461229141   -0.02043597974986869
0.2757349841072067   -0.013466810461229141   -0.02043597974986869
0.045747722847128344   0.07151506411774028   0.01538590123675289
0.045747722847128344   0.07151506411774028   0.01538590123675289
0.045747722847128344   0.07151506411774028   0.01538590123675289
0.045747722847128344   0.07151506411774028   0.01538590123675289
-0.6050796826176952   -0.03918437295505307   -0.02081584452451179
-0.6050796826176952   -0.03918437295505307   -0.02081584452451179
-0.6050796826176952   -0.03918437295505307   -0.02081584452451179
-0.6050796826176952   -0.03918437295505307   -0.02081584452451179
-0.6390578602240045   -0.08267091910831911   -0.01909583902918313
-0.6390578602240045   -0.08267091910831911   -0.01909583902918313
-0.6390578602240045   -0.08267091910831911   -0.01909583902918313
-0.6390578602240045   -0.08267091910831911   -0.01909583902918313
0.02369953103855868   0.0812624218928587   0.018014022236223625
0.02369953103855868   0.0812624218928587   0.018014022236223625
0.02369953103855868   0.0812624218928587   0.018014022236223625
0.02369953103855868   0.0812624218928587   0.018014022236223625
-0.29330443715076254   0.00910560089947654   0.0011177085364726946
-0.29330443715076254   0.00910560089947654   0.0011177085364726946
-0.29330443715076254   0.00910560089947654   0.0011177085364726946
-0.29330443715076254   0.00910560089947654   0.0011177085364726946
0.019037162871158683   0.05663347831247249   0.019331124979611772
0.019037162871158683   0.05663347831247249   0.019331124979611772
0.019037162871158683   0.05663347831247249   0.019331124979611772
0.019037162871158683   0.05663347831247249   0.019331124979611772
-0.6336487591191585   -0.05729524259047647   -0.01742601002279627
-0.6336487591191585   -0.05729524259047647   -0.01742601002279627
-0.6336487591191585   -0.05729524259047647   -0.01742601002279627
-0.6336487591191585   -0.05729524259047647   -0.01742601002279627
-0.6684357703615464   -0.09751368160592094   -0.01585901618400122
-0.6684357703615464   -0.09751368160592094   -0.01585901618400122
-0.6684357703615464   -0.09751368160592094   -0.01585901618400122
-0.6684357703615464   -0.09751368160592094   -0.01585901618400122
-0.004536313701045791   0.06368924899977307   0.02186111053304348
-0.004536313701045791   0.06368924899977307   0.02186111053304348
-0.004536313701045791   0.06368924899977307   0.02186111053304348
-0.004536313701045791   0.06368924899977307   0.02186111053304348
-0.32145049299460177   -0.0054207053284712065   -0.006072644590487432
-0.32145049299460177   -0.0054207053284712065   -0.006072644590487432
-0.32145049299460177   -0.0054207053284712065   -0.006072644590487432
-0.32145049299460177   -0.0054207053284712065   -0.006072644590487432
-0.008518629328223124   0.04230775509744194   0.023331026299489875
-0.008518629328223124   0.04230775509744194   0.023331026299489875
-0.008518629328223124   0.04230775509744194   0.023331026299489875
-0.008518629328223124   0.04230775509744194   0.023331026299489875
-0.6638121413825016   -0.07549087435172114   -0.014763678542971892
-0.6638121413825016   -0.07549087435172114   -0.014763678542971892
-0.6638121413825016   -0.07549087435172114   -0.014763678542971892
-0.6638121413825016   -0.07549087435172114   -0.014763678542971892
-0.6976147409837555   -0.10919488613565254   -0.010478399108009096
-0.6976147409837555   -0.10919488613565254   -0.010478399108009096
-0.6976147409837555   -0.10919488613565254   -0.010478399108009096
-0.6976147409837555   -0.10919488613565254   -0.010478399108009096
-0.03378884106958659   0.04713484621270304   0.024840958837496326
-0.03378884106958659   0.04713484621270304   0.024840958837496326
-0.03378884106958659   0.04713484621270304   0.024840958837496326
-0.03378884106958659   0.04713484621270304   0.024840958837496326
-0.35173533471116086   -0.020194047125508922   -0.013929917259842562
-0.35173533471116086   -0.020194047125508922   -0.013929917259842562
-0.35173533471116086   -0.020194047125508922   -0.013929917259842562
-0.35173533471116086   -0.020194047125508922   -0.013929917259842562
-0.5705684771683439   0.08451632363632217   0.02803948613087684
-0.5705684771683439   0.08451632363632217   0.02803948613087684
-0.5705684771683439   0.08451632363632217   0.02803948613087684
-0.5705684771683439   0.08451632363632217   0.02803948613087684
-1.2126455128537508   -0.053883520241280486   -0.034108782894479224
-1.2126455128537508   -0.053883520241280486   -0.034108782894479224
-1.2126455128537508   -0.053883520241280486   -0.034108782894479224
-1.2126455128537508   -0.053883520241280486   -0.034108782894479224
-1.23913711143412   -0.06624489431098765   -0.005467625997561225
-1.23913711143412   -0.06624489431098765   -0.005467625997561225
-1.23913711143412   -0.06624489431098765   -0.005467625997561225
-1.23913711143412   -0.06624489431098765   -0.005467625997561225
-0.6066087377950821   0.06146969581340658   -0.000990841806296855
-0.6066087377950821   0.06146969581340658   -0.000990841806296855
-0.6066087377950821   0.06146969581340658   -0.000990841806296855
-0.6066087377950821   0.06146969581340658   -0.000990841806296855
-0.9006870689794911   0.009247255916514291   0.006565664545973508
-0.9006870689794911   0.009247255916514291   0.006565664545973508
-0.9006870689794911   0.009247255916514291   0.006565664545973508
-0.9006870689794911   0.009247255916514291   0.006565664545973508
-0.5985586408336598   0.06925849397621736   0.031470844838003394
-0.5985586408336598   0.06925849397621736   0.031470844838003394
-0.5985586408336598   0.06925849397621736   0.031470844838003394
-0.5985586408336598   0.06925849397621736   0.031470844838003394
-1.2461730330130916   -0.07301951709134946   -0.03387261111206771
-1.2461730330130916   -0.07301951709134946   -0.03387261111206771
-1.2461730330130916   -0.07301951709134946   -0.03387261111206771
-1.2461730330130916   -0.07301951709134946   -0.03387261111206771
-1.275316464932935   -0.08293352721165537   -0.004850061578260137
-1.275316464932935   -0.08293352721165537   -0.004850061578260137
-1.275316464932935   -0.08293352721165537   -0.004850061578260137
-1.275316464932935   -0.08293352721165537   -0.004850061578260137
-0.6363340006298972   0.04470013389598107   0.002436016972347521
-0.6363340006298972   0.04470013389598107   0.002436016972347521
-0.6363340006298972   0.04470013389598107   0.002436016972347521
-0.6363340006298972   0.04470013389598107   0.002436016972347521
-0.9260174541859185   -0.004040666474789595   0.0006675187148345238
-0.9260174541859185   -0.004040666474789595   0.0006675187148345238
-0.9260174541859185   -0.004040666474789595   0.0006675187148345238
-0.9260174541859185   -0.004040666474789595   0.0006675187148345238
-0.6275171163354951   0.05486705774297043   0.03635351459736794
-0.6275171163354951   0.05486705774297043   0.03635351459736794
-0.6275171163354951   0.05486705774297043   0.03635351459736794
-0.6275171163354951   0.05486705774297043   0.03635351459736794
-1.2820732609129288   -0.09104036274422833   -0.030527205945667935
-1.2820732609129288   -0.09104036274422833   -0.030527205945667935
-1.2820732609129288   -0.09104036274422833   -0.030527205945667935
-1.2820732609129288   -0.09104036274422833   -0.030527205945667935
-1.3086284754450852   -0.10080202944344652   0.0035308557489125564
-1.3086284754450852   -0.10080202944344652   0.0035308557489125564
-1.3086284754450852   -0.10080202944344652   0.0035308557489125564
-1.3086284754450852   -0.10080202944344652   0.0035308557489125564
-0.6678350304673011   0.024746124023510896   0.004479143315114592
-0.6678350304673011   0.024746124023510896   0.004479143315114592
-0.6678350304673011   0.024746124023510896   0.004479143315114592
-0.6678350304673011   0.024746124023510896   0.004479143315114592
-0.9655565459280999   -0.022690191017980893   -0.0072620455763161285
-0.9655565459280999   -0.022690191017980893   -0.0072620455763161285
-0.9655565459280999   -0.022690191017980893   -0.0072620455763161285
-0.9655565459280999   -0.022690191017980893   -0.0072620455763161285
-1.1696284803239037   0.08784148368899025   0.03925137582447766
-1.1696284803239037   0.08784148368899025   0.03925137582447766
-1.1696284803239037   0.08784148368899025   0.03925137582447766
-1.1696284803239037   0.08784148368899025   0.03925137582447766
-1.7900522428868626   -0.08280074871852111   -0.03145557243095583
-1.7900522428868626   -0.08280074871852111   -0.03145557243095583
-1.7900522428868626   -0.08280074871852111   -0.03145557243095583
-1.7900522428868626   -0.08280074871852111   -0.03145557243095583
-1.8146227136079853   -0.03626735329061159   0.0333965423290728
-1.8146227136079853   -0.03626735329061159   0.0333965423290728
-1.8146227136079853   -0.03626735329061159   0.0333965423290728
-1.8146227136079853   -0.03626735329061159   0.0333965423290728
-1.2209642188901646   0.03678980205394622   -0.017637859642716622
-1.2209642188901646   0.03678980205394622   -0.017637859642716622
-1.2209642188901646   0.03678980205394622   -0.017637859642716622
-1.2209642188901646   0.03678980205394622   -0.017637859642716622
-1.432583561606799   0.01827957505009975   0.03291442717696841
-1.432583561606799   0.01827957505009975   0.03291442717696841
-1.432583561606799   0.01827957505009975   0.03291442717696841
-1.432583561606799   0.01827957505009975   0.03291442717696841
-1.197889058798278   0.08942134814970376   0.045106394720942244
-1.197889058798278   0.08942134814970376   0.045106394720942244
-1.197889058798278   0.08942134814970376   0.045106394720942244
-1.197889058798278   0.08942134814970376   0.045106394720942244
-1.836335897690053   -0.08753692337654828   -0.023899807995300545
-1.836335897690053   -0.08753692337654828   -0.023899807995300545
-1.836335897690053   -0.08753692337654828   -0.023899807995300545
-1.836335897690053   -0.08753692337654828   -0.023899807995300545
-1.859557919570814   -0.04499834060540675   0.04613878256519427
-1.859557919570814   -0.04499834060540675   0.04613878256519427
-1.859557919570814   -0.04499834060540675   0.04613878256519427
-1.859557919570814   -0.04499834060540675   0.04613878256519427
-1.2554687844914016   0.027152226172674265   -0.01569741275492463
-1.2554687844914016   0.027152226172674265   -0.01569741275492463
-1.2554687844914016   0.027152226172674265   -0.01569741275492463
-1.2554687844914016   0.027152226172674265   -0.01569741275492463
-1.4943941141633201   0.00901777902380202   0.021151514278082872
-1.4943941141633201   0.00901777902380202   0.021151514278082872
-1.4943941141633201   0.00901777902380202   0.021151514278082872
-1.4943941141633201   0.00901777902380202   0.021151514278082872
-1.229982373660412   0.08288865464846856   0.05599821292423021
-1.229982373660412   0.08288865464846856   0.05599821292423021
-1.229982373660412   0.08288865464846856   0.05599821292423021
-1.229982373660412   0.08288865464846856   0.05599821292423021
-1.8837285827847121   -0.09941902146411458   -0.020293852645558483
-1.8837285827847121   -0.09941902146411458   -0.020293852645558483
-1.8837285827847121   -0.09941902146411458   -0.020293852645558483
-1.8837285827847121   -0.09941902146411458   -0.020293852645558483
-1.9205052105370346   -0.08243424041997488   0.045883287468119635
-1.9205052105370346   -0.08243424041997488   0.045883287468119635
-1.9205052105370346   -0.08243424041997488   0.045883287468119635
-1.9205052105370346   -0.08243424041997488   0.045883287468119635
-1.292471168663606   -0.0017382707001506459   -0.014746369086987482
-1.292471168663606   -0.0017382707001506459   -0.014746369086987482
-1.292471168663606   -0.0017382707001506459   -0.014746369086987482
-1.292471168663606   -0.0017382707001506459   -0.014746369086987482
-1.5124013302060906   -0.004309393022900121   0.017252982370970768
-1.5124013302060906   -0.004309393022900121   0.017252982370970768
-1.5124013302060906   -0.004309393022900121   0.017252982370970768
-1.5124013302060906   -0.004309393022900121   0.017252982370970768
1.0273814844307532   0.057087914838311576   -0.04904036234247728
1.0273814844307532   0.057087914838311576   -0.04904036234247728
1.0273814844307532   0.057087914838311576   -0.04904036234247728
1.0273814844307532   0.057087914838311576   -0.04904036234247728
0.48855343826820635   0.009792605965800602   0.018696108987336483
0.48855343826820635   0.009792605965800602   0.018696108987336483
0.48855343826820635   0.009792605965800602   0.018696108987336483
0.48855343826820635   0.009792605965800602   0.018696108987336483
0.4340700837782404   -0.08326454964946561   -0.046574417349284504
0.4340700837782404   -0.08326454964946561   -0.046574417349284504
0.4340700837782404   -0.08326454964946561   -0.046574417349284504
0.4340700837782404   -0.08326454964946561   -0.046574417349284504
1.005130014060466   0.09442830961545727   0.02311914125671628
1.005130014060466   0.09442830961545727   0.02311914125671628
1.005130014060466   0.09442830961545727   0.02311914125671628
1.005130014060466   0.09442830961545727   0.02311914125671628
0.7006287898559503   0.00947488747105249   -0.020718146197983935
0.7006287898559503   0.00947488747105249   -0.020718146197983935
0.7006287898559503   0.00947488747105249   -0.020718146197983935
0.7006287898559503   0.00947488747105249   -0.020718146197983935
0.977440952857387   0.025454113839646936   -0.04635196898286837
0.977440952857387   0.025454113839646936   -0.04635196898286837
0.977440952857387   0.025454113839646936   -0.04635196898286837
0.977440952857387   0.025454113839646936   -0.04635196898286837
0.4612135974425209   -0.014835901412454444   0.02071450273510272
0.4612135974425209   -0.014835901412454444   0.02071450273510272
0.4612135974425209   -0.014835901412454444   0.02071450273510272
0.4612135974425209   -0.014835901412454444   0.02071450273510272
0.4086174339895506   -0.09143639715831484   -0.039722467547287234
0.4086174339895506   -0.09143639715831484   -0.039722467547287234
0.4086174339895506   -0.09143639715831484   -0.039722467547287234
0.4086174339895506   -0.09143639715831484   -0.039722467547287234
0.9655536487453288   0.08274823675530449   0.03040910887327012
0.9655536487453288   0.08274823675530449   0.03040910887327012
0.9655536487453288   0.08274823675530449   0.03040910887327012
0.9655536487453288   0.08274823675530449   0.03040910887327012
0.6778475382734978   -0.004695608232941018   -0.029090481225111736
0.6778475382734978   -0.004695608232941018   -0.029090481225111736
0.6778475382734978   -0.004695608232941018   -0.029090481225111736
0.6778475382734978   -0.004695608232941018   -0.029090481225111736
0.9385103227621497   0.015062347706833235   -0.037121631994145914
0.9385103227621497   0.015062347706833235   -0.037121631994145914
0.9385103227621497   0.015062347706833235   -0.037121631994145914
0.9385103227621497   0.015062347706833235   -0.037121631994145914
0.4349717612665125   -0.02443950681606004   0.025052278495263654
0.4349717612665125   -0.02443950681606004   0.025052278495263654
0.4349717612665125   -0.02443950681606004   0.025052278495263654
0.4349717612665125   -0.02443950681606004   0.025052278495263654
0.38567864870820917   -0.09647065887041005   -0.0330809242456978
0.38567864870820917   -0.09647065887041005   -0.0330809242456978
0.38567864870820917   -0.09647065887041005   -0.0330809242456978
0.38567864870820917   -0.09647065887041005   -0.0330809242456978
0.9209242272864239   0.07010230006020127   0.036126475415991934
0.9209242272864239   0.07010230006020127   0.036126475415991934
0.9209242272864239   0.07010230006020127   0.036126475415991934
0.9209242272864239   0.07010230006020127   0.036126475415991934
0.632806202475786   -0.015403724768746019   -0.04148056936300411
0.632806202475786   -0.015403724768746019   -0.04148056936300411
0.632806202475786   -0.015403724768746019   -0.04148056936300411
0.632806202475786   -0.015403724768746019   -0.04148056936300411
0.4967142830118907   0.07223800520352276   -0.002945066531956398
0.4967142830118907   0.07223800520352276   -0.002945066531956398
0.4967142830118907   0.07223800520352276   -0.002945066531956398
0.4967142830118907   0.07223800520352276   -0.002945066531956398
-0.03245619047162904   -0.007049927429966311   -0.00025570035174328595
-0.03245619047162904   -0.007049927429966311   -0.00025570035174328595
-0.03245619047162904   -0.007049927429966311   -0.00025570035174328595
-0.03245619047162904   -0.007049927429966311   -0.00025570035174328595
-0.07083708009598638   -0.06232937764348756   -0.029611659897954258
-0.07083708009598638   -0.06232937764348756   -0.029611659897954258
-0.07083708009598638   -0.06232937764348756   -0.029611659897954258
-0.07083708009598638   -0.06232937764348756   -0.029611659897954258
0.4837944099614849   0.08583073482053023   0.03295192909693812
0.4837944099614849   0.08583073482053023   0.03295192909693812
0.4837944099614849   0.08583073482053023   0.03295192909693812
0.4837944099614849   0.08583073482053023   0.03295192909693812
0.21592436465859463   0.021178960256032307   0.0015401045818745603
0.21592436465859463   0.021178960256032307   0.0015401045818745603
0.21592436465859463   0.021178960256032307   0.0015401045818745603
0.21592436465859463   0.021178960256032307   0.0015401045818745603
0.47076477893159396   0.05220018991269636   0.0014343188553236803
0.47076477893159396   0.05220018991269636   0.0014343188553236803
0.47076477893159396   0.05220018991269636   0.0014343188553236803
0.47076477893159396   0.05220018991269636   0.0014343188553236803
-0.05758438204971365   -0.028475765719260623   0.002798218409182444
-0.05758438204971365   -0.028475765719260623   0.002798218409182444
-0.05758438204971365   -0.028475765719260623   0.002798218409182444
-0.05758438204971365   -0.028475765719260623   0.002798218409182444
-0.09481144870616388   -0.07777164833059697   -0.024486095934054146
-0.09481144870616388   -0.07777164833059697   -0.024486095934054146
-0.09481144870616388   -0.07777164833059697   -0.024486095934054146
-0.09481144870616388   -0.07777164833059697   -0.024486095934054146
0.45553172330442215   0.06738939473231503   0.03602318713643686
0.45553172330442215   0.06738939473231503   0.03602318713643686
0.45553172330442215   0.06738939473231503   0.03602318713643686
0.45553172330442215   0.06738939473231503   0.03602318713643686
0.18637705374926986   0.002943242447904511   -0.007614980532132316
0.18637705374926986   0.002943242447904511   -0.007614980532132316
0.18637705374926986   0.002943242447904511   -0.007614980532132316
0.18637705374926986   0.002943242447904511   -0.007614980532132316
0.442933935029687   0.03563281308533332   0.004790827409746432
0.442933935029687   0.03563281308533332   0.004790827409746432
0.442933935029687   0.03563281308533332   0.004790827409746432
0.442933935029687   0.03563281308533332   0.004790827409746432
-0.08239693079163318   -0.046198337043819114   0.006013182351821489
-0.08239693079163318   -0.046198337043819114   0.006013182351821489
-0.08239693079163318   -0.046198337043819114   0.006013182351821489
-0.08239693079163318   -0.046198337043819114   0.006013182351821489
-0.11847218272958084   -0.0907390855583863   -0.019670495848720777
-0.11847218272958084   -0.0907390855583863   -0.019670495848720777
-0.11847218272958084   -0.0907390855583863   -0.019670495848720777
-0.11847218272958084   -0.0907390855583863   -0.019670495848720777
0.42943726870073334   0.05034019625099286   0.03890132059551841
0.42943726870073334   0.05034019625099286   0.03890132059551841
0.42943726870073334   0.05034019625099286   0.03890132059551841
0.42943726870073334   0.05034019625099286   0.03890132059551841
0.163715980915927   -0.010876429682505427   -0.015241016173249432
0.163715980915927   -0.010876429682505427   -0.015241016173249432
0.163715980915927   -0.010876429682505427   -0.015241016173249432
0.163715980915927   -0.010876429682505427   -0.015241016173249432
-0.011378859871613155   0.08611263795229328   0.011968387266076557
-0.011378859871613155   0.08611263795229328   0.011968387266076557
-0.011378859871613155   0.08611263795229328   0.011968387266076557
-0.011378859871613155   0.08611263795229328   0.011968387266076557
-0.5423711279108475   -0.0235446826943692   -0.017989545651118734
-0.5423711279108475   -0.0235446826943692   -0.017989545651118734
-0.5423711279108475   -0.0235446826943692   -0.017989545651118734
-0.5423711279108475   -0.0235446826943692   -0.017989545651118734
-0.5671070387319923   -0.04331102577057919   -0.014046646310476071
-0.5671070387319923   -0.04331102577057919   -0.014046646310476071
-0.5671070387319923   -0.04331102577057919   -0.014046646310476071
-0.5671070387319923   -0.04331102577057919   -0.014046646310476071
-0.035712026210107314   0.0693175949178346   0.014366636970120856
-0.035712026210107314   0.0693175949178346   0.014366636970120856
-0.035712026210107314   0.0693175949178346   0.014366636970120856
-0.035712026210107314   0.0693175949178346   0.014366636970120856
-0.28845698768968037   0.022290548711578456   0.00565793883485163
-0.28845698768968037   0.022290548711578456   0.00565793883485163
-0.28845698768968037   0.022290548711578456   0.00565793883485163
-0.28845698768968037   0.022290548711578456   0.00565793883485163
-0.03523479323321697   0.06923902662146045   0.01683137015094672
-0.03523479323321697   0.06923902662146045   0.01683137015094672
-0.03523479323321697   0.06923902662146045   0.01683137015094672
-0.03523479323321697   0.06923902662146045   0.01683137015094672
-0.5671215733151292   -0.042769759080451566   -0.014660585916288
-0.5671215733151292   -0.042769759080451566   -0.014660585916288
-0.5671215733151292   -0.042769759080451566   -0.014660585916288
-0.5671215733151292   -0.042769759080451566   -0.014660585916288
-0.591663982854408   -0.06002344602900622   -0.009574695457552108
-0.591663982854408   -0.06002344602900622   -0.009574695457552108
-0.591663982854408   -0.06002344602900622   -0.009574695457552108
-0.591663982854408   -0.06002344602900622   -0.009574695457552108
-0.06070722964834231   0.050328790825957856   0.017934560198500787
-0.06070722964834231   0.050328790825957856   0.017934560198500787
-0.06070722964834231   0.050328790825957856   0.017934560198500787
-0.06070722964834231   0.050328790825957856   0.017934560198500787
-0.31326672005753314   0.005800506158637517   -0.0017691590405506455
-0.31326672005753314   0.005800506158637517   -0.0017691590405506455
-0.31326672005753314   0.005800506158637517   -0.0017691590405506455
-0.31326672005753314   0.005800506158637517   -0.0017691590405506455
-0.05973431999185482   0.052419171246995064   0.020708728059901087
-0.05973431999185482   0.052419171246995064   0.020708728059901087
-0.05973431999185482   0.052419171246995064   0.020708728059901087
-0.05973431999185482   0.052419171246995064   0.020708728059901087
-0.5925015410630577   -0.06197847500220566   -0.011807457527601359
-0.5925015410630577   -0.06197847500220566   -0.011807457527601359
-0.5925015410630577   -0.06197847500220566   -0.011807457527601359
-0.5925015410630577   -0.06197847500220566   -0.011807457527601359
-0.6159312359081961   -0.0752913427479911   -0.005147591127364815
-0.6159312359081961   -0.0752913427479911   -0.005147591127364815
-0.6159312359081961   -0.0752913427479911   -0.005147591127364815
-0.6159312359081961   -0.0752913427479911   -0.005147591127364815
-0.08580479283446021   0.03196340893039713   0.020963959138098953
-0.08580479283446021   0.03196340893039713   0.020963959138098953
-0.08580479283446021   0.03196340893039713   0.020963959138098953
-0.08580479283446021   0.03196340893039713   0.020963959138098953
-0.33921336238266697   -0.010828213628129107   -0.01004059885682276
-0.33921336238266697   -0.010828213628129107   -0.01004059885682276
-0.33921336238266697   -0.010828213628129107   -0.01004059885682276
-0.33921336238266697   -0.010828213628129107   -0.01004059885682276
-0.5090980065190504   0.09884501110605548   0.02598636750743888
-0.5090980065190504   0.09884501110605548   0.02598636750743888
-0.5090980065190504   0.09884501110605548   0.02598636750743888
-0.5090980065190504   0.09884501110605548   0.02598636750743888
-1.040640836566897   -0.040395808225711455   -0.03242702286650063
-1.040640836566897   -0.040395808225711455   -0.03242702286650063
-1.040640836566897   -0.040395808225711455   -0.03242702286650063
-1.040640836566897   -0.040395808225711455   -0.03242702286650063
-1.0541581269497602   -0.027259306238911096   0.002913537086792789
-1.0541581269497602   -0.027259306238911096   0.002913537086792789
-1.0541581269497602   -0.027259306238911096   0.002913537086792789
-1.0541581269497602   -0.027259306238911096   0.002913537086792789
-0.5465094366171172   0.04978217445568989   -0.004151835962360836
-0.5465094366171172   0.04978217445568989   -0.004151835962360836
-0.5465094366171172   0.04978217445568989   -0.004151835962360836
-0.5465094366171172   0.04978217445568989   -0.004151835962360836
-0.7824852595393191   0.021238208073627918   0.00958799593467606
-0.7824852595393191   0.021238208073627918   0.00958799593467606
-0.7824852595393191   0.021238208073627918   0.00958799593467606
-0.7824852595393191   0.021238208073627918   0.00958799593467606
-0.532997115336198   0.0825238147050218   0.030668130192895132
-0.532997115336198   0.0825238147050218   0.030668130192895132
-0.532997115336198   0.0825238147050218   0.030668130192895132
-0.532997115336198   0.0825238147050218   0.030668130192895132
-1.0675458696257805   -0.05987636788334544   -0.03140811464887418
-1.0675458696257805   -0.05987636788334544   -0.03140811464887418
-1.0675458696257805   -0.05987636788334544   -0.03140811464887418
-1.0675458696257805   -0.05987636788334544   -0.03140811464887418
-1.0827541012618835   -0.04415424363916348   0.004584229928611072
-1.0827541012618835   -0.04415424363916348   0.004584229928611072
-1.0827541012618835   -0.04415424363916348   0.004584229928611072
-1.0827541012618835   -0.04415424363916348   0.004584229928611072
-0.5714103927941471   0.032195172342296186   -0.0005253635275420249
-0.5714103927941471   0.032195172342296186   -0.0005253635275420249
-0.5714103927941471   0.032195172342296186   -0.0005253635275420249
-0.5714103927941471   0.032195172342296186   -0.0005253635275420249
-0.8034613921359552   0.0065310040411429016   0.002675570097667071
-0.8034613921359552   0.0065310040411429016   0.002675570097667071
-0.8034613921359552   0.0065310040411429016   0.002675570097667071
-0.8034613921359552   0.0065310040411429016   0.002675570097667071
-0.5573335452769514   0.06701985904353874   0.035034187357190105
-0.5573335452769514   0.06701985904353874   0.035034187357190105
-0.5573335452769514   0.06701985904353874   0.035034187357190105
-0.5573335452769514   0.06701985904353874   0.035034187357190105
-1.0961067503116322   -0.07825473187295962   -0.028078527086335917
-1.0961067503116322   -0.07825473187295962   -0.028078527086335917
-1.0961067503116322   -0.07825473187295962   -0.028078527086335917
-1.0961067503116322   -0.07825473187295962   -0.028078527086335917
-1.1086909123063184   -0.06234313931501609   0.009888708461496948
-1.1086909123063184   -0.06234313931501609   0.009888708461496948
-1.1086909123063184   -0.06234313931501609   0.009888708461496948
-1.1086909123063184   -0.06234313931501609   0.009888708461496948
-0.5970091127289682   0.012070799067611798   0.002100882953180047
-0.5970091127289682   0.012070799067611798   0.002100882953180047
-0.5970091127289682   0.012070799067611798   0.002100882953180047
-0.5970091127289682   0.012070799067611798   0.002100882953180047
-0.835423193301947   -0.011920554836960778   -0.00610354466974921
-0.835423193301947   -0.011920554836960778   -0.00610354466974921
-0.835423193301947   -0.011920554836960778   -0.00610354466974921
-0.835423193301947   -0.011920554836960778   -0.00610354466974921
-1.0010020120345138   0.08864555854340056   0.03672573302630362
-1.0010020120345138   0.08864555854340056   0.03672573302630362
-1.0010020120345138   0.08864555854340056   0.03672573302630362
-1.0010020120345138   0.08864555854340056   0.03672573302630362
-1.5145341344723402   -0.06988729423650758   -0.035717345691654565
-1.5145341344723402   -0.06988729423650758   -0.035717345691654565
-1.5145341344723402   -0.06988729423650758   -0.035717345691654565
-1.5145341344723402   -0.06988729423650758   -0.035717345691654565
-1.531366672746878   -0.014994560959066872   0.03384277914893154
-1.531366672746878   -0.014994560959066872   0.03384277914893154
-1.531366672746878   -0.014994560959066872   0.03384277914893154
-1.531366672746878   -0.014994560959066872   0.03384277914893154
-1.0484431196048414   0.025114654501185107   -0.020885386928709823
-1.0484431196048414   0.025114654501185107   -0.020885386928709823
-1.0484431196048414   0.025114654501185107   -0.020885386928709823
-1.0484431196048414   0.025114654501185107   -0.020885386928709823
-1.2174817489336534   0.01992276821457961   0.02982279913804993
-1.2174817489336534   0.01992276821457961   0.02982279913804993
-1.2174817489336534   0.01992276821457961   0.02982279913804993
-1.2174817489336534   0.01992276821457961   0.02982279913804993
-1.0229666043911112   0.08853272134210405   0.04307912229901907
-1.0229666043911112   0.08853272134210405   0.04307912229901907
-1.0229666043911112   0.08853272134210405   0.04307912229901907
-1.0229666043911112   0.08853272134210405   0.04307912229901907
-1.556413817113494   -0.07798325695286962   -0.028404246690330773
-1.556413817113494   -0.07798325695286962   -0.028404246690330773
-1.556413817113494   -0.07798325695286962   -0.028404246690330773
-1.556413817113494   -0.07798325695286962   -0.028404246690330773
-1.5688032318622096   -0.023908707063944823   0.04233236843278766
-1.5688032318622096   -0.023908707063944823   0.04233236843278766
-1.5688032318622096   -0.023908707063944823   0.04233236843278766
-1.5688032318622096   -0.023908707063944823   0.04233236843278766
-1.0753243387570812   0.01547277809327019   -0.01789397927981122
-1.0753243387570812   0.01547277809327019   -0.01789397927981122
-1.0753243387570812   0.01547277809327019   -0.01789397927981122
-1.0753243387570812   0.01547277809327019   -0.01789397927981122
-1.2697881353993405   0.009975790047236643   0.018144993736253875
-1.2697881353993405   0.009975790047236643   0.018144993736253875
-1.2697881353993405   0.009975790047236643   0.018144993736253875
-1.2697881353993405   0.009975790047236643   0.018144993736253875
-1.0482998360198301   0.08188813409826359   0.05081317840145051
-1.0482998360198301   0.08188813409826359   0.05081317840145051
-1.0482998360198301   0.08188813409826359   0.05081317840145051
-1.0482998360198301   0.08188813409826359   0.05081317840145051
-1.5951182547522171   -0.0896145832216923   -0.02353686985948765
-1.5951182547522171   -0.0896145832216923   -0.02353686985948765
-1.5951182547522171   -0.0896145832216923   -0.02353686985948765
-1.5951182547522171   -0.0896145832216923   -0.02353686985948765
-1.6182129277882493   -0.05562367935246937   0.041568346776062
-1.6182129277882493   -0.05562367935246937   0.041568346776062
-1.6182129277882493   -0.05562367935246937   0.041568346776062
-1.6182129277882493   -0.05562367935246937   0.041568346776062
-1.1037111184497002   -0.011339172692559157   -0.016216288877869446
-1.1037111184497002   -0.011339172692559157   -0.016216288877869446
-1.1037111184497002   -0.011339172692559157   -0.016216288877869446
-1.1037111184497002   -0.011339172692559157   -0.016216288877869446
-1.2832606168317047   -0.0024008076132516765   0.014252241642727509
-1.2832606168317047   -0.0024008076132516765   0.014252241642727509
-1.2832606168317047   -0.0024008076132516765   0.014252241642727509
-1.2832606168317047   -0.0024008076132516765   0.014252241642727509
0.7057412582141918   0.039960514365004654   -0.04765216896262854
0.7057412582141918   0.039960514365004654   -0.04765216896262854
0.7057412582141918   0.039960514365004654   -0.04765216896262854
0.7057412582141918   0.039960514365004654   -0.04765216896262854
0.3014505118587246   0.019244097722654153   0.020445571638993687
0.3014505118587246   0.019244097722654153   0.020445571638993687
0.3014505118587246   0.019244097722654153   0.020445571638993687
0.3014505118587246   0.019244097722654153   0.020445571638993687
0.25233907052078713   -0.06964037968217003   -0.044433361691741474
0.25233907052078713   -0.06964037968217003   -0.044433361691741474
0.25233907052078713   -0.06964037968217003   -0.044433361691741474
0.25233907052078713   -0.06964037968217003   -0.044433361691741474
0.6891938727815357   0.0801651825724054   0.024841732013623677
0.6891938727815357   0.0801651825724054   0.024841732013623677
0.6891938727815357   0.0801651825724054   0.024841732013623677
0.6891938727815357   0.0801651825724054   0.024841732013623677
0.46138090170681645   0.010229899770841308   -0.012605571157633985
0.46138090170681645   0.010229899770841308   -0.012605571157633985
0.46138090170681645   0.010229899770841308   -0.012605571157633985
0.46138090170681645   0.010229899770841308   -0.012605571157633985
0.6617492138284673   0.012237537734870338   -0.04445391791418901
0.6617492138284673   0.012237537734870338   -0.04445391791418901
0.6617492138284673   0.012237537734870338   -0.04445391791418901
0.6617492138284673   0.012237537734870338   -0.04445391791418901
0.2792680728642478   -0.002228391454247955   0.022799661797644623
0.2792680728642478   -0.002228391454247955   0.022799661797644623
0.2792680728642478   -0.002228391454247955   0.022799661797644623
0.2792680728642478   -0.002228391454247955   0.022799661797644623
0.23142129047563295   -0.07772438786296403   -0.03782165594837678
0.23142129047563295   -0.07772438786296403   -0.03782165594837678
0.23142129047563295   -0.07772438786296403   -0.03782165594837678
0.23142129047563295   -0.07772438786296403   -0.03782165594837678
0.6547777711665524   0.06869437821236618   0.032019307197651115
0.6547777711665524   0.06869437821236618   0.032019307197651115
0.6547777711665524   0.06869437821236618   0.032019307197651115
0.6547777711665524   0.06869437821236618   0.032019307197651115
0.43976021433036494   -0.0031051412090886826   -0.020524898726201418
0.43976021433036494   -0.0031051412090886826   -0.020524898726201418
0.43976021433036494   -0.0031051412090886826   -0.020524898726201418
0.43976021433036494   -0.0031051412090886826   -0.020524898726201418
0.6277824976434591   0.001883040265987873   -0.03614572247144334
0.6277824976434591   0.001883040265987873   -0.03614572247144334
0.6277824976434591   0.001883040265987873   -0.03614572247144334
0.6277824976434591   0.001883040265987873   -0.03614572247144334
0.2576553337943191   -0.011674280120993558   0.027298452903085774
0.2576553337943191   -0.011674280120993558   0.027298452903085774
0.2576553337943191   -0.011674280120993558   0.027298452903085774
0.2576553337943191   -0.011674280120993558   0.027298452903085774
0.21272415109227538   -0.08506758197614704   -0.03152285857160116
0.21272415109227538   -0.08506758197614704   -0.03152285857160116
0.21272415109227538   -0.08506758197614704   -0.03152285857160116
0.21272415109227538   -0.08506758197614704   -0.03152285857160116
0.6145996489825877   0.05361401542969964   0.03654800525490791
0.6145996489825877   0.05361401542969964   0.03654800525490791
0.6145996489825877   0.05361401542969964   0.03654800525490791
0.6145996489825877   0.05361401542969964   0.03654800525490791
0.4031682157337275   -0.014046440568080784   -0.031401772685261564
0.4031682157337275   -0.014046440568080784   -0.031401772685261564
0.4031682157337275   -0.014046440568080784   -0.031401772685261564
0.4031682157337275   -0.014046440568080784   -0.031401772685261564
0.3034915730057871   0.05847480029605232   -0.00857982519909701
0.3034915730057871   0.05847480029605232   -0.00857982519909701
0.3034915730057871   0.05847480029605232   -0.00857982519909701
0.3034915730057871   0.05847480029605232   -0.00857982519909701
-0.0931647066751571   0.005041301684841383   0.0027678334874812376
-0.0931647066751571   0.005041301684841383   0.0027678334874812376
-0.0931647066751571   0.005041301684841383   0.0027678334874812376
-0.0931647066751571   0.005041301684841383   0.0027678334874812376
-0.12673951978436926   -0.04834053447259158   -0.027370487622816766
-0.12673951978436926   -0.04834053447259158   -0.027370487622816766
-0.12673951978436926   -0.04834053447259158   -0.027370487622816766
-0.12673951978436926   -0.04834053447259158   -0.027370487622816766
0.2950904920624988   0.07029884849952824   0.02938451783512335
0.2950904920624988   0.07029884849952824   0.02938451783512335
0.2950904920624988   0.07029884849952824   0.02938451783512335
0.2950904920624988   0.07029884849952824   0.02938451783512335
0.09259310570541829   0.020330210397570454   0.0035514337784429595
0.09259310570541829   0.020330210397570454   0.0035514337784429595
0.09259310570541829   0.020330210397570454   0.0035514337784429595
0.09259310570541829   0.020330210397570454   0.0035514337784429595
0.2818154738111699   0.037921847322233554   -0.004613572244230262
0.2818154738111699   0.037921847322233554   -0.004613572244230262
0.2818154738111699   0.037921847322233554   -0.004613572244230262
0.2818154738111699   0.037921847322233554   -0.004613572244230262
-0.11366115467569118   -0.016160186437948372   0.005840989885930337
-0.11366115467569118   -0.016160186437948372   0.005840989885930337
-0.11366115467569118   -0.016160186437948372   0.005840989885930337
-0.11366115467569118   -0.016160186437948372   0.005840989885930337
-0.14619457382120993   -0.06458982862536636   -0.02214663252633796
-0.14619457382120993   -0.06458982862536636   -0.02214663252633796
-0.14619457382120993   -0.06458982862536636   -0.02214663252633796
-0.14619457382120993   -0.06458982862536636   -0.02214663252633796
0.2712293087170077   0.05154705011374091   0.03194699728179436
0.2712293087170077   0.05154705011374091   0.03194699728179436
0.2712293087170077   0.05154705011374091   0.03194699728179436
0.2712293087170077   0.05154705011374091   0.03194699728179436
0.06859954341611056   0.0019520829261358806   -0.005276879830478525
0.06859954341611056   0.0019520829261358806   -0.005276879830478525
0.06859954341611056   0.0019520829261358806   -0.005276879830478525
0.06859954341611056   0.0019520829261358806   -0.005276879830478525
0.2583739547780341   0.020497215949902205   -0.0012799382492391913
0.2583739547780341   0.020497215949902205   -0.0012799382492391913
0.2583739547780341   0.020497215949902205   -0.0012799382492391913
0.2583739547780341   0.020497215949902205   -0.0012799382492391913
-0.13383631372348184   -0.034037088302773556   0.009091927639711568
-0.13383631372348184   -0.034037088302773556   0.009091927639711568
-0.13383631372348184   -0.034037088302773556   0.009091927639711568
-0.13383631372348184   -0.034037088302773556   0.009091927639711568
-0.16539084862051684   -0.0798696646806241   -0.01731986674131624
-0.16539084862051684   -0.0798696646806241   -0.01731986674131624
-0.16539084862051684   -0.0798696646806241   -0.01731986674131624
-0.16539084862051684   -0.0798696646806241   -0.01731986674131624
0.24969670120450935   0.03352560633675322   0.03474670367667318
0.24969670120450935   0.03352560633675322   0.03474670367667318
0.24969670120450935   0.03352560633675322   0.03474670367667318
0.24969670120450935   0.03352560633675322   0.03474670367667318
0.049338129993673485   -0.013302984176269048   -0.013074944849689702
0.049338129993673485   -0.013302984176269048   -0.013074944849689702
0.049338129993673485   -0.013302984176269048   -0.013074944849689702
0.049338129993673485   -0.013302984176269048   -0.013074944849689702
-0.07853698877552374   0.07417466599751399   0.00677305867297345
-0.07853698877552374   0.07417466599751399   0.00677305867297345
-0.07853698877552374   0.07417466599751399   0.00677305867297345
-0.07853698877552374   0.07417466599751399   0.00677305867297345
-0.48192421680215325   -0.01217994429456462   -0.01465468174548432
-0.48192421680215325   -0.01217994429456462   -0.01465468174548432
-0.48192421680215325   -0.01217994429456462   -0.01465468174548432
-0.48192421680215325   -0.01217994429456462   -0.01465468174548432
-0.5011204325537204   -0.028795320576120845   -0.010789534156043258
-0.5011204325537204   -0.028795320576120845   -0.010789534156043258
-0.5011204325537204   -0.028795320576120845   -0.010789534156043258
-0.5011204325537204   -0.028795320576120845   -0.010789534156043258
-0.09859847234248036   0.05360116258082158   0.011393052533212624
-0.09859847234248036   0.05360116258082158   0.011393052533212624
-0.09859847234248036   0.05360116258082158   0.011393052533212624
-0.09859847234248036   0.05360116258082158   0.011393052533212624
-0.289338232185953   0.0213619224459108   0.005722443837808167
-0.289338232185953   0.0213619224459108   0.005722443837808167
-0.289338232185953   0.0213619224459108   0.005722443837808167
-0.289338232185953   0.0213619224459108   0.005722443837808167
-0.09799787242564861   0.05632211768362272   0.01167509701457212
-0.09799787242564861   0.05632211768362272   0.01167509701457212
-0.09799787242564861   0.05632211768362272   0.01167509701457212
-0.09799787242564861   0.05632211768362272   0.01167509701457212
-0.5017764151324067   -0.03157165834077111   -0.011293109284824476
-0.5017764151324067   -0.03157165834077111   -0.011293109284824476
-0.5017764151324067   -0.03157165834077111   -0.011293109284824476
-0.5017764151324067   -0.03157165834077111   -0.011293109284824476
-0.520776741112976   -0.046499538581898384   -0.006137575376146717
-0.520776741112976   -0.046499538581898384   -0.006137575376146717
-0.520776741112976   -0.046499538581898384   -0.006137575376146717
-0.520776741112976   -0.046499538581898384   -0.006137575376146717
-0.11901400681729912   0.03430326426887445   0.014863109598973315
-0.11901400681729912   0.03430326426887445   0.014863109598973315
-0.11901400681729912   0.03430326426887445   0.014863109598973315
-0.11901400681729912   0.03430326426887445   0.014863109598973315
-0.3095472003053559   0.00412370228305374   -0.0018666826099839294
-0.3095472003053559   0.00412370228305374   -0.0018666826099839294
-0.3095472003053559   0.00412370228305374   -0.0018666826099839294
-0.3095472003053559   0.00412370228305374   -0.0018666826099839294
-0.11799265714684405   0.03844951477548532   0.01582360744463982
-0.11799265714684405   0.03844951477548532   0.01582360744463982
-0.11799265714684405   0.03844951477548532   0.01582360744463982
-0.11799265714684405   0.03844951477548532   0.01582360744463982
-0.5221129603290968   -0.05096065863417473   -0.00835755140447484
-0.5221129603290968   -0.05096065863417473   -0.00835755140447484
-0.5221129603290968   -0.05096065863417473   -0.00835755140447484
-0.5221129603290968   -0.05096065863417473   -0.00835755140447484
-0.5401011577569681   -0.0634114510988673   -0.001613976085715351
-0.5401011577569681   -0.0634114510988673   -0.001613976085715351
-0.5401011577569681   -0.0634114510988673   -0.001613976085715351
-0.5401011577569681   -0.0634114510988673   -0.001613976085715351
-0.1392574508501571   0.015551949629102828   0.0179255078007518
-0.1392574508501571   0.015551949629102828   0.0179255078007518
-0.1392574508501571   0.015551949629102828   0.0179255078007518
-0.1392574508501571   0.015551949629102828   0.0179255078007518
-0.33058931581173084   -0.01313344668003967   -0.01009330068607537
-0.33058931581173084   -0.01313344668003967   -0.01009330068607537
-0.33058931581173084   -0.01313344668003967   -0.01009330068607537
-0.33058931581173084   -0.01313344668003967   -0.01009330068607537
-0.45467160729046885   0.08764093875545237   0.02178748276292094
-0.45467160729046885   0.08764093875545237   0.02178748276292094
-0.45467160729046885   0.08764093875545237   0.02178748276292094
-0.45467160729046885   0.08764093875545237   0.02178748276292094
-0.8638318036546748   -0.02931399421785036   -0.029820108918813565
-0.8638318036546748   -0.02931399421785036   -0.029820108918813565
-0.8638318036546748   -0.02931399421785036   -0.029820108918813565
-0.8638318036546748   -0.02931399421785036   -0.029820108918813565
-0.8710435623581527   -0.012895796641632179   0.006992434292064462
-0.8710435623581527   -0.012895796641632179   0.006992434292064462
-0.8710435623581527   -0.012895796641632179   0.006992434292064462
-0.8710435623581527   -0.012895796641632179   0.006992434292064462
-0.48748594771655795   0.03493217376924733   -0.0063446043156032556
-0.48748594771655795   0.03493217376924733   -0.0063446043156032556
-0.48748594771655795   0.03493217376924733   -0.0063446043156032556
-0.48748594771655795   0.03493217376924733   -0.0063446043156032556
-0.6652859358228853   0.020286192255036112   0.008307647380796292
-0.6652859358228853   0.020286192255036112   0.008307647380796292
-0.6652859358228853   0.020286192255036112   0.008307647380796292
-0.6652859358228853   0.020286192255036112   0.008307647380796292
-0.4737727046929824   0.07049220412274514   0.02666158044878071
-0.4737727046929824   0.07049220412274514   0.02666158044878071
-0.4737727046929824   0.07049220412274514   0.02666158044878071
-0.4737727046929824   0.07049220412274514   0.02666158044878071
-0.8853569226674767   -0.04905594428088017   -0.028414219615322034
-0.8853569226674767   -0.04905594428088017   -0.028414219615322034
-0.8853569226674767   -0.04905594428088017   -0.028414219615322034
-0.8853569226674767   -0.04905594428088017   -0.028414219615322034
-0.8942158742313483   -0.030431478789895217   0.0091468622487023
-0.8942158742313483   -0.030431478789895217   0.0091468622487023
-0.8942158742313483   -0.030431478789895217   0.0091468622487023
-0.8942158742313483   -0.030431478789895217   0.0091468622487023
-0.5073527870884716   0.01714725681029068   -0.002664600645825098
-0.5073527870884716   0.01714725681029068   -0.002664600645825098
-0.5073527870884716   0.01714725681029068   -0.002664600645825098
-0.5073527870884716   0.01714725681029068   -0.002664600645825098
-0.682295927133775   0.00465700977613101   0.0006996015084859142
-0.682295927133775   0.00465700977613101   0.0006996015084859142
-0.682295927133775   0.00465700977613101   0.0006996015084859142
-0.682295927133775   0.00465700977613101   0.0006996015084859142
-0.4931462233314943   0.05421347827517253   0.03130199667418697
-0.4931462233314943   0.05421347827517253   0.03130199667418697
-0.4931462233314943   0.05421347827517253   0.03130199667418697
-0.4931462233314943   0.05421347827517253   0.03130199667418697
-0.9084753124670348   -0.06755057473348758   -0.025031232986153222
-0.9084753124670348   -0.06755057473348758   -0.025031232986153222
-0.9084753124670348   -0.06755057473348758   -0.025031232986153222
-0.9084753124670348   -0.06755057473348758   -0.025031232986153222
-0.914846530618135   -0.04911663380777759   0.014001136465399924
-0.914846530618135   -0.04911663380777759   0.014001136465399924
-0.914846530618135   -0.04911663380777759   0.014001136465399924
-0.914846530618135   -0.04911663380777759   0.014001136465399924
-0.5275672893458977   -0.00258316637353187   0.00022708124429318688
-0.5275672893458977   -0.00258316637353187   0.00022708124429318688
-0.5275672893458977   -0.00258316637353187   0.00022708124429318688
-0.5275672893458977   -0.00258316637353187   0.00022708124429318688
-0.7078376444347801   -0.013490027214113076   -0.008133323411443488
-0.7078376444347801   -0.013490027214113076   -0.008133323411443488
-0.7078376444347801   -0.013490027214113076   -0.008133323411443488
-0.7078376444347801   -0.013490027214113076   -0.008133323411443488
-0.8289101733947359   0.08122981395829701   0.0342442342047333
-0.8289101733947359   0.08122981395829701   0.0342442342047333
-0.8289101733947359   0.08122981395829701   0.0342442342047333
-0.8289101733947359   0.08122981395829701   0.0342442342047333
-1.2231430879115344   -0.0563285943481264   -0.03870650824825184
-1.2231430879115344   -0.0563285943481264   -0.03870650824825184
-1.2231430879115344   -0.0563285943481264   -0.03870650824825184
-1.2231430879115344   -0.0563285943481264   -0.03870650824825184
-1.2349379155412976   -0.0012201624083261198   0.03393532446019025
-1.2349379155412976   -0.0012201624083261198   0.03393532446019025
-1.2349379155412976   -0.0012201624083261198   0.03393532446019025
-1.2349379155412976   -0.0012201624083261198   0.03393532446019025
-0.8721208395308281   0.011937807531256034   -0.023227555744223333
-0.8721208395308281   0.011937807531256034   -0.023227555744223333
-0.8721208395308281   0.011937807531256034   -0.023227555744223333
-0.8721208395308281   0.011937807531256034   -0.023227555744223333
-0.9940216217539196   0.018832064572073093   0.025173517111656954
-0.9940216217539196   0.018832064572073093   0.025173517111656954
-0.9940216217539196   0.018832064572073093   0.025173517111656954
-0.9940216217539196   0.018832064572073093   0.025173517111656954
-0.8462207974700291   0.07781524061008188   0.04039522148096157
-0.8462207974700291   0.07781524061008188   0.04039522148096157
-0.8462207974700291   0.07781524061008188   0.04039522148096157
-0.8462207974700291   0.07781524061008188   0.04039522148096157
-1.2613506453601684   -0.06761028324521862   -0.031738203797256254
-1.2613506453601684   -0.06761028324521862   -0.031738203797256254
-1.2613506453601684   -0.06761028324521862   -0.031738203797256254
-1.2613506453601684   -0.06761028324521862   -0.031738203797256254
-1.2676794466216612   -0.010866241524953746   0.042766030493618545
-1.2676794466216612   -0.010866241524953746   0.042766030493618545
-1.2676794466216612   -0.010866241524953746   0.042766030493618545
-1.2676794466216612   -0.010866241524953746   0.042766030493618545
-0.8934799832529194   0.0021854010226422804   -0.01979056267170609
-0.8934799832529194   0.0021854010226422804   -0.01979056267170609
-0.8934799832529194   0.0021854010226422804   -0.01979056267170609
-0.8934799832529194   0.0021854010226422804   -0.01979056267170609
-1.0381962313391377   0.007746381888616649   0.0131986206934041
-1.0381962313391377   0.007746381888616649   0.0131986206934041
-1.0381962313391377   0.007746381888616649   0.0131986206934041
-1.0381962313391377   0.007746381888616649   0.0131986206934041
-0.8663682201781133   0.07036127367501874   0.04759238004996354
-0.8663682201781133   0.07036127367501874   0.04759238004996354
-0.8663682201781133   0.07036127367501874   0.04759238004996354
-0.8663682201781133   0.07036127367501874   0.04759238004996354
-1.2951613859191728   -0.07941229040003822   -0.026097617118855138
-1.2951613859191728   -0.07941229040003822   -0.026097617118855138
-1.2951613859191728   -0.07941229040003822   -0.026097617118855138
-1.2951613859191728   -0.07941229040003822   -0.026097617118855138
-1.311480663580819   -0.04106990722852391   0.04289958357342565
-1.311480663580819   -0.04106990722852391   0.04289958357342565
-1.311480663580819   -0.04106990722852391   0.04289958357342565
-1.311480663580819   -0.04106990722852391   0.04289958357342565
-0.9158305978692417   -0.02253638206501843   -0.017499451532900778
-0.9158305978692417   -0.02253638206501843   -0.017499451532900778
-0.9158305978692417   -0.02253638206501843   -0.017499451532900778
-0.9158305978692417   -0.02253638206501843   -0.017499451532900778
-1.0506696802075495   -0.004906934531331286   0.007506950434871124
-1.0506696802075495   -0.004906934531331286   0.007506950434871124
-1.0506696802075495   -0.004906934531331286   0.007506950434871124
-1.0506696802075495   -0.004906934531331286   0.007506950434871124
0.38864113389629895   0.02326326806957222   -0.04664919866399028
0.38864113389629895   0.02326326806957222   -0.04664919866399028
0.38864113389629895   0.02326326806957222   -0.04664919866399028
0.38864113389629895   0.02326326806957222   -0.04664919866399028
0.11311636198827713   0.028014703998746608   0.022304550085198008
0.11311636198827713   0.028014703998746608   0.022304550085198008
0.11311636198827713   0.028014703998746608   0.022304550085198008
0.11311636198827713   0.028014703998746608   0.022304550085198008
0.06969799988498918   -0.056930300489255695   -0.04113981039813537
0.06969799988498918   -0.056930300489255695   -0.04113981039813537
0.06969799988498918   -0.056930300489255695   -0.04113981039813537
0.06969799988498918   -0.056930300489255695   -0.04113981039813537
0.3779549574833249   0.06619627347119236   0.026836200620605377
0.3779549574833249   0.06619627347119236   0.026836200620605377
0.3779549574833249   0.06619627347119236   0.026836200620605377
0.3779549574833249   0.06619627347119236   0.026836200620605377
0.22349374216817933   0.01104203755494814   -0.005166692202235581
0.22349374216817933   0.01104203755494814   -0.005166692202235581
0.22349374216817933   0.01104203755494814   -0.005166692202235581
0.22349374216817933   0.01104203755494814   -0.005166692202235581
0.3505768859986399   -0.0010817815443535383   -0.042776101787275325
0.3505768859986399   -0.0010817815443535383   -0.042776101787275325
0.3505768859986399   -0.0010817815443535383   -0.042776101787275325
0.3505768859986399   -0.0010817815443535383   -0.042776101787275325
0.09622172894354715   0.009493412100163065   0.025055122305236672
0.09622172894354715   0.009493412100163065   0.025055122305236672
0.09622172894354715   0.009493412100163065   0.025055122305236672
0.09622172894354715   0.009493412100163065   0.025055122305236672
0.05330845206577432   -0.0649923581891184   -0.034945055709024356
0.05330845206577432   -0.0649923581891184   -0.034945055709024356
0.05330845206577432   -0.0649923581891184   -0.034945055709024356
0.05330845206577432   -0.0649923581891184   -0.034945055709024356
0.34849415182229415   0.05507195251248122   0.034480982125190705
0.34849415182229415   0.05507195251248122   0.034480982125190705
0.34849415182229415   0.05507195251248122   0.034480982125190705
0.34849415182229415   0.05507195251248122   0.034480982125190705
0.20293628711486172   -0.0015534420812598551   -0.01333509550716919
0.20293628711486172   -0.0015534420812598551   -0.01333509550716919
0.20293628711486172   -0.0015534420812598551   -0.01333509550716919
0.20293628711486172   -0.0015534420812598551   -0.01333509550716919
0.3212706929141729   -0.01143647571518426   -0.03512788418775223
0.3212706929141729   -0.01143647571518426   -0.03512788418775223
0.3212706929141729   -0.01143647571518426   -0.03512788418775223
0.3212706929141729   -0.01143647571518426   -0.03512788418775223
0.07938727658286412   0.00037143564751559305   0.030085273039792602
0.07938727658286412   0.00037143564751559305   0.030085273039792602
0.07938727658286412   0.00037143564751559305   0.030085273039792602
0.07938727658286412   0.00037143564751559305   0.030085273039792602
0.03865518721899162   -0.0747060646370453   -0.029107933315190068
0.03865518721899162   -0.0747060646370453   -0.029107933315190068
0.03865518721899162   -0.0747060646370453   -0.029107933315190068
0.03865518721899162   -0.0747060646370453   -0.029107933315190068
0.31200975611940157   0.03728340888519978   0.038287425973830815
0.31200975611940157   0.03728340888519978   0.038287425973830815
0.31200975611940157   0.03728340888519978   0.038287425973830815
0.31200975611940157   0.03728340888519978   0.038287425973830815
0.17449118886483467   -0.012765915003837017   -0.0233269516455462
0.17449118886483467   -0.012765915003837017   -0.0233269516455462
0.17449118886483467   -0.012765915003837017   -0.0233269516455462
0.17449118886483467   -0.012765915003837017   -0.0233269516455462
0.10878815853640207   0.04217829616214229   -0.013500059337573377
0.10878815853640207   0.04217829616214229   -0.013500059337573377
0.10878815853640207   0.04217829616214229   -0.013500059337573377
0.10878815853640207   0.04217829616214229   -0.013500059337573377
-0.1575643453164241   0.013557921895297198   0.005408383627102102
-0.1575643453164241   0.013557921895297198   0.005408383627102102
-0.1575643453164241   0.013557921895297198   0.005408383627102102
-0.1575643453164241   0.013557921895297198   0.005408383627102102
-0.18553395341528547   -0.03650604104432261   -0.024015484406377234
-0.18553395341528547   -0.03650604104432261   -0.024015484406377234
-0.18553395341528547   -0.03650604104432261   -0.024015484406377234
-0.18553395341528547   -0.03650604104432261   -0.024015484406377234
0.10488594477499023   0.052345073099852577   0.02552454046276259
0.10488594477499023   0.052345073099852577   0.02552454046276259
0.10488594477499023   0.052345073099852577   0.02552454046276259
0.10488594477499023   0.052345073099852577   0.02552454046276259
-0.03328664128240594   0.017138022384235504   0.004355942451668242
-0.03328664128240594   0.017138022384235504   0.004355942451668242
-0.03328664128240594   0.017138022384235504   0.004355942451668242
-0.03328664128240594   0.017138022384235504   0.004355942451668242
0.09167879452375659   0.02175531490504213   -0.009921452598595613
0.09167879452375659   0.02175531490504213   -0.009921452598595613
0.09167879452375659   0.02175531490504213   -0.009921452598595613
0.09167879452375659   0.02175531490504213   -0.009921452598595613
-0.17305599695713464   -0.006645476642595051   0.008513733482649345
-0.17305599695713464   -0.006645476642595051   0.008513733482649345
-0.17305599695713464   -0.006645476642595051   0.008513733482649345
-0.17305599695713464   -0.006645476642595051   0.008513733482649345
-0.2001950167285244   -0.052889545290764284   -0.018811654295199494
-0.2001950167285244   -0.052889545290764284   -0.018811654295199494
-0.2001950167285244   -0.052889545290764284   -0.018811654295199494
-0.2001950167285244   -0.052889545290764284   -0.018811654295199494
0.08565022409160726   0.033941089430172544   0.027830356800851358
0.08565022409160726   0.033941089430172544   0.027830356800851358
0.08565022409160726   0.033941089430172544   0.027830356800851358
0.08565022409160726   0.033941089430172544   0.027830356800851358
-0.05140458926755723   -0.0005398444326895954   -0.004115769336296372
-0.05140458926755723   -0.0005398444326895954   -0.004115769336296372
-0.05140458926755723   -0.0005398444326895954   -0.004115769336296372
-0.05140458926755723   -0.0005398444326895954   -0.004115769336296372
0.07283271401778128   0.004179259074929319   -0.00649536321303721
0.07283271401778128   0.004179259074929319   -0.00649536321303721
0.07283271401778128   0.004179259074929319   -0.00649536321303721
0.07283271401778128   0.004179259074929319   -0.00649536321303721
-0.18832144059413272   -0.02407164887495501   0.011738329960953572
-0.18832144059413272   -0.02407164887495501   0.011738329960953572
-0.18832144059413272   -0.02407164887495501   0.011738329960953572
-0.18832144059413272   -0.02407164887495501   0.011738329960953572
-0.21474366482238114   -0.06913357561235008   -0.014108840041983591
-0.21474366482238114   -0.06913357561235008   -0.014108840041983591
-0.21474366482238114   -0.06913357561235008   -0.014108840041983591
-0.21474366482238114   -0.06913357561235008   -0.014108840041983591
0.06880810514197934   0.01587953336715905   0.031071058295545108
0.06880810514197934   0.01587953336715905   0.031071058295545108
0.06880810514197934   0.01587953336715905   0.031071058295545108
0.06880810514197934   0.01587953336715905   0.031071058295545108
-0.06707812005815827   -0.016360067036323207   -0.01211360110612428
-0.06707812005815827   -0.016360067036323207   -0.01211360110612428
-0.06707812005815827   -0.016360067036323207   -0.01211360110612428
-0.06707812005815827   -0.016360067036323207   -0.01211360110612428
-0.1494172432730857   0.05766062492347   0.002041190815621239
-0.1494172432730857   0.05766062492347   0.002041190815621239
-0.1494172432730857   0.05766062492347   0.002041190815621239
-0.1494172432730857   0.05766062492347   0.002041190815621239
-0.42462586648504697   -0.005105331234050159   -0.011680977895006828
-0.42462586648504697   -0.005105331234050159   -0.011680977895006828
-0.42462586648504697   -0.005105331234050159   -0.011680977895006828
-0.42462586648504697   -0.005105331234050159   -0.011680977895006828
-0.437834083250174   -0.01792156598186956   -0.006984979372549448
-0.437834083250174   -0.01792156598186956   -0.006984979372549448
-0.437834083250174   -0.01792156598186956   -0.006984979372549448
-0.437834083250174   -0.01792156598186956   -0.006984979372549448
-0.1649139365961775   0.03445973137728689   0.00811882726754936
-0.1649139365961775   0.03445973137728689   0.00811882726754936
-0.1649139365961775   0.03445973137728689   0.00811882726754936
-0.1649139365961775   0.03445973137728689   0.00811882726754936
-0.2934989406055118   0.016907699699376555   0.0045125585884543025
-0.2934989406055118   0.016907699699376555   0.0045125585884543025
-0.2934989406055118   0.016907699699376555   0.0045125585884543025
-0.2934989406055118   0.016907699699376555   0.0045125585884543025
-0.16413085795812454   0.03959572109839262   0.006898230736712054
-0.16413085795812454   0.03959572109839262   0.006898230736712054
-0.16413085795812454   0.03959572109839262   0.006898230736712054
-0.16413085795812454   0.03959572109839262   0.006898230736712054
-0.4392560626195592   -0.023696456434307622   -0.008319985767041536
-0.4392560626195592   -0.023696456434307622   -0.008319985767041536
-0.4392560626195592   -0.023696456434307622   -0.008319985767041536
-0.4392560626195592   -0.023696456434307622   -0.008319985767041536
-0.45243202276816097   -0.03580722986443409   -0.0022713451167075474
-0.45243202276816097   -0.03580722986443409   -0.0022713451167075474
-0.45243202276816097   -0.03580722986443409   -0.0022713451167075474
-0.45243202276816097   -0.03580722986443409   -0.0022713451167075474
-0.18038883664751854   0.01579453328831175   0.011535167530753922
-0.18038883664751854   0.01579453328831175   0.011535167530753922
-0.18038883664751854   0.01579453328831175   0.011535167530753922
-0.18038883664751854   0.01579453328831175   0.011535167530753922
-0.30872873768675896   -8.139408547797045e-05   -0.0030812409011643713
-0.30872873768675896   -8.139408547797045e-05   -0.0030812409011643713
-0.30872873768675896   -8.139408547797045e-05   -0.0030812409011643713
-0.30872873768675896   -8.139408547797045e-05   -0.0030812409011643713
-0.17933862652439655   0.021484890578830178   0.011095860855849377
-0.17933862652439655   0.021484890578830178   0.011095860855849377
-0.17933862652439655   0.021484890578830178   0.011095860855849377
-0.17933862652439655   0.021484890578830178   0.011095860855849377
-0.45439035494244967   -0.04240570920611919   -0.0054645266464696494
-0.45439035494244967   -0.04240570920611919   -0.0054645266464696494
-0.45439035494244967   -0.04240570920611919   -0.0054645266464696494
-0.45439035494244967   -0.04240570920611919   -0.0054645266464696494
-0.4667486757280143   -0.05307282235219773   0.002292872772136899
-0.4667486757280143   -0.05307282235219773   0.002292872772136899
-0.4667486757280143   -0.05307282235219773   0.002292872772136899
-0.4667486757280143   -0.05307282235219773   0.002292872772136899
-0.19560012214896716   -0.0021846880935310967   0.014659985806271092
-0.19560012214896716   -0.0021846880935310967   0.014659985806271092
-0.19560012214896716   -0.0021846880935310967   0.014659985806271092
-0.19560012214896716   -0.0021846880935310967   0.014659985806271092
-0.32475399560842294   -0.017110423395398554   -0.01132671803958109
-0.32475399560842294   -0.017110423395398554   -0.01132671803958109
-0.32475399560842294   -0.017110423395398554   -0.01132671803958109
-0.32475399560842294   -0.017110423395398554   -0.01132671803958109
-0.40319218885173214   0.07237863861167027   0.01800344042584688
-0.40319218885173214   0.07237863861167027   0.01800344042584688
-0.40319218885173214   0.07237863861167027   0.01800344042584688
-0.40319218885173214   0.07237863861167027   0.01800344042584688
-0.6858915056741096   -0.02043685098952605   -0.026637986350267963
-0.6858915056741096   -0.02043685098952605   -0.026637986350267963
-0.6858915056741096   -0.02043685098952605   -0.026637986350267963
-0.6858915056741096   -0.02043685098952605   -0.026637986350267963
-0.687197100333097   -0.0015283435136722312   0.011063961886337986
-0.687197100333097   -0.0015283435136722312   0.011063961886337986
-0.687197100333097   -0.0015283435136722312   0.011063961886337986
-0.687197100333097   -0.0015283435136722312   0.011063961886337986
-0.43098629640394615   0.017720322090571033   -0.008387933213862424
-0.43098629640394615   0.017720322090571033   -0.008387933213862424
-0.43098629640394615   0.017720322090571033   -0.008387933213862424
-0.43098629640394615   0.017720322090571033   -0.008387933213862424
-0.5490002077896905   0.01699854882041825   0.005934891061980703
-0.5490002077896905   0.01699854882041825   0.005934891061980703
-0.5490002077896905   0.01699854882041825   0.005934891061980703
-0.5490002077896905   0.01699854882041825   0.005934891061980703
-0.4173156408699083   0.05481024109256645   0.022875425454342707
-0.4173156408699083   0.05481024109256645   0.022875425454342707
-0.4173156408699083   0.05481024109256645   0.022875425454342707
-0.4173156408699083   0.05481024109256645   0.022875425454342707
-0.7020938811934245   -0.039844387841955556   -0.025103898087016876
-0.7020938811934245   -0.039844387841955556   -0.025103898087016876
-0.7020938811934245   -0.039844387841955556   -0.025103898087016876
-0.7020938811934245   -0.039844387841955556   -0.025103898087016876
-0.7051697787756598   -0.01916285603556722   0.013601826812104305
-0.7051697787756598   -0.01916285603556722   0.013601826812104305
-0.7051697787756598   -0.01916285603556722   0.013601826812104305
-0.7051697787756598   -0.01916285603556722   0.013601826812104305
-0.445660961419564   0.0005320050016805605   -0.004755273239845051
-0.445660961419564   0.0005320050016805605   -0.004755273239845051
-0.445660961419564   0.0005320050016805605   -0.004755273239845051
-0.445660961419564   0.0005320050016805605   -0.004755273239845051
-0.5619377241351746   0.0011686009064753589   -0.0020256273772218947
-0.5619377241351746   0.0011686009064753589   -0.0020256273772218947
-0.5619377241351746   0.0011686009064753589   -0.0020256273772218947
-0.5619377241351746   0.0011686009064753589   -0.0020256273772218947
-0.4316270345395576   0.0383455005680062   0.027600865593869213
-0.4316270345395576   0.0383455005680062   0.027600865593869213
-0.4316270345395576   0.0383455005680062   0.027600865593869213
-0.4316270345395576   0.0383455005680062   0.027600865593869213
-0.7199683054440287   -0.0577409513902567   -0.02181271117506657
-0.7199683054440287   -0.0577409513902567   -0.02181271117506657
-0.7199683054440287   -0.0577409513902567   -0.02181271117506657
-0.7199683054440287   -0.0577409513902567   -0.02181271117506657
-0.7206921602285142   -0.03754838991381031   0.018525834425486745
-0.7206921602285142   -0.03754838991381031   0.018525834425486745
-0.7206921602285142   -0.03754838991381031   0.018525834425486745
-0.7206921602285142   -0.03754838991381031   0.018525834425486745
-0.4605199433598717   -0.017855821042187484   -0.0017804666971677034
-0.4605199433598717   -0.017855821042187484   -0.0017804666971677034
-0.4605199433598717   -0.017855821042187484   -0.0017804666971677034
-0.4605199433598717   -0.017855821042187484   -0.0017804666971677034
-0.5811962312739953   -0.016088851722698874   -0.010705098949876413
-0.5811962312739953   -0.016088851722698874   -0.010705098949876413
-0.5811962312739953   -0.016088851722698874   -0.010705098949876413
-0.5811962312739953   -0.016088851722698874   -0.010705098949876413
-0.6558488270236369   0.07124939221801063   0.031889163694566576
-0.6558488270236369   0.07124939221801063   0.031889163694566576
-0.6558488270236369   0.07124939221801063   0.031889163694566576
-0.6558488270236369   0.07124939221801063   0.031889163694566576
-0.9232927059066497   -0.042516899504451394   -0.0403979824761868
-0.9232927059066497   -0.042516899504451394   -0.0403979824761868
-0.9232927059066497   -0.042516899504451394   -0.0403979824761868
-0.9232927059066497   -0.042516899504451394   -0.0403979824761868
-0.9300402694675247   0.011703528702912941   0.03352048005075797
-0.9300402694675247   0.011703528702912941   0.03352048005075797
-0.9300402694675247   0.011703528702912941   0.03352048005075797
-0.9300402694675247   0.011703528702912941   0.03352048005075797
-0.6944470079147328   -0.0020435024458611284   -0.024670417089659606
-0.6944470079147328   -0.0020435024458611284   -0.024670417089659606
-0.6944470079147328   -0.0020435024458611284   -0.024670417089659606
-0.6944470079147328   -0.0020435024458611284   -0.024670417089659606
-0.7664756969754293   0.01705985656831463   0.01858197936765358
-0.7664756969754293   0.01705985656831463   0.01858197936765358
-0.7664756969754293   0.01705985656831463   0.01858197936765358
-0.7664756969754293   0.01705985656831463   0.01858197936765358
-0.668594737686083   0.06483168780882942   0.03771574379889861
-0.668594737686083   0.06483168780882942   0.03771574379889861
-0.668594737686083   0.06483168780882942   0.03771574379889861
-0.668594737686083   0.06483168780882942   0.03771574379889861
-0.9571979972150291   -0.05647711907063219   -0.034087510913218565
-0.9571979972150291   -0.05647711907063219   -0.034087510913218565
-0.9571979972150291   -0.05647711907063219   -0.034087510913218565
-0.9571979972150291   -0.05647711907063219   -0.034087510913218565
-0.95803662456074   0.0017932465601603886   0.042805306323704856
-0.95803662456074   0.0017932465601603886   0.042805306323704856
-0.95803662456074   0.0017932465601603886   0.042805306323704856
-0.95803662456074   0.0017932465601603886   0.042805306323704856
-0.710617785040608   -0.011634382716797592   -0.02116667783142235
-0.710617785040608   -0.011634382716797592   -0.02116667783142235
-0.710617785040608   -0.011634382716797592   -0.02116667783142235
-0.710617785040608   -0.011634382716797592   -0.02116667783142235
-0.8022815571673634   0.005342509695949044   0.006727514420855209
-0.8022815571673634   0.005342509695949044   0.006727514420855209
-0.8022815571673634   0.005342509695949044   0.006727514420855209
-0.8022815571673634   0.005342509695949044   0.006727514420855209
-0.6836713436284287   0.05707622565368847   0.04485492085900359
-0.6836713436284287   0.05707622565368847   0.04485492085900359
-0.6836713436284287   0.05707622565368847   0.04485492085900359
-0.6836713436284287   0.05707622565368847   0.04485492085900359
-0.9862175350969814   -0.06815183093438035   -0.028154168862962688
-0.9862175350969814   -0.06815183093438035   -0.028154168862962688
-0.9862175350969814   -0.06815183093438035   -0.028154168862962688
-0.9862175350969814   -0.06815183093438035   -0.028154168862962688
-0.9967480635990792   -0.026381753978512   0.04419115462946885
-0.9967480635990792   -0.026381753978512   0.04419115462946885
-0.9967480635990792   -0.026381753978512   0.04419115462946885
-0.9967480635990792   -0.026381753978512   0.04419115462946885
-0.7273061291536531   -0.033633595395911486   -0.018458804718122418
-0.7273061291536531   -0.033633595395911486   -0.018458804718122418
-0.7273061291536531   -0.033633595395911486   -0.018458804718122418
-0.7273061291536531   -0.033633595395911486   -0.018458804718122418
-0.8139205596462988   -0.007126538429007123   -0.00031614012323250007
-0.8139205596462988   -0.007126538429007123   -0.00031614012323250007
-0.8139205596462988   -0.007126538429007123   -0.00031614012323250007
-0.8139205596462988   -0.007126538429007123   -0.00031614012323250007
0.07120337016625562   0.0058547096978055395   -0.04658242959748583
0.07120337016625562   0.0058547096978055395   -0.04658242959748583
0.07120337016625562   0.0058547096978055395   -0.04658242959748583
0.07120337016625562   0.0058547096978055395   -0.04658242959748583
-0.07516512124016145   0.034899200155585064   0.023805366091027062
-0.07516512124016145   0.034899200155585064   0.023805366091027062
-0.07516512124016145   0.034899200155585064   0.023805366091027062
-0.07516512124016145   0.034899200155585064   0.023805366091027062
-0.11312934046071058   -0.04489305466938705   -0.0375261421382255
-0.11312934046071058   -0.04489305466938705   -0.0375261421382255
-0.11312934046071058   -0.04489305466938705   -0.0375261421382255
-0.11312934046071058   -0.04489305466938705   -0.0375261421382255
0.065451471146726   0.04946567191724138   0.02921934466474066
0.065451471146726   0.04946567191724138   0.02921934466474066
0.065451471146726   0.04946567191724138   0.02921934466474066
0.065451471146726   0.04946567191724138   0.02921934466474066
-0.014550561899534357   0.01085754937045202   0.004040177617318007
-0.014550561899534357   0.01085754937045202   0.004040177617318007
-0.014550561899534357   0.01085754937045202   0.004040177617318007
-0.014550561899534357   0.01085754937045202   0.004040177617318007
0.03829546511943169   -0.01543488986384284   -0.04166012369064669
0.03829546511943169   -0.01543488986384284   -0.04166012369064669
0.03829546511943169   -0.01543488986384284   -0.04166012369064669
0.03829546511943169   -0.01543488986384284   -0.04166012369064669
-0.08757545066661182   0.018405390878501605   0.026944861284379597
-0.08757545066661182   0.018405390878501605   0.026944861284379597
-0.08757545066661182   0.018405390878501605   0.026944861284379597
-0.08757545066661182   0.018405390878501605   0.026944861284379597
-0.12564549677603937   -0.05301622362913777   -0.031820249984540035
-0.12564549677603937   -0.05301622362913777   -0.031820249984540035
-0.12564549677603937   -0.05301622362913777   -0.031820249984540035
-0.12564549677603937   -0.05301622362913777   -0.031820249984540035
0.03970085174526363   0.03843730569930279   0.04008787047736281
0.03970085174526363   0.03843730569930279   0.04008787047736281
0.03970085174526363   0.03843730569930279   0.04008787047736281
0.03970085174526363   0.03843730569930279   0.04008787047736281
-0.03484598849946137   -0.0013144882608590574   -0.005337124448681659
-0.03484598849946137   -0.0013144882608590574   -0.005337124448681659
-0.03484598849946137   -0.0013144882608590574   -0.005337124448681659
-0.03484598849946137   -0.0013144882608590574   -0.005337124448681659
0.011913606871002947   -0.026018802118124053   -0.03439224607651377
0.011913606871002947   -0.026018802118124053   -0.03439224607651377
0.011913606871002947   -0.026018802118124053   -0.03439224607651377
0.011913606871002947   -0.026018802118124053   -0.03439224607651377
-0.10008289213215107   0.00921524395791655   0.03376130564784628
-0.10008289213215107   0.00921524395791655   0.03376130564784628
-0.10008289213215107   0.00921524395791655   0.03376130564784628
-0.10008289213215107   0.00921524395791655   0.03376130564784628
-0.13710839523697488   -0.0654743086162262   -0.02638301017692269
-0.13710839523697488   -0.0654743086162262   -0.02638301017692269
-0.13710839523697488   -0.0654743086162262   -0.02638301017692269
-0.13710839523697488   -0.0654743086162262   -0.02638301017692269
0.003938331848715473   0.015339031630163969   0.04571609063342308
0.003938331848715473   0.015339031630163969   0.04571609063342308
0.003938331848715473   0.015339031630163969   0.04571609063342308
0.003938331848715473   0.015339031630163969   0.04571609063342308
-0.05670037395790067   -0.013558022547215158   -0.0161610608123113
-0.05670037395790067   -0.013558022547215158   -0.0161610608123113
-0.05670037395790067   -0.013558022547215158   -0.0161610608123113
-0.05670037395790067   -0.013558022547215158   -0.0161610608123113
-0.08598796856582774   0.023091322036376812   -0.018500992418096156
-0.08598796856582774   0.023091322036376812   -0.018500992418096156
-0.08598796856582774   0.023091322036376812   -0.018500992418096156
-0.08598796856582774   0.023091322036376812   -0.018500992418096156
-0.22293350418440958   0.009383800040410374   0.006200688004620576
-0.22293350418440958   0.009383800040410374   0.006200688004620576
-0.22293350418440958   0.009383800040410374   0.006200688004620576
-0.22293350418440958   0.009383800040410374   0.006200688004620576
-0.2425334637006414   -0.026149084972485866   -0.01952684142329797
-0.2425334637006414   -0.026149084972485866   -0.01952684142329797
-0.2425334637006414   -0.026149084972485866   -0.01952684142329797
-0.2425334637006414   -0.026149084972485866   -0.01952684142329797
-0.08842728756799235   0.022431645718028893   0.018659421937949647
-0.08842728756799235   0.022431645718028893   0.018659421937949647
-0.08842728756799235   0.022431645718028893   0.018659421937949647
-0.08842728756799235   0.022431645718028893   0.018659421937949647
-0.15964914886381618   0.006731680114052806   0.0035965681961287986
-0.15964914886381618   0.006731680114052806   0.0035965681961287986
-0.15964914886381618   0.006731680114052806   0.0035965681961287986
-0.15964914886381618   0.006731680114052806   0.0035965681961287986
-0.09900192617998756   0.003421804779587579   -0.015203930183584598
-0.09900192617998756   0.003421804779587579   -0.015203930183584598
-0.09900192617998756   0.003421804779587579   -0.015203930183584598
-0.09900192617998756   0.003421804779587579   -0.015203930183584598
-0.23327634135061512   -0.008456760296013693   0.009066445650359491
-0.23327634135061512   -0.008456760296013693   0.009066445650359491
-0.23327634135061512   -0.008456760296013693   0.009066445650359491
-0.23327634135061512   -0.008456760296013693   0.009066445650359491
-0.25228094391807304   -0.042095466300143394   -0.014421253841048004
-0.25228094391807304   -0.042095466300143394   -0.014421253841048004
-0.25228094391807304   -0.042095466300143394   -0.014421253841048004
-0.25228094391807304   -0.042095466300143394   -0.014421253841048004
-0.10350865862443663   0.004808813022683885   0.021038904121651093
-0.10350865862443663   0.004808813022683885   0.021038904121651093
-0.10350865862443663   0.004808813022683885   0.021038904121651093
-0.10350865862443663   0.004808813022683885   0.021038904121651093
-0.17196203370041388   -0.009279577578769366   -0.004439789581299783
-0.17196203370041388   -0.009279577578769366   -0.004439789581299783
-0.17196203370041388   -0.009279577578769366   -0.004439789581299783
-0.17196203370041388   -0.009279577578769366   -0.004439789581299783
-0.11370397343550473   -0.013767994014684197   -0.011360862896320358
-0.11370397343550473   -0.013767994014684197   -0.011360862896320358
-0.11370397343550473   -0.013767994014684197   -0.011360862896320358
-0.11370397343550473   -0.013767994014684197   -0.011360862896320358
-0.24350040200887785   -0.024933432164648064   0.012319421569432585
-0.24350040200887785   -0.024933432164648064   0.012319421569432585
-0.24350040200887785   -0.024933432164648064   0.012319421569432585
-0.24350040200887785   -0.024933432164648064   0.012319421569432585
-0.2620926644856774   -0.05849494711037534   -0.00990057446443943
-0.2620926644856774   -0.05849494711037534   -0.00990057446443943
-0.2620926644856774   -0.05849494711037534   -0.00990057446443943
-0.2620926644856774   -0.05849494711037534   -0.00990057446443943
-0.11612339537940031   -0.013035396426741369   0.02610307692146485
-0.11612339537940031   -0.013035396426741369   0.02610307692146485
-0.11612339537940031   -0.013035396426741369   0.02610307692146485
-0.11612339537940031   -0.013035396426741369   0.02610307692146485
-0.1842533974742578   -0.02510323885328898   -0.012609385814343258
-0.1842533974742578   -0.02510323885328898   -0.012609385814343258
-0.1842533974742578   -0.02510323885328898   -0.012609385814343258
-0.1842533974742578   -0.02510323885328898   -0.012609385814343258
-0.21884330589454862   0.03799539363493169   -0.001959914140595903
-0.21884330589454862   0.03799539363493169   -0.001959914140595903
-0.21884330589454862   0.03799539363493169   -0.001959914140595903
-0.21884330589454862   0.03799539363493169   -0.001959914140595903
-0.3693138219301956   -0.012682293756954663   -0.010454505989407396
-0.3693138219301956   -0.012682293756954663   -0.010454505989407396
-0.3693138219301956   -0.012682293756954663   -0.010454505989407396
-0.3693138219301956   -0.012682293756954663   -0.010454505989407396
-0.37320684608657895   -0.009268580716670693   -0.0022298237118371297
-0.37320684608657895   -0.009268580716670693   -0.0022298237118371297
-0.37320684608657895   -0.009268580716670693   -0.0022298237118371297
-0.37320684608657895   -0.009268580716670693   -0.0022298237118371297
-0.23237601560648383   0.002229906969065526   0.0028814071059367584
-0.23237601560648383   0.002229906969065526   0.0028814071059367584
-0.23237601560648383   0.002229906969065526   0.0028814071059367584
-0.23237601560648383   0.002229906969065526   0.0028814071059367584
-0.29780927413130137   0.0042745667077461885   0.001242308975917563
-0.29780927413130137   0.0042745667077461885   0.001242308975917563
-0.29780927413130137   0.0042745667077461885   0.001242308975917563
-0.29780927413130137   0.0042745667077461885   0.001242308975917563
-0.2287000922889803   0.020647434098100353   0.0028434965644194843
-0.2287000922889803   0.020647434098100353   0.0028434965644194843
-0.2287000922889803   0.020647434098100353   0.0028434965644194843
-0.2287000922889803   0.020647434098100353   0.0028434965644194843
-0.3781509206306738   -0.028954259072296915   -0.007264518076685458
-0.3781509206306738   -0.028954259072296915   -0.007264518076685458
-0.3781509206306738   -0.028954259072296915   -0.007264518076685458
-0.3781509206306738   -0.028954259072296915   -0.007264518076685458
-0.38234822296805476   -0.026400211241585536   0.002520831201803759
-0.38234822296805476   -0.026400211241585536   0.002520831201803759
-0.38234822296805476   -0.026400211241585536   0.002520831201803759
-0.38234822296805476   -0.026400211241585536   0.002520831201803759
-0.24271059014052423   -0.014613249337523233   0.005948298084075756
-0.24271059014052423   -0.014613249337523233   0.005948298084075756
-0.24271059014052423   -0.014613249337523233   0.005948298084075756
-0.24271059014052423   -0.014613249337523233   0.005948298084075756
-0.30771659474966   -0.01130624468881284   -0.00613798963493053
-0.30771659474966   -0.01130624468881284   -0.00613798963493053
-0.30771659474966   -0.01130624468881284   -0.00613798963493053
-0.30771659474966   -0.01130624468881284   -0.00613798963493053
-0.23892449572025096   0.003194560114331904   0.007070960733587119
-0.23892449572025096   0.003194560114331904   0.007070960733587119
-0.23892449572025096   0.003194560114331904   0.007070960733587119
-0.23892449572025096   0.003194560114331904   0.007070960733587119
-0.38766340068075966   -0.045737103985875424   -0.0047181646174344755
-0.38766340068075966   -0.045737103985875424   -0.0047181646174344755
-0.38766340068075966   -0.045737103985875424   -0.0047181646174344755
-0.38766340068075966   -0.045737103985875424   -0.0047181646174344755
-0.3912504943081907   -0.0428310856482383   0.007078370191958533
-0.3912504943081907   -0.0428310856482383   0.007078370191958533
-0.3912504943081907   -0.0428310856482383   0.007078370191958533
-0.3912504943081907   -0.0428310856482383   0.007078370191958533
-0.2526377695375183   -0.030499734442211237   0.009378687608191851
-0.2526377695375183   -0.030499734442211237   0.009378687608191851
-0.2526377695375183   -0.030499734442211237   0.009378687608191851
-0.2526377695375183   -0.030499734442211237   0.009378687608191851
-0.3183776122820347   -0.02698231380392644   -0.014157756890804956
-0.3183776122820347   -0.02698231380392644   -0.014157756890804956
-0.3183776122820347   -0.02698231380392644   -0.014157756890804956
-0.3183776122820347   -0.02698231380392644   -0.014157756890804956
-0.350669871905426   0.054959719258141596   0.015123231119355922
-0.350669871905426   0.054959719258141596   0.015123231119355922
-0.350669871905426   0.054959719258141596   0.015123231119355922
-0.350669871905426   0.054959719258141596   0.015123231119355922
-0.5099676562437302   -0.02112099030991936   -0.02344176787715314
-0.5099676562437302   -0.02112099030991936   -0.02344176787715314
-0.5099676562437302   -0.02112099030991936   -0.02344176787715314
-0.5099676562437302   -0.02112099030991936   -0.02344176787715314
-0.5031502136964245   0.008088180961967562   0.015615278435567967
-0.5031502136964245   0.008088180961967562   0.015615278435567967
-0.5031502136964245   0.008088180961967562   0.015615278435567967
-0.5031502136964245   0.008088180961967562   0.015615278435567967
-0.37445937195209744   -0.007344897094753194   -0.010416136661347292
-0.37445937195209744   -0.007344897094753194   -0.010416136661347292
-0.37445937195209744   -0.007344897094753194   -0.010416136661347292
-0.37445937195209744   -0.007344897094753194   -0.010416136661347292
-0.4330494848832024   0.008703387264589024   0.0021038050787811277
-0.4330494848832024   0.008703387264589024   0.0021038050787811277
-0.4330494848832024   0.008703387264589024   0.0021038050787811277
-0.4330494848832024   0.008703387264589024   0.0021038050787811277
-0.35937860409601247   0.037706673583162625   0.019936131941161856
-0.35937860409601247   0.037706673583162625   0.019936131941161856
-0.35937860409601247   0.037706673583162625   0.019936131941161856
-0.35937860409601247   0.037706673583162625   0.019936131941161856
-0.5200831053429431   -0.038815513506388274   -0.02214548532867704
-0.5200831053429431   -0.038815513506388274   -0.02214548532867704
-0.5200831053429431   -0.038815513506388274   -0.02214548532867704
-0.5200831053429431   -0.038815513506388274   -0.02214548532867704
-0.5153987576916274   -0.008774686217094   0.01844906693831488
-0.5153987576916274   -0.008774686217094   0.01844906693831488
-0.5153987576916274   -0.008774686217094   0.01844906693831488
-0.5153987576916274   -0.008774686217094   0.01844906693831488
-0.3835213929360009   -0.022664557630184108   -0.007080672249328313
-0.3835213929360009   -0.022664557630184108   -0.007080672249328313
-0.3835213929360009   -0.022664557630184108   -0.007080672249328313
-0.3835213929360009   -0.022664557630184108   -0.007080672249328313
-0.44136763113626554   -0.006309640738085112   -0.005896252595146513
-0.44136763113626554   -0.006309640738085112   -0.005896252595146513
-0.44136763113626554   -0.006309640738085112   -0.005896252595146513
-0.44136763113626554   -0.006309640738085112   -0.005896252595146513
-0.3682720693676623   0.021884263043721097   0.024617124918455885
-0.3682720693676623   0.021884263043721097   0.024617124918455885
-0.3682720693676623   0.021884263043721097   0.024617124918455885
-0.3682720693676623   0.021884263043721097   0.024617124918455885
-0.5321106433773791   -0.0547860690084168   -0.019098978699128914
-0.5321106433773791   -0.0547860690084168   -0.019098978699128914
-0.5321106433773791   -0.0547860690084168   -0.019098978699128914
-0.5321106433773791   -0.0547860690084168   -0.019098978699128914
-0.5253547960383725   -0.025765689626692415   0.023505043058777916
-0.5253547960383725   -0.025765689626692415   0.023505043058777916
-0.5253547960383725   -0.025765689626692415   0.023505043058777916
-0.5253547960383725   -0.025765689626692415   0.023505043058777916
-0.392617635992154   -0.038355694161298574   -0.004232729714797974
-0.392617635992154   -0.038355694161298574   -0.004232729714797974
-0.392617635992154   -0.038355694161298574   -0.004232729714797974
-0.392617635992154   -0.038355694161298574   -0.004232729714797974
-0.45389566197508413   -0.021630561997149467   -0.014098654826069645
-0.45389566197508413   -0.021630561997149467   -0.014098654826069645
-0.45389566197508413   -0.021630561997149467   -0.014098654826069645
-0.45389566197508413   -0.021630561997149467   -0.014098654826069645
-0.4831587486863021   0.05957153696239087   0.02991024263767693
-0.4831587486863021   0.05957153696239087   0.02991024263767693
-0.4831587486863021   0.05957153696239087   0.02991024263767693
-0.4831587486863021   0.05957153696239087   0.02991024263767693
-0.6222748682738655   -0.031158927939369738   -0.03916774231503564
-0.6222748682738655   -0.031158927939369738   -0.03916774231503564
-0.6222748682738655   -0.031158927939369738   -0.03916774231503564
-0.6222748682738655   -0.031158927939369738   -0.03916774231503564
-0.6227775218361972   0.023818921912023755   0.03297221862119836
-0.6227775218361972   0.023818921912023755   0.03297221862119836
-0.6227775218361972   0.023818921912023755   0.03297221862119836
-0.6227775218361972   0.023818921912023755   0.03297221862119836
-0.5161828250990291   -0.017499161691054463   -0.02396043592444033
-0.5161828250990291   -0.017499161691054463   -0.02396043592444033
-0.5161828250990291   -0.017499161691054463   -0.02396043592444033
-0.5161828250990291   -0.017499161691054463   -0.02396043592444033
-0.538382883399023   0.014102425752884007   0.01044573064263267
-0.538382883399023   0.014102425752884007   0.01044573064263267
-0.538382883399023   0.014102425752884007   0.01044573064263267
-0.538382883399023   0.014102425752884007   0.01044573064263267
-0.49069441223017723   0.05069799454561745   0.03528447218314703
-0.49069441223017723   0.05069799454561745   0.03528447218314703
-0.49069441223017723   0.05069799454561745   0.03528447218314703
-0.49069441223017723   0.05069799454561745   0.03528447218314703
-0.6501910055517192   -0.04630330517131322   -0.03397297287305942
-0.6501910055517192   -0.04630330517131322   -0.03397297287305942
-0.6501910055517192   -0.04630330517131322   -0.03397297287305942
-0.6501910055517192   -0.04630330517131322   -0.03397297287305942
-0.6450544128005572   0.01420724297318482   0.04247807837843883
-0.6450544128005572   0.01420724297318482   0.04247807837843883
-0.6450544128005572   0.01420724297318482   0.04247807837843883
-0.6450544128005572   0.01420724297318482   0.04247807837843883
-0.5267921071774961   -0.02630681976151733   -0.020985546946613243
-0.5267921071774961   -0.02630681976151733   -0.020985546946613243
-0.5267921071774961   -0.02630681976151733   -0.020985546946613243
-0.5267921071774961   -0.02630681976151733   -0.020985546946613243
-0.5649139654926678   0.0024195226541016135   -0.0006621939198546631
-0.5649139654926678   0.0024195226541016135   -0.0006621939198546631
-0.5649139654926678   0.0024195226541016135   -0.0006621939198546631
-0.5649139654926678   0.0024195226541016135   -0.0006621939198546631
-0.5002452459150224   0.043134873829542994   0.042307065774694834
-0.5002452459150224   0.043134873829542994   0.042307065774694834
-0.5002452459150224   0.043134873829542994   0.042307065774694834
-0.5002452459150224   0.043134873829542994   0.042307065774694834
-0.6735615045801854   -0.057194681135028555   -0.028655456411480155
-0.6735615045801854   -0.057194681135028555   -0.028655456411480155
-0.6735615045801854   -0.057194681135028555   -0.028655456411480155
-0.6735615045801854   -0.057194681135028555   -0.028655456411480155
-0.6779600093503956   -0.011090697913537034   0.04490956289052296
-0.6779600093503956   -0.011090697913537034   0.04490956289052296
-0.6779600093503956   -0.011090697913537034   0.04490956289052296
-0.6779600093503956   -0.011090697913537034   0.04490956289052296
-0.5374458110107202   -0.04458910250462192   -0.018126618925038154
-0.5374458110107202   -0.04458910250462192   -0.018126618925038154
-0.5374458110107202   -0.04458910250462192   -0.018126618925038154
-0.5374458110107202   -0.04458910250462192   -0.018126618925038154
-0.5750790250022016   -0.009161583554201866   -0.008539841994296898
-0.5750790250022016   -0.009161583554201866   -0.008539841994296898
-0.5750790250022016   -0.009161583554201866   -0.008539841994296898
-0.5750790250022016   -0.009161583554201866   -0.008539841994296898
-0.2616407012392532   -0.017057743647520197   -0.049503772925407495
-0.2616407012392532   -0.017057743647520197   -0.049503772925407495
-0.2616407012392532   -0.017057743647520197   -0.049503772925407495
-0.2616407012392532   -0.017057743647520197   -0.049503772925407495
-0.2598350629125307   0.037854835411561594   0.02225584326465259
-0.2598350629125307   0.037854835411561594   0.02225584326465259
-0.2598350629125307   0.037854835411561594   0.02225584326465259
-0.2598350629125307   0.037854835411561594   0.02225584326465259
-0.29251758957912055   -0.034688544460887934   -0.03358267650005936
-0.29251758957912055   -0.034688544460887934   -0.03358267650005936
-0.29251758957912055   -0.034688544460887934   -0.03358267650005936
-0.29251758957912055   -0.034688544460887934   -0.03358267650005936
-0.267114973354446   0.019944626719565803   0.03340373986723087
-0.267114973354446   0.019944626719565803   0.03340373986723087
-0.267114973354446   0.019944626719565803   0.03340373986723087
-0.267114973354446   0.019944626719565803   0.03340373986723087
-0.25670556865348076   0.0064164593103241685   0.022706675538825234
-0.25670556865348076   0.0064164593103241685   0.022706675538825234
-0.25670556865348076   0.0064164593103241685   0.022706675538825234
-0.25670556865348076   0.0064164593103241685   0.022706675538825234
-0.29337412192884077   -0.03644399240654566   -0.04150338387862772
-0.29337412192884077   -0.03644399240654566   -0.04150338387862772
-0.29337412192884077   -0.03644399240654566   -0.04150338387862772
-0.29337412192884077   -0.03644399240654566   -0.04150338387862772
-0.26951087344590346   0.018447642224046483   0.028314717481091736
-0.26951087344590346   0.018447642224046483   0.028314717481091736
-0.26951087344590346   0.018447642224046483   0.028314717481091736
-0.26951087344590346   0.018447642224046483   0.028314717481091736
-0.3023794035420387   -0.04368304265303275   -0.02843361599701264
-0.3023794035420387   -0.04368304265303275   -0.02843361599701264
-0.3023794035420387   -0.04368304265303275   -0.02843361599701264
-0.3023794035420387   -0.04368304265303275   -0.02843361599701264
-0.2924670110229341   0.0077095650076847225   0.06213999838888314
-0.2924670110229341   0.0077095650076847225   0.06213999838888314
-0.2924670110229341   0.0077095650076847225   0.06213999838888314
-0.2924670110229341   0.0077095650076847225   0.06213999838888314
-0.28004885598956836   -0.00903226103254546   0.009093895608915577
-0.28004885598956836   -0.00903226103254546   0.009093895608915577
-0.28004885598956836   -0.00903226103254546   0.009093895608915577
-0.28004885598956836   -0.00903226103254546   0.009093895608915577
-0.32261319878237943   -0.048516127984858444   -0.032365247415800304
-0.32261319878237943   -0.048516127984858444   -0.032365247415800304
-0.32261319878237943   -0.048516127984858444   -0.032365247415800304
-0.32261319878237943   -0.048516127984858444   -0.032365247415800304
-0.2799448742802623   0.004830991841841416   0.03522499581699485
-0.2799448742802623   0.004830991841841416   0.03522499581699485
-0.2799448742802623   0.004830991841841416   0.03522499581699485
-0.2799448742802623   0.004830991841841416   0.03522499581699485
-0.3104586444976902   -0.06116141717622273   -0.022389177052089395
-0.3104586444976902   -0.06116141717622273   -0.022389177052089395
-0.3104586444976902   -0.06116141717622273   -0.022389177052089395
-0.3104586444976902   -0.06116141717622273   -0.022389177052089395
-0.331861301859269   -0.03272372455568485   0.05814636008240382
-0.331861301859269   -0.03272372455568485   0.05814636008240382
-0.331861301859269   -0.03272372455568485   0.05814636008240382
-0.331861301859269   -0.03272372455568485   0.05814636008240382
-0.30033085622722155   -0.02729005869649724   -0.012495049267209745
-0.30033085622722155   -0.02729005869649724   -0.012495049267209745
-0.30033085622722155   -0.02729005869649724   -0.012495049267209745
-0.30033085622722155   -0.02729005869649724   -0.012495049267209745
-0.27856663361299405   -0.008076998676207175   -0.02547017614989801
-0.27856663361299405   -0.008076998676207175   -0.02547017614989801
-0.27856663361299405   -0.008076998676207175   -0.02547017614989801
-0.27856663361299405   -0.008076998676207175   -0.02547017614989801
-0.28299721169380815   -0.03479660654076014   -0.0014859280901790431
-0.28299721169380815   -0.03479660654076014   -0.0014859280901790431
-0.28299721169380815   -0.03479660654076014   -0.0014859280901790431
-0.28299721169380815   -0.03479660654076014   -0.0014859280901790431
-0.2851002523566931   -0.023184079119671686   -0.012746237461852456
-0.2851002523566931   -0.023184079119671686   -0.012746237461852456
-0.2851002523566931   -0.023184079119671686   -0.012746237461852456
-0.2851002523566931   -0.023184079119671686   -0.012746237461852456
-0.2883938698417271   -0.04718811422540061   -0.0004645080485791205
-0.2883938698417271   -0.04718811422540061   -0.0004645080485791205
-0.2883938698417271   -0.04718811422540061   -0.0004645080485791205
-0.2883938698417271   -0.04718811422540061   -0.0004645080485791205
-0.28135438034674803   -0.029542174410618245   -0.0009670227049630338
-0.28135438034674803   -0.029542174410618245   -0.0009670227049630338
-0.28135438034674803   -0.029542174410618245   -0.0009670227049630338
-0.28135438034674803   -0.029542174410618245   -0.0009670227049630338
-0.28841369151713525   -0.025706554657997663   -0.022045175993024895
-0.28841369151713525   -0.025706554657997663   -0.022045175993024895
-0.28841369151713525   -0.025706554657997663   -0.022045175993024895
-0.28841369151713525   -0.025706554657997663   -0.022045175993024895
-0.2868975567373464   -0.04648276474313957   0.00156592625834546
-0.2868975567373464   -0.04648276474313957   0.00156592625834546
-0.2868975567373464   -0.04648276474313957   0.00156592625834546
-0.2868975567373464   -0.04648276474313957   0.00156592625834546
-0.2899186174020997   -0.03832821985138113   -0.008236301471010909
-0.2899186174020997   -0.03832821985138113   -0.008236301471010909
-0.2899186174020997   -0.03832821985138113   -0.008236301471010909
-0.2899186174020997   -0.03832821985138113   -0.008236301471010909
-0.29890441906099713   -0.061240180131751185   0.006498443886913467
-0.29890441906099713   -0.061240180131751185   0.006498443886913467
-0.29890441906099713   -0.061240180131751185   0.006498443886913467
-0.29890441906099713   -0.061240180131751185   0.006498443886913467
-0.2878688070128562   -0.04178290711741584   -0.007988881480455507
-0.2878688070128562   -0.04178290711741584   -0.007988881480455507
-0.2878688070128562   -0.04178290711741584   -0.007988881480455507
-0.2878688070128562   -0.04178290711741584   -0.007988881480455507
-0.29960741334505114   -0.04189171689899232   -0.016364990766115414
-0.29960741334505114   -0.04189171689899232   -0.016364990766115414
-0.29960741334505114   -0.04189171689899232   -0.016364990766115414
-0.29960741334505114   -0.04189171689899232   -0.016364990766115414
-0.291538960140481   -0.06000002010657588   0.00533378509227378
-0.291538960140481   -0.06000002010657588   0.00533378509227378
-0.291538960140481   -0.06000002010657588   0.00533378509227378
-0.291538960140481   -0.06000002010657588   0.00533378509227378
-0.2942493567677314   -0.05463535487352   -0.0037707539241125135
-0.2942493567677314   -0.05463535487352   -0.0037707539241125135
-0.2942493567677314   -0.05463535487352   -0.0037707539241125135
-0.2942493567677314   -0.05463535487352   -0.0037707539241125135
-0.3069531665879967   -0.07906695305577158   0.013043748375925372
-0.3069531665879967   -0.07906695305577158   0.013043748375925372
-0.3069531665879967   -0.07906695305577158   0.013043748375925372
-0.3069531665879967   -0.07906695305577158   0.013043748375925372
-0.2968086038996134   -0.056551835074637694   -0.01691263308963613
-0.2968086038996134   -0.056551835074637694   -0.01691263308963613
-0.2968086038996134   -0.056551835074637694   -0.01691263308963613
-0.2968086038996134   -0.056551835074637694   -0.01691263308963613
-0.2752168940028049   0.007293169826020782   -0.0046741160019362175
-0.2752168940028049   0.007293169826020782   -0.0046741160019362175
-0.2752168940028049   0.007293169826020782   -0.0046741160019362175
-0.2752168940028049   0.007293169826020782   -0.0046741160019362175
-0.3119303872276572   -0.059226582697292   -0.014965397846015117
-0.3119303872276572   -0.059226582697292   -0.014965397846015117
-0.3119303872276572   -0.059226582697292   -0.014965397846015117
-0.3119303872276572   -0.059226582697292   -0.014965397846015117
-0.2992334440847935   -0.010935681751636409   0.003910891980736842
-0.2992334440847935   -0.010935681751636409   0.003910891980736842
-0.2992334440847935   -0.010935681751636409   0.003910891980736842
-0.2992334440847935   -0.010935681751636409   0.003910891980736842
-0.29254227242036485   -0.06392066497712319   -0.009219751922762937
-0.29254227242036485   -0.06392066497712319   -0.009219751922762937
-0.29254227242036485   -0.06392066497712319   -0.009219751922762937
-0.29254227242036485   -0.06392066497712319   -0.009219751922762937
-0.2945244157685367   -0.03270281873114142   -0.006644887531804852
-0.2945244157685367   -0.03270281873114142   -0.006644887531804852
-0.2945244157685367   -0.03270281873114142   -0.006644887531804852
-0.2945244157685367   -0.03270281873114142   -0.006644887531804852
-0.2794763504201925   -0.007773835662223116   -3.697123679776912e-05
-0.2794763504201925   -0.007773835662223116   -3.697123679776912e-05
-0.2794763504201925   -0.007773835662223116   -3.697123679776912e-05
-0.2794763504201925   -0.007773835662223116   -3.697123679776912e-05
-0.3139499896443445   -0.06873313462591571   -0.01187438294274586
-0.3139499896443445   -0.06873313462591571   -0.01187438294274586
-0.3139499896443445   -0.06873313462591571   -0.01187438294274586
-0.3139499896443445   -0.06873313462591571   -0.01187438294274586
-0.302706873183625   -0.026124100955754986   0.008390323036032987
-0.302706873183625   -0.026124100955754986   0.008390323036032987
-0.302706873183625   -0.026124100955754986   0.008390323036032987
-0.302706873183625   -0.026124100955754986   0.008390323036032987
-0.2970524930925428   -0.07588782642545443   -0.006346073349156839
-0.2970524930925428   -0.07588782642545443   -0.006346073349156839
-0.2970524930925428   -0.07588782642545443   -0.006346073349156839
-0.2970524930925428   -0.07588782642545443   -0.006346073349156839
-0.2982096699910518   -0.04426938301695838   -0.012666373640354325
-0.2982096699910518   -0.04426938301695838   -0.012666373640354325
-0.2982096699910518   -0.04426938301695838   -0.012666373640354325
-0.2982096699910518   -0.04426938301695838   -0.012666373640354325
-0.2843548486312724   -0.02323408012178265   0.004488402653526851
-0.2843548486312724   -0.02323408012178265   0.004488402653526851
-0.2843548486312724   -0.02323408012178265   0.004488402653526851
-0.2843548486312724   -0.02323408012178265   0.004488402653526851
-0.3172484320136207   -0.0806217616281496   -0.00981981044155485
-0.3172484320136207   -0.0806217616281496   -0.00981981044155485
-0.3172484320136207   -0.0806217616281496   -0.00981981044155485
-0.3172484320136207   -0.0806217616281496   -0.00981981044155485
-0.3055414459021558   -0.040401539385091514   0.012773339258443255
-0.3055414459021558   -0.040401539385091514   0.012773339258443255
-0.3055414459021558   -0.040401539385091514   0.012773339258443255
-0.3055414459021558   -0.040401539385091514   0.012773339258443255
-0.3004229954412816   -0.08735940351568046   -0.0019148986497071968
-0.3004229954412816   -0.08735940351568046   -0.0019148986497071968
-0.3004229954412816   -0.08735940351568046   -0.0019148986497071968
-0.3004229954412816   -0.08735940351568046   -0.0019148986497071968
-0.30259665605963226   -0.05636443313270893   -0.01928182674092769
-0.30259665605963226   -0.05636443313270893   -0.01928182674092769
-0.30259665605963226   -0.05636443313270893   -0.01928182674092769
-0.30259665605963226   -0.05636443313270893   -0.01928182674092769
-0.2880173202260286   0.030860084468348953   0.014513269996486906
-0.2880173202260286   0.030860084468348953   0.014513269996486906
-0.2880173202260286   0.030860084468348953   0.014513269996486906
-0.2880173202260286   0.030860084468348953   0.014513269996486906
-0.340903856108798   -0.04424734711578031   -0.02087647182741108
-0.340903856108798   -0.04424734711578031   -0.02087647182741108
-0.340903856108798   -0.04424734711578031   -0.02087647182741108
-0.340903856108798   -0.04424734711578031   -0.02087647182741108
-0.32258397710171866   0.009130460843998586   0.020085258182032755
-0.32258397710171866   0.009130460843998586   0.020085258182032755
-0.32258397710171866   0.009130460843998586   0.020085258182032755
-0.32258397710171866   0.009130460843998586   0.020085258182032755
-0.31020795605357593   -0.04926812878589243   -0.012629220828919051
-0.31020795605357593   -0.04926812878589243   -0.012629220828919051
-0.31020795605357593   -0.04926812878589243   -0.012629220828919051
-0.31020795605357593   -0.04926812878589243   -0.012629220828919051
-0.3153932955285361   -0.013051807654130033   -0.003967947682349241
-0.3153932955285361   -0.013051807654130033   -0.003967947682349241
-0.3153932955285361   -0.013051807654130033   -0.003967947682349241
-0.3153932955285361   -0.013051807654130033   -0.003967947682349241
-0.2909797838973917   0.015235791734732801   0.01900771943137691
-0.2909797838973917   0.015235791734732801   0.01900771943137691
-0.2909797838973917   0.015235791734732801   0.01900771943137691
-0.2909797838973917   0.015235791734732801   0.01900771943137691
-0.34400509876326363   -0.05756640918198741   -0.020323480099706286
-0.34400509876326363   -0.05756640918198741   -0.020323480099706286
-0.34400509876326363   -0.05756640918198741   -0.020323480099706286
-0.34400509876326363   -0.05756640918198741   -0.020323480099706286
-0.3285817859306697   -0.005705130758581298   0.022776855103339235
-0.3285817859306697   -0.005705130758581298   0.022776855103339235
-0.3285817859306697   -0.005705130758581298   0.022776855103339235
-0.3285817859306697   -0.005705130758581298   0.022776855103339235
-0.3132357205993075   -0.06032759399131607   -0.01005042100681864
-0.3132357205993075   -0.06032759399131607   -0.01005042100681864
-0.3132357205993075   -0.06032759399131607   -0.01005042100681864
-0.3132357205993075   -0.06032759399131607   -0.01005042100681864
-0.3184318066990939   -0.025592302222149116   -0.011031057939713852
-0.3184318066990939   -0.025592302222149116   -0.011031057939713852
-0.3184318066990939   -0.025592302222149116   -0.011031057939713852
-0.3184318066990939   -0.025592302222149116   -0.011031057939713852
-0.29422852185442916   0.0012847889843753263   0.023373189741881777
-0.29422852185442916   0.0012847889843753263   0.023373189741881777
-0.29422852185442916   0.0012847889843753263   0.023373189741881777
-0.29422852185442916   0.0012847889843753263   0.023373189741881777
-0.34948905180313145   -0.06921758086185609   -0.018247024155694742
-0.34948905180313145   -0.06921758086185609   -0.018247024155694742
-0.34948905180313145   -0.06921758086185609   -0.018247024155694742
-0.34948905180313145   -0.06921758086185609   -0.018247024155694742
-0.3325586144897883   -0.019941266397758547   0.027780387600521088
-0.3325586144897883   -0.019941266397758547   0.027780387600521088
-0.3325586144897883   -0.019941266397758547   0.027780387600521088
-0.3325586144897883   -0.019941266397758547   0.027780387600521088
-0.31584396968159756   -0.07143854447861683   -0.007702274545243623
-0.31584396968159756   -0.07143854447861683   -0.007702274545243623
-0.31584396968159756   -0.07143854447861683   -0.007702274545243623
-0.31584396968159756   -0.07143854447861683   -0.007702274545243623
-0.3237358375195445   -0.03742011821955208   -0.01787754813293453
-0.3237358375195445   -0.03742011821955208   -0.01787754813293453
-0.3237358375195445   -0.03742011821955208   -0.01787754813293453
-0.3237358375195445   -0.03742011821955208   -0.01787754813293453
-0.3132252260190673   0.04428201272974244   0.02898731877571179
-0.3132252260190673   0.04428201272974244   0.02898731877571179
-0.3132252260190673   0.04428201272974244   0.02898731877571179
-0.3132252260190673   0.04428201272974244   0.02898731877571179
-0.33536539589639197   -0.026774016543553367   -0.030233812224160543
-0.33536539589639197   -0.026774016543553367   -0.030233812224160543
-0.33536539589639197   -0.026774016543553367   -0.030233812224160543
-0.33536539589639197   -0.026774016543553367   -0.030233812224160543
-0.3279014569743386   0.03139265023471195   0.03221725557968587
-0.3279014569743386   0.03139265023471195   0.03221725557968587
-0.3279014569743386   0.03139265023471195   0.03221725557968587
-0.3279014569743386   0.03139265023471195   0.03221725557968587
-0.3389656416906601   -0.03421103699837372   -0.01848156692030228
-0.3389656416906601   -0.03421103699837372   -0.01848156692030228
-0.3389656416906601   -0.03421103699837372   -0.01848156692030228
-0.3389656416906601   -0.03421103699837372   -0.01848156692030228
-0.31766173711417156   0.007878711966516405   0.0012804024994231555
-0.31766173711417156   0.007878711966516405   0.0012804024994231555
-0.31766173711417156   0.007878711966516405   0.0012804024994231555
-0.31766173711417156   0.007878711966516405   0.0012804024994231555
-0.31487354296468467   0.03425696655245099   0.0335109231587425
-0.31487354296468467   0.03425696655245099   0.0335109231587425
-0.31487354296468467   0.03425696655245099   0.0335109231587425
-0.31487354296468467   0.03425696655245099   0.0335109231587425
-0.35378293882224066   -0.038864736438043196   -0.02693276698706917
-0.35378293882224066   -0.038864736438043196   -0.02693276698706917
-0.35378293882224066   -0.038864736438043196   -0.02693276698706917
-0.35378293882224066   -0.038864736438043196   -0.02693276698706917
-0.3423414509792444   0.02307493821103672   0.041472586717905324
-0.3423414509792444   0.02307493821103672   0.041472586717905324
-0.3423414509792444   0.02307493821103672   0.041472586717905324
-0.3423414509792444   0.02307493821103672   0.041472586717905324
-0.34351214030935434   -0.040723700813448525   -0.016856346735216757
-0.34351214030935434   -0.040723700813448525   -0.016856346735216757
-0.34351214030935434   -0.040723700813448525   -0.016856346735216757
-0.34351214030935434   -0.040723700813448525   -0.016856346735216757
-0.33322237777045954   -0.0021955352308271336   -0.007067464690772605
-0.33322237777045954   -0.0021955352308271336   -0.007067464690772605
-0.33322237777045954   -0.0021955352308271336   -0.007067464690772605
-0.33322237777045954   -0.0021955352308271336   -0.007067464690772605
-0.31845984676587513   0.027577521453229753   0.0401038987155012
-0.31845984676587513   0.027577521453229753   0.0401038987155012
-0.31845984676587513   0.027577521453229753   0.0401038987155012
-0.31845984676587513   0.027577521453229753   0.0401038987155012
-0.3697219932026758   -0.047554532735595005   -0.024800653452612308
-0.3697219932026758   -0.047554532735595005   -0.024800653452612308
-0.3697219932026758   -0.047554532735595005   -0.024800653452612308
-0.3697219932026758   -0.047554532735595005   -0.024800653452612308
-0.36776312513616455   0.001834780829336205   0.04431011187019679
-0.36776312513616455   0.001834780829336205   0.04431011187019679
-0.36776312513616455   0.001834780829336205   0.04431011187019679
-0.36776312513616455   0.001834780829336205   0.04431011187019679
-0.347664344373447   -0.05304246809845379   -0.014647060117077395
-0.347664344373447   -0.05304246809845379   -0.014647060117077395
-0.347664344373447   -0.05304246809845379   -0.014647060117077395
-0.347664344373447   -0.05304246809845379   -0.014647060117077395
-0.34059807123806884   -0.011472571721453953   -0.014588858306329142
-0.34059807123806884   -0.011472571721453953   -0.014588858306329142
-0.34059807123806884   -0.011472571721453953   -0.014588858306329142
-0.34059807123806884   -0.011472571721453953   -0.014588858306329142
-0.6696005285056708   -0.06121446423060986   -0.06332518935304926
-0.6696005285056708   -0.06121446423060986   -0.06332518935304926
-0.6696005285056708   -0.06121446423060986   -0.06332518935304926
-0.6696005285056708   -0.06121446423060986   -0.06332518935304926
-0.4250779482569368   0.036172924188820565   0.014918784266902886
-0.4250779482569368   0.036172924188820565   0.014918784266902886
-0.4250779482569368   0.036172924188820565   0.014918784266902886
-0.4250779482569368   0.036172924188820565   0.014918784266902886
-0.44639612232602677   -0.028247727279446147   -0.02827688115624816
-0.44639612232602677   -0.028247727279446147   -0.02827688115624816
-0.44639612232602677   -0.028247727279446147   -0.02827688115624816
-0.44639612232602677   -0.028247727279446147   -0.02827688115624816
-0.7120472099384244   -0.08035648695173   0.0709021011483749
-0.7120472099384244   -0.08035648695173   0.0709021011483749
-0.7120472099384244   -0.08035648695173   0.0709021011483749
-0.7120472099384244   -0.08035648695173   0.0709021011483749
-0.5177934022657847   -0.019756358028303098   0.06879520758655579
-0.5177934022657847   -0.019756358028303098   0.06879520758655579
-0.5177934022657847   -0.019756358028303098   0.06879520758655579
-0.5177934022657847   -0.019756358028303098   0.06879520758655579
-0.7374574916950206   -0.0900881531993817   -0.04641764138694736
-0.7374574916950206   -0.0900881531993817   -0.04641764138694736
-0.7374574916950206   -0.0900881531993817   -0.04641764138694736
-0.7374574916950206   -0.0900881531993817   -0.04641764138694736
-0.43886081452779807   -0.03639103499015827   0.017542965545607213
-0.43886081452779807   -0.03639103499015827   0.017542965545607213
-0.43886081452779807   -0.03639103499015827   0.017542965545607213
-0.43886081452779807   -0.03639103499015827   0.017542965545607213
-0.45328703499251843   -0.04094630012355921   -0.020319303297752243
-0.45328703499251843   -0.04094630012355921   -0.020319303297752243
-0.45328703499251843   -0.04094630012355921   -0.020319303297752243
-0.45328703499251843   -0.04094630012355921   -0.020319303297752243
-0.7347719045648053   -0.11226336186758448   0.0017163991856062183
-0.7347719045648053   -0.11226336186758448   0.0017163991856062183
-0.7347719045648053   -0.11226336186758448   0.0017163991856062183
-0.7347719045648053   -0.11226336186758448   0.0017163991856062183
-0.5733722664811448   -0.0677385217612652   0.015908048871830827
-0.5733722664811448   -0.0677385217612652   0.015908048871830827
-0.5733722664811448   -0.0677385217612652   0.015908048871830827
-0.5733722664811448   -0.0677385217612652   0.015908048871830827
-0.7405032542260427   -0.10180535459028792   -0.037398356397871445
-0.7405032542260427   -0.10180535459028792   -0.037398356397871445
-0.7405032542260427   -0.10180535459028792   -0.037398356397871445
-0.7405032542260427   -0.10180535459028792   -0.037398356397871445
-0.45296651920259184   -0.05681514127216612   -0.0028478831995155385
-0.45296651920259184   -0.05681514127216612   -0.0028478831995155385
-0.45296651920259184   -0.05681514127216612   -0.0028478831995155385
-0.45296651920259184   -0.05681514127216612   -0.0028478831995155385
-0.4536295793546892   -0.07166904248385561   -0.014811952063029757
-0.4536295793546892   -0.07166904248385561   -0.014811952063029757
-0.4536295793546892   -0.07166904248385561   -0.014811952063029757
-0.4536295793546892   -0.07166904248385561   -0.014811952063029757
-0.7524305441977456   -0.1714169594585147   0.011200060717828354
-0.7524305441977456   -0.1714169594585147   0.011200060717828354
-0.7524305441977456   -0.1714169594585147   0.011200060717828354
-0.7524305441977456   -0.1714169594585147   0.011200060717828354
-0.5728001496124696   -0.09310605939725494   0.001209463750009453
-0.5728001496124696   -0.09310605939725494   0.001209463750009453
-0.5728001496124696   -0.09310605939725494   0.001209463750009453
-0.5728001496124696   -0.09310605939725494   0.001209463750009453
-0.4590092360031792   -0.07784564319974627   -0.04071908707573858
-0.4590092360031792   -0.07784564319974627   -0.04071908707573858
-0.4590092360031792   -0.07784564319974627   -0.04071908707573858
-0.4590092360031792   -0.07784564319974627   -0.04071908707573858
-0.3156388325277858   -0.20430625294229243   -0.038288958734934694
-0.3156388325277858   -0.20430625294229243   -0.038288958734934694
-0.3156388325277858   -0.20430625294229243   -0.038288958734934694
-0.3156388325277858   -0.20430625294229243   -0.038288958734934694
-0.27722577522252934   -0.04535005998896098   -0.002442331485563398
-0.27722577522252934   -0.04535005998896098   -0.002442331485563398
-0.27722577522252934   -0.04535005998896098   -0.002442331485563398
-0.27722577522252934   -0.04535005998896098   -0.002442331485563398
-0.48806197160861853   -0.21661770800621308   -0.04823614684244018
-0.48806197160861853   -0.21661770800621308   -0.04823614684244018
-0.48806197160861853   -0.21661770800621308   -0.04823614684244018
-0.48806197160861853   -0.21661770800621308   -0.04823614684244018
-0.3805236369788966   -0.14435635069568808   -0.011100287777752932
-0.3805236369788966   -0.14435635069568808   -0.011100287777752932
-0.3805236369788966   -0.14435635069568808   -0.011100287777752932
-0.3805236369788966   -0.14435635069568808   -0.011100287777752932
-0.45868163263261985   -0.08728599763966514   -0.030666162328993714
-0.45868163263261985   -0.08728599763966514   -0.030666162328993714
-0.45868163263261985   -0.08728599763966514   -0.030666162328993714
-0.45868163263261985   -0.08728599763966514   -0.030666162328993714
-0.3084642559680615   -0.17653991212504222   -0.02744488307714298
-0.3084642559680615   -0.17653991212504222   -0.02744488307714298
-0.3084642559680615   -0.17653991212504222   -0.02744488307714298
-0.3084642559680615   -0.17653991212504222   -0.02744488307714298
-0.28039725367160434   -0.058756174861698936   0.0004113048477819443
-0.28039725367160434   -0.058756174861698936   0.0004113048477819443
-0.28039725367160434   -0.058756174861698936   0.0004113048477819443
-0.28039725367160434   -0.058756174861698936   0.0004113048477819443
-0.4898252766383514   -0.215487576476673   -0.0284692351738064
-0.4898252766383514   -0.215487576476673   -0.0284692351738064
-0.4898252766383514   -0.215487576476673   -0.0284692351738064
-0.4898252766383514   -0.215487576476673   -0.0284692351738064
-0.3763103242506363   -0.13531276322534916   -0.011793562923192995
-0.3763103242506363   -0.13531276322534916   -0.011793562923192995
-0.3763103242506363   -0.13531276322534916   -0.011793562923192995
-0.3763103242506363   -0.13531276322534916   -0.011793562923192995
-0.4657352416736888   -0.10050613399758743   -0.023000502829576025
-0.4657352416736888   -0.10050613399758743   -0.023000502829576025
-0.4657352416736888   -0.10050613399758743   -0.023000502829576025
-0.4657352416736888   -0.10050613399758743   -0.023000502829576025
-0.30833829199052043   -0.1775886206950375   -0.020461440913459934
-0.30833829199052043   -0.1775886206950375   -0.020461440913459934
-0.30833829199052043   -0.1775886206950375   -0.020461440913459934
-0.30833829199052043   -0.1775886206950375   -0.020461440913459934
-0.2803083791079705   -0.0754487126780554   0.004490162784480032
-0.2803083791079705   -0.0754487126780554   0.004490162784480032
-0.2803083791079705   -0.0754487126780554   0.004490162784480032
-0.2803083791079705   -0.0754487126780554   0.004490162784480032
-0.48862296698989716   -0.21902649018365583   -0.04242144253927453
-0.48862296698989716   -0.21902649018365583   -0.04242144253927453
-0.48862296698989716   -0.21902649018365583   -0.04242144253927453
-0.48862296698989716   -0.21902649018365583   -0.04242144253927453
-0.3820044450679233   -0.14554264325577548   -0.021910169130390834
-0.3820044450679233   -0.14554264325577548   -0.021910169130390834
-0.3820044450679233   -0.14554264325577548   -0.021910169130390834
-0.3820044450679233   -0.14554264325577548   -0.021910169130390834
-0.27784826413755115   -0.05012129371273215   -0.003521076013321903
-0.27784826413755115   -0.05012129371273215   -0.003521076013321903
-0.27784826413755115   -0.05012129371273215   -0.003521076013321903
-0.27784826413755115   -0.05012129371273215   -0.003521076013321903
-0.23329104639690929   -0.15636551816946792   -0.026992431894059653
-0.23329104639690929   -0.15636551816946792   -0.026992431894059653
-0.23329104639690929   -0.15636551816946792   -0.026992431894059653
-0.23329104639690929   -0.15636551816946792   -0.026992431894059653
-0.20105728678312093   -0.04163417677984557   0.01072770342638132
-0.20105728678312093   -0.04163417677984557   0.01072770342638132
-0.20105728678312093   -0.04163417677984557   0.01072770342638132
-0.20105728678312093   -0.04163417677984557   0.01072770342638132
-0.3076146380090263   -0.16992819680357055   -0.02980850860343857
-0.3076146380090263   -0.16992819680357055   -0.02980850860343857
-0.3076146380090263   -0.16992819680357055   -0.02980850860343857
-0.3076146380090263   -0.16992819680357055   -0.02980850860343857
-0.2538325525998717   -0.10596490265736497   -0.012449482398793682
-0.2538325525998717   -0.10596490265736497   -0.012449482398793682
-0.2538325525998717   -0.10596490265736497   -0.012449482398793682
-0.2538325525998717   -0.10596490265736497   -0.012449482398793682
-0.27944318257348694   -0.05936065189088124   0.00048122366156893724
-0.27944318257348694   -0.05936065189088124   0.00048122366156893724
-0.27944318257348694   -0.05936065189088124   0.00048122366156893724
-0.27944318257348694   -0.05936065189088124   0.00048122366156893724
-0.23087709876820245   -0.15385007824207575   -0.026155455036796026
-0.23087709876820245   -0.15385007824207575   -0.026155455036796026
-0.23087709876820245   -0.15385007824207575   -0.026155455036796026
-0.23087709876820245   -0.15385007824207575   -0.026155455036796026
-0.20113492239391198   -0.05265421471811679   0.013904414488900525
-0.20113492239391198   -0.05265421471811679   0.013904414488900525
-0.20113492239391198   -0.05265421471811679   0.013904414488900525
-0.20113492239391198   -0.05265421471811679   0.013904414488900525
-0.3085897963074733   -0.1726213120610374   -0.026686271132224444
-0.3085897963074733   -0.1726213120610374   -0.026686271132224444
-0.3085897963074733   -0.1726213120610374   -0.026686271132224444
-0.3085897963074733   -0.1726213120610374   -0.026686271132224444
-0.253384405059642   -0.11010863986097064   -0.01615564212064553
-0.253384405059642   -0.11010863986097064   -0.01615564212064553
-0.253384405059642   -0.11010863986097064   -0.01615564212064553
-0.253384405059642   -0.11010863986097064   -0.01615564212064553
-0.28179990296408697   -0.07053309752099825   0.005174981044668234
-0.28179990296408697   -0.07053309752099825   0.005174981044668234
-0.28179990296408697   -0.07053309752099825   0.005174981044668234
-0.28179990296408697   -0.07053309752099825   0.005174981044668234
-0.22883147318118002   -0.15564908670203703   -0.021583467463515825
-0.22883147318118002   -0.15564908670203703   -0.021583467463515825
-0.22883147318118002   -0.15564908670203703   -0.021583467463515825
-0.22883147318118002   -0.15564908670203703   -0.021583467463515825
-0.1987735593382184   -0.06317357633468257   0.017364801152219014
-0.1987735593382184   -0.06317357633468257   0.017364801152219014
-0.1987735593382184   -0.06317357633468257   0.017364801152219014
-0.1987735593382184   -0.06317357633468257   0.017364801152219014
-0.30492315120256097   -0.17480976812472257   -0.019222642241805123
-0.30492315120256097   -0.17480976812472257   -0.019222642241805123
-0.30492315120256097   -0.17480976812472257   -0.019222642241805123
-0.30492315120256097   -0.17480976812472257   -0.019222642241805123
-0.25263319598312456   -0.1155697711269246   -0.018729609957518455
-0.25263319598312456   -0.1155697711269246   -0.018729609957518455
-0.25263319598312456   -0.1155697711269246   -0.018729609957518455
-0.25263319598312456   -0.1155697711269246   -0.018729609957518455
-0.1941953085906625   -0.006921829544273495   0.019042568511987528
-0.1941953085906625   -0.006921829544273495   0.019042568511987528
-0.1941953085906625   -0.006921829544273495   0.019042568511987528
-0.1941953085906625   -0.006921829544273495   0.019042568511987528
-0.18384811338612106   -0.08281709944201646   -0.016179401164290088
-0.18384811338612106   -0.08281709944201646   -0.016179401164290088
-0.18384811338612106   -0.08281709944201646   -0.016179401164290088
-0.18384811338612106   -0.08281709944201646   -0.016179401164290088
-0.15853027960886953   -0.011997090366688782   0.022048294822392813
-0.15853027960886953   -0.011997090366688782   0.022048294822392813
-0.15853027960886953   -0.011997090366688782   0.022048294822392813
-0.15853027960886953   -0.011997090366688782   0.022048294822392813
-0.21629739821739516   -0.09565535991714319   -0.01145167060769208
-0.21629739821739516   -0.09565535991714319   -0.01145167060769208
-0.21629739821739516   -0.09565535991714319   -0.01145167060769208
-0.21629739821739516   -0.09565535991714319   -0.01145167060769208
-0.1888441812423987   -0.0488882016674966   -0.00675498615468984
-0.1888441812423987   -0.0488882016674966   -0.00675498615468984
-0.1888441812423987   -0.0488882016674966   -0.00675498615468984
-0.1888441812423987   -0.0488882016674966   -0.00675498615468984
-0.1943173388743888   -0.019171256621859898   0.02196452281205644
-0.1943173388743888   -0.019171256621859898   0.02196452281205644
-0.1943173388743888   -0.019171256621859898   0.02196452281205644
-0.1943173388743888   -0.019171256621859898   0.02196452281205644
-0.1822662721563778   -0.09023712686647398   -0.018391631415363256
-0.1822662721563778   -0.09023712686647398   -0.018391631415363256
-0.1822662721563778   -0.09023712686647398   -0.018391631415363256
-0.1822662721563778   -0.09023712686647398   -0.018391631415363256
-0.15876573167079405   -0.02268330934709649   0.023701013285765814
-0.15876573167079405   -0.02268330934709649   0.023701013285765814
-0.15876573167079405   -0.02268330934709649   0.023701013285765814
-0.15876573167079405   -0.02268330934709649   0.023701013285765814
-0.21623312970935682   -0.10148682602485724   -0.012754010781583251
-0.21623312970935682   -0.10148682602485724   -0.012754010781583251
-0.21623312970935682   -0.10148682602485724   -0.012754010781583251
-0.21623312970935682   -0.10148682602485724   -0.012754010781583251
-0.1880232266445147   -0.05746796671530789   -0.011467428012778814
-0.1880232266445147   -0.05746796671530789   -0.011467428012778814
-0.1880232266445147   -0.05746796671530789   -0.011467428012778814
-0.1880232266445147   -0.05746796671530789   -0.011467428012778814
-0.19429332965987958   -0.02953116576156469   0.024989329202510346
-0.19429332965987958   -0.02953116576156469   0.024989329202510346
-0.19429332965987958   -0.02953116576156469   0.024989329202510346
-0.19429332965987958   -0.02953116576156469   0.024989329202510346
-0.18176894825022255   -0.09570238614033905   -0.018295992818126508
-0.18176894825022255   -0.09570238614033905   -0.018295992818126508
-0.18176894825022255   -0.09570238614033905   -0.018295992818126508
-0.18176894825022255   -0.09570238614033905   -0.018295992818126508
-0.1574143227404486   -0.032718617307808034   0.02746771436765144
-0.1574143227404486   -0.032718617307808034   0.02746771436765144
-0.1574143227404486   -0.032718617307808034   0.02746771436765144
-0.1574143227404486   -0.032718617307808034   0.02746771436765144
-0.21281802395001778   -0.10731678163715366   -0.008714316604306861
-0.21281802395001778   -0.10731678163715366   -0.008714316604306861
-0.21281802395001778   -0.10731678163715366   -0.008714316604306861
-0.21281802395001778   -0.10731678163715366   -0.008714316604306861
-0.1874642999001906   -0.06485071635071615   -0.014746342344904972
-0.1874642999001906   -0.06485071635071615   -0.014746342344904972
-0.1874642999001906   -0.06485071635071615   -0.014746342344904972
-0.1874642999001906   -0.06485071635071615   -0.014746342344904972
-0.15380434976704926   0.021524515520798128   0.02969780196825425
-0.15380434976704926   0.021524515520798128   0.02969780196825425
-0.15380434976704926   0.021524515520798128   0.02969780196825425
-0.15380434976704926   0.021524515520798128   0.02969780196825425
-0.10250599980602915   -0.027269486811235907   -0.00996638271656273
-0.10250599980602915   -0.027269486811235907   -0.00996638271656273
-0.10250599980602915   -0.027269486811235907   -0.00996638271656273
-0.10250599980602915   -0.027269486811235907   -0.00996638271656273
-0.08955775601797586   0.025232663887781517   0.02932905183778966
-0.08955775601797586   0.025232663887781517   0.02932905183778966
-0.08955775601797586   0.025232663887781517   0.02932905183778966
-0.08955775601797586   0.025232663887781517   0.02932905183778966
-0.16990904328991274   -0.04167870557738894   -0.005163908372123024
-0.16990904328991274   -0.04167870557738894   -0.005163908372123024
-0.16990904328991274   -0.04167870557738894   -0.005163908372123024
-0.16990904328991274   -0.04167870557738894   -0.005163908372123024
-0.12716148025952762   -0.00267300326217762   -0.005346694553223552
-0.12716148025952762   -0.00267300326217762   -0.005346694553223552
-0.12716148025952762   -0.00267300326217762   -0.005346694553223552
-0.12716148025952762   -0.00267300326217762   -0.005346694553223552
-0.15135912660746462   0.013489977745725037   0.03241699171699601
-0.15135912660746462   0.013489977745725037   0.03241699171699601
-0.15135912660746462   0.013489977745725037   0.03241699171699601
-0.15135912660746462   0.013489977745725037   0.03241699171699601
-0.1082882843090023   -0.030116631043912028   -0.00897429468564893
-0.1082882843090023   -0.030116631043912028   -0.00897429468564893
-0.1082882843090023   -0.030116631043912028   -0.00897429468564893
-0.1082882843090023   -0.030116631043912028   -0.00897429468564893
-0.09352986153575664   0.020023107749876687   0.0368954173078116
-0.09352986153575664   0.020023107749876687   0.0368954173078116
-0.09352986153575664   0.020023107749876687   0.0368954173078116
-0.09352986153575664   0.020023107749876687   0.0368954173078116
-0.16916314647876776   -0.044371490995543945   -0.006597879105655336
-0.16916314647876776   -0.044371490995543945   -0.006597879105655336
-0.16916314647876776   -0.044371490995543945   -0.006597879105655336
-0.16916314647876776   -0.044371490995543945   -0.006597879105655336
-0.13097371293332447   -0.008361449273981324   -0.007571931185787757
-0.13097371293332447   -0.008361449273981324   -0.007571931185787757
-0.13097371293332447   -0.008361449273981324   -0.007571931185787757
-0.13097371293332447   -0.008361449273981324   -0.007571931185787757
-0.14973133079481754   0.008868060083510456   0.037321648235041346
-0.14973133079481754   0.008868060083510456   0.037321648235041346
-0.14973133079481754   0.008868060083510456   0.037321648235041346
-0.14973133079481754   0.008868060083510456   0.037321648235041346
-0.11429207146009178   -0.03454683756956263   -0.012345686994424752
-0.11429207146009178   -0.03454683756956263   -0.012345686994424752
-0.11429207146009178   -0.03454683756956263   -0.012345686994424752
-0.11429207146009178   -0.03454683756956263   -0.012345686994424752
-0.1070033513891603   0.0056978529304802066   0.03839355204330584
-0.1070033513891603   0.0056978529304802066   0.03839355204330584
-0.1070033513891603   0.0056978529304802066   0.03839355204330584
-0.1070033513891603   0.0056978529304802066   0.03839355204330584
-0.16682934608691857   -0.046798687095923656   -0.005527332576582732
-0.16682934608691857   -0.046798687095923656   -0.005527332576582732
-0.16682934608691857   -0.046798687095923656   -0.005527332576582732
-0.16682934608691857   -0.046798687095923656   -0.005527332576582732
-0.13282158002967556   -0.012484395195982306   -0.011160803422151117
-0.13282158002967556   -0.012484395195982306   -0.011160803422151117
-0.13282158002967556   -0.012484395195982306   -0.011160803422151117
-0.13282158002967556   -0.012484395195982306   -0.011160803422151117
-1.58169104778933   -0.224504714976386   -0.13185631202673662
-1.58169104778933   -0.224504714976386   -0.13185631202673662
-1.58169104778933   -0.224504714976386   -0.13185631202673662
-1.58169104778933   -0.224504714976386   -0.13185631202673662
-0.5494357486239887   -0.8686847561811007   -0.10312638863521129
-0.5494357486239887   -0.8686847561811007   -0.10312638863521129
-0.5494357486239887   -0.8686847561811007   -0.10312638863521129
-0.5494357486239887   -0.8686847561811007   -0.10312638863521129
-0.424032524318107   -0.03682845126454223   0.0005275939639963392
-0.424032524318107   -0.03682845126454223   0.0005275939639963392
-0.424032524318107   -0.03682845126454223   0.0005275939639963392
-0.424032524318107   -0.03682845126454223   0.0005275939639963392
-1.6899839609664125   -1.0201619131963726   -0.542029174832557
-1.6899839609664125   -1.0201619131963726   -0.542029174832557
-1.6899839609664125   -1.0201619131963726   -0.542029174832557
-1.6899839609664125   -1.0201619131963726   -0.542029174832557
-1.0347369328354246   -0.5073825335696905   -0.07394983841809571
-1.0347369328354246   -0.5073825335696905   -0.07394983841809571
-1.0347369328354246   -0.5073825335696905   -0.07394983841809571
-1.0347369328354246   -0.5073825335696905   -0.07394983841809571
-1.46977416282337   -0.2819255976842833   -0.17921649962944616
-1.46977416282337   -0.2819255976842833   -0.17921649962944616
-1.46977416282337   -0.2819255976842833   -0.17921649962944616
-1.46977416282337   -0.2819255976842833   -0.17921649962944616
-0.5935090939234803   -0.7243315382389639   -0.1593521670884454
-0.5935090939234803   -0.7243315382389639   -0.1593521670884454
-0.5935090939234803   -0.7243315382389639   -0.1593521670884454
-0.5935090939234803   -0.7243315382389639   -0.1593521670884454
-0.4327383160916432   -0.04894873912906178   0.016255924405057576
-0.4327383160916432   -0.04894873912906178   0.016255924405057576
-0.4327383160916432   -0.04894873912906178   0.016255924405057576
-0.4327383160916432   -0.04894873912906178   0.016255924405057576
-1.5815419988767674   -0.9105292816645839   -0.4984142561082703
-1.5815419988767674   -0.9105292816645839   -0.4984142561082703
-1.5815419988767674   -0.9105292816645839   -0.4984142561082703
-1.5815419988767674   -0.9105292816645839   -0.4984142561082703
-0.9746765294087333   -0.45769240689661594   0.039320078969658306
-0.9746765294087333   -0.45769240689661594   0.039320078969658306
-0.9746765294087333   -0.45769240689661594   0.039320078969658306
-0.9746765294087333   -0.45769240689661594   0.039320078969658306
-1.3801932957309557   -0.2684424369555811   -0.13375758508822666
-1.3801932957309557   -0.2684424369555811   -0.13375758508822666
-1.3801932957309557   -0.2684424369555811   -0.13375758508822666
-1.3801932957309557   -0.2684424369555811   -0.13375758508822666
-0.5776972448633135   -0.6346458094639249   -0.12284164911842889
-0.5776972448633135   -0.6346458094639249   -0.12284164911842889
-0.5776972448633135   -0.6346458094639249   -0.12284164911842889
-0.5776972448633135   -0.6346458094639249   -0.12284164911842889
-0.4976409652330682   -0.12789896316602126   -0.02599953678438174
-0.4976409652330682   -0.12789896316602126   -0.02599953678438174
-0.4976409652330682   -0.12789896316602126   -0.02599953678438174
-0.4976409652330682   -0.12789896316602126   -0.02599953678438174
-1.4415195815298354   -0.7659334509464215   -0.44149060649525135
-1.4415195815298354   -0.7659334509464215   -0.44149060649525135
-1.4415195815298354   -0.7659334509464215   -0.44149060649525135
-1.4415195815298354   -0.7659334509464215   -0.44149060649525135
-0.9029397742063088   -0.39693210780089033   0.1673210837027387
-0.9029397742063088   -0.39693210780089033   0.1673210837027387
-0.9029397742063088   -0.39693210780089033   0.1673210837027387
-0.9029397742063088   -0.39693210780089033   0.1673210837027387
-0.40586527340336787   -0.22123791926088687   -0.03272084945232476
-0.40586527340336787   -0.22123791926088687   -0.03272084945232476
-0.40586527340336787   -0.22123791926088687   -0.03272084945232476
-0.40586527340336787   -0.22123791926088687   -0.03272084945232476
-0.18814415405975662   -0.27579094120047465   -0.0465103024098774
-0.18814415405975662   -0.27579094120047465   -0.0465103024098774
-0.18814415405975662   -0.27579094120047465   -0.0465103024098774
-0.18814415405975662   -0.27579094120047465   -0.0465103024098774
-0.16565118650116897   -0.1416399556296534   0.004241829932916351
-0.16565118650116897   -0.1416399556296534   0.004241829932916351
-0.16565118650116897   -0.1416399556296534   0.004241829932916351
-0.16565118650116897   -0.1416399556296534   0.004241829932916351
-0.49722473319387883   -0.4027622228053607   0.0005003211259586443
-0.49722473319387883   -0.4027622228053607   0.0005003211259586443
-0.49722473319387883   -0.4027622228053607   0.0005003211259586443
-0.49722473319387883   -0.4027622228053607   0.0005003211259586443
-0.2668545574261636   -0.19520034535815722   0.08567433012667736
-0.2668545574261636   -0.19520034535815722   0.08567433012667736
-0.2668545574261636   -0.19520034535815722   0.08567433012667736
-0.2668545574261636   -0.19520034535815722   0.08567433012667736
-0.46218171119410945   -0.20600315407578068   -0.021043637604779453
-0.46218171119410945   -0.20600315407578068   -0.021043637604779453
-0.46218171119410945   -0.20600315407578068   -0.021043637604779453
-0.46218171119410945   -0.20600315407578068   -0.021043637604779453
-0.2147820706679103   -0.35248688652620624   -0.030565660004237445
-0.2147820706679103   -0.35248688652620624   -0.030565660004237445
-0.2147820706679103   -0.35248688652620624   -0.030565660004237445
-0.2147820706679103   -0.35248688652620624   -0.030565660004237445
-0.1790581766744876   -0.1467619233414822   0.004391930538283805
-0.1790581766744876   -0.1467619233414822   0.004391930538283805
-0.1790581766744876   -0.1467619233414822   0.004391930538283805
-0.1790581766744876   -0.1467619233414822   0.004391930538283805
-0.5216907621537686   -0.397777376623266   -0.07967766841136335
-0.5216907621537686   -0.397777376623266   -0.07967766841136335
-0.5216907621537686   -0.397777376623266   -0.07967766841136335
-0.5216907621537686   -0.397777376623266   -0.07967766841136335
-0.3184683187723368   -0.25024291203804694   0.03898491262091354
-0.3184683187723368   -0.25024291203804694   0.03898491262091354
-0.3184683187723368   -0.25024291203804694   0.03898491262091354
-0.3184683187723368   -0.25024291203804694   0.03898491262091354
-0.4770886771683819   -0.21511277797454775   -0.039331842133149775
-0.4770886771683819   -0.21511277797454775   -0.039331842133149775
-0.4770886771683819   -0.21511277797454775   -0.039331842133149775
-0.4770886771683819   -0.21511277797454775   -0.039331842133149775
-0.22235331392609098   -0.3281195742564174   -0.03072610480479797
-0.22235331392609098   -0.3281195742564174   -0.03072610480479797
-0.22235331392609098   -0.3281195742564174   -0.03072610480479797
-0.22235331392609098   -0.3281195742564174   -0.03072610480479797
-0.19977722318824714   -0.1514784932481984   0.006472798336362676
-0.19977722318824714   -0.1514784932481984   0.006472798336362676
-0.19977722318824714   -0.1514784932481984   0.006472798336362676
-0.19977722318824714   -0.1514784932481984   0.006472798336362676
-0.5580490308588458   -0.3866299863787821   -0.06930884170050657
-0.5580490308588458   -0.3866299863787821   -0.06930884170050657
-0.5580490308588458   -0.3866299863787821   -0.06930884170050657
-0.5580490308588458   -0.3866299863787821   -0.06930884170050657
-0.33340324614217665   -0.2358836584469398   0.041222283785976366
-0.33340324614217665   -0.2358836584469398   0.041222283785976366
-0.33340324614217665   -0.2358836584469398   0.041222283785976366
-0.33340324614217665   -0.2358836584469398   0.041222283785976366
-0.1481512181952606   -0.13200531583991718   0.009668751552045402
-0.1481512181952606   -0.13200531583991718   0.009668751552045402
-0.1481512181952606   -0.13200531583991718   0.009668751552045402
-0.1481512181952606   -0.13200531583991718   0.009668751552045402
-0.09089225618932537   -0.08668151026395393   -0.022739105104769508
-0.09089225618932537   -0.08668151026395393   -0.022739105104769508
-0.09089225618932537   -0.08668151026395393   -0.022739105104769508
-0.09089225618932537   -0.08668151026395393   -0.022739105104769508
-0.08801090681931908   -0.11810250928528071   0.009716197798295773
-0.08801090681931908   -0.11810250928528071   0.009716197798295773
-0.08801090681931908   -0.11810250928528071   0.009716197798295773
-0.08801090681931908   -0.11810250928528071   0.009716197798295773
-0.16392196557824257   -0.1185369538405212   -0.010215067241583813
-0.16392196557824257   -0.1185369538405212   -0.010215067241583813
-0.16392196557824257   -0.1185369538405212   -0.010215067241583813
-0.16392196557824257   -0.1185369538405212   -0.010215067241583813
-0.10361449014948483   -0.09598894333145966   0.042991861896681874
-0.10361449014948483   -0.09598894333145966   0.042991861896681874
-0.10361449014948483   -0.09598894333145966   0.042991861896681874
-0.10361449014948483   -0.09598894333145966   0.042991861896681874
-0.16265940621857822   -0.13288607798462426   0.01044685370083713
-0.16265940621857822   -0.13288607798462426   0.01044685370083713
-0.16265940621857822   -0.13288607798462426   0.01044685370083713
-0.16265940621857822   -0.13288607798462426   0.01044685370083713
-0.09072187064698371   -0.10520178960917857   -0.016739341016129523
-0.09072187064698371   -0.10520178960917857   -0.016739341016129523
-0.09072187064698371   -0.10520178960917857   -0.016739341016129523
-0.09072187064698371   -0.10520178960917857   -0.016739341016129523
-0.08905847121156607   -0.121648057907106   0.008648674541525292
-0.08905847121156607   -0.121648057907106   0.008648674541525292
-0.08905847121156607   -0.121648057907106   0.008648674541525292
-0.08905847121156607   -0.121648057907106   0.008648674541525292
-0.1741517647866329   -0.13824642653432043   0.020408493170395343
-0.1741517647866329   -0.13824642653432043   0.020408493170395343
-0.1741517647866329   -0.13824642653432043   0.020408493170395343
-0.1741517647866329   -0.13824642653432043   0.020408493170395343
-0.11276845437268847   -0.10697628993768633   0.03635647168839387
-0.11276845437268847   -0.10697628993768633   0.03635647168839387
-0.11276845437268847   -0.10697628993768633   0.03635647168839387
-0.11276845437268847   -0.10697628993768633   0.03635647168839387
-0.17532746372356606   -0.1378123974396077   0.014095969391016892
-0.17532746372356606   -0.1378123974396077   0.014095969391016892
-0.17532746372356606   -0.1378123974396077   0.014095969391016892
-0.17532746372356606   -0.1378123974396077   0.014095969391016892
-0.09545394186792713   -0.12965325659511295   -0.015323480052273061
-0.09545394186792713   -0.12965325659511295   -0.015323480052273061
-0.09545394186792713   -0.12965325659511295   -0.015323480052273061
-0.09545394186792713   -0.12965325659511295   -0.015323480052273061
-0.09017738548774108   -0.12558401359404342   0.012160364696770641
-0.09017738548774108   -0.12558401359404342   0.012160364696770641
-0.09017738548774108   -0.12558401359404342   0.012160364696770641
-0.09017738548774108   -0.12558401359404342   0.012160364696770641
-0.2038442343280076   -0.1699503138139503   0.00460956320331226
-0.2038442343280076   -0.1699503138139503   0.00460956320331226
-0.2038442343280076   -0.1699503138139503   0.00460956320331226
-0.2038442343280076   -0.1699503138139503   0.00460956320331226
-0.12602442337076306   -0.12190828564083228   0.017090773480220374
-0.12602442337076306   -0.12190828564083228   0.017090773480220374
-0.12602442337076306   -0.12190828564083228   0.017090773480220374
-0.12602442337076306   -0.12190828564083228   0.017090773480220374
-0.07441812443751186   -0.052587677284474436   0.025537720674818472
-0.07441812443751186   -0.052587677284474436   0.025537720674818472
-0.07441812443751186   -0.052587677284474436   0.025537720674818472
-0.07441812443751186   -0.052587677284474436   0.025537720674818472
-0.05239522924813818   -0.0005158993209562514   -0.005119018355880961
-0.05239522924813818   -0.0005158993209562514   -0.005119018355880961
-0.05239522924813818   -0.0005158993209562514   -0.005119018355880961
-0.05239522924813818   -0.0005158993209562514   -0.005119018355880961
-0.04970854442153723   -0.05688007138857001   0.015835918239315967
-0.04970854442153723   -0.05688007138857001   0.015835918239315967
-0.04970854442153723   -0.05688007138857001   0.015835918239315967
-0.04970854442153723   -0.05688007138857001   0.015835918239315967
-0.0690708039855179   -0.010539403922301478   -0.003146393395677497
-0.0690708039855179   -0.010539403922301478   -0.003146393395677497
-0.0690708039855179   -0.010539403922301478   -0.003146393395677497
-0.0690708039855179   -0.010539403922301478   -0.003146393395677497
-0.05676136841322264   -0.02893781089975827   0.012666291048388748
-0.05676136841322264   -0.02893781089975827   0.012666291048388748
-0.05676136841322264   -0.02893781089975827   0.012666291048388748
-0.05676136841322264   -0.02893781089975827   0.012666291048388748
-0.07351392885404293   -0.05999051354587931   0.02408909188527516
-0.07351392885404293   -0.05999051354587931   0.02408909188527516
-0.07351392885404293   -0.05999051354587931   0.02408909188527516
-0.07351392885404293   -0.05999051354587931   0.02408909188527516
-0.04398072636848313   -0.006144268580463111   -0.0062607943035204346
-0.04398072636848313   -0.006144268580463111   -0.0062607943035204346
-0.04398072636848313   -0.006144268580463111   -0.0062607943035204346
-0.04398072636848313   -0.006144268580463111   -0.0062607943035204346
-0.045602151184828264   -0.061887608888736054   0.014611096374494143
-0.045602151184828264   -0.061887608888736054   0.014611096374494143
-0.045602151184828264   -0.061887608888736054   0.014611096374494143
-0.045602151184828264   -0.061887608888736054   0.014611096374494143
-0.06964017500931195   -0.02035438198962557   0.004446479635315454
-0.06964017500931195   -0.02035438198962557   0.004446479635315454
-0.06964017500931195   -0.02035438198962557   0.004446479635315454
-0.06964017500931195   -0.02035438198962557   0.004446479635315454
-0.05213963940932621   -0.03318381618654925   0.01505388352396218
-0.05213963940932621   -0.03318381618654925   0.01505388352396218
-0.05213963940932621   -0.03318381618654925   0.01505388352396218
-0.05213963940932621   -0.03318381618654925   0.01505388352396218
-0.07394753654648373   -0.06497320603666648   0.027528495996497475
-0.07394753654648373   -0.06497320603666648   0.027528495996497475
-0.07394753654648373   -0.06497320603666648   0.027528495996497475
-0.07394753654648373   -0.06497320603666648   0.027528495996497475
-0.04170408846868566   -0.01767808366272432   -0.010108115270804581
-0.04170408846868566   -0.01767808366272432   -0.010108115270804581
-0.04170408846868566   -0.01767808366272432   -0.010108115270804581
-0.04170408846868566   -0.01767808366272432   -0.010108115270804581
-0.03821140921708073   -0.06743895513165725   0.016068201190238114
-0.03821140921708073   -0.06743895513165725   0.016068201190238114
-0.03821140921708073   -0.06743895513165725   0.016068201190238114
-0.03821140921708073   -0.06743895513165725   0.016068201190238114
-0.07517260722358896   -0.04421932981010779   0.005819572233595629
-0.07517260722358896   -0.04421932981010779   0.005819572233595629
-0.07517260722358896   -0.04421932981010779   0.005819572233595629
-0.07517260722358896   -0.04421932981010779   0.005819572233595629
-0.05023019263933785   -0.04185448342607939   0.012964901552201327
-0.05023019263933785   -0.04185448342607939   0.012964901552201327
-0.05023019263933785   -0.04185448342607939   0.012964901552201327
-0.05023019263933785   -0.04185448342607939   0.012964901552201327
-0.04797065326568416   -0.009226290427306483   0.02571425266273938
-0.04797065326568416   -0.009226290427306483   0.02571425266273938
-0.04797065326568416   -0.009226290427306483   0.02571425266273938
-0.04797065326568416   -0.009226290427306483   0.02571425266273938
-0.008561480155575944   0.0055150884098128915   -0.0005193772386130275
-0.008561480155575944   0.0055150884098128915   -0.0005193772386130275
-0.008561480155575944   0.0055150884098128915   -0.0005193772386130275
-0.008561480155575944   0.0055150884098128915   -0.0005193772386130275
0.002624554088781722   -0.002954665981558453   0.015922692228334933
0.002624554088781722   -0.002954665981558453   0.015922692228334933
0.002624554088781722   -0.002954665981558453   0.015922692228334933
0.002624554088781722   -0.002954665981558453   0.015922692228334933
-0.041071156000709944   0.00407817733090539   -0.0019353883760229863
-0.041071156000709944   0.00407817733090539   -0.0019353883760229863
-0.041071156000709944   0.00407817733090539   -0.0019353883760229863
-0.041071156000709944   0.00407817733090539   -0.0019353883760229863
-0.02413809551029129   -0.001830381816962704   -0.0019775160700915614
-0.02413809551029129   -0.001830381816962704   -0.0019775160700915614
-0.02413809551029129   -0.001830381816962704   -0.0019775160700915614
-0.02413809551029129   -0.001830381816962704   -0.0019775160700915614
-0.037931645006255656   -0.00890197955066846   0.026742323477822277
-0.037931645006255656   -0.00890197955066846   0.026742323477822277
-0.037931645006255656   -0.00890197955066846   0.026742323477822277
-0.037931645006255656   -0.00890197955066846   0.026742323477822277
0.000914409127473855   0.011454856933163091   -0.007037555492918273
0.000914409127473855   0.011454856933163091   -0.007037555492918273
0.000914409127473855   0.011454856933163091   -0.007037555492918273
0.000914409127473855   0.011454856933163091   -0.007037555492918273
0.008243565406381773   -0.003645304691813474   0.019626340527847497
0.008243565406381773   -0.003645304691813474   0.019626340527847497
0.008243565406381773   -0.003645304691813474   0.019626340527847497
0.008243565406381773   -0.003645304691813474   0.019626340527847497
-0.03610611680918271   0.003050565032961321   -0.0028469056689754643
-0.03610611680918271   0.003050565032961321   -0.0028469056689754643
-0.03610611680918271   0.003050565032961321   -0.0028469056689754643
-0.03610611680918271   0.003050565032961321   -0.0028469056689754643
-0.015880703792649775   -0.00045731035472443065   0.00252143542555092
-0.015880703792649775   -0.00045731035472443065   0.00252143542555092
-0.015880703792649775   -0.00045731035472443065   0.00252143542555092
-0.015880703792649775   -0.00045731035472443065   0.00252143542555092
-0.03239122404072032   -0.009951588371286523   0.028729711577584343
-0.03239122404072032   -0.009951588371286523   0.028729711577584343
-0.03239122404072032   -0.009951588371286523   0.028729711577584343
-0.03239122404072032   -0.009951588371286523   0.028729711577584343
0.005809219130929343   0.010637395205443056   -0.006828090746678849
0.005809219130929343   0.010637395205443056   -0.006828090746678849
0.005809219130929343   0.010637395205443056   -0.006828090746678849
0.005809219130929343   0.010637395205443056   -0.006828090746678849
0.01395350752766866   -0.005723011035710098   0.01906819410989784
0.01395350752766866   -0.005723011035710098   0.01906819410989784
0.01395350752766866   -0.005723011035710098   0.01906819410989784
0.01395350752766866   -0.005723011035710098   0.01906819410989784
-0.02797584762735333   0.003028253647675937   -0.003221199640458064
-0.02797584762735333   0.003028253647675937   -0.003221199640458064
-0.02797584762735333   0.003028253647675937   -0.003221199640458064
-0.02797584762735333   0.003028253647675937   -0.003221199640458064
-0.008516593277065138   0.00037558710956991015   0.006465820708941582
-0.008516593277065138   0.00037558710956991015   0.006465820708941582
-0.008516593277065138   0.00037558710956991015   0.006465820708941582
-0.008516593277065138   0.00037558710956991015   0.006465820708941582
              </DataArray>   
             <DataArray type="Float64" NumberOfComponents="3" Name="Displacements" format="ascii">   
0.0   0.0   0.0
-0.004405735388641284   -0.002892381005672665   -0.001475988437464188
0.0   0.0   0.0
0.0   0.0   0.0
-0.004405735388641284   -0.002892381005672665   -0.001475988437464188
-0.0028033668433049947   -0.002599609190832753   -0.0010844378686964398
0.0   0.0   0.0
-0.002747872515055534   -0.002729954154857098   -0.0009085514639416183
0.0   0.0   0.0
0.0   0.0   0.0
-0.002747872515055534   -0.002729954154857098   -0.0009085514639416183
0.0   0.0   0.0
0.0   0.0   0.0
-0.002747872515055534   -0.002729954154857098   -0.0009085514639416183
-0.004610745293984568   -0.0030813290160394274   -0.00118504949016749
-0.004405735388641284   -0.002892381005672665   -0.001475988437464188
0.0   0.0   0.0
-0.002747872515055534   -0.002729954154857098   -0.0009085514639416183
-0.004405735388641284   -0.002892381005672665   -0.001475988437464188
0.0   0.0   0.0
0.0   0.0   0.0
-0.004610745293984568   -0.0030813290160394274   -0.00118504949016749
0.0   0.0   0.0
0.0   0.0   0.0
-0.004610745293984568   -0.0030813290160394274   -0.00118504949016749
-0.002747872515055534   -0.002729954154857098   -0.0009085514639416183
0.0   0.0   0.0
-0.002755564903117725   -0.002796758471690984   -0.0007329249306884634
0.0   0.0   0.0
0.0   0.0   0.0
-0.002755564903117725   -0.002796758471690984   -0.0007329249306884634
0.0   0.0   0.0
0.0   0.0   0.0
-0.002755564903117725   -0.002796758471690984   -0.0007329249306884634
-0.00475469552889396   -0.0031732128617575905   -0.0009062971012111059
-0.004610745293984568   -0.0030813290160394274   -0.00118504949016749
0.0   0.0   0.0
-0.002755564903117725   -0.002796758471690984   -0.0007329249306884634
-0.004610745293984568   -0.0030813290160394274   -0.00118504949016749
0.0   0.0   0.0
0.0   0.0   0.0
-0.00475469552889396   -0.0031732128617575905   -0.0009062971012111059
0.0   0.0   0.0
0.0   0.0   0.0
-0.00475469552889396   -0.0031732128617575905   -0.0009062971012111059
-0.002755564903117725   -0.002796758471690984   -0.0007329249306884634
0.0   0.0   0.0
-0.002754052151183085   -0.0028139335206444653   -0.0005513328894104032
0.0   0.0   0.0
0.0   0.0   0.0
-0.002754052151183085   -0.0028139335206444653   -0.0005513328894104032
0.0   0.0   0.0
0.0   0.0   0.0
-0.002754052151183085   -0.0028139335206444653   -0.0005513328894104032
-0.005064860656327186   -0.003242820907541344   -0.0005829127153730229
-0.00475469552889396   -0.0031732128617575905   -0.0009062971012111059
0.0   0.0   0.0
-0.002754052151183085   -0.0028139335206444653   -0.0005513328894104032
-0.00475469552889396   -0.0031732128617575905   -0.0009062971012111059
0.0   0.0   0.0
0.0   0.0   0.0
-0.0028033668433049947   -0.002599609190832753   -0.0010844378686964398
0.0   0.0   0.0
0.0   0.0   0.0
-0.0028033668433049947   -0.002599609190832753   -0.0010844378686964398
-0.001276734450345875   -0.002492245658269125   -0.0008248702840580992
0.0   0.0   0.0
-0.0012278894814982653   -0.002577078424575623   -0.0007418291580787263
0.0   0.0   0.0
0.0   0.0   0.0
-0.0012278894814982653   -0.002577078424575623   -0.0007418291580787263
0.0   0.0   0.0
0.0   0.0   0.0
-0.0012278894814982653   -0.002577078424575623   -0.0007418291580787263
-0.002747872515055534   -0.002729954154857098   -0.0009085514639416183
-0.0028033668433049947   -0.002599609190832753   -0.0010844378686964398
0.0   0.0   0.0
-0.0012278894814982653   -0.002577078424575623   -0.0007418291580787263
-0.0028033668433049947   -0.002599609190832753   -0.0010844378686964398
0.0   0.0   0.0
0.0   0.0   0.0
-0.002747872515055534   -0.002729954154857098   -0.0009085514639416183
0.0   0.0   0.0
0.0   0.0   0.0
-0.002747872515055534   -0.002729954154857098   -0.0009085514639416183
-0.0012278894814982653   -0.002577078424575623   -0.0007418291580787263
0.0   0.0   0.0
-0.0012004333025696886   -0.0026094159032896127   -0.000660963020672759
0.0   0.0   0.0
0.0   0.0   0.0
-0.0012004333025696886   -0.0026094159032896127   -0.000660963020672759
0.0   0.0   0.0
0.0   0.0   0.0
-0.0012004333025696886   -0.0026094159032896127   -0.000660963020672759
-0.002755564903117725   -0.002796758471690984   -0.0007329249306884634
-0.002747872515055534   -0.002729954154857098   -0.0009085514639416183
0.0   0.0   0.0
-0.0012004333025696886   -0.0026094159032896127   -0.000660963020672759
-0.002747872515055534   -0.002729954154857098   -0.0009085514639416183
0.0   0.0   0.0
0.0   0.0   0.0
-0.002755564903117725   -0.002796758471690984   -0.0007329249306884634
0.0   0.0   0.0
0.0   0.0   0.0
-0.002755564903117725   -0.002796758471690984   -0.0007329249306884634
-0.0012004333025696886   -0.0026094159032896127   -0.000660963020672759
0.0   0.0   0.0
-0.001175422868681234   -0.002595930451236787   -0.0005773687986610312
0.0   0.0   0.0
0.0   0.0   0.0
-0.001175422868681234   -0.002595930451236787   -0.0005773687986610312
0.0   0.0   0.0
0.0   0.0   0.0
-0.001175422868681234   -0.002595930451236787   -0.0005773687986610312
-0.002754052151183085   -0.0028139335206444653   -0.0005513328894104032
-0.002755564903117725   -0.002796758471690984   -0.0007329249306884634
0.0   0.0   0.0
-0.001175422868681234   -0.002595930451236787   -0.0005773687986610312
-0.002755564903117725   -0.002796758471690984   -0.0007329249306884634
0.0   0.0   0.0
0.0   0.0   0.0
-0.001276734450345875   -0.002492245658269125   -0.0008248702840580992
0.0   0.0   0.0
0.0   0.0   0.0
-0.001276734450345875   -0.002492245658269125   -0.0008248702840580992
0.00016559757602242143   -0.0025060107832012807   -0.0006594923615676193
0.0   0.0   0.0
0.00019680170751960874   -0.00254997122572288   -0.0006709662280899306
0.0   0.0   0.0
0.0   0.0   0.0
0.00019680170751960874   -0.00254997122572288   -0.0006709662280899306
0.0   0.0   0.0
0.0   0.0   0.0
0.00019680170751960874   -0.00254997122572288   -0.0006709662280899306
-0.0012278894814982653   -0.002577078424575623   -0.0007418291580787263
-0.001276734450345875   -0.002492245658269125   -0.0008248702840580992
0.0   0.0   0.0
0.00019680170751960874   -0.00254997122572288   -0.0006709662280899306
-0.001276734450345875   -0.002492245658269125   -0.0008248702840580992
0.0   0.0   0.0
0.0   0.0   0.0
-0.0012278894814982653   -0.002577078424575623   -0.0007418291580787263
0.0   0.0   0.0
0.0   0.0   0.0
-0.0012278894814982653   -0.002577078424575623   -0.0007418291580787263
0.00019680170751960874   -0.00254997122572288   -0.0006709662280899306
0.0   0.0   0.0
0.00022143753304544337   -0.0025463187224733104   -0.000681336023385989
0.0   0.0   0.0
0.0   0.0   0.0
0.00022143753304544337   -0.0025463187224733104   -0.000681336023385989
0.0   0.0   0.0
0.0   0.0   0.0
0.00022143753304544337   -0.0025463187224733104   -0.000681336023385989
-0.0012004333025696886   -0.0026094159032896127   -0.000660963020672759
-0.0012278894814982653   -0.002577078424575623   -0.0007418291580787263
0.0   0.0   0.0
0.00022143753304544337   -0.0025463187224733104   -0.000681336023385989
-0.0012278894814982653   -0.002577078424575623   -0.0007418291580787263
0.0   0.0   0.0
0.0   0.0   0.0
-0.0012004333025696886   -0.0026094159032896127   -0.000660963020672759
0.0   0.0   0.0
0.0   0.0   0.0
-0.0012004333025696886   -0.0026094159032896127   -0.000660963020672759
0.00022143753304544337   -0.0025463187224733104   -0.000681336023385989
0.0   0.0   0.0
0.00025456619973868   -0.002491149735801562   -0.000692000524811236
0.0   0.0   0.0
0.0   0.0   0.0
0.00025456619973868   -0.002491149735801562   -0.000692000524811236
0.0   0.0   0.0
0.0   0.0   0.0
0.00025456619973868   -0.002491149735801562   -0.000692000524811236
-0.001175422868681234   -0.002595930451236787   -0.0005773687986610312
-0.0012004333025696886   -0.0026094159032896127   -0.000660963020672759
0.0   0.0   0.0
0.00025456619973868   -0.002491149735801562   -0.000692000524811236
-0.0012004333025696886   -0.0026094159032896127   -0.000660963020672759
0.0   0.0   0.0
0.0   0.0   0.0
0.00016559757602242143   -0.0025060107832012807   -0.0006594923615676193
0.0   0.0   0.0
0.0   0.0   0.0
0.00016559757602242143   -0.0025060107832012807   -0.0006594923615676193
0.0017312757451772962   -0.0026278475406234475   -0.0005777428512298299
0.0   0.0   0.0
0.0017343995133992421   -0.002641810361212005   -0.000688668174535497
0.0   0.0   0.0
0.0   0.0   0.0
0.0017343995133992421   -0.002641810361212005   -0.000688668174535497
0.0   0.0   0.0
0.0   0.0   0.0
0.0017343995133992421   -0.002641810361212005   -0.000688668174535497
0.00019680170751960874   -0.00254997122572288   -0.0006709662280899306
0.00016559757602242143   -0.0025060107832012807   -0.0006594923615676193
0.0   0.0   0.0
0.0017343995133992421   -0.002641810361212005   -0.000688668174535497
0.00016559757602242143   -0.0025060107832012807   -0.0006594923615676193
0.0   0.0   0.0
0.0   0.0   0.0
0.00019680170751960874   -0.00254997122572288   -0.0006709662280899306
0.0   0.0   0.0
0.0   0.0   0.0
0.00019680170751960874   -0.00254997122572288   -0.0006709662280899306
0.0017343995133992421   -0.002641810361212005   -0.000688668174535497
0.0   0.0   0.0
0.0017270103434988758   -0.0026040866310244144   -0.0007950931852816738
0.0   0.0   0.0
0.0   0.0   0.0
0.0017270103434988758   -0.0026040866310244144   -0.0007950931852816738
0.0   0.0   0.0
0.0   0.0   0.0
0.0017270103434988758   -0.0026040866310244144   -0.0007950931852816738
0.00022143753304544337   -0.0025463187224733104   -0.000681336023385989
0.00019680170751960874   -0.00254997122572288   -0.0006709662280899306
0.0   0.0   0.0
0.0017270103434988758   -0.0026040866310244144   -0.0007950931852816738
0.00019680170751960874   -0.00254997122572288   -0.0006709662280899306
0.0   0.0   0.0
0.0   0.0   0.0
0.00022143753304544337   -0.0025463187224733104   -0.000681336023385989
0.0   0.0   0.0
0.0   0.0   0.0
0.00022143753304544337   -0.0025463187224733104   -0.000681336023385989
0.0017270103434988758   -0.0026040866310244144   -0.0007950931852816738
0.0   0.0   0.0
0.001760494822253717   -0.0025031349491998643   -0.0008995013175314582
0.0   0.0   0.0
0.0   0.0   0.0
0.001760494822253717   -0.0025031349491998643   -0.0008995013175314582
0.0   0.0   0.0
0.0   0.0   0.0
0.001760494822253717   -0.0025031349491998643   -0.0008995013175314582
0.00025456619973868   -0.002491149735801562   -0.000692000524811236
0.00022143753304544337   -0.0025463187224733104   -0.000681336023385989
0.0   0.0   0.0
0.001760494822253717   -0.0025031349491998643   -0.0008995013175314582
0.00022143753304544337   -0.0025463187224733104   -0.000681336023385989
0.0   0.0   0.0
0.0   0.0   0.0
0.0017312757451772962   -0.0026278475406234475   -0.0005777428512298299
0.0   0.0   0.0
0.0   0.0   0.0
0.0017312757451772962   -0.0026278475406234475   -0.0005777428512298299
0.003908841569843154   -0.0029367214306787706   -0.0005452314576936416
0.0   0.0   0.0
0.0036710918380026716   -0.0029045985456671846   -0.0007967532701710757
0.0   0.0   0.0
0.0   0.0   0.0
0.0036710918380026716   -0.0029045985456671846   -0.0007967532701710757
0.0   0.0   0.0
0.0   0.0   0.0
0.0036710918380026716   -0.0029045985456671846   -0.0007967532701710757
0.0017343995133992421   -0.002641810361212005   -0.000688668174535497
0.0017312757451772962   -0.0026278475406234475   -0.0005777428512298299
0.0   0.0   0.0
0.0036710918380026716   -0.0029045985456671846   -0.0007967532701710757
0.0017312757451772962   -0.0026278475406234475   -0.0005777428512298299
0.0   0.0   0.0
0.0   0.0   0.0
0.0017343995133992421   -0.002641810361212005   -0.000688668174535497
0.0   0.0   0.0
0.0   0.0   0.0
0.0017343995133992421   -0.002641810361212005   -0.000688668174535497
0.0036710918380026716   -0.0029045985456671846   -0.0007967532701710757
0.0   0.0   0.0
0.0035614735515203384   -0.002844210779977774   -0.0010094569616135687
0.0   0.0   0.0
0.0   0.0   0.0
0.0035614735515203384   -0.002844210779977774   -0.0010094569616135687
0.0   0.0   0.0
0.0   0.0   0.0
0.0035614735515203384   -0.002844210779977774   -0.0010094569616135687
0.0017270103434988758   -0.0026040866310244144   -0.0007950931852816738
0.0017343995133992421   -0.002641810361212005   -0.000688668174535497
0.0   0.0   0.0
0.0035614735515203384   -0.002844210779977774   -0.0010094569616135687
0.0017343995133992421   -0.002641810361212005   -0.000688668174535497
0.0   0.0   0.0
0.0   0.0   0.0
0.0017270103434988758   -0.0026040866310244144   -0.0007950931852816738
0.0   0.0   0.0
0.0   0.0   0.0
0.0017270103434988758   -0.0026040866310244144   -0.0007950931852816738
0.0035614735515203384   -0.002844210779977774   -0.0010094569616135687
0.0   0.0   0.0
0.00339825548945055   -0.002689748362477866   -0.0012345653532351137
0.0   0.0   0.0
0.0   0.0   0.0
0.00339825548945055   -0.002689748362477866   -0.0012345653532351137
0.0   0.0   0.0
0.0   0.0   0.0
0.00339825548945055   -0.002689748362477866   -0.0012345653532351137
0.001760494822253717   -0.0025031349491998643   -0.0008995013175314582
0.0017270103434988758   -0.0026040866310244144   -0.0007950931852816738
0.0   0.0   0.0
0.00339825548945055   -0.002689748362477866   -0.0012345653532351137
0.0017270103434988758   -0.0026040866310244144   -0.0007950931852816738
0.0   0.0   0.0
-0.004405735388641284   -0.002892381005672665   -0.001475988437464188
-0.008227678802220422   -0.008071275122060694   -0.0019886077380299105
-0.0028033668433049947   -0.002599609190832753   -0.0010844378686964398
-0.004610745293984568   -0.0030813290160394274   -0.00118504949016749
-0.008227678802220422   -0.008071275122060694   -0.0019886077380299105
-0.005251349594142828   -0.007808014360534442   -0.0016369906820558396
-0.0028033668433049947   -0.002599609190832753   -0.0010844378686964398
-0.005257425653543153   -0.007941350457978981   -0.0014743482817097038
-0.004610745293984568   -0.0030813290160394274   -0.00118504949016749
-0.002747872515055534   -0.002729954154857098   -0.0009085514639416183
-0.005257425653543153   -0.007941350457978981   -0.0014743482817097038
-0.0028033668433049947   -0.002599609190832753   -0.0010844378686964398
-0.004610745293984568   -0.0030813290160394274   -0.00118504949016749
-0.005257425653543153   -0.007941350457978981   -0.0014743482817097038
-0.00847401579354189   -0.00825734497183373   -0.0017245219196042215
-0.008227678802220422   -0.008071275122060694   -0.0019886077380299105
-0.004610745293984568   -0.0030813290160394274   -0.00118504949016749
-0.005257425653543153   -0.007941350457978981   -0.0014743482817097038
-0.008227678802220422   -0.008071275122060694   -0.0019886077380299105
-0.0028033668433049947   -0.002599609190832753   -0.0010844378686964398
-0.004610745293984568   -0.0030813290160394274   -0.00118504949016749
-0.00847401579354189   -0.00825734497183373   -0.0017245219196042215
-0.002747872515055534   -0.002729954154857098   -0.0009085514639416183
-0.00475469552889396   -0.0031732128617575905   -0.0009062971012111059
-0.00847401579354189   -0.00825734497183373   -0.0017245219196042215
-0.005257425653543153   -0.007941350457978981   -0.0014743482817097038
-0.002747872515055534   -0.002729954154857098   -0.0009085514639416183
-0.005277993929079181   -0.008022645338644035   -0.001318064060998736
-0.00475469552889396   -0.0031732128617575905   -0.0009062971012111059
-0.002755564903117725   -0.002796758471690984   -0.0007329249306884634
-0.005277993929079181   -0.008022645338644035   -0.001318064060998736
-0.002747872515055534   -0.002729954154857098   -0.0009085514639416183
-0.00475469552889396   -0.0031732128617575905   -0.0009062971012111059
-0.005277993929079181   -0.008022645338644035   -0.001318064060998736
-0.008645114803276044   -0.008362440883529923   -0.0014659484860305484
-0.00847401579354189   -0.00825734497183373   -0.0017245219196042215
-0.00475469552889396   -0.0031732128617575905   -0.0009062971012111059
-0.005277993929079181   -0.008022645338644035   -0.001318064060998736
-0.00847401579354189   -0.00825734497183373   -0.0017245219196042215
-0.002747872515055534   -0.002729954154857098   -0.0009085514639416183
-0.00475469552889396   -0.0031732128617575905   -0.0009062971012111059
-0.008645114803276044   -0.008362440883529923   -0.0014659484860305484
-0.002755564903117725   -0.002796758471690984   -0.0007329249306884634
-0.005064860656327186   -0.003242820907541344   -0.0005829127153730229
-0.008645114803276044   -0.008362440883529923   -0.0014659484860305484
-0.005277993929079181   -0.008022645338644035   -0.001318064060998736
-0.002755564903117725   -0.002796758471690984   -0.0007329249306884634
-0.005262126620083745   -0.00806485213067277   -0.0011717851589346604
-0.005064860656327186   -0.003242820907541344   -0.0005829127153730229
-0.002754052151183085   -0.0028139335206444653   -0.0005513328894104032
-0.005262126620083745   -0.00806485213067277   -0.0011717851589346604
-0.002755564903117725   -0.002796758471690984   -0.0007329249306884634
-0.005064860656327186   -0.003242820907541344   -0.0005829127153730229
-0.005262126620083745   -0.00806485213067277   -0.0011717851589346604
-0.008847341154503809   -0.008423585243134862   -0.0012307135372038999
-0.008645114803276044   -0.008362440883529923   -0.0014659484860305484
-0.005064860656327186   -0.003242820907541344   -0.0005829127153730229
-0.005262126620083745   -0.00806485213067277   -0.0011717851589346604
-0.008645114803276044   -0.008362440883529923   -0.0014659484860305484
-0.002755564903117725   -0.002796758471690984   -0.0007329249306884634
-0.0028033668433049947   -0.002599609190832753   -0.0010844378686964398
-0.005251349594142828   -0.007808014360534442   -0.0016369906820558396
-0.001276734450345875   -0.002492245658269125   -0.0008248702840580992
-0.002747872515055534   -0.002729954154857098   -0.0009085514639416183
-0.005251349594142828   -0.007808014360534442   -0.0016369906820558396
-0.002436833082375051   -0.007685514323015295   -0.0013969790743286936
-0.001276734450345875   -0.002492245658269125   -0.0008248702840580992
-0.0024156817615468614   -0.007770358822221898   -0.0013136213231770705
-0.002747872515055534   -0.002729954154857098   -0.0009085514639416183
-0.0012278894814982653   -0.002577078424575623   -0.0007418291580787263
-0.0024156817615468614   -0.007770358822221898   -0.0013136213231770705
-0.001276734450345875   -0.002492245658269125   -0.0008248702840580992
-0.002747872515055534   -0.002729954154857098   -0.0009085514639416183
-0.0024156817615468614   -0.007770358822221898   -0.0013136213231770705
-0.005257425653543153   -0.007941350457978981   -0.0014743482817097038
-0.005251349594142828   -0.007808014360534442   -0.0016369906820558396
-0.002747872515055534   -0.002729954154857098   -0.0009085514639416183
-0.0024156817615468614   -0.007770358822221898   -0.0013136213231770705
-0.005251349594142828   -0.007808014360534442   -0.0016369906820558396
-0.001276734450345875   -0.002492245658269125   -0.0008248702840580992
-0.002747872515055534   -0.002729954154857098   -0.0009085514639416183
-0.005257425653543153   -0.007941350457978981   -0.0014743482817097038
-0.0012278894814982653   -0.002577078424575623   -0.0007418291580787263
-0.002755564903117725   -0.002796758471690984   -0.0007329249306884634
-0.005257425653543153   -0.007941350457978981   -0.0014743482817097038
-0.0024156817615468614   -0.007770358822221898   -0.0013136213231770705
-0.0012278894814982653   -0.002577078424575623   -0.0007418291580787263
-0.0023969238649021733   -0.007811513228199309   -0.0012380616754658913
-0.002755564903117725   -0.002796758471690984   -0.0007329249306884634
-0.0012004333025696886   -0.0026094159032896127   -0.000660963020672759
-0.0023969238649021733   -0.007811513228199309   -0.0012380616754658913
-0.0012278894814982653   -0.002577078424575623   -0.0007418291580787263
-0.002755564903117725   -0.002796758471690984   -0.0007329249306884634
-0.0023969238649021733   -0.007811513228199309   -0.0012380616754658913
-0.005277993929079181   -0.008022645338644035   -0.001318064060998736
-0.005257425653543153   -0.007941350457978981   -0.0014743482817097038
-0.002755564903117725   -0.002796758471690984   -0.0007329249306884634
-0.0023969238649021733   -0.007811513228199309   -0.0012380616754658913
-0.005257425653543153   -0.007941350457978981   -0.0014743482817097038
-0.0012278894814982653   -0.002577078424575623   -0.0007418291580787263
-0.002755564903117725   -0.002796758471690984   -0.0007329249306884634
-0.005277993929079181   -0.008022645338644035   -0.001318064060998736
-0.0012004333025696886   -0.0026094159032896127   -0.000660963020672759
-0.002754052151183085   -0.0028139335206444653   -0.0005513328894104032
-0.005277993929079181   -0.008022645338644035   -0.001318064060998736
-0.0023969238649021733   -0.007811513228199309   -0.0012380616754658913
-0.0012004333025696886   -0.0026094159032896127   -0.000660963020672759
-0.0023689911624685707   -0.007810528507063902   -0.0011722849617193582
-0.002754052151183085   -0.0028139335206444653   -0.0005513328894104032
-0.001175422868681234   -0.002595930451236787   -0.0005773687986610312
-0.0023689911624685707   -0.007810528507063902   -0.0011722849617193582
-0.0012004333025696886   -0.0026094159032896127   -0.000660963020672759
-0.002754052151183085   -0.0028139335206444653   -0.0005513328894104032
-0.0023689911624685707   -0.007810528507063902   -0.0011722849617193582
-0.005262126620083745   -0.00806485213067277   -0.0011717851589346604
-0.005277993929079181   -0.008022645338644035   -0.001318064060998736
-0.002754052151183085   -0.0028139335206444653   -0.0005513328894104032
-0.0023689911624685707   -0.007810528507063902   -0.0011722849617193582
-0.005277993929079181   -0.008022645338644035   -0.001318064060998736
-0.0012004333025696886   -0.0026094159032896127   -0.000660963020672759
-0.001276734450345875   -0.002492245658269125   -0.0008248702840580992
-0.002436833082375051   -0.007685514323015295   -0.0013969790743286936
0.00016559757602242143   -0.0025060107832012807   -0.0006594923615676193
-0.0012278894814982653   -0.002577078424575623   -0.0007418291580787263
-0.002436833082375051   -0.007685514323015295   -0.0013969790743286936
0.0002771333140702357   -0.007689169292154247   -0.001245280853748928
0.00016559757602242143   -0.0025060107832012807   -0.0006594923615676193
0.00030310900602931623   -0.007729334625276675   -0.001239737680432857
-0.0012278894814982653   -0.002577078424575623   -0.0007418291580787263
0.00019680170751960874   -0.00254997122572288   -0.0006709662280899306
0.00030310900602931623   -0.007729334625276675   -0.001239737680432857
0.00016559757602242143   -0.0025060107832012807   -0.0006594923615676193
-0.0012278894814982653   -0.002577078424575623   -0.0007418291580787263
0.00030310900602931623   -0.007729334625276675   -0.001239737680432857
-0.0024156817615468614   -0.007770358822221898   -0.0013136213231770705
-0.002436833082375051   -0.007685514323015295   -0.0013969790743286936
-0.0012278894814982653   -0.002577078424575623   -0.0007418291580787263
0.00030310900602931623   -0.007729334625276675   -0.001239737680432857
-0.002436833082375051   -0.007685514323015295   -0.0013969790743286936
0.00016559757602242143   -0.0025060107832012807   -0.0006594923615676193
-0.0012278894814982653   -0.002577078424575623   -0.0007418291580787263
-0.0024156817615468614   -0.007770358822221898   -0.0013136213231770705
0.00019680170751960874   -0.00254997122572288   -0.0006709662280899306
-0.0012004333025696886   -0.0026094159032896127   -0.000660963020672759
-0.0024156817615468614   -0.007770358822221898   -0.0013136213231770705
0.00030310900602931623   -0.007729334625276675   -0.001239737680432857
0.00019680170751960874   -0.00254997122572288   -0.0006709662280899306
0.0003206274615731544   -0.007726833590226927   -0.0012430447422447795
-0.0012004333025696886   -0.0026094159032896127   -0.000660963020672759
0.00022143753304544337   -0.0025463187224733104   -0.000681336023385989
0.0003206274615731544   -0.007726833590226927   -0.0012430447422447795
0.00019680170751960874   -0.00254997122572288   -0.0006709662280899306
-0.0012004333025696886   -0.0026094159032896127   -0.000660963020672759
0.0003206274615731544   -0.007726833590226927   -0.0012430447422447795
-0.0023969238649021733   -0.007811513228199309   -0.0012380616754658913
-0.0024156817615468614   -0.007770358822221898   -0.0013136213231770705
-0.0012004333025696886   -0.0026094159032896127   -0.000660963020672759
0.0003206274615731544   -0.007726833590226927   -0.0012430447422447795
-0.0024156817615468614   -0.007770358822221898   -0.0013136213231770705
0.00019680170751960874   -0.00254997122572288   -0.0006709662280899306
-0.0012004333025696886   -0.0026094159032896127   -0.000660963020672759
-0.0023969238649021733   -0.007811513228199309   -0.0012380616754658913
0.00022143753304544337   -0.0025463187224733104   -0.000681336023385989
-0.001175422868681234   -0.002595930451236787   -0.0005773687986610312
-0.0023969238649021733   -0.007811513228199309   -0.0012380616754658913
0.0003206274615731544   -0.007726833590226927   -0.0012430447422447795
0.00022143753304544337   -0.0025463187224733104   -0.000681336023385989
0.00033941262129438734   -0.007680364833916814   -0.0012553418195789738
-0.001175422868681234   -0.002595930451236787   -0.0005773687986610312
0.00025456619973868   -0.002491149735801562   -0.000692000524811236
0.00033941262129438734   -0.007680364833916814   -0.0012553418195789738
0.00022143753304544337   -0.0025463187224733104   -0.000681336023385989
-0.001175422868681234   -0.002595930451236787   -0.0005773687986610312
0.00033941262129438734   -0.007680364833916814   -0.0012553418195789738
-0.0023689911624685707   -0.007810528507063902   -0.0011722849617193582
-0.0023969238649021733   -0.007811513228199309   -0.0012380616754658913
-0.001175422868681234   -0.002595930451236787   -0.0005773687986610312
0.00033941262129438734   -0.007680364833916814   -0.0012553418195789738
-0.0023969238649021733   -0.007811513228199309   -0.0012380616754658913
0.00022143753304544337   -0.0025463187224733104   -0.000681336023385989
0.00016559757602242143   -0.0025060107832012807   -0.0006594923615676193
0.0002771333140702357   -0.007689169292154247   -0.001245280853748928
0.0017312757451772962   -0.0026278475406234475   -0.0005777428512298299
0.00019680170751960874   -0.00254997122572288   -0.0006709662280899306
0.0002771333140702357   -0.007689169292154247   -0.001245280853748928
0.003153249055952361   -0.007814428103407389   -0.0011745900376766206
0.0017312757451772962   -0.0026278475406234475   -0.0005777428512298299
0.0031680330760530014   -0.007813992943276626   -0.0012493839472161343
0.00019680170751960874   -0.00254997122572288   -0.0006709662280899306
0.0017343995133992421   -0.002641810361212005   -0.000688668174535497
0.0031680330760530014   -0.007813992943276626   -0.0012493839472161343
0.0017312757451772962   -0.0026278475406234475   -0.0005777428512298299
0.00019680170751960874   -0.00254997122572288   -0.0006709662280899306
0.0031680330760530014   -0.007813992943276626   -0.0012493839472161343
0.00030310900602931623   -0.007729334625276675   -0.001239737680432857
0.0002771333140702357   -0.007689169292154247   -0.001245280853748928
0.00019680170751960874   -0.00254997122572288   -0.0006709662280899306
0.0031680330760530014   -0.007813992943276626   -0.0012493839472161343
0.0002771333140702357   -0.007689169292154247   -0.001245280853748928
0.0017312757451772962   -0.0026278475406234475   -0.0005777428512298299
0.00019680170751960874   -0.00254997122572288   -0.0006709662280899306
0.00030310900602931623   -0.007729334625276675   -0.001239737680432857
0.0017343995133992421   -0.002641810361212005   -0.000688668174535497
0.00022143753304544337   -0.0025463187224733104   -0.000681336023385989
0.00030310900602931623   -0.007729334625276675   -0.001239737680432857
0.0031680330760530014   -0.007813992943276626   -0.0012493839472161343
0.0017343995133992421   -0.002641810361212005   -0.000688668174535497
0.0031535615400468072   -0.007771724878324821   -0.0013341908097920072
0.00022143753304544337   -0.0025463187224733104   -0.000681336023385989
0.0017270103434988758   -0.0026040866310244144   -0.0007950931852816738
0.0031535615400468072   -0.007771724878324821   -0.0013341908097920072
0.0017343995133992421   -0.002641810361212005   -0.000688668174535497
0.00022143753304544337   -0.0025463187224733104   -0.000681336023385989
0.0031535615400468072   -0.007771724878324821   -0.0013341908097920072
0.0003206274615731544   -0.007726833590226927   -0.0012430447422447795
0.00030310900602931623   -0.007729334625276675   -0.001239737680432857
0.00022143753304544337   -0.0025463187224733104   -0.000681336023385989
0.0031535615400468072   -0.007771724878324821   -0.0013341908097920072
0.00030310900602931623   -0.007729334625276675   -0.001239737680432857
0.0017343995133992421   -0.002641810361212005   -0.000688668174535497
0.00022143753304544337   -0.0025463187224733104   -0.000681336023385989
0.0003206274615731544   -0.007726833590226927   -0.0012430447422447795
0.0017270103434988758   -0.0026040866310244144   -0.0007950931852816738
0.00025456619973868   -0.002491149735801562   -0.000692000524811236
0.0003206274615731544   -0.007726833590226927   -0.0012430447422447795
0.0031535615400468072   -0.007771724878324821   -0.0013341908097920072
0.0017270103434988758   -0.0026040866310244144   -0.0007950931852816738
0.0031453293497049404   -0.007676073146512641   -0.0014258723355855575
0.00025456619973868   -0.002491149735801562   -0.000692000524811236
0.001760494822253717   -0.0025031349491998643   -0.0008995013175314582
0.0031453293497049404   -0.007676073146512641   -0.0014258723355855575
0.0017270103434988758   -0.0026040866310244144   -0.0007950931852816738
0.00025456619973868   -0.002491149735801562   -0.000692000524811236
0.0031453293497049404   -0.007676073146512641   -0.0014258723355855575
0.00033941262129438734   -0.007680364833916814   -0.0012553418195789738
0.0003206274615731544   -0.007726833590226927   -0.0012430447422447795
0.00025456619973868   -0.002491149735801562   -0.000692000524811236
0.0031453293497049404   -0.007676073146512641   -0.0014258723355855575
0.0003206274615731544   -0.007726833590226927   -0.0012430447422447795
0.0017270103434988758   -0.0026040866310244144   -0.0007950931852816738
0.0017312757451772962   -0.0026278475406234475   -0.0005777428512298299
0.003153249055952361   -0.007814428103407389   -0.0011745900376766206
0.003908841569843154   -0.0029367214306787706   -0.0005452314576936416
0.0017343995133992421   -0.002641810361212005   -0.000688668174535497
0.003153249055952361   -0.007814428103407389   -0.0011745900376766206
0.006624119129272921   -0.008047223290467549   -0.0011557366751845921
0.003908841569843154   -0.0029367214306787706   -0.0005452314576936416
0.006489614831581033   -0.008025166274309221   -0.0013240273124254423
0.0017343995133992421   -0.002641810361212005   -0.000688668174535497
0.0036710918380026716   -0.0029045985456671846   -0.0007967532701710757
0.006489614831581033   -0.008025166274309221   -0.0013240273124254423
0.003908841569843154   -0.0029367214306787706   -0.0005452314576936416
0.0017343995133992421   -0.002641810361212005   -0.000688668174535497
0.006489614831581033   -0.008025166274309221   -0.0013240273124254423
0.0031680330760530014   -0.007813992943276626   -0.0012493839472161343
0.003153249055952361   -0.007814428103407389   -0.0011745900376766206
0.0017343995133992421   -0.002641810361212005   -0.000688668174535497
0.006489614831581033   -0.008025166274309221   -0.0013240273124254423
0.003153249055952361   -0.007814428103407389   -0.0011745900376766206
0.003908841569843154   -0.0029367214306787706   -0.0005452314576936416
0.0017343995133992421   -0.002641810361212005   -0.000688668174535497
0.0031680330760530014   -0.007813992943276626   -0.0012493839472161343
0.0036710918380026716   -0.0029045985456671846   -0.0007967532701710757
0.0017270103434988758   -0.0026040866310244144   -0.0007950931852816738
0.0031680330760530014   -0.007813992943276626   -0.0012493839472161343
0.006489614831581033   -0.008025166274309221   -0.0013240273124254423
0.0036710918380026716   -0.0029045985456671846   -0.0007967532701710757
0.006369388415567014   -0.007960013797460882   -0.0015133837620842606
0.0017270103434988758   -0.0026040866310244144   -0.0007950931852816738
0.0035614735515203384   -0.002844210779977774   -0.0010094569616135687
0.006369388415567014   -0.007960013797460882   -0.0015133837620842606
0.0036710918380026716   -0.0029045985456671846   -0.0007967532701710757
0.0017270103434988758   -0.0026040866310244144   -0.0007950931852816738
0.006369388415567014   -0.007960013797460882   -0.0015133837620842606
0.0031535615400468072   -0.007771724878324821   -0.0013341908097920072
0.0031680330760530014   -0.007813992943276626   -0.0012493839472161343
0.0017270103434988758   -0.0026040866310244144   -0.0007950931852816738
0.006369388415567014   -0.007960013797460882   -0.0015133837620842606
0.0031680330760530014   -0.007813992943276626   -0.0012493839472161343
0.0036710918380026716   -0.0029045985456671846   -0.0007967532701710757
0.0017270103434988758   -0.0026040866310244144   -0.0007950931852816738
0.0031535615400468072   -0.007771724878324821   -0.0013341908097920072
0.0035614735515203384   -0.002844210779977774   -0.0010094569616135687
0.001760494822253717   -0.0025031349491998643   -0.0008995013175314582
0.0031535615400468072   -0.007771724878324821   -0.0013341908097920072
0.006369388415567014   -0.007960013797460882   -0.0015133837620842606
0.0035614735515203384   -0.002844210779977774   -0.0010094569616135687
0.006189122369874535   -0.007815117335514026   -0.0017105169883008574
0.001760494822253717   -0.0025031349491998643   -0.0008995013175314582
0.00339825548945055   -0.002689748362477866   -0.0012345653532351137
0.006189122369874535   -0.007815117335514026   -0.0017105169883008574
0.0035614735515203384   -0.002844210779977774   -0.0010094569616135687
0.001760494822253717   -0.0025031349491998643   -0.0008995013175314582
0.006189122369874535   -0.007815117335514026   -0.0017105169883008574
0.0031453293497049404   -0.007676073146512641   -0.0014258723355855575
0.0031535615400468072   -0.007771724878324821   -0.0013341908097920072
0.001760494822253717   -0.0025031349491998643   -0.0008995013175314582
0.006189122369874535   -0.007815117335514026   -0.0017105169883008574
0.0031535615400468072   -0.007771724878324821   -0.0013341908097920072
0.0035614735515203384   -0.002844210779977774   -0.0010094569616135687
-0.008227678802220422   -0.008071275122060694   -0.0019886077380299105
-0.011271661545114237   -0.015133295933137328   -0.002265219021321048
-0.005251349594142828   -0.007808014360534442   -0.0016369906820558396
-0.00847401579354189   -0.00825734497183373   -0.0017245219196042215
-0.011271661545114237   -0.015133295933137328   -0.002265219021321048
-0.007247089176389775   -0.014932166642479117   -0.00198014239787394
-0.005251349594142828   -0.007808014360534442   -0.0016369906820558396
-0.007262808952711612   -0.01504721604172928   -0.001853990931632669
-0.00847401579354189   -0.00825734497183373   -0.0017245219196042215
-0.005257425653543153   -0.007941350457978981   -0.0014743482817097038
-0.007262808952711612   -0.01504721604172928   -0.001853990931632669
-0.005251349594142828   -0.007808014360534442   -0.0016369906820558396
-0.00847401579354189   -0.00825734497183373   -0.0017245219196042215
-0.007262808952711612   -0.01504721604172928   -0.001853990931632669
-0.011471861141002028   -0.015290540277549468   -0.0020683480735596556
-0.011271661545114237   -0.015133295933137328   -0.002265219021321048
-0.00847401579354189   -0.00825734497183373   -0.0017245219196042215
-0.007262808952711612   -0.01504721604172928   -0.001853990931632669
-0.011271661545114237   -0.015133295933137328   -0.002265219021321048
-0.005251349594142828   -0.007808014360534442   -0.0016369906820558396
-0.00847401579354189   -0.00825734497183373   -0.0017245219196042215
-0.011471861141002028   -0.015290540277549468   -0.0020683480735596556
-0.005257425653543153   -0.007941350457978981   -0.0014743482817097038
-0.008645114803276044   -0.008362440883529923   -0.0014659484860305484
-0.011471861141002028   -0.015290540277549468   -0.0020683480735596556
-0.007262808952711612   -0.01504721604172928   -0.001853990931632669
-0.005257425653543153   -0.007941350457978981   -0.0014743482817097038
-0.007281340955291303   -0.015127299238570972   -0.0017369754968220147
-0.008645114803276044   -0.008362440883529923   -0.0014659484860305484
-0.005277993929079181   -0.008022645338644035   -0.001318064060998736
-0.007281340955291303   -0.015127299238570972   -0.0017369754968220147
-0.005257425653543153   -0.007941350457978981   -0.0014743482817097038
-0.008645114803276044   -0.008362440883529923   -0.0014659484860305484
-0.007281340955291303   -0.015127299238570972   -0.0017369754968220147
-0.011597991424086502   -0.015389164965132403   -0.001884868624232316
-0.011471861141002028   -0.015290540277549468   -0.0020683480735596556
-0.008645114803276044   -0.008362440883529923   -0.0014659484860305484
-0.007281340955291303   -0.015127299238570972   -0.0017369754968220147
-0.011471861141002028   -0.015290540277549468   -0.0020683480735596556
-0.005257425653543153   -0.007941350457978981   -0.0014743482817097038
-0.008645114803276044   -0.008362440883529923   -0.0014659484860305484
-0.011597991424086502   -0.015389164965132403   -0.001884868624232316
-0.005277993929079181   -0.008022645338644035   -0.001318064060998736
-0.008847341154503809   -0.008423585243134862   -0.0012307135372038999
-0.011597991424086502   -0.015389164965132403   -0.001884868624232316
-0.007281340955291303   -0.015127299238570972   -0.0017369754968220147
-0.005277993929079181   -0.008022645338644035   -0.001318064060998736
-0.007267511915052841   -0.015180015624993845   -0.0016271492635231523
-0.008847341154503809   -0.008423585243134862   -0.0012307135372038999
-0.005262126620083745   -0.00806485213067277   -0.0011717851589346604
-0.007267511915052841   -0.015180015624993845   -0.0016271492635231523
-0.005277993929079181   -0.008022645338644035   -0.001318064060998736
-0.008847341154503809   -0.008423585243134862   -0.0012307135372038999
-0.007267511915052841   -0.015180015624993845   -0.0016271492635231523
-0.011741501985631033   -0.015460141058666922   -0.0017160331738104227
-0.011597991424086502   -0.015389164965132403   -0.001884868624232316
-0.008847341154503809   -0.008423585243134862   -0.0012307135372038999
-0.007267511915052841   -0.015180015624993845   -0.0016271492635231523
-0.011597991424086502   -0.015389164965132403   -0.001884868624232316
-0.005277993929079181   -0.008022645338644035   -0.001318064060998736
-0.005251349594142828   -0.007808014360534442   -0.0016369906820558396
-0.007247089176389775   -0.014932166642479117   -0.00198014239787394
-0.002436833082375051   -0.007685514323015295   -0.0013969790743286936
-0.005257425653543153   -0.007941350457978981   -0.0014743482817097038
-0.007247089176389775   -0.014932166642479117   -0.00198014239787394
-0.0034527350709480987   -0.014831866542153346   -0.0017820935155382633
-0.002436833082375051   -0.007685514323015295   -0.0013969790743286936
-0.0034439214963982484   -0.014905415235220735   -0.0017107796148168844
-0.005257425653543153   -0.007941350457978981   -0.0014743482817097038
-0.0024156817615468614   -0.007770358822221898   -0.0013136213231770705
-0.0034439214963982484   -0.014905415235220735   -0.0017107796148168844
-0.002436833082375051   -0.007685514323015295   -0.0013969790743286936
-0.005257425653543153   -0.007941350457978981   -0.0014743482817097038
-0.0034439214963982484   -0.014905415235220735   -0.0017107796148168844
-0.007262808952711612   -0.01504721604172928   -0.001853990931632669
-0.007247089176389775   -0.014932166642479117   -0.00198014239787394
-0.005257425653543153   -0.007941350457978981   -0.0014743482817097038
-0.0034439214963982484   -0.014905415235220735   -0.0017107796148168844
-0.007247089176389775   -0.014932166642479117   -0.00198014239787394
-0.002436833082375051   -0.007685514323015295   -0.0013969790743286936
-0.005257425653543153   -0.007941350457978981   -0.0014743482817097038
-0.007262808952711612   -0.01504721604172928   -0.001853990931632669
-0.0024156817615468614   -0.007770358822221898   -0.0013136213231770705
-0.005277993929079181   -0.008022645338644035   -0.001318064060998736
-0.007262808952711612   -0.01504721604172928   -0.001853990931632669
-0.0034439214963982484   -0.014905415235220735   -0.0017107796148168844
-0.0024156817615468614   -0.007770358822221898   -0.0013136213231770705
-0.003433163989915662   -0.014948624883581273   -0.0016481641661963355
-0.005277993929079181   -0.008022645338644035   -0.001318064060998736
-0.0023969238649021733   -0.007811513228199309   -0.0012380616754658913
-0.003433163989915662   -0.014948624883581273   -0.0016481641661963355
-0.0024156817615468614   -0.007770358822221898   -0.0013136213231770705
-0.005277993929079181   -0.008022645338644035   -0.001318064060998736
-0.003433163989915662   -0.014948624883581273   -0.0016481641661963355
-0.007281340955291303   -0.015127299238570972   -0.0017369754968220147
-0.007262808952711612   -0.01504721604172928   -0.001853990931632669
-0.005277993929079181   -0.008022645338644035   -0.001318064060998736
-0.003433163989915662   -0.014948624883581273   -0.0016481641661963355
-0.007262808952711612   -0.01504721604172928   -0.001853990931632669
-0.0024156817615468614   -0.007770358822221898   -0.0013136213231770705
-0.005277993929079181   -0.008022645338644035   -0.001318064060998736
-0.007281340955291303   -0.015127299238570972   -0.0017369754968220147
-0.0023969238649021733   -0.007811513228199309   -0.0012380616754658913
-0.005262126620083745   -0.00806485213067277   -0.0011717851589346604
-0.007281340955291303   -0.015127299238570972   -0.0017369754968220147
-0.003433163989915662   -0.014948624883581273   -0.0016481641661963355
-0.0023969238649021733   -0.007811513228199309   -0.0012380616754658913
-0.003415584121250762   -0.014962113171164264   -0.0015942217988614295
-0.005262126620083745   -0.00806485213067277   -0.0011717851589346604
-0.0023689911624685707   -0.007810528507063902   -0.0011722849617193582
-0.003415584121250762   -0.014962113171164264   -0.0015942217988614295
-0.0023969238649021733   -0.007811513228199309   -0.0012380616754658913
-0.005262126620083745   -0.00806485213067277   -0.0011717851589346604
-0.003415584121250762   -0.014962113171164264   -0.0015942217988614295
-0.007267511915052841   -0.015180015624993845   -0.0016271492635231523
-0.007281340955291303   -0.015127299238570972   -0.0017369754968220147
-0.005262126620083745   -0.00806485213067277   -0.0011717851589346604
-0.003415584121250762   -0.014962113171164264   -0.0015942217988614295
-0.007281340955291303   -0.015127299238570972   -0.0017369754968220147
-0.0023969238649021733   -0.007811513228199309   -0.0012380616754658913
-0.002436833082375051   -0.007685514323015295   -0.0013969790743286936
-0.0034527350709480987   -0.014831866542153346   -0.0017820935155382633
0.0002771333140702357   -0.007689169292154247   -0.001245280853748928
-0.0024156817615468614   -0.007770358822221898   -0.0013136213231770705
-0.0034527350709480987   -0.014831866542153346   -0.0017820935155382633
0.00023010890761681883   -0.014826524426642266   -0.0016593505801851187
0.0002771333140702357   -0.007689169292154247   -0.001245280853748928
0.0002461853442845712   -0.014859218331326878   -0.0016425816221007942
-0.0024156817615468614   -0.007770358822221898   -0.0013136213231770705
0.00030310900602931623   -0.007729334625276675   -0.001239737680432857
0.0002461853442845712   -0.014859218331326878   -0.0016425816221007942
0.0002771333140702357   -0.007689169292154247   -0.001245280853748928
-0.0024156817615468614   -0.007770358822221898   -0.0013136213231770705
0.0002461853442845712   -0.014859218331326878   -0.0016425816221007942
-0.0034439214963982484   -0.014905415235220735   -0.0017107796148168844
-0.0034527350709480987   -0.014831866542153346   -0.0017820935155382633
-0.0024156817615468614   -0.007770358822221898   -0.0013136213231770705
0.0002461853442845712   -0.014859218331326878   -0.0016425816221007942
-0.0034527350709480987   -0.014831866542153346   -0.0017820935155382633
0.0002771333140702357   -0.007689169292154247   -0.001245280853748928
-0.0024156817615468614   -0.007770358822221898   -0.0013136213231770705
-0.0034439214963982484   -0.014905415235220735   -0.0017107796148168844
0.00030310900602931623   -0.007729334625276675   -0.001239737680432857
-0.0023969238649021733   -0.007811513228199309   -0.0012380616754658913
-0.0034439214963982484   -0.014905415235220735   -0.0017107796148168844
0.0002461853442845712   -0.014859218331326878   -0.0016425816221007942
0.00030310900602931623   -0.007729334625276675   -0.001239737680432857
0.0002565511404584565   -0.014861694600510638   -0.0016342845166888718
-0.0023969238649021733   -0.007811513228199309   -0.0012380616754658913
0.0003206274615731544   -0.007726833590226927   -0.0012430447422447795
0.0002565511404584565   -0.014861694600510638   -0.0016342845166888718
0.00030310900602931623   -0.007729334625276675   -0.001239737680432857
-0.0023969238649021733   -0.007811513228199309   -0.0012380616754658913
0.0002565511404584565   -0.014861694600510638   -0.0016342845166888718
-0.003433163989915662   -0.014948624883581273   -0.0016481641661963355
-0.0034439214963982484   -0.014905415235220735   -0.0017107796148168844
-0.0023969238649021733   -0.007811513228199309   -0.0012380616754658913
0.0002565511404584565   -0.014861694600510638   -0.0016342845166888718
-0.0034439214963982484   -0.014905415235220735   -0.0017107796148168844
0.00030310900602931623   -0.007729334625276675   -0.001239737680432857
-0.0023969238649021733   -0.007811513228199309   -0.0012380616754658913
-0.003433163989915662   -0.014948624883581273   -0.0016481641661963355
0.0003206274615731544   -0.007726833590226927   -0.0012430447422447795
-0.0023689911624685707   -0.007810528507063902   -0.0011722849617193582
-0.003433163989915662   -0.014948624883581273   -0.0016481641661963355
0.0002565511404584565   -0.014861694600510638   -0.0016342845166888718
0.0003206274615731544   -0.007726833590226927   -0.0012430447422447795
0.0002640973862795612   -0.014833502966854756   -0.0016349734177783558
-0.0023689911624685707   -0.007810528507063902   -0.0011722849617193582
0.00033941262129438734   -0.007680364833916814   -0.0012553418195789738
0.0002640973862795612   -0.014833502966854756   -0.0016349734177783558
0.0003206274615731544   -0.007726833590226927   -0.0012430447422447795
-0.0023689911624685707   -0.007810528507063902   -0.0011722849617193582
0.0002640973862795612   -0.014833502966854756   -0.0016349734177783558
-0.003415584121250762   -0.014962113171164264   -0.0015942217988614295
-0.003433163989915662   -0.014948624883581273   -0.0016481641661963355
-0.0023689911624685707   -0.007810528507063902   -0.0011722849617193582
0.0002640973862795612   -0.014833502966854756   -0.0016349734177783558
-0.003433163989915662   -0.014948624883581273   -0.0016481641661963355
0.0003206274615731544   -0.007726833590226927   -0.0012430447422447795
0.0002771333140702357   -0.007689169292154247   -0.001245280853748928
0.00023010890761681883   -0.014826524426642266   -0.0016593505801851187
0.003153249055952361   -0.007814428103407389   -0.0011745900376766206
0.00030310900602931623   -0.007729334625276675   -0.001239737680432857
0.00023010890761681883   -0.014826524426642266   -0.0016593505801851187
0.004070188490015256   -0.014910494182724538   -0.0016098218554254178
0.003153249055952361   -0.007814428103407389   -0.0011745900376766206
0.0040842700624825696   -0.014905734386620378   -0.00164872909660413
0.00030310900602931623   -0.007729334625276675   -0.001239737680432857
0.0031680330760530014   -0.007813992943276626   -0.0012493839472161343
0.0040842700624825696   -0.014905734386620378   -0.00164872909660413
0.003153249055952361   -0.007814428103407389   -0.0011745900376766206
0.00030310900602931623   -0.007729334625276675   -0.001239737680432857
0.0040842700624825696   -0.014905734386620378   -0.00164872909660413
0.0002461853442845712   -0.014859218331326878   -0.0016425816221007942
0.00023010890761681883   -0.014826524426642266   -0.0016593505801851187
0.00030310900602931623   -0.007729334625276675   -0.001239737680432857
0.0040842700624825696   -0.014905734386620378   -0.00164872909660413
0.00023010890761681883   -0.014826524426642266   -0.0016593505801851187
0.003153249055952361   -0.007814428103407389   -0.0011745900376766206
0.00030310900602931623   -0.007729334625276675   -0.001239737680432857
0.0002461853442845712   -0.014859218331326878   -0.0016425816221007942
0.0031680330760530014   -0.007813992943276626   -0.0012493839472161343
0.0003206274615731544   -0.007726833590226927   -0.0012430447422447795
0.0002461853442845712   -0.014859218331326878   -0.0016425816221007942
0.0040842700624825696   -0.014905734386620378   -0.00164872909660413
0.0031680330760530014   -0.007813992943276626   -0.0012493839472161343
0.004074135513550276   -0.014871412010866199   -0.0016954856859192128
0.0003206274615731544   -0.007726833590226927   -0.0012430447422447795
0.0031535615400468072   -0.007771724878324821   -0.0013341908097920072
0.004074135513550276   -0.014871412010866199   -0.0016954856859192128
0.0031680330760530014   -0.007813992943276626   -0.0012493839472161343
0.0003206274615731544   -0.007726833590226927   -0.0012430447422447795
0.004074135513550276   -0.014871412010866199   -0.0016954856859192128
0.0002565511404584565   -0.014861694600510638   -0.0016342845166888718
0.0002461853442845712   -0.014859218331326878   -0.0016425816221007942
0.0003206274615731544   -0.007726833590226927   -0.0012430447422447795
0.004074135513550276   -0.014871412010866199   -0.0016954856859192128
0.0002461853442845712   -0.014859218331326878   -0.0016425816221007942
0.0031680330760530014   -0.007813992943276626   -0.0012493839472161343
0.0003206274615731544   -0.007726833590226927   -0.0012430447422447795
0.0002565511404584565   -0.014861694600510638   -0.0016342845166888718
0.0031535615400468072   -0.007771724878324821   -0.0013341908097920072
0.00033941262129438734   -0.007680364833916814   -0.0012553418195789738
0.0002565511404584565   -0.014861694600510638   -0.0016342845166888718
0.004074135513550276   -0.014871412010866199   -0.0016954856859192128
0.0031535615400468072   -0.007771724878324821   -0.0013341908097920072
0.004058837188247466   -0.014800199044123118   -0.0017510221591039538
0.00033941262129438734   -0.007680364833916814   -0.0012553418195789738
0.0031453293497049404   -0.007676073146512641   -0.0014258723355855575
0.004058837188247466   -0.014800199044123118   -0.0017510221591039538
0.0031535615400468072   -0.007771724878324821   -0.0013341908097920072
0.00033941262129438734   -0.007680364833916814   -0.0012553418195789738
0.004058837188247466   -0.014800199044123118   -0.0017510221591039538
0.0002640973862795612   -0.014833502966854756   -0.0016349734177783558
0.0002565511404584565   -0.014861694600510638   -0.0016342845166888718
0.00033941262129438734   -0.007680364833916814   -0.0012553418195789738
0.004058837188247466   -0.014800199044123118   -0.0017510221591039538
0.0002565511404584565   -0.014861694600510638   -0.0016342845166888718
0.0031535615400468072   -0.007771724878324821   -0.0013341908097920072
0.003153249055952361   -0.007814428103407389   -0.0011745900376766206
0.004070188490015256   -0.014910494182724538   -0.0016098218554254178
0.006624119129272921   -0.008047223290467549   -0.0011557366751845921
0.0031680330760530014   -0.007813992943276626   -0.0012493839472161343
0.004070188490015256   -0.014910494182724538   -0.0016098218554254178
0.008443573145057575   -0.015062753678850098   -0.0016109996882125392
0.006624119129272921   -0.008047223290467549   -0.0011557366751845921
0.008370454229388214   -0.015036402496396336   -0.001712726135839582
0.0031680330760530014   -0.007813992943276626   -0.0012493839472161343
0.006489614831581033   -0.008025166274309221   -0.0013240273124254423
0.008370454229388214   -0.015036402496396336   -0.001712726135839582
0.006624119129272921   -0.008047223290467549   -0.0011557366751845921
0.0031680330760530014   -0.007813992943276626   -0.0012493839472161343
0.008370454229388214   -0.015036402496396336   -0.001712726135839582
0.0040842700624825696   -0.014905734386620378   -0.00164872909660413
0.004070188490015256   -0.014910494182724538   -0.0016098218554254178
0.0031680330760530014   -0.007813992943276626   -0.0012493839472161343
0.008370454229388214   -0.015036402496396336   -0.001712726135839582
0.004070188490015256   -0.014910494182724538   -0.0016098218554254178
0.006624119129272921   -0.008047223290467549   -0.0011557366751845921
0.0031680330760530014   -0.007813992943276626   -0.0012493839472161343
0.0040842700624825696   -0.014905734386620378   -0.00164872909660413
0.006489614831581033   -0.008025166274309221   -0.0013240273124254423
0.0031535615400468072   -0.007771724878324821   -0.0013341908097920072
0.0040842700624825696   -0.014905734386620378   -0.00164872909660413
0.008370454229388214   -0.015036402496396336   -0.001712726135839582
0.006489614831581033   -0.008025166274309221   -0.0013240273124254423
0.008297419303369698   -0.014983572377645523   -0.0018286071029778857
0.0031535615400468072   -0.007771724878324821   -0.0013341908097920072
0.006369388415567014   -0.007960013797460882   -0.0015133837620842606
0.008297419303369698   -0.014983572377645523   -0.0018286071029778857
0.006489614831581033   -0.008025166274309221   -0.0013240273124254423
0.0031535615400468072   -0.007771724878324821   -0.0013341908097920072
0.008297419303369698   -0.014983572377645523   -0.0018286071029778857
0.004074135513550276   -0.014871412010866199   -0.0016954856859192128
0.0040842700624825696   -0.014905734386620378   -0.00164872909660413
0.0031535615400468072   -0.007771724878324821   -0.0013341908097920072
0.008297419303369698   -0.014983572377645523   -0.0018286071029778857
0.0040842700624825696   -0.014905734386620378   -0.00164872909660413
0.006489614831581033   -0.008025166274309221   -0.0013240273124254423
0.0031535615400468072   -0.007771724878324821   -0.0013341908097920072
0.004074135513550276   -0.014871412010866199   -0.0016954856859192128
0.006369388415567014   -0.007960013797460882   -0.0015133837620842606
0.0031453293497049404   -0.007676073146512641   -0.0014258723355855575
0.004074135513550276   -0.014871412010866199   -0.0016954856859192128
0.008297419303369698   -0.014983572377645523   -0.0018286071029778857
0.006369388415567014   -0.007960013797460882   -0.0015133837620842606
0.0081674506689845   -0.01487283222541617   -0.001958657729841081
0.0031453293497049404   -0.007676073146512641   -0.0014258723355855575
0.006189122369874535   -0.007815117335514026   -0.0017105169883008574
0.0081674506689845   -0.01487283222541617   -0.001958657729841081
0.006369388415567014   -0.007960013797460882   -0.0015133837620842606
0.0031453293497049404   -0.007676073146512641   -0.0014258723355855575
0.0081674506689845   -0.01487283222541617   -0.001958657729841081
0.004058837188247466   -0.014800199044123118   -0.0017510221591039538
0.004074135513550276   -0.014871412010866199   -0.0016954856859192128
0.0031453293497049404   -0.007676073146512641   -0.0014258723355855575
0.0081674506689845   -0.01487283222541617   -0.001958657729841081
0.004074135513550276   -0.014871412010866199   -0.0016954856859192128
0.006369388415567014   -0.007960013797460882   -0.0015133837620842606
-0.011271661545114237   -0.015133295933137328   -0.002265219021321048
-0.013458585269918055   -0.023505062642116454   -0.002416083422325894
-0.007247089176389775   -0.014932166642479117   -0.00198014239787394
-0.011471861141002028   -0.015290540277549468   -0.0020683480735596556
-0.013458585269918055   -0.023505062642116454   -0.002416083422325894
-0.008736376873219402   -0.023377147406989367   -0.0021837502583967124
-0.007247089176389775   -0.014932166642479117   -0.00198014239787394
-0.008746671276378664   -0.02347607409014583   -0.0020934817947234037
-0.011471861141002028   -0.015290540277549468   -0.0020683480735596556
-0.007262808952711612   -0.01504721604172928   -0.001853990931632669
-0.008746671276378664   -0.02347607409014583   -0.0020934817947234037
-0.007247089176389775   -0.014932166642479117   -0.00198014239787394
-0.011471861141002028   -0.015290540277549468   -0.0020683480735596556
-0.008746671276378664   -0.02347607409014583   -0.0020934817947234037
-0.013593322403198419   -0.023638908589088778   -0.002285422129086734
-0.013458585269918055   -0.023505062642116454   -0.002416083422325894
-0.011471861141002028   -0.015290540277549468   -0.0020683480735596556
-0.008746671276378664   -0.02347607409014583   -0.0020934817947234037
-0.013458585269918055   -0.023505062642116454   -0.002416083422325894
-0.007247089176389775   -0.014932166642479117   -0.00198014239787394
-0.011471861141002028   -0.015290540277549468   -0.0020683480735596556
-0.013593322403198419   -0.023638908589088778   -0.002285422129086734
-0.007262808952711612   -0.01504721604172928   -0.001853990931632669
-0.011597991424086502   -0.015389164965132403   -0.001884868624232316
-0.013593322403198419   -0.023638908589088778   -0.002285422129086734
-0.008746671276378664   -0.02347607409014583   -0.0020934817947234037
-0.007262808952711612   -0.01504721604172928   -0.001853990931632669
-0.008753947115278207   -0.02355452344354565   -0.0020122124626715523
-0.011597991424086502   -0.015389164965132403   -0.001884868624232316
-0.007281340955291303   -0.015127299238570972   -0.0017369754968220147
-0.008753947115278207   -0.02355452344354565   -0.0020122124626715523
-0.007262808952711612   -0.01504721604172928   -0.001853990931632669
-0.011597991424086502   -0.015389164965132403   -0.001884868624232316
-0.008753947115278207   -0.02355452344354565   -0.0020122124626715523
-0.013670527285544621   -0.023733632977116764   -0.0021673081441778586
-0.013593322403198419   -0.023638908589088778   -0.002285422129086734
-0.011597991424086502   -0.015389164965132403   -0.001884868624232316
-0.008753947115278207   -0.02355452344354565   -0.0020122124626715523
-0.013593322403198419   -0.023638908589088778   -0.002285422129086734
-0.007262808952711612   -0.01504721604172928   -0.001853990931632669
-0.011597991424086502   -0.015389164965132403   -0.001884868624232316
-0.013670527285544621   -0.023733632977116764   -0.0021673081441778586
-0.007281340955291303   -0.015127299238570972   -0.0017369754968220147
-0.011741501985631033   -0.015460141058666922   -0.0017160331738104227
-0.013670527285544621   -0.023733632977116764   -0.0021673081441778586
-0.008753947115278207   -0.02355452344354565   -0.0020122124626715523
-0.007281340955291303   -0.015127299238570972   -0.0017369754968220147
-0.008735618434398372   -0.02361900356406493   -0.0019387446081332324
-0.011741501985631033   -0.015460141058666922   -0.0017160331738104227
-0.007267511915052841   -0.015180015624993845   -0.0016271492635231523
-0.008735618434398372   -0.02361900356406493   -0.0019387446081332324
-0.007281340955291303   -0.015127299238570972   -0.0017369754968220147
-0.011741501985631033   -0.015460141058666922   -0.0017160331738104227
-0.008735618434398372   -0.02361900356406493   -0.0019387446081332324
-0.013750034123270735   -0.023818586740914926   -0.0020632341982250446
-0.013670527285544621   -0.023733632977116764   -0.0021673081441778586
-0.011741501985631033   -0.015460141058666922   -0.0017160331738104227
-0.008735618434398372   -0.02361900356406493   -0.0019387446081332324
-0.013670527285544621   -0.023733632977116764   -0.0021673081441778586
-0.007281340955291303   -0.015127299238570972   -0.0017369754968220147
-0.007247089176389775   -0.014932166642479117   -0.00198014239787394
-0.008736376873219402   -0.023377147406989367   -0.0021837502583967124
-0.0034527350709480987   -0.014831866542153346   -0.0017820935155382633
-0.007262808952711612   -0.01504721604172928   -0.001853990931632669
-0.008736376873219402   -0.023377147406989367   -0.0021837502583967124
-0.004309612190315133   -0.02331099271436865   -0.002022880405032729
-0.0034527350709480987   -0.014831866542153346   -0.0017820935155382633
-0.004301216962746224   -0.023373050535466487   -0.0019632563891166105
-0.007262808952711612   -0.01504721604172928   -0.001853990931632669
-0.0034439214963982484   -0.014905415235220735   -0.0017107796148168844
-0.004301216962746224   -0.023373050535466487   -0.0019632563891166105
-0.0034527350709480987   -0.014831866542153346   -0.0017820935155382633
-0.007262808952711612   -0.01504721604172928   -0.001853990931632669
-0.004301216962746224   -0.023373050535466487   -0.0019632563891166105
-0.008746671276378664   -0.02347607409014583   -0.0020934817947234037
-0.008736376873219402   -0.023377147406989367   -0.0021837502583967124
-0.007262808952711612   -0.01504721604172928   -0.001853990931632669
-0.004301216962746224   -0.023373050535466487   -0.0019632563891166105
-0.008736376873219402   -0.023377147406989367   -0.0021837502583967124
-0.0034527350709480987   -0.014831866542153346   -0.0017820935155382633
-0.007262808952711612   -0.01504721604172928   -0.001853990931632669
-0.008746671276378664   -0.02347607409014583   -0.0020934817947234037
-0.0034439214963982484   -0.014905415235220735   -0.0017107796148168844
-0.007281340955291303   -0.015127299238570972   -0.0017369754968220147
-0.008746671276378664   -0.02347607409014583   -0.0020934817947234037
-0.004301216962746224   -0.023373050535466487   -0.0019632563891166105
-0.0034439214963982484   -0.014905415235220735   -0.0017107796148168844
-0.0042898278542035356   -0.023417946452657403   -0.0019124951047590087
-0.007281340955291303   -0.015127299238570972   -0.0017369754968220147
-0.003433163989915662   -0.014948624883581273   -0.0016481641661963355
-0.0042898278542035356   -0.023417946452657403   -0.0019124951047590087
-0.0034439214963982484   -0.014905415235220735   -0.0017107796148168844
-0.007281340955291303   -0.015127299238570972   -0.0017369754968220147
-0.0042898278542035356   -0.023417946452657403   -0.0019124951047590087
-0.008753947115278207   -0.02355452344354565   -0.0020122124626715523
-0.008746671276378664   -0.02347607409014583   -0.0020934817947234037
-0.007281340955291303   -0.015127299238570972   -0.0017369754968220147
-0.0042898278542035356   -0.023417946452657403   -0.0019124951047590087
-0.008746671276378664   -0.02347607409014583   -0.0020934817947234037
-0.0034439214963982484   -0.014905415235220735   -0.0017107796148168844
-0.007281340955291303   -0.015127299238570972   -0.0017369754968220147
-0.008753947115278207   -0.02355452344354565   -0.0020122124626715523
-0.003433163989915662   -0.014948624883581273   -0.0016481641661963355
-0.007267511915052841   -0.015180015624993845   -0.0016271492635231523
-0.008753947115278207   -0.02355452344354565   -0.0020122124626715523
-0.0042898278542035356   -0.023417946452657403   -0.0019124951047590087
-0.003433163989915662   -0.014948624883581273   -0.0016481641661963355
-0.004272936660440369   -0.023445975000998494   -0.0018707442440917715
-0.007267511915052841   -0.015180015624993845   -0.0016271492635231523
-0.003415584121250762   -0.014962113171164264   -0.0015942217988614295
-0.004272936660440369   -0.023445975000998494   -0.0018707442440917715
-0.003433163989915662   -0.014948624883581273   -0.0016481641661963355
-0.007267511915052841   -0.015180015624993845   -0.0016271492635231523
-0.004272936660440369   -0.023445975000998494   -0.0018707442440917715
-0.008735618434398372   -0.02361900356406493   -0.0019387446081332324
-0.008753947115278207   -0.02355452344354565   -0.0020122124626715523
-0.007267511915052841   -0.015180015624993845   -0.0016271492635231523
-0.004272936660440369   -0.023445975000998494   -0.0018707442440917715
-0.008753947115278207   -0.02355452344354565   -0.0020122124626715523
-0.003433163989915662   -0.014948624883581273   -0.0016481641661963355
-0.0034527350709480987   -0.014831866542153346   -0.0017820935155382633
-0.004309612190315133   -0.02331099271436865   -0.002022880405032729
0.00023010890761681883   -0.014826524426642266   -0.0016593505801851187
-0.0034439214963982484   -0.014905415235220735   -0.0017107796148168844
-0.004309612190315133   -0.02331099271436865   -0.002022880405032729
-3.111057610752501e-06   -0.023299589413743913   -0.0019292435162462326
0.00023010890761681883   -0.014826524426642266   -0.0016593505801851187
1.2519038613046185e-05   -0.023324572837340397   -0.001900504804687885
-0.0034439214963982484   -0.014905415235220735   -0.0017107796148168844
0.0002461853442845712   -0.014859218331326878   -0.0016425816221007942
1.2519038613046185e-05   -0.023324572837340397   -0.001900504804687885
0.00023010890761681883   -0.014826524426642266   -0.0016593505801851187
-0.0034439214963982484   -0.014905415235220735   -0.0017107796148168844
1.2519038613046185e-05   -0.023324572837340397   -0.001900504804687885
-0.004301216962746224   -0.023373050535466487   -0.0019632563891166105
-0.004309612190315133   -0.02331099271436865   -0.002022880405032729
-0.0034439214963982484   -0.014905415235220735   -0.0017107796148168844
1.2519038613046185e-05   -0.023324572837340397   -0.001900504804687885
-0.004309612190315133   -0.02331099271436865   -0.002022880405032729
0.00023010890761681883   -0.014826524426642266   -0.0016593505801851187
-0.0034439214963982484   -0.014905415235220735   -0.0017107796148168844
-0.004301216962746224   -0.023373050535466487   -0.0019632563891166105
0.0002461853442845712   -0.014859218331326878   -0.0016425816221007942
-0.003433163989915662   -0.014948624883581273   -0.0016481641661963355
-0.004301216962746224   -0.023373050535466487   -0.0019632563891166105
1.2519038613046185e-05   -0.023324572837340397   -0.001900504804687885
0.0002461853442845712   -0.014859218331326878   -0.0016425816221007942
2.3704264011465676e-05   -0.02333227574899241   -0.0018805172835806463
-0.003433163989915662   -0.014948624883581273   -0.0016481641661963355
0.0002565511404584565   -0.014861694600510638   -0.0016342845166888718
2.3704264011465676e-05   -0.02333227574899241   -0.0018805172835806463
0.0002461853442845712   -0.014859218331326878   -0.0016425816221007942
-0.003433163989915662   -0.014948624883581273   -0.0016481641661963355
2.3704264011465676e-05   -0.02333227574899241   -0.0018805172835806463
-0.0042898278542035356   -0.023417946452657403   -0.0019124951047590087
-0.004301216962746224   -0.023373050535466487   -0.0019632563891166105
-0.003433163989915662   -0.014948624883581273   -0.0016481641661963355
2.3704264011465676e-05   -0.02333227574899241   -0.0018805172835806463
-0.004301216962746224   -0.023373050535466487   -0.0019632563891166105
0.0002461853442845712   -0.014859218331326878   -0.0016425816221007942
-0.003433163989915662   -0.014948624883581273   -0.0016481641661963355
-0.0042898278542035356   -0.023417946452657403   -0.0019124951047590087
0.0002565511404584565   -0.014861694600510638   -0.0016342845166888718
-0.003415584121250762   -0.014962113171164264   -0.0015942217988614295
-0.0042898278542035356   -0.023417946452657403   -0.0019124951047590087
2.3704264011465676e-05   -0.02333227574899241   -0.0018805172835806463
0.0002565511404584565   -0.014861694600510638   -0.0016342845166888718
3.088405171772407e-05   -0.02332246101219395   -0.0018696675479403246
-0.003415584121250762   -0.014962113171164264   -0.0015942217988614295
0.0002640973862795612   -0.014833502966854756   -0.0016349734177783558
3.088405171772407e-05   -0.02332246101219395   -0.0018696675479403246
0.0002565511404584565   -0.014861694600510638   -0.0016342845166888718
-0.003415584121250762   -0.014962113171164264   -0.0015942217988614295
3.088405171772407e-05   -0.02332246101219395   -0.0018696675479403246
-0.004272936660440369   -0.023445975000998494   -0.0018707442440917715
-0.0042898278542035356   -0.023417946452657403   -0.0019124951047590087
-0.003415584121250762   -0.014962113171164264   -0.0015942217988614295
3.088405171772407e-05   -0.02332246101219395   -0.0018696675479403246
-0.0042898278542035356   -0.023417946452657403   -0.0019124951047590087
0.0002565511404584565   -0.014861694600510638   -0.0016342845166888718
0.00023010890761681883   -0.014826524426642266   -0.0016593505801851187
-3.111057610752501e-06   -0.023299589413743913   -0.0019292435162462326
0.004070188490015256   -0.014910494182724538   -0.0016098218554254178
0.0002461853442845712   -0.014859218331326878   -0.0016425816221007942
-3.111057610752501e-06   -0.023299589413743913   -0.0019292435162462326
0.004451494549357101   -0.023338254855124477   -0.0019024699937963006
0.004070188490015256   -0.014910494182724538   -0.0016098218554254178
0.004470591719396141   -0.023328312416298007   -0.0019052658378583666
0.0002461853442845712   -0.014859218331326878   -0.0016425816221007942
0.0040842700624825696   -0.014905734386620378   -0.00164872909660413
0.004470591719396141   -0.023328312416298007   -0.0019052658378583666
0.004070188490015256   -0.014910494182724538   -0.0016098218554254178
0.0002461853442845712   -0.014859218331326878   -0.0016425816221007942
0.004470591719396141   -0.023328312416298007   -0.0019052658378583666
1.2519038613046185e-05   -0.023324572837340397   -0.001900504804687885
-3.111057610752501e-06   -0.023299589413743913   -0.0019292435162462326
0.0002461853442845712   -0.014859218331326878   -0.0016425816221007942
0.004470591719396141   -0.023328312416298007   -0.0019052658378583666
-3.111057610752501e-06   -0.023299589413743913   -0.0019292435162462326
0.004070188490015256   -0.014910494182724538   -0.0016098218554254178
0.0002461853442845712   -0.014859218331326878   -0.0016425816221007942
1.2519038613046185e-05   -0.023324572837340397   -0.001900504804687885
0.0040842700624825696   -0.014905734386620378   -0.00164872909660413
0.0002565511404584565   -0.014861694600510638   -0.0016342845166888718
1.2519038613046185e-05   -0.023324572837340397   -0.001900504804687885
0.004470591719396141   -0.023328312416298007   -0.0019052658378583666
0.0040842700624825696   -0.014905734386620378   -0.00164872909660413
0.004472292305345917   -0.02330242049367617   -0.001916341188523931
0.0002565511404584565   -0.014861694600510638   -0.0016342845166888718
0.004074135513550276   -0.014871412010866199   -0.0016954856859192128
0.004472292305345917   -0.02330242049367617   -0.001916341188523931
0.0040842700624825696   -0.014905734386620378   -0.00164872909660413
0.0002565511404584565   -0.014861694600510638   -0.0016342845166888718
0.004472292305345917   -0.02330242049367617   -0.001916341188523931
2.3704264011465676e-05   -0.02333227574899241   -0.0018805172835806463
1.2519038613046185e-05   -0.023324572837340397   -0.001900504804687885
0.0002565511404584565   -0.014861694600510638   -0.0016342845166888718
0.004472292305345917   -0.02330242049367617   -0.001916341188523931
1.2519038613046185e-05   -0.023324572837340397   -0.001900504804687885
0.0040842700624825696   -0.014905734386620378   -0.00164872909660413
0.0002565511404584565   -0.014861694600510638   -0.0016342845166888718
2.3704264011465676e-05   -0.02333227574899241   -0.0018805172835806463
0.004074135513550276   -0.014871412010866199   -0.0016954856859192128
0.0002640973862795612   -0.014833502966854756   -0.0016349734177783558
2.3704264011465676e-05   -0.02333227574899241   -0.0018805172835806463
0.004472292305345917   -0.02330242049367617   -0.001916341188523931
0.004074135513550276   -0.014871412010866199   -0.0016954856859192128
0.004462789918418048   -0.023254107046257952   -0.0019360121312282169
0.0002640973862795612   -0.014833502966854756   -0.0016349734177783558
0.004058837188247466   -0.014800199044123118   -0.0017510221591039538
0.004462789918418048   -0.023254107046257952   -0.0019360121312282169
0.004074135513550276   -0.014871412010866199   -0.0016954856859192128
0.0002640973862795612   -0.014833502966854756   -0.0016349734177783558
0.004462789918418048   -0.023254107046257952   -0.0019360121312282169
3.088405171772407e-05   -0.02332246101219395   -0.0018696675479403246
2.3704264011465676e-05   -0.02333227574899241   -0.0018805172835806463
0.0002640973862795612   -0.014833502966854756   -0.0016349734177783558
0.004462789918418048   -0.023254107046257952   -0.0019360121312282169
2.3704264011465676e-05   -0.02333227574899241   -0.0018805172835806463
0.004074135513550276   -0.014871412010866199   -0.0016954856859192128
0.004070188490015256   -0.014910494182724538   -0.0016098218554254178
0.004451494549357101   -0.023338254855124477   -0.0019024699937963006
0.008443573145057575   -0.015062753678850098   -0.0016109996882125392
0.0040842700624825696   -0.014905734386620378   -0.00164872909660413
0.004451494549357101   -0.023338254855124477   -0.0019024699937963006
0.009370452874163679   -0.023409273845290294   -0.0019279981752436776
0.008443573145057575   -0.015062753678850098   -0.0016109996882125392
0.00936221062111075   -0.023375668290413272   -0.001964794475943304
0.0040842700624825696   -0.014905734386620378   -0.00164872909660413
0.008370454229388214   -0.015036402496396336   -0.001712726135839582
0.00936221062111075   -0.023375668290413272   -0.001964794475943304
0.008443573145057575   -0.015062753678850098   -0.0016109996882125392
0.0040842700624825696   -0.014905734386620378   -0.00164872909660413
0.00936221062111075   -0.023375668290413272   -0.001964794475943304
0.004470591719396141   -0.023328312416298007   -0.0019052658378583666
0.004451494549357101   -0.023338254855124477   -0.0019024699937963006
0.0040842700624825696   -0.014905734386620378   -0.00164872909660413
0.00936221062111075   -0.023375668290413272   -0.001964794475943304
0.004451494549357101   -0.023338254855124477   -0.0019024699937963006
0.008443573145057575   -0.015062753678850098   -0.0016109996882125392
0.0040842700624825696   -0.014905734386620378   -0.00164872909660413
0.004470591719396141   -0.023328312416298007   -0.0019052658378583666
0.008370454229388214   -0.015036402496396336   -0.001712726135839582
0.004074135513550276   -0.014871412010866199   -0.0016954856859192128
0.004470591719396141   -0.023328312416298007   -0.0019052658378583666
0.00936221062111075   -0.023375668290413272   -0.001964794475943304
0.008370454229388214   -0.015036402496396336   -0.001712726135839582
0.009339122545244273   -0.02333344641064699   -0.0020150253002160696
0.004074135513550276   -0.014871412010866199   -0.0016954856859192128
0.008297419303369698   -0.014983572377645523   -0.0018286071029778857
0.009339122545244273   -0.02333344641064699   -0.0020150253002160696
0.008370454229388214   -0.015036402496396336   -0.001712726135839582
0.004074135513550276   -0.014871412010866199   -0.0016954856859192128
0.009339122545244273   -0.02333344641064699   -0.0020150253002160696
0.004472292305345917   -0.02330242049367617   -0.001916341188523931
0.004470591719396141   -0.023328312416298007   -0.0019052658378583666
0.004074135513550276   -0.014871412010866199   -0.0016954856859192128
0.009339122545244273   -0.02333344641064699   -0.0020150253002160696
0.004470591719396141   -0.023328312416298007   -0.0019052658378583666
0.008370454229388214   -0.015036402496396336   -0.001712726135839582
0.004074135513550276   -0.014871412010866199   -0.0016954856859192128
0.004472292305345917   -0.02330242049367617   -0.001916341188523931
0.008297419303369698   -0.014983572377645523   -0.0018286071029778857
0.004058837188247466   -0.014800199044123118   -0.0017510221591039538
0.004472292305345917   -0.02330242049367617   -0.001916341188523931
0.009339122545244273   -0.02333344641064699   -0.0020150253002160696
0.008297419303369698   -0.014983572377645523   -0.0018286071029778857
0.009275545124410787   -0.023253042648138787   -0.002078593199118162
0.004058837188247466   -0.014800199044123118   -0.0017510221591039538
0.0081674506689845   -0.01487283222541617   -0.001958657729841081
0.009275545124410787   -0.023253042648138787   -0.002078593199118162
0.008297419303369698   -0.014983572377645523   -0.0018286071029778857
0.004058837188247466   -0.014800199044123118   -0.0017510221591039538
0.009275545124410787   -0.023253042648138787   -0.002078593199118162
0.004462789918418048   -0.023254107046257952   -0.0019360121312282169
0.004472292305345917   -0.02330242049367617   -0.001916341188523931
0.004058837188247466   -0.014800199044123118   -0.0017510221591039538
0.009275545124410787   -0.023253042648138787   -0.002078593199118162
0.004472292305345917   -0.02330242049367617   -0.001916341188523931
0.008297419303369698   -0.014983572377645523   -0.0018286071029778857
-0.013458585269918055   -0.023505062642116454   -0.002416083422325894
-0.014781849440580867   -0.032615891949357656   -0.002460645009954229
-0.008736376873219402   -0.023377147406989367   -0.0021837502583967124
-0.013593322403198419   -0.023638908589088778   -0.002285422129086734
-0.014781849440580867   -0.032615891949357656   -0.002460645009954229
-0.009713828387682647   -0.032563813251345324   -0.0022756709197801345
-0.008736376873219402   -0.023377147406989367   -0.0021837502583967124
-0.00970976763978924   -0.032648157738655134   -0.0022203246180853595
-0.013593322403198419   -0.023638908589088778   -0.002285422129086734
-0.008746671276378664   -0.02347607409014583   -0.0020934817947234037
-0.00970976763978924   -0.032648157738655134   -0.0022203246180853595
-0.008736376873219402   -0.023377147406989367   -0.0021837502583967124
-0.013593322403198419   -0.023638908589088778   -0.002285422129086734
-0.00970976763978924   -0.032648157738655134   -0.0022203246180853595
-0.01484463720298161   -0.0327292846971057   -0.002393328090399221
-0.014781849440580867   -0.032615891949357656   -0.002460645009954229
-0.013593322403198419   -0.023638908589088778   -0.002285422129086734
-0.00970976763978924   -0.032648157738655134   -0.0022203246180853595
-0.014781849440580867   -0.032615891949357656   -0.002460645009954229
-0.008736376873219402   -0.023377147406989367   -0.0021837502583967124
-0.013593322403198419   -0.023638908589088778   -0.002285422129086734
-0.01484463720298161   -0.0327292846971057   -0.002393328090399221
-0.008746671276378664   -0.02347607409014583   -0.0020934817947234037
-0.013670527285544621   -0.023733632977116764   -0.0021673081441778586
-0.01484463720298161   -0.0327292846971057   -0.002393328090399221
-0.00970976763978924   -0.032648157738655134   -0.0022203246180853595
-0.008746671276378664   -0.02347607409014583   -0.0020934817947234037
-0.009696548801316296   -0.032725993735187295   -0.0021741692220380218
-0.013670527285544621   -0.023733632977116764   -0.0021673081441778586
-0.008753947115278207   -0.02355452344354565   -0.0020122124626715523
-0.009696548801316296   -0.032725993735187295   -0.0021741692220380218
-0.008746671276378664   -0.02347607409014583   -0.0020934817947234037
-0.013670527285544621   -0.023733632977116764   -0.0021673081441778586
-0.009696548801316296   -0.032725993735187295   -0.0021741692220380218
-0.014864469736748813   -0.032821804766491124   -0.002339239055585028
-0.01484463720298161   -0.0327292846971057   -0.002393328090399221
-0.013670527285544621   -0.023733632977116764   -0.0021673081441778586
-0.009696548801316296   -0.032725993735187295   -0.0021741692220380218
-0.01484463720298161   -0.0327292846971057   -0.002393328090399221
-0.008746671276378664   -0.02347607409014583   -0.0020934817947234037
-0.013670527285544621   -0.023733632977116764   -0.0021673081441778586
-0.014864469736748813   -0.032821804766491124   -0.002339239055585028
-0.008753947115278207   -0.02355452344354565   -0.0020122124626715523
-0.013750034123270735   -0.023818586740914926   -0.0020632341982250446
-0.014864469736748813   -0.032821804766491124   -0.002339239055585028
-0.009696548801316296   -0.032725993735187295   -0.0021741692220380218
-0.008753947115278207   -0.02355452344354565   -0.0020122124626715523
-0.009664274527572805   -0.03280325701250891   -0.0021365582965963384
-0.013750034123270735   -0.023818586740914926   -0.0020632341982250446
-0.008735618434398372   -0.02361900356406493   -0.0019387446081332324
-0.009664274527572805   -0.03280325701250891   -0.0021365582965963384
-0.008753947115278207   -0.02355452344354565   -0.0020122124626715523
-0.013750034123270735   -0.023818586740914926   -0.0020632341982250446
-0.009664274527572805   -0.03280325701250891   -0.0021365582965963384
-0.014870925780607905   -0.032922331938222686   -0.002299516752761861
-0.014864469736748813   -0.032821804766491124   -0.002339239055585028
-0.013750034123270735   -0.023818586740914926   -0.0020632341982250446
-0.009664274527572805   -0.03280325701250891   -0.0021365582965963384
-0.014864469736748813   -0.032821804766491124   -0.002339239055585028
-0.008753947115278207   -0.02355452344354565   -0.0020122124626715523
-0.008736376873219402   -0.023377147406989367   -0.0021837502583967124
-0.009713828387682647   -0.032563813251345324   -0.0022756709197801345
-0.004309612190315133   -0.02331099271436865   -0.002022880405032729
-0.008746671276378664   -0.02347607409014583   -0.0020934817947234037
-0.009713828387682647   -0.032563813251345324   -0.0022756709197801345
-0.005006038431262831   -0.03253387388601804   -0.0021497494674857505
-0.004309612190315133   -0.02331099271436865   -0.002022880405032729
-0.004988258780027076   -0.03258490596488056   -0.0021014603348939696
-0.008746671276378664   -0.02347607409014583   -0.0020934817947234037
-0.004301216962746224   -0.023373050535466487   -0.0019632563891166105
-0.004988258780027076   -0.03258490596488056   -0.0021014603348939696
-0.004309612190315133   -0.02331099271436865   -0.002022880405032729
-0.008746671276378664   -0.02347607409014583   -0.0020934817947234037
-0.004988258780027076   -0.03258490596488056   -0.0021014603348939696
-0.00970976763978924   -0.032648157738655134   -0.0022203246180853595
-0.009713828387682647   -0.032563813251345324   -0.0022756709197801345
-0.008746671276378664   -0.02347607409014583   -0.0020934817947234037
-0.004988258780027076   -0.03258490596488056   -0.0021014603348939696
-0.009713828387682647   -0.032563813251345324   -0.0022756709197801345
-0.004309612190315133   -0.02331099271436865   -0.002022880405032729
-0.008746671276378664   -0.02347607409014583   -0.0020934817947234037
-0.00970976763978924   -0.032648157738655134   -0.0022203246180853595
-0.004301216962746224   -0.023373050535466487   -0.0019632563891166105
-0.008753947115278207   -0.02355452344354565   -0.0020122124626715523
-0.00970976763978924   -0.032648157738655134   -0.0022203246180853595
-0.004988258780027076   -0.03258490596488056   -0.0021014603348939696
-0.004301216962746224   -0.023373050535466487   -0.0019632563891166105
-0.004966503407961949   -0.03263176041542632   -0.0020623684487384116
-0.008753947115278207   -0.02355452344354565   -0.0020122124626715523
-0.0042898278542035356   -0.023417946452657403   -0.0019124951047590087
-0.004966503407961949   -0.03263176041542632   -0.0020623684487384116
-0.004301216962746224   -0.023373050535466487   -0.0019632563891166105
-0.008753947115278207   -0.02355452344354565   -0.0020122124626715523
-0.004966503407961949   -0.03263176041542632   -0.0020623684487384116
-0.009696548801316296   -0.032725993735187295   -0.0021741692220380218
-0.00970976763978924   -0.032648157738655134   -0.0022203246180853595
-0.008753947115278207   -0.02355452344354565   -0.0020122124626715523
-0.004966503407961949   -0.03263176041542632   -0.0020623684487384116
-0.00970976763978924   -0.032648157738655134   -0.0022203246180853595
-0.004301216962746224   -0.023373050535466487   -0.0019632563891166105
-0.008753947115278207   -0.02355452344354565   -0.0020122124626715523
-0.009696548801316296   -0.032725993735187295   -0.0021741692220380218
-0.0042898278542035356   -0.023417946452657403   -0.0019124951047590087
-0.008735618434398372   -0.02361900356406493   -0.0019387446081332324
-0.009696548801316296   -0.032725993735187295   -0.0021741692220380218
-0.004966503407961949   -0.03263176041542632   -0.0020623684487384116
-0.0042898278542035356   -0.023417946452657403   -0.0019124951047590087
-0.0049403990888139005   -0.032674591763038115   -0.0020326960823961295
-0.008735618434398372   -0.02361900356406493   -0.0019387446081332324
-0.004272936660440369   -0.023445975000998494   -0.0018707442440917715
-0.0049403990888139005   -0.032674591763038115   -0.0020326960823961295
-0.0042898278542035356   -0.023417946452657403   -0.0019124951047590087
-0.008735618434398372   -0.02361900356406493   -0.0019387446081332324
-0.0049403990888139005   -0.032674591763038115   -0.0020326960823961295
-0.009664274527572805   -0.03280325701250891   -0.0021365582965963384
-0.009696548801316296   -0.032725993735187295   -0.0021741692220380218
-0.008735618434398372   -0.02361900356406493   -0.0019387446081332324
-0.0049403990888139005   -0.032674591763038115   -0.0020326960823961295
-0.009696548801316296   -0.032725993735187295   -0.0021741692220380218
-0.0042898278542035356   -0.023417946452657403   -0.0019124951047590087
-0.004309612190315133   -0.02331099271436865   -0.002022880405032729
-0.005006038431262831   -0.03253387388601804   -0.0021497494674857505
-3.111057610752501e-06   -0.023299589413743913   -0.0019292435162462326
-0.004301216962746224   -0.023373050535466487   -0.0019632563891166105
-0.005006038431262831   -0.03253387388601804   -0.0021497494674857505
-0.0004256506249701473   -0.032516688429420966   -0.002084678962393858
-3.111057610752501e-06   -0.023299589413743913   -0.0019292435162462326
-0.0004008782997391341   -0.03253378421027802   -0.0020439323092834275
-0.004301216962746224   -0.023373050535466487   -0.0019632563891166105
1.2519038613046185e-05   -0.023324572837340397   -0.001900504804687885
-0.0004008782997391341   -0.03253378421027802   -0.0020439323092834275
-3.111057610752501e-06   -0.023299589413743913   -0.0019292435162462326
-0.004301216962746224   -0.023373050535466487   -0.0019632563891166105
-0.0004008782997391341   -0.03253378421027802   -0.0020439323092834275
-0.004988258780027076   -0.03258490596488056   -0.0021014603348939696
-0.005006038431262831   -0.03253387388601804   -0.0021497494674857505
-0.004301216962746224   -0.023373050535466487   -0.0019632563891166105
-0.0004008782997391341   -0.03253378421027802   -0.0020439323092834275
-0.005006038431262831   -0.03253387388601804   -0.0021497494674857505
-3.111057610752501e-06   -0.023299589413743913   -0.0019292435162462326
-0.004301216962746224   -0.023373050535466487   -0.0019632563891166105
-0.004988258780027076   -0.03258490596488056   -0.0021014603348939696
1.2519038613046185e-05   -0.023324572837340397   -0.001900504804687885
-0.0042898278542035356   -0.023417946452657403   -0.0019124951047590087
-0.004988258780027076   -0.03258490596488056   -0.0021014603348939696
-0.0004008782997391341   -0.03253378421027802   -0.0020439323092834275
1.2519038613046185e-05   -0.023324572837340397   -0.001900504804687885
-0.00037940062899819   -0.03254640538553083   -0.0020123045700622547
-0.0042898278542035356   -0.023417946452657403   -0.0019124951047590087
2.3704264011465676e-05   -0.02333227574899241   -0.0018805172835806463
-0.00037940062899819   -0.03254640538553083   -0.0020123045700622547
1.2519038613046185e-05   -0.023324572837340397   -0.001900504804687885
-0.0042898278542035356   -0.023417946452657403   -0.0019124951047590087
-0.00037940062899819   -0.03254640538553083   -0.0020123045700622547
-0.004966503407961949   -0.03263176041542632   -0.0020623684487384116
-0.004988258780027076   -0.03258490596488056   -0.0021014603348939696
-0.0042898278542035356   -0.023417946452657403   -0.0019124951047590087
-0.00037940062899819   -0.03254640538553083   -0.0020123045700622547
-0.004988258780027076   -0.03258490596488056   -0.0021014603348939696
1.2519038613046185e-05   -0.023324572837340397   -0.001900504804687885
-0.0042898278542035356   -0.023417946452657403   -0.0019124951047590087
-0.004966503407961949   -0.03263176041542632   -0.0020623684487384116
2.3704264011465676e-05   -0.02333227574899241   -0.0018805172835806463
-0.004272936660440369   -0.023445975000998494   -0.0018707442440917715
-0.004966503407961949   -0.03263176041542632   -0.0020623684487384116
-0.00037940062899819   -0.03254640538553083   -0.0020123045700622547
2.3704264011465676e-05   -0.02333227574899241   -0.0018805172835806463
-0.0003629758100197906   -0.03255448645162966   -0.001990127570722099
-0.004272936660440369   -0.023445975000998494   -0.0018707442440917715
3.088405171772407e-05   -0.02332246101219395   -0.0018696675479403246
-0.0003629758100197906   -0.03255448645162966   -0.001990127570722099
2.3704264011465676e-05   -0.02333227574899241   -0.0018805172835806463
-0.004272936660440369   -0.023445975000998494   -0.0018707442440917715
-0.0003629758100197906   -0.03255448645162966   -0.001990127570722099
-0.0049403990888139005   -0.032674591763038115   -0.0020326960823961295
-0.004966503407961949   -0.03263176041542632   -0.0020623684487384116
-0.004272936660440369   -0.023445975000998494   -0.0018707442440917715
-0.0003629758100197906   -0.03255448645162966   -0.001990127570722099
-0.004966503407961949   -0.03263176041542632   -0.0020623684487384116
2.3704264011465676e-05   -0.02333227574899241   -0.0018805172835806463
-3.111057610752501e-06   -0.023299589413743913   -0.0019292435162462326
-0.0004256506249701473   -0.032516688429420966   -0.002084678962393858
0.004451494549357101   -0.023338254855124477   -0.0019024699937963006
1.2519038613046185e-05   -0.023324572837340397   -0.001900504804687885
-0.0004256506249701473   -0.032516688429420966   -0.002084678962393858
0.004294489799892592   -0.03250929457441686   -0.002081040844055353
0.004451494549357101   -0.023338254855124477   -0.0019024699937963006
0.0043272629921330815   -0.032493512091174986   -0.0020482138212591905
1.2519038613046185e-05   -0.023324572837340397   -0.001900504804687885
0.004470591719396141   -0.023328312416298007   -0.0019052658378583666
0.0043272629921330815   -0.032493512091174986   -0.0020482138212591905
0.004451494549357101   -0.023338254855124477   -0.0019024699937963006
1.2519038613046185e-05   -0.023324572837340397   -0.001900504804687885
0.0043272629921330815   -0.032493512091174986   -0.0020482138212591905
-0.0004008782997391341   -0.03253378421027802   -0.0020439323092834275
-0.0004256506249701473   -0.032516688429420966   -0.002084678962393858
1.2519038613046185e-05   -0.023324572837340397   -0.001900504804687885
0.0043272629921330815   -0.032493512091174986   -0.0020482138212591905
-0.0004256506249701473   -0.032516688429420966   -0.002084678962393858
0.004451494549357101   -0.023338254855124477   -0.0019024699937963006
1.2519038613046185e-05   -0.023324572837340397   -0.001900504804687885
-0.0004008782997391341   -0.03253378421027802   -0.0020439323092834275
0.004470591719396141   -0.023328312416298007   -0.0019052658378583666
2.3704264011465676e-05   -0.02333227574899241   -0.0018805172835806463
-0.0004008782997391341   -0.03253378421027802   -0.0020439323092834275
0.0043272629921330815   -0.032493512091174986   -0.0020482138212591905
0.004470591719396141   -0.023328312416298007   -0.0019052658378583666
0.004349295014859191   -0.03247515575652864   -0.002024243574547097
2.3704264011465676e-05   -0.02333227574899241   -0.0018805172835806463
0.004472292305345917   -0.02330242049367617   -0.001916341188523931
0.004349295014859191   -0.03247515575652864   -0.002024243574547097
0.004470591719396141   -0.023328312416298007   -0.0019052658378583666
2.3704264011465676e-05   -0.02333227574899241   -0.0018805172835806463
0.004349295014859191   -0.03247515575652864   -0.002024243574547097
-0.00037940062899819   -0.03254640538553083   -0.0020123045700622547
-0.0004008782997391341   -0.03253378421027802   -0.0020439323092834275
2.3704264011465676e-05   -0.02333227574899241   -0.0018805172835806463
0.004349295014859191   -0.03247515575652864   -0.002024243574547097
-0.0004008782997391341   -0.03253378421027802   -0.0020439323092834275
0.004470591719396141   -0.023328312416298007   -0.0019052658378583666
2.3704264011465676e-05   -0.02333227574899241   -0.0018805172835806463
-0.00037940062899819   -0.03254640538553083   -0.0020123045700622547
0.004472292305345917   -0.02330242049367617   -0.001916341188523931
3.088405171772407e-05   -0.02332246101219395   -0.0018696675479403246
-0.00037940062899819   -0.03254640538553083   -0.0020123045700622547
0.004349295014859191   -0.03247515575652864   -0.002024243574547097
0.004472292305345917   -0.02330242049367617   -0.001916341188523931
0.004353983516742582   -0.03244821627127792   -0.0020089490521942623
3.088405171772407e-05   -0.02332246101219395   -0.0018696675479403246
0.004462789918418048   -0.023254107046257952   -0.0019360121312282169
0.004353983516742582   -0.03244821627127792   -0.0020089490521942623
0.004472292305345917   -0.02330242049367617   -0.001916341188523931
3.088405171772407e-05   -0.02332246101219395   -0.0018696675479403246
0.004353983516742582   -0.03244821627127792   -0.0020089490521942623
-0.0003629758100197906   -0.03255448645162966   -0.001990127570722099
-0.00037940062899819   -0.03254640538553083   -0.0020123045700622547
3.088405171772407e-05   -0.02332246101219395   -0.0018696675479403246
0.004353983516742582   -0.03244821627127792   -0.0020089490521942623
-0.00037940062899819   -0.03254640538553083   -0.0020123045700622547
0.004472292305345917   -0.02330242049367617   -0.001916341188523931
0.004451494549357101   -0.023338254855124477   -0.0019024699937963006
0.004294489799892592   -0.03250929457441686   -0.002081040844055353
0.009370452874163679   -0.023409273845290294   -0.0019279981752436776
0.004470591719396141   -0.023328312416298007   -0.0019052658378583666
0.004294489799892592   -0.03250929457441686   -0.002081040844055353
0.009409518382170294   -0.032498987952586676   -0.0021327130337879647
0.009370452874163679   -0.023409273845290294   -0.0019279981752436776
0.009473609264260021   -0.032457212198703594   -0.0021057251706367024
0.004470591719396141   -0.023328312416298007   -0.0019052658378583666
0.00936221062111075   -0.023375668290413272   -0.001964794475943304
0.009473609264260021   -0.032457212198703594   -0.0021057251706367024
0.009370452874163679   -0.023409273845290294   -0.0019279981752436776
0.004470591719396141   -0.023328312416298007   -0.0019052658378583666
0.009473609264260021   -0.032457212198703594   -0.0021057251706367024
0.0043272629921330815   -0.032493512091174986   -0.0020482138212591905
0.004294489799892592   -0.03250929457441686   -0.002081040844055353
0.004470591719396141   -0.023328312416298007   -0.0019052658378583666
0.009473609264260021   -0.032457212198703594   -0.0021057251706367024
0.004294489799892592   -0.03250929457441686   -0.002081040844055353
0.009370452874163679   -0.023409273845290294   -0.0019279981752436776
0.004470591719396141   -0.023328312416298007   -0.0019052658378583666
0.0043272629921330815   -0.032493512091174986   -0.0020482138212591905
0.00936221062111075   -0.023375668290413272   -0.001964794475943304
0.004472292305345917   -0.02330242049367617   -0.001916341188523931
0.0043272629921330815   -0.032493512091174986   -0.0020482138212591905
0.009473609264260021   -0.032457212198703594   -0.0021057251706367024
0.00936221062111075   -0.023375668290413272   -0.001964794475943304
0.00950763915478387   -0.032424240595218055   -0.00209219726891433
0.004472292305345917   -0.02330242049367617   -0.001916341188523931
0.009339122545244273   -0.02333344641064699   -0.0020150253002160696
0.00950763915478387   -0.032424240595218055   -0.00209219726891433
0.00936221062111075   -0.023375668290413272   -0.001964794475943304
0.004472292305345917   -0.02330242049367617   -0.001916341188523931
0.00950763915478387   -0.032424240595218055   -0.00209219726891433
0.004349295014859191   -0.03247515575652864   -0.002024243574547097
0.0043272629921330815   -0.032493512091174986   -0.0020482138212591905
0.004472292305345917   -0.02330242049367617   -0.001916341188523931
0.00950763915478387   -0.032424240595218055   -0.00209219726891433
0.0043272629921330815   -0.032493512091174986   -0.0020482138212591905
0.00936221062111075   -0.023375668290413272   -0.001964794475943304
0.004472292305345917   -0.02330242049367617   -0.001916341188523931
0.004349295014859191   -0.03247515575652864   -0.002024243574547097
0.009339122545244273   -0.02333344641064699   -0.0020150253002160696
0.004462789918418048   -0.023254107046257952   -0.0019360121312282169
0.004349295014859191   -0.03247515575652864   -0.002024243574547097
0.00950763915478387   -0.032424240595218055   -0.00209219726891433
0.009339122545244273   -0.02333344641064699   -0.0020150253002160696
0.009516157132032943   -0.032371398166474344   -0.002092358797298691
0.004462789918418048   -0.023254107046257952   -0.0019360121312282169
0.009275545124410787   -0.023253042648138787   -0.002078593199118162
0.009516157132032943   -0.032371398166474344   -0.002092358797298691
0.009339122545244273   -0.02333344641064699   -0.0020150253002160696
0.004462789918418048   -0.023254107046257952   -0.0019360121312282169
0.009516157132032943   -0.032371398166474344   -0.002092358797298691
0.004353983516742582   -0.03244821627127792   -0.0020089490521942623
0.004349295014859191   -0.03247515575652864   -0.002024243574547097
0.004462789918418048   -0.023254107046257952   -0.0019360121312282169
0.009516157132032943   -0.032371398166474344   -0.002092358797298691
0.004349295014859191   -0.03247515575652864   -0.002024243574547097
0.009339122545244273   -0.02333344641064699   -0.0020150253002160696
-0.014781849440580867   -0.032615891949357656   -0.002460645009954229
-0.015242193015822627   -0.04188894279632313   -0.0024193894233508076
-0.009713828387682647   -0.032563813251345324   -0.0022756709197801345
-0.01484463720298161   -0.0327292846971057   -0.002393328090399221
-0.015242193015822627   -0.04188894279632313   -0.0024193894233508076
-0.010180990830857939   -0.04191322190996005   -0.0022826939906671613
-0.009713828387682647   -0.032563813251345324   -0.0022756709197801345
-0.010153567433699082   -0.04198270435652947   -0.002261717605403776
-0.01484463720298161   -0.0327292846971057   -0.002393328090399221
-0.00970976763978924   -0.032648157738655134   -0.0022203246180853595
-0.010153567433699082   -0.04198270435652947   -0.002261717605403776
-0.009713828387682647   -0.032563813251345324   -0.0022756709197801345
-0.01484463720298161   -0.0327292846971057   -0.002393328090399221
-0.010153567433699082   -0.04198270435652947   -0.002261717605403776
-0.01522444919611248   -0.04198191669949003   -0.0024151111889721055
-0.015242193015822627   -0.04188894279632313   -0.0024193894233508076
-0.01484463720298161   -0.0327292846971057   -0.002393328090399221
-0.010153567433699082   -0.04198270435652947   -0.002261717605403776
-0.015242193015822627   -0.04188894279632313   -0.0024193894233508076
-0.009713828387682647   -0.032563813251345324   -0.0022756709197801345
-0.01484463720298161   -0.0327292846971057   -0.002393328090399221
-0.01522444919611248   -0.04198191669949003   -0.0024151111889721055
-0.00970976763978924   -0.032648157738655134   -0.0022203246180853595
-0.014864469736748813   -0.032821804766491124   -0.002339239055585028
-0.01522444919611248   -0.04198191669949003   -0.0024151111889721055
-0.010153567433699082   -0.04198270435652947   -0.002261717605403776
-0.00970976763978924   -0.032648157738655134   -0.0022203246180853595
-0.010110870318296864   -0.04205972289268163   -0.002250207616375501
-0.014864469736748813   -0.032821804766491124   -0.002339239055585028
-0.009696548801316296   -0.032725993735187295   -0.0021741692220380218
-0.010110870318296864   -0.04205972289268163   -0.002250207616375501
-0.00970976763978924   -0.032648157738655134   -0.0022203246180853595
-0.014864469736748813   -0.032821804766491124   -0.002339239055585028
-0.010110870318296864   -0.04205972289268163   -0.002250207616375501
-0.015177707733944834   -0.04207223259820214   -0.0024249785599013106
-0.01522444919611248   -0.04198191669949003   -0.0024151111889721055
-0.014864469736748813   -0.032821804766491124   -0.002339239055585028
-0.010110870318296864   -0.04205972289268163   -0.002250207616375501
-0.01522444919611248   -0.04198191669949003   -0.0024151111889721055
-0.00970976763978924   -0.032648157738655134   -0.0022203246180853595
-0.014864469736748813   -0.032821804766491124   -0.002339239055585028
-0.015177707733944834   -0.04207223259820214   -0.0024249785599013106
-0.009696548801316296   -0.032725993735187295   -0.0021741692220380218
-0.014870925780607905   -0.032922331938222686   -0.002299516752761861
-0.015177707733944834   -0.04207223259820214   -0.0024249785599013106
-0.010110870318296864   -0.04205972289268163   -0.002250207616375501
-0.009696548801316296   -0.032725993735187295   -0.0021741692220380218
-0.010055621825929355   -0.042149583104198834   -0.002248007984125139
-0.014870925780607905   -0.032922331938222686   -0.002299516752761861
-0.009664274527572805   -0.03280325701250891   -0.0021365582965963384
-0.010055621825929355   -0.042149583104198834   -0.002248007984125139
-0.009696548801316296   -0.032725993735187295   -0.0021741692220380218
-0.014870925780607905   -0.032922331938222686   -0.002299516752761861
-0.010055621825929355   -0.042149583104198834   -0.002248007984125139
-0.015101966245692952   -0.042188610558551415   -0.0024497098688474276
-0.015177707733944834   -0.04207223259820214   -0.0024249785599013106
-0.014870925780607905   -0.032922331938222686   -0.002299516752761861
-0.010055621825929355   -0.042149583104198834   -0.002248007984125139
-0.015177707733944834   -0.04207223259820214   -0.0024249785599013106
-0.009696548801316296   -0.032725993735187295   -0.0021741692220380218
-0.009713828387682647   -0.032563813251345324   -0.0022756709197801345
-0.010180990830857939   -0.04191322190996005   -0.0022826939906671613
-0.005006038431262831   -0.03253387388601804   -0.0021497494674857505
-0.00970976763978924   -0.032648157738655134   -0.0022203246180853595
-0.010180990830857939   -0.04191322190996005   -0.0022826939906671613
-0.005544793713589664   -0.04191845342530814   -0.0021918465211798145
-0.005006038431262831   -0.03253387388601804   -0.0021497494674857505
-0.0055081521524543865   -0.04195829004307292   -0.0021545556442349456
-0.00970976763978924   -0.032648157738655134   -0.0022203246180853595
-0.004988258780027076   -0.03258490596488056   -0.0021014603348939696
-0.0055081521524543865   -0.04195829004307292   -0.0021545556442349456
-0.005006038431262831   -0.03253387388601804   -0.0021497494674857505
-0.00970976763978924   -0.032648157738655134   -0.0022203246180853595
-0.0055081521524543865   -0.04195829004307292   -0.0021545556442349456
-0.010153567433699082   -0.04198270435652947   -0.002261717605403776
-0.010180990830857939   -0.04191322190996005   -0.0022826939906671613
-0.00970976763978924   -0.032648157738655134   -0.0022203246180853595
-0.0055081521524543865   -0.04195829004307292   -0.0021545556442349456
-0.010180990830857939   -0.04191322190996005   -0.0022826939906671613
-0.005006038431262831   -0.03253387388601804   -0.0021497494674857505
-0.00970976763978924   -0.032648157738655134   -0.0022203246180853595
-0.010153567433699082   -0.04198270435652947   -0.002261717605403776
-0.004988258780027076   -0.03258490596488056   -0.0021014603348939696
-0.009696548801316296   -0.032725993735187295   -0.0021741692220380218
-0.010153567433699082   -0.04198270435652947   -0.002261717605403776
-0.0055081521524543865   -0.04195829004307292   -0.0021545556442349456
-0.004988258780027076   -0.03258490596488056   -0.0021014603348939696
-0.005466778248357868   -0.04200676062304011   -0.002126766000749271
-0.009696548801316296   -0.032725993735187295   -0.0021741692220380218
-0.004966503407961949   -0.03263176041542632   -0.0020623684487384116
-0.005466778248357868   -0.04200676062304011   -0.002126766000749271
-0.004988258780027076   -0.03258490596488056   -0.0021014603348939696
-0.009696548801316296   -0.032725993735187295   -0.0021741692220380218
-0.005466778248357868   -0.04200676062304011   -0.002126766000749271
-0.010110870318296864   -0.04205972289268163   -0.002250207616375501
-0.010153567433699082   -0.04198270435652947   -0.002261717605403776
-0.009696548801316296   -0.032725993735187295   -0.0021741692220380218
-0.005466778248357868   -0.04200676062304011   -0.002126766000749271
-0.010153567433699082   -0.04198270435652947   -0.002261717605403776
-0.004988258780027076   -0.03258490596488056   -0.0021014603348939696
-0.009696548801316296   -0.032725993735187295   -0.0021741692220380218
-0.010110870318296864   -0.04205972289268163   -0.002250207616375501
-0.004966503407961949   -0.03263176041542632   -0.0020623684487384116
-0.009664274527572805   -0.03280325701250891   -0.0021365582965963384
-0.010110870318296864   -0.04205972289268163   -0.002250207616375501
-0.005466778248357868   -0.04200676062304011   -0.002126766000749271
-0.004966503407961949   -0.03263176041542632   -0.0020623684487384116
-0.00542220193775839   -0.042064016351341285   -0.0021087870650899044
-0.009664274527572805   -0.03280325701250891   -0.0021365582965963384
-0.0049403990888139005   -0.032674591763038115   -0.0020326960823961295
-0.00542220193775839   -0.042064016351341285   -0.0021087870650899044
-0.004966503407961949   -0.03263176041542632   -0.0020623684487384116
-0.009664274527572805   -0.03280325701250891   -0.0021365582965963384
-0.00542220193775839   -0.042064016351341285   -0.0021087870650899044
-0.010055621825929355   -0.042149583104198834   -0.002248007984125139
-0.010110870318296864   -0.04205972289268163   -0.002250207616375501
-0.009664274527572805   -0.03280325701250891   -0.0021365582965963384
-0.00542220193775839   -0.042064016351341285   -0.0021087870650899044
-0.010110870318296864   -0.04205972289268163   -0.002250207616375501
-0.004966503407961949   -0.03263176041542632   -0.0020623684487384116
-0.005006038431262831   -0.03253387388601804   -0.0021497494674857505
-0.005544793713589664   -0.04191845342530814   -0.0021918465211798145
-0.0004256506249701473   -0.032516688429420966   -0.002084678962393858
-0.004988258780027076   -0.03258490596488056   -0.0021014603348939696
-0.005544793713589664   -0.04191845342530814   -0.0021918465211798145
-0.0010397268631601488   -0.041893829853687496   -0.0021547812539768297
-0.0004256506249701473   -0.032516688429420966   -0.002084678962393858
-0.0009964212533190608   -0.04190301777921823   -0.0021019883726927707
-0.004988258780027076   -0.03258490596488056   -0.0021014603348939696
-0.0004008782997391341   -0.03253378421027802   -0.0020439323092834275
-0.0009964212533190608   -0.04190301777921823   -0.0021019883726927707
-0.0004256506249701473   -0.032516688429420966   -0.002084678962393858
-0.004988258780027076   -0.03258490596488056   -0.0021014603348939696
-0.0009964212533190608   -0.04190301777921823   -0.0021019883726927707
-0.0055081521524543865   -0.04195829004307292   -0.0021545556442349456
-0.005544793713589664   -0.04191845342530814   -0.0021918465211798145
-0.004988258780027076   -0.03258490596488056   -0.0021014603348939696
-0.0009964212533190608   -0.04190301777921823   -0.0021019883726927707
-0.005544793713589664   -0.04191845342530814   -0.0021918465211798145
-0.0004256506249701473   -0.032516688429420966   -0.002084678962393858
-0.004988258780027076   -0.03258490596488056   -0.0021014603348939696
-0.0055081521524543865   -0.04195829004307292   -0.0021545556442349456
-0.0004008782997391341   -0.03253378421027802   -0.0020439323092834275
-0.004966503407961949   -0.03263176041542632   -0.0020623684487384116
-0.0055081521524543865   -0.04195829004307292   -0.0021545556442349456
-0.0009964212533190608   -0.04190301777921823   -0.0021019883726927707
-0.0004008782997391341   -0.03253378421027802   -0.0020439323092834275
-0.0009554454150514065   -0.04192016706549012   -0.0020586306834227764
-0.004966503407961949   -0.03263176041542632   -0.0020623684487384116
-0.00037940062899819   -0.03254640538553083   -0.0020123045700622547
-0.0009554454150514065   -0.04192016706549012   -0.0020586306834227764
-0.0004008782997391341   -0.03253378421027802   -0.0020439323092834275
-0.004966503407961949   -0.03263176041542632   -0.0020623684487384116
-0.0009554454150514065   -0.04192016706549012   -0.0020586306834227764
-0.005466778248357868   -0.04200676062304011   -0.002126766000749271
-0.0055081521524543865   -0.04195829004307292   -0.0021545556442349456
-0.004966503407961949   -0.03263176041542632   -0.0020623684487384116
-0.0009554454150514065   -0.04192016706549012   -0.0020586306834227764
-0.0055081521524543865   -0.04195829004307292   -0.0021545556442349456
-0.0004008782997391341   -0.03253378421027802   -0.0020439323092834275
-0.004966503407961949   -0.03263176041542632   -0.0020623684487384116
-0.005466778248357868   -0.04200676062304011   -0.002126766000749271
-0.00037940062899819   -0.03254640538553083   -0.0020123045700622547
-0.0049403990888139005   -0.032674591763038115   -0.0020326960823961295
-0.005466778248357868   -0.04200676062304011   -0.002126766000749271
-0.0009554454150514065   -0.04192016706549012   -0.0020586306834227764
-0.00037940062899819   -0.03254640538553083   -0.0020123045700622547
-0.0009206325725659623   -0.04194566746873484   -0.002025037087453907
-0.0049403990888139005   -0.032674591763038115   -0.0020326960823961295
-0.0003629758100197906   -0.03255448645162966   -0.001990127570722099
-0.0009206325725659623   -0.04194566746873484   -0.002025037087453907
-0.00037940062899819   -0.03254640538553083   -0.0020123045700622547
-0.0049403990888139005   -0.032674591763038115   -0.0020326960823961295
-0.0009206325725659623   -0.04194566746873484   -0.002025037087453907
-0.00542220193775839   -0.042064016351341285   -0.0021087870650899044
-0.005466778248357868   -0.04200676062304011   -0.002126766000749271
-0.0049403990888139005   -0.032674591763038115   -0.0020326960823961295
-0.0009206325725659623   -0.04194566746873484   -0.002025037087453907
-0.005466778248357868   -0.04200676062304011   -0.002126766000749271
-0.00037940062899819   -0.03254640538553083   -0.0020123045700622547
-0.0004256506249701473   -0.032516688429420966   -0.002084678962393858
-0.0010397268631601488   -0.041893829853687496   -0.0021547812539768297
0.004294489799892592   -0.03250929457441686   -0.002081040844055353
-0.0004008782997391341   -0.03253378421027802   -0.0020439323092834275
-0.0010397268631601488   -0.041893829853687496   -0.0021547812539768297
0.003600831111678501   -0.041839116514067826   -0.0021732801952784302
0.004294489799892592   -0.03250929457441686   -0.002081040844055353
0.00365603973468496   -0.04181754843150061   -0.0021052555784302064
-0.0004008782997391341   -0.03253378421027802   -0.0020439323092834275
0.0043272629921330815   -0.032493512091174986   -0.0020482138212591905
0.00365603973468496   -0.04181754843150061   -0.0021052555784302064
0.004294489799892592   -0.03250929457441686   -0.002081040844055353
-0.0004008782997391341   -0.03253378421027802   -0.0020439323092834275
0.00365603973468496   -0.04181754843150061   -0.0021052555784302064
-0.0009964212533190608   -0.04190301777921823   -0.0021019883726927707
-0.0010397268631601488   -0.041893829853687496   -0.0021547812539768297
-0.0004008782997391341   -0.03253378421027802   -0.0020439323092834275
0.00365603973468496   -0.04181754843150061   -0.0021052555784302064
-0.0010397268631601488   -0.041893829853687496   -0.0021547812539768297
0.004294489799892592   -0.03250929457441686   -0.002081040844055353
-0.0004008782997391341   -0.03253378421027802   -0.0020439323092834275
-0.0009964212533190608   -0.04190301777921823   -0.0021019883726927707
0.0043272629921330815   -0.032493512091174986   -0.0020482138212591905
-0.00037940062899819   -0.03254640538553083   -0.0020123045700622547
-0.0009964212533190608   -0.04190301777921823   -0.0021019883726927707
0.00365603973468496   -0.04181754843150061   -0.0021052555784302064
0.0043272629921330815   -0.032493512091174986   -0.0020482138212591905
0.0037070895689672503   -0.04180632943817555   -0.0020466371718293437
-0.00037940062899819   -0.03254640538553083   -0.0020123045700622547
0.004349295014859191   -0.03247515575652864   -0.002024243574547097
0.0037070895689672503   -0.04180632943817555   -0.0020466371718293437
0.0043272629921330815   -0.032493512091174986   -0.0020482138212591905
-0.00037940062899819   -0.03254640538553083   -0.0020123045700622547
0.0037070895689672503   -0.04180632943817555   -0.0020466371718293437
-0.0009554454150514065   -0.04192016706549012   -0.0020586306834227764
-0.0009964212533190608   -0.04190301777921823   -0.0021019883726927707
-0.00037940062899819   -0.03254640538553083   -0.0020123045700622547
0.0037070895689672503   -0.04180632943817555   -0.0020466371718293437
-0.0009964212533190608   -0.04190301777921823   -0.0021019883726927707
0.0043272629921330815   -0.032493512091174986   -0.0020482138212591905
-0.00037940062899819   -0.03254640538553083   -0.0020123045700622547
-0.0009554454150514065   -0.04192016706549012   -0.0020586306834227764
0.004349295014859191   -0.03247515575652864   -0.002024243574547097
-0.0003629758100197906   -0.03255448645162966   -0.001990127570722099
-0.0009554454150514065   -0.04192016706549012   -0.0020586306834227764
0.0037070895689672503   -0.04180632943817555   -0.0020466371718293437
0.004349295014859191   -0.03247515575652864   -0.002024243574547097
0.0037345680974214773   -0.04180004497447109   -0.0019968108784386143
-0.0003629758100197906   -0.03255448645162966   -0.001990127570722099
0.004353983516742582   -0.03244821627127792   -0.0020089490521942623
0.0037345680974214773   -0.04180004497447109   -0.0019968108784386143
0.004349295014859191   -0.03247515575652864   -0.002024243574547097
-0.0003629758100197906   -0.03255448645162966   -0.001990127570722099
0.0037345680974214773   -0.04180004497447109   -0.0019968108784386143
-0.0009206325725659623   -0.04194566746873484   -0.002025037087453907
-0.0009554454150514065   -0.04192016706549012   -0.0020586306834227764
-0.0003629758100197906   -0.03255448645162966   -0.001990127570722099
0.0037345680974214773   -0.04180004497447109   -0.0019968108784386143
-0.0009554454150514065   -0.04192016706549012   -0.0020586306834227764
0.004349295014859191   -0.03247515575652864   -0.002024243574547097
0.004294489799892592   -0.03250929457441686   -0.002081040844055353
0.003600831111678501   -0.041839116514067826   -0.0021732801952784302
0.009409518382170294   -0.032498987952586676   -0.0021327130337879647
0.0043272629921330815   -0.032493512091174986   -0.0020482138212591905
0.003600831111678501   -0.041839116514067826   -0.0021732801952784302
0.008568971156373324   -0.04174714591579662   -0.0022502796176777614
0.009409518382170294   -0.032498987952586676   -0.0021327130337879647
0.008712903464257089   -0.04169768818670874   -0.0021609484311742883
0.0043272629921330815   -0.032493512091174986   -0.0020482138212591905
0.009473609264260021   -0.032457212198703594   -0.0021057251706367024
0.008712903464257089   -0.04169768818670874   -0.0021609484311742883
0.009409518382170294   -0.032498987952586676   -0.0021327130337879647
0.0043272629921330815   -0.032493512091174986   -0.0020482138212591905
0.008712903464257089   -0.04169768818670874   -0.0021609484311742883
0.00365603973468496   -0.04181754843150061   -0.0021052555784302064
0.003600831111678501   -0.041839116514067826   -0.0021732801952784302
0.0043272629921330815   -0.032493512091174986   -0.0020482138212591905
0.008712903464257089   -0.04169768818670874   -0.0021609484311742883
0.003600831111678501   -0.041839116514067826   -0.0021732801952784302
0.009409518382170294   -0.032498987952586676   -0.0021327130337879647
0.0043272629921330815   -0.032493512091174986   -0.0020482138212591905
0.00365603973468496   -0.04181754843150061   -0.0021052555784302064
0.009473609264260021   -0.032457212198703594   -0.0021057251706367024
0.004349295014859191   -0.03247515575652864   -0.002024243574547097
0.00365603973468496   -0.04181754843150061   -0.0021052555784302064
0.008712903464257089   -0.04169768818670874   -0.0021609484311742883
0.009473609264260021   -0.032457212198703594   -0.0021057251706367024
0.008811873167841282   -0.041673699916292224   -0.0020850158676556526
0.004349295014859191   -0.03247515575652864   -0.002024243574547097
0.00950763915478387   -0.032424240595218055   -0.00209219726891433
0.008811873167841282   -0.041673699916292224   -0.0020850158676556526
0.009473609264260021   -0.032457212198703594   -0.0021057251706367024
0.004349295014859191   -0.03247515575652864   -0.002024243574547097
0.008811873167841282   -0.041673699916292224   -0.0020850158676556526
0.0037070895689672503   -0.04180632943817555   -0.0020466371718293437
0.00365603973468496   -0.04181754843150061   -0.0021052555784302064
0.004349295014859191   -0.03247515575652864   -0.002024243574547097
0.008811873167841282   -0.041673699916292224   -0.0020850158676556526
0.00365603973468496   -0.04181754843150061   -0.0021052555784302064
0.009473609264260021   -0.032457212198703594   -0.0021057251706367024
0.004349295014859191   -0.03247515575652864   -0.002024243574547097
0.0037070895689672503   -0.04180632943817555   -0.0020466371718293437
0.00950763915478387   -0.032424240595218055   -0.00209219726891433
0.004353983516742582   -0.03244821627127792   -0.0020089490521942623
0.0037070895689672503   -0.04180632943817555   -0.0020466371718293437
0.008811873167841282   -0.041673699916292224   -0.0020850158676556526
0.00950763915478387   -0.032424240595218055   -0.00209219726891433
0.008899842614699036   -0.04164764694480372   -0.002023038873138951
0.004353983516742582   -0.03244821627127792   -0.0020089490521942623
0.009516157132032943   -0.032371398166474344   -0.002092358797298691
0.008899842614699036   -0.04164764694480372   -0.002023038873138951
0.00950763915478387   -0.032424240595218055   -0.00209219726891433
0.004353983516742582   -0.03244821627127792   -0.0020089490521942623
0.008899842614699036   -0.04164764694480372   -0.002023038873138951
0.0037345680974214773   -0.04180004497447109   -0.0019968108784386143
0.0037070895689672503   -0.04180632943817555   -0.0020466371718293437
0.004353983516742582   -0.03244821627127792   -0.0020089490521942623
0.008899842614699036   -0.04164764694480372   -0.002023038873138951
0.0037070895689672503   -0.04180632943817555   -0.0020466371718293437
0.00950763915478387   -0.032424240595218055   -0.00209219726891433
-0.015242193015822627   -0.04188894279632313   -0.0024193894233508076
-0.014833024297917104   -0.05074209050225312   -0.002313423804479534
-0.010180990830857939   -0.04191322190996005   -0.0022826939906671613
-0.01522444919611248   -0.04198191669949003   -0.0024151111889721055
-0.014833024297917104   -0.05074209050225312   -0.002313423804479534
-0.010138892036851359   -0.05084405328864209   -0.0022311484345273695
-0.010180990830857939   -0.04191322190996005   -0.0022826939906671613
-0.010079447847336847   -0.050895905499261734   -0.0022436128535033074
-0.01522444919611248   -0.04198191669949003   -0.0024151111889721055
-0.010153567433699082   -0.04198270435652947   -0.002261717605403776
-0.010079447847336847   -0.050895905499261734   -0.0022436128535033074
-0.010180990830857939   -0.04191322190996005   -0.0022826939906671613
-0.01522444919611248   -0.04198191669949003   -0.0024151111889721055
-0.010079447847336847   -0.050895905499261734   -0.0022436128535033074
-0.014725707037922905   -0.05081210470055348   -0.0023722810037232777
-0.014833024297917104   -0.05074209050225312   -0.002313423804479534
-0.01522444919611248   -0.04198191669949003   -0.0024151111889721055
-0.010079447847336847   -0.050895905499261734   -0.0022436128535033074
-0.014833024297917104   -0.05074209050225312   -0.002313423804479534
-0.010180990830857939   -0.04191322190996005   -0.0022826939906671613
-0.01522444919611248   -0.04198191669949003   -0.0024151111889721055
-0.014725707037922905   -0.05081210470055348   -0.0023722810037232777
-0.010153567433699082   -0.04198270435652947   -0.002261717605403776
-0.015177707733944834   -0.04207223259820214   -0.0024249785599013106
-0.014725707037922905   -0.05081210470055348   -0.0023722810037232777
-0.010079447847336847   -0.050895905499261734   -0.0022436128535033074
-0.010153567433699082   -0.04198270435652947   -0.002261717605403776
-0.009998996635827902   -0.05096976793474059   -0.0022657773437011926
-0.015177707733944834   -0.04207223259820214   -0.0024249785599013106
-0.010110870318296864   -0.04205972289268163   -0.002250207616375501
-0.009998996635827902   -0.05096976793474059   -0.0022657773437011926
-0.010153567433699082   -0.04198270435652947   -0.002261717605403776
-0.015177707733944834   -0.04207223259820214   -0.0024249785599013106
-0.009998996635827902   -0.05096976793474059   -0.0022657773437011926
-0.014603275852511059   -0.05089808511530699   -0.002446392667367361
-0.014725707037922905   -0.05081210470055348   -0.0023722810037232777
-0.015177707733944834   -0.04207223259820214   -0.0024249785599013106
-0.009998996635827902   -0.05096976793474059   -0.0022657773437011926
-0.014725707037922905   -0.05081210470055348   -0.0023722810037232777
-0.010153567433699082   -0.04198270435652947   -0.002261717605403776
-0.015177707733944834   -0.04207223259820214   -0.0024249785599013106
-0.014603275852511059   -0.05089808511530699   -0.002446392667367361
-0.010110870318296864   -0.04205972289268163   -0.002250207616375501
-0.015101966245692952   -0.042188610558551415   -0.0024497098688474276
-0.014603275852511059   -0.05089808511530699   -0.002446392667367361
-0.009998996635827902   -0.05096976793474059   -0.0022657773437011926
-0.010110870318296864   -0.04205972289268163   -0.002250207616375501
-0.009912687009593558   -0.05107014830049262   -0.002297925851572538
-0.015101966245692952   -0.042188610558551415   -0.0024497098688474276
-0.010055621825929355   -0.042149583104198834   -0.002248007984125139
-0.009912687009593558   -0.05107014830049262   -0.002297925851572538
-0.010110870318296864   -0.04205972289268163   -0.002250207616375501
-0.015101966245692952   -0.042188610558551415   -0.0024497098688474276
-0.009912687009593558   -0.05107014830049262   -0.002297925851572538
-0.014436609982951846   -0.05102899029266064   -0.0025360435980409895
-0.014603275852511059   -0.05089808511530699   -0.002446392667367361
-0.015101966245692952   -0.042188610558551415   -0.0024497098688474276
-0.009912687009593558   -0.05107014830049262   -0.002297925851572538
-0.014603275852511059   -0.05089808511530699   -0.002446392667367361
-0.010110870318296864   -0.04205972289268163   -0.002250207616375501
-0.010180990830857939   -0.04191322190996005   -0.0022826939906671613
-0.010138892036851359   -0.05084405328864209   -0.0022311484345273695
-0.005544793713589664   -0.04191845342530814   -0.0021918465211798145
-0.010153567433699082   -0.04198270435652947   -0.002261717605403776
-0.010138892036851359   -0.05084405328864209   -0.0022311484345273695
-0.0059307666193670625   -0.0508843447476842   -0.002178501803492433
-0.005544793713589664   -0.04191845342530814   -0.0021918465211798145
-0.00586605087425753   -0.05091128583532616   -0.0021513464347894624
-0.010153567433699082   -0.04198270435652947   -0.002261717605403776
-0.0055081521524543865   -0.04195829004307292   -0.0021545556442349456
-0.00586605087425753   -0.05091128583532616   -0.0021513464347894624
-0.005544793713589664   -0.04191845342530814   -0.0021918465211798145
-0.010153567433699082   -0.04198270435652947   -0.002261717605403776
-0.00586605087425753   -0.05091128583532616   -0.0021513464347894624
-0.010079447847336847   -0.050895905499261734   -0.0022436128535033074
-0.010138892036851359   -0.05084405328864209   -0.0022311484345273695
-0.010153567433699082   -0.04198270435652947   -0.002261717605403776
-0.00586605087425753   -0.05091128583532616   -0.0021513464347894624
-0.010138892036851359   -0.05084405328864209   -0.0022311484345273695
-0.005544793713589664   -0.04191845342530814   -0.0021918465211798145
-0.010153567433699082   -0.04198270435652947   -0.002261717605403776
-0.010079447847336847   -0.050895905499261734   -0.0022436128535033074
-0.0055081521524543865   -0.04195829004307292   -0.0021545556442349456
-0.010110870318296864   -0.04205972289268163   -0.002250207616375501
-0.010079447847336847   -0.050895905499261734   -0.0022436128535033074
-0.00586605087425753   -0.05091128583532616   -0.0021513464347894624
-0.0055081521524543865   -0.04195829004307292   -0.0021545556442349456
-0.0057964420909961635   -0.050959386207146254   -0.00213377255071061
-0.010110870318296864   -0.04205972289268163   -0.002250207616375501
-0.005466778248357868   -0.04200676062304011   -0.002126766000749271
-0.0057964420909961635   -0.050959386207146254   -0.00213377255071061
-0.0055081521524543865   -0.04195829004307292   -0.0021545556442349456
-0.010110870318296864   -0.04205972289268163   -0.002250207616375501
-0.0057964420909961635   -0.050959386207146254   -0.00213377255071061
-0.009998996635827902   -0.05096976793474059   -0.0022657773437011926
-0.010079447847336847   -0.050895905499261734   -0.0022436128535033074
-0.010110870318296864   -0.04205972289268163   -0.002250207616375501
-0.0057964420909961635   -0.050959386207146254   -0.00213377255071061
-0.010079447847336847   -0.050895905499261734   -0.0022436128535033074
-0.0055081521524543865   -0.04195829004307292   -0.0021545556442349456
-0.010110870318296864   -0.04205972289268163   -0.002250207616375501
-0.009998996635827902   -0.05096976793474059   -0.0022657773437011926
-0.005466778248357868   -0.04200676062304011   -0.002126766000749271
-0.010055621825929355   -0.042149583104198834   -0.002248007984125139
-0.009998996635827902   -0.05096976793474059   -0.0022657773437011926
-0.0057964420909961635   -0.050959386207146254   -0.00213377255071061
-0.005466778248357868   -0.04200676062304011   -0.002126766000749271
-0.0057248928733725545   -0.05102925249605225   -0.0021262501402181965
-0.010055621825929355   -0.042149583104198834   -0.002248007984125139
-0.00542220193775839   -0.042064016351341285   -0.0021087870650899044
-0.0057248928733725545   -0.05102925249605225   -0.0021262501402181965
-0.005466778248357868   -0.04200676062304011   -0.002126766000749271
-0.010055621825929355   -0.042149583104198834   -0.002248007984125139
-0.0057248928733725545   -0.05102925249605225   -0.0021262501402181965
-0.009912687009593558   -0.05107014830049262   -0.002297925851572538
-0.009998996635827902   -0.05096976793474059   -0.0022657773437011926
-0.010055621825929355   -0.042149583104198834   -0.002248007984125139
-0.0057248928733725545   -0.05102925249605225   -0.0021262501402181965
-0.009998996635827902   -0.05096976793474059   -0.0022657773437011926
-0.005466778248357868   -0.04200676062304011   -0.002126766000749271
-0.005544793713589664   -0.04191845342530814   -0.0021918465211798145
-0.0059307666193670625   -0.0508843447476842   -0.002178501803492433
-0.0010397268631601488   -0.041893829853687496   -0.0021547812539768297
-0.0055081521524543865   -0.04195829004307292   -0.0021545556442349456
-0.0059307666193670625   -0.0508843447476842   -0.002178501803492433
-0.0018500291350540844   -0.05085330733803906   -0.0021698803731699454
-0.0010397268631601488   -0.041893829853687496   -0.0021547812539768297
-0.0017784529908936356   -0.05085388510321554   -0.002104464211339441
-0.0055081521524543865   -0.04195829004307292   -0.0021545556442349456
-0.0009964212533190608   -0.04190301777921823   -0.0021019883726927707
-0.0017784529908936356   -0.05085388510321554   -0.002104464211339441
-0.0010397268631601488   -0.041893829853687496   -0.0021547812539768297
-0.0055081521524543865   -0.04195829004307292   -0.0021545556442349456
-0.0017784529908936356   -0.05085388510321554   -0.002104464211339441
-0.00586605087425753   -0.05091128583532616   -0.0021513464347894624
-0.0059307666193670625   -0.0508843447476842   -0.002178501803492433
-0.0055081521524543865   -0.04195829004307292   -0.0021545556442349456
-0.0017784529908936356   -0.05085388510321554   -0.002104464211339441
-0.0059307666193670625   -0.0508843447476842   -0.002178501803492433
-0.0010397268631601488   -0.041893829853687496   -0.0021547812539768297
-0.0055081521524543865   -0.04195829004307292   -0.0021545556442349456
-0.00586605087425753   -0.05091128583532616   -0.0021513464347894624
-0.0009964212533190608   -0.04190301777921823   -0.0021019883726927707
-0.005466778248357868   -0.04200676062304011   -0.002126766000749271
-0.00586605087425753   -0.05091128583532616   -0.0021513464347894624
-0.0017784529908936356   -0.05085388510321554   -0.002104464211339441
-0.0009964212533190608   -0.04190301777921823   -0.0021019883726927707
-0.0017087479024108284   -0.05087407710680371   -0.0020486541855928666
-0.005466778248357868   -0.04200676062304011   -0.002126766000749271
-0.0009554454150514065   -0.04192016706549012   -0.0020586306834227764
-0.0017087479024108284   -0.05087407710680371   -0.0020486541855928666
-0.0009964212533190608   -0.04190301777921823   -0.0021019883726927707
-0.005466778248357868   -0.04200676062304011   -0.002126766000749271
-0.0017087479024108284   -0.05087407710680371   -0.0020486541855928666
-0.0057964420909961635   -0.050959386207146254   -0.00213377255071061
-0.00586605087425753   -0.05091128583532616   -0.0021513464347894624
-0.005466778248357868   -0.04200676062304011   -0.002126766000749271
-0.0017087479024108284   -0.05087407710680371   -0.0020486541855928666
-0.00586605087425753   -0.05091128583532616   -0.0021513464347894624
-0.0009964212533190608   -0.04190301777921823   -0.0021019883726927707
-0.005466778248357868   -0.04200676062304011   -0.002126766000749271
-0.0057964420909961635   -0.050959386207146254   -0.00213377255071061
-0.0009554454150514065   -0.04192016706549012   -0.0020586306834227764
-0.00542220193775839   -0.042064016351341285   -0.0021087870650899044
-0.0057964420909961635   -0.050959386207146254   -0.00213377255071061
-0.0017087479024108284   -0.05087407710680371   -0.0020486541855928666
-0.0009554454150514065   -0.04192016706549012   -0.0020586306834227764
-0.001646540863908121   -0.05091555229422868   -0.0020027838169082044
-0.00542220193775839   -0.042064016351341285   -0.0021087870650899044
-0.0009206325725659623   -0.04194566746873484   -0.002025037087453907
-0.001646540863908121   -0.05091555229422868   -0.0020027838169082044
-0.0009554454150514065   -0.04192016706549012   -0.0020586306834227764
-0.00542220193775839   -0.042064016351341285   -0.0021087870650899044
-0.001646540863908121   -0.05091555229422868   -0.0020027838169082044
-0.0057248928733725545   -0.05102925249605225   -0.0021262501402181965
-0.0057964420909961635   -0.050959386207146254   -0.00213377255071061
-0.00542220193775839   -0.042064016351341285   -0.0021087870650899044
-0.001646540863908121   -0.05091555229422868   -0.0020027838169082044
-0.0057964420909961635   -0.050959386207146254   -0.00213377255071061
-0.0009554454150514065   -0.04192016706549012   -0.0020586306834227764
-0.0010397268631601488   -0.041893829853687496   -0.0021547812539768297
-0.0018500291350540844   -0.05085330733803906   -0.0021698803731699454
0.003600831111678501   -0.041839116514067826   -0.0021732801952784302
-0.0009964212533190608   -0.04190301777921823   -0.0021019883726927707
-0.0018500291350540844   -0.05085330733803906   -0.0021698803731699454
0.0023711494556517285   -0.050753021471271746   -0.0022087383464750045
0.003600831111678501   -0.041839116514067826   -0.0021732801952784302
0.0024586679084419795   -0.05072545840271296   -0.002105417235627661
-0.0009964212533190608   -0.04190301777921823   -0.0021019883726927707
0.00365603973468496   -0.04181754843150061   -0.0021052555784302064
0.0024586679084419795   -0.05072545840271296   -0.002105417235627661
0.003600831111678501   -0.041839116514067826   -0.0021732801952784302
-0.0009964212533190608   -0.04190301777921823   -0.0021019883726927707
0.0024586679084419795   -0.05072545840271296   -0.002105417235627661
-0.0017784529908936356   -0.05085388510321554   -0.002104464211339441
-0.0018500291350540844   -0.05085330733803906   -0.0021698803731699454
-0.0009964212533190608   -0.04190301777921823   -0.0021019883726927707
0.0024586679084419795   -0.05072545840271296   -0.002105417235627661
-0.0018500291350540844   -0.05085330733803906   -0.0021698803731699454
0.003600831111678501   -0.041839116514067826   -0.0021732801952784302
-0.0009964212533190608   -0.04190301777921823   -0.0021019883726927707
-0.0017784529908936356   -0.05085388510321554   -0.002104464211339441
0.00365603973468496   -0.04181754843150061   -0.0021052555784302064
-0.0009554454150514065   -0.04192016706549012   -0.0020586306834227764
-0.0017784529908936356   -0.05085388510321554   -0.002104464211339441
0.0024586679084419795   -0.05072545840271296   -0.002105417235627661
0.00365603973468496   -0.04181754843150061   -0.0021052555784302064
0.002548424794129386   -0.05072030608966363   -0.0020123163232357104
-0.0009554454150514065   -0.04192016706549012   -0.0020586306834227764
0.0037070895689672503   -0.04180632943817555   -0.0020466371718293437
0.002548424794129386   -0.05072030608966363   -0.0020123163232357104
0.00365603973468496   -0.04181754843150061   -0.0021052555784302064
-0.0009554454150514065   -0.04192016706549012   -0.0020586306834227764
0.002548424794129386   -0.05072030608966363   -0.0020123163232357104
-0.0017087479024108284   -0.05087407710680371   -0.0020486541855928666
-0.0017784529908936356   -0.05085388510321554   -0.002104464211339441
-0.0009554454150514065   -0.04192016706549012   -0.0020586306834227764
0.002548424794129386   -0.05072030608966363   -0.0020123163232357104
-0.0017784529908936356   -0.05085388510321554   -0.002104464211339441
0.00365603973468496   -0.04181754843150061   -0.0021052555784302064
-0.0009554454150514065   -0.04192016706549012   -0.0020586306834227764
-0.0017087479024108284   -0.05087407710680371   -0.0020486541855928666
0.0037070895689672503   -0.04180632943817555   -0.0020466371718293437
-0.0009206325725659623   -0.04194566746873484   -0.002025037087453907
-0.0017087479024108284   -0.05087407710680371   -0.0020486541855928666
0.002548424794129386   -0.05072030608966363   -0.0020123163232357104
0.0037070895689672503   -0.04180632943817555   -0.0020466371718293437
0.0026081454603710903   -0.05073343294566125   -0.0019280874861632557
-0.0009206325725659623   -0.04194566746873484   -0.002025037087453907
0.0037345680974214773   -0.04180004497447109   -0.0019968108784386143
0.0026081454603710903   -0.05073343294566125   -0.0019280874861632557
0.0037070895689672503   -0.04180632943817555   -0.0020466371718293437
-0.0009206325725659623   -0.04194566746873484   -0.002025037087453907
0.0026081454603710903   -0.05073343294566125   -0.0019280874861632557
-0.001646540863908121   -0.05091555229422868   -0.0020027838169082044
-0.0017087479024108284   -0.05087407710680371   -0.0020486541855928666
-0.0009206325725659623   -0.04194566746873484   -0.002025037087453907
0.0026081454603710903   -0.05073343294566125   -0.0019280874861632557
-0.0017087479024108284   -0.05087407710680371   -0.0020486541855928666
0.0037070895689672503   -0.04180632943817555   -0.0020466371718293437
0.003600831111678501   -0.041839116514067826   -0.0021732801952784302
0.0023711494556517285   -0.050753021471271746   -0.0022087383464750045
0.008568971156373324   -0.04174714591579662   -0.0022502796176777614
0.00365603973468496   -0.04181754843150061   -0.0021052555784302064
0.0023711494556517285   -0.050753021471271746   -0.0022087383464750045
0.006861214656892905   -0.050580594078519475   -0.0023088798985235817
0.008568971156373324   -0.04174714591579662   -0.0022502796176777614
0.00709407851900899   -0.050523808224101185   -0.0021585136861085106
0.00365603973468496   -0.04181754843150061   -0.0021052555784302064
0.008712903464257089   -0.04169768818670874   -0.0021609484311742883
0.00709407851900899   -0.050523808224101185   -0.0021585136861085106
0.008568971156373324   -0.04174714591579662   -0.0022502796176777614
0.00365603973468496   -0.04181754843150061   -0.0021052555784302064
0.00709407851900899   -0.050523808224101185   -0.0021585136861085106
0.0024586679084419795   -0.05072545840271296   -0.002105417235627661
0.0023711494556517285   -0.050753021471271746   -0.0022087383464750045
0.00365603973468496   -0.04181754843150061   -0.0021052555784302064
0.00709407851900899   -0.050523808224101185   -0.0021585136861085106
0.0023711494556517285   -0.050753021471271746   -0.0022087383464750045
0.008568971156373324   -0.04174714591579662   -0.0022502796176777614
0.00365603973468496   -0.04181754843150061   -0.0021052555784302064
0.0024586679084419795   -0.05072545840271296   -0.002105417235627661
0.008712903464257089   -0.04169768818670874   -0.0021609484311742883
0.0037070895689672503   -0.04180632943817555   -0.0020466371718293437
0.0024586679084419795   -0.05072545840271296   -0.002105417235627661
0.00709407851900899   -0.050523808224101185   -0.0021585136861085106
0.008712903464257089   -0.04169768818670874   -0.0021609484311742883
0.007266549997418753   -0.050508182877616   -0.0020217414951092024
0.0037070895689672503   -0.04180632943817555   -0.0020466371718293437
0.008811873167841282   -0.041673699916292224   -0.0020850158676556526
0.007266549997418753   -0.050508182877616   -0.0020217414951092024
0.008712903464257089   -0.04169768818670874   -0.0021609484311742883
0.0037070895689672503   -0.04180632943817555   -0.0020466371718293437
0.007266549997418753   -0.050508182877616   -0.0020217414951092024
0.002548424794129386   -0.05072030608966363   -0.0020123163232357104
0.0024586679084419795   -0.05072545840271296   -0.002105417235627661
0.0037070895689672503   -0.04180632943817555   -0.0020466371718293437
0.007266549997418753   -0.050508182877616   -0.0020217414951092024
0.0024586679084419795   -0.05072545840271296   -0.002105417235627661
0.008712903464257089   -0.04169768818670874   -0.0021609484311742883
0.0037070895689672503   -0.04180632943817555   -0.0020466371718293437
0.002548424794129386   -0.05072030608966363   -0.0020123163232357104
0.008811873167841282   -0.041673699916292224   -0.0020850158676556526
0.0037345680974214773   -0.04180004497447109   -0.0019968108784386143
0.002548424794129386   -0.05072030608966363   -0.0020123163232357104
0.007266549997418753   -0.050508182877616   -0.0020217414951092024
0.008811873167841282   -0.041673699916292224   -0.0020850158676556526
0.007441471546733866   -0.0505080470844596   -0.0018991846340576585
0.0037345680974214773   -0.04180004497447109   -0.0019968108784386143
0.008899842614699036   -0.04164764694480372   -0.002023038873138951
0.007441471546733866   -0.0505080470844596   -0.0018991846340576585
0.008811873167841282   -0.041673699916292224   -0.0020850158676556526
0.0037345680974214773   -0.04180004497447109   -0.0019968108784386143
0.007441471546733866   -0.0505080470844596   -0.0018991846340576585
0.0026081454603710903   -0.05073343294566125   -0.0019280874861632557
0.002548424794129386   -0.05072030608966363   -0.0020123163232357104
0.0037345680974214773   -0.04180004497447109   -0.0019968108784386143
0.007441471546733866   -0.0505080470844596   -0.0018991846340576585
0.002548424794129386   -0.05072030608966363   -0.0020123163232357104
0.008811873167841282   -0.041673699916292224   -0.0020850158676556526
-0.014833024297917104   -0.05074209050225312   -0.002313423804479534
-0.013537210965961704   -0.05857448429967545   -0.00215754779245101
-0.010138892036851359   -0.05084405328864209   -0.0022311484345273695
-0.014725707037922905   -0.05081210470055348   -0.0023722810037232777
-0.013537210965961704   -0.05857448429967545   -0.00215754779245101
-0.009586803497908773   -0.05875833690747988   -0.0021443199508806026
-0.010138892036851359   -0.05084405328864209   -0.0022311484345273695
-0.009488310155939667   -0.05878492295907627   -0.0021878079465073082
-0.014725707037922905   -0.05081210470055348   -0.0023722810037232777
-0.010079447847336847   -0.050895905499261734   -0.0022436128535033074
-0.009488310155939667   -0.05878492295907627   -0.0021878079465073082
-0.010138892036851359   -0.05084405328864209   -0.0022311484345273695
-0.014725707037922905   -0.05081210470055348   -0.0023722810037232777
-0.009488310155939667   -0.05878492295907627   -0.0021878079465073082
-0.013331995295300119   -0.058613930669391016   -0.0022793251710944654
-0.013537210965961704   -0.05857448429967545   -0.00215754779245101
-0.014725707037922905   -0.05081210470055348   -0.0023722810037232777
-0.009488310155939667   -0.05878492295907627   -0.0021878079465073082
-0.013537210965961704   -0.05857448429967545   -0.00215754779245101
-0.010138892036851359   -0.05084405328864209   -0.0022311484345273695
-0.014725707037922905   -0.05081210470055348   -0.0023722810037232777
-0.013331995295300119   -0.058613930669391016   -0.0022793251710944654
-0.010079447847336847   -0.050895905499261734   -0.0022436128535033074
-0.014603275852511059   -0.05089808511530699   -0.002446392667367361
-0.013331995295300119   -0.058613930669391016   -0.0022793251710944654
-0.009488310155939667   -0.05878492295907627   -0.0021878079465073082
-0.010079447847336847   -0.050895905499261734   -0.0022436128535033074
-0.009364597102031271   -0.05884864825637925   -0.002241134430692187
-0.014603275852511059   -0.05089808511530699   -0.002446392667367361
-0.009998996635827902   -0.05096976793474059   -0.0022657773437011926
-0.009364597102031271   -0.05884864825637925   -0.002241134430692187
-0.010079447847336847   -0.050895905499261734   -0.0022436128535033074
-0.014603275852511059   -0.05089808511530699   -0.002446392667367361
-0.009364597102031271   -0.05884864825637925   -0.002241134430692187
-0.013127339147633435   -0.05868871811507042   -0.002417122062039003
-0.013331995295300119   -0.058613930669391016   -0.0022793251710944654
-0.014603275852511059   -0.05089808511530699   -0.002446392667367361
-0.009364597102031271   -0.05884864825637925   -0.002241134430692187
-0.013331995295300119   -0.058613930669391016   -0.0022793251710944654
-0.010079447847336847   -0.050895905499261734   -0.0022436128535033074
-0.014603275852511059   -0.05089808511530699   -0.002446392667367361
-0.013127339147633435   -0.05868871811507042   -0.002417122062039003
-0.009998996635827902   -0.05096976793474059   -0.0022657773437011926
-0.014436609982951846   -0.05102899029266064   -0.0025360435980409895
-0.013127339147633435   -0.05868871811507042   -0.002417122062039003
-0.009364597102031271   -0.05884864825637925   -0.002241134430692187
-0.009998996635827902   -0.05096976793474059   -0.0022657773437011926
-0.009242539009774594   -0.05895313296356634   -0.002304206913908794
-0.014436609982951846   -0.05102899029266064   -0.0025360435980409895
-0.009912687009593558   -0.05107014830049262   -0.002297925851572538
-0.009242539009774594   -0.05895313296356634   -0.002304206913908794
-0.009998996635827902   -0.05096976793474059   -0.0022657773437011926
-0.014436609982951846   -0.05102899029266064   -0.0025360435980409895
-0.009242539009774594   -0.05895313296356634   -0.002304206913908794
-0.012865198741118675   -0.05882817479873547   -0.0025706462625394704
-0.013127339147633435   -0.05868871811507042   -0.002417122062039003
-0.014436609982951846   -0.05102899029266064   -0.0025360435980409895
-0.009242539009774594   -0.05895313296356634   -0.002304206913908794
-0.013127339147633435   -0.05868871811507042   -0.002417122062039003
-0.009998996635827902   -0.05096976793474059   -0.0022657773437011926
-0.010138892036851359   -0.05084405328864209   -0.0022311484345273695
-0.009586803497908773   -0.05875833690747988   -0.0021443199508806026
-0.0059307666193670625   -0.0508843447476842   -0.002178501803492433
-0.010079447847336847   -0.050895905499261734   -0.0022436128535033074
-0.009586803497908773   -0.05875833690747988   -0.0021443199508806026
-0.00616577378479092   -0.05884438533815067   -0.002139093115466993
-0.0059307666193670625   -0.0508843447476842   -0.002178501803492433
-0.006064734411702127   -0.05885309259817259   -0.0021196149425962768
-0.010079447847336847   -0.050895905499261734   -0.0022436128535033074
-0.00586605087425753   -0.05091128583532616   -0.0021513464347894624
-0.006064734411702127   -0.05885309259817259   -0.0021196149425962768
-0.0059307666193670625   -0.0508843447476842   -0.002178501803492433
-0.010079447847336847   -0.050895905499261734   -0.0022436128535033074
-0.006064734411702127   -0.05885309259817259   -0.0021196149425962768
-0.009488310155939667   -0.05878492295907627   -0.0021878079465073082
-0.009586803497908773   -0.05875833690747988   -0.0021443199508806026
-0.010079447847336847   -0.050895905499261734   -0.0022436128535033074
-0.006064734411702127   -0.05885309259817259   -0.0021196149425962768
-0.009586803497908773   -0.05875833690747988   -0.0021443199508806026
-0.0059307666193670625   -0.0508843447476842   -0.002178501803492433
-0.010079447847336847   -0.050895905499261734   -0.0022436128535033074
-0.009488310155939667   -0.05878492295907627   -0.0021878079465073082
-0.00586605087425753   -0.05091128583532616   -0.0021513464347894624
-0.009998996635827902   -0.05096976793474059   -0.0022657773437011926
-0.009488310155939667   -0.05878492295907627   -0.0021878079465073082
-0.006064734411702127   -0.05885309259817259   -0.0021196149425962768
-0.00586605087425753   -0.05091128583532616   -0.0021513464347894624
-0.005960444371345323   -0.05889496504883408   -0.0021096838934592126
-0.009998996635827902   -0.05096976793474059   -0.0022657773437011926
-0.0057964420909961635   -0.050959386207146254   -0.00213377255071061
-0.005960444371345323   -0.05889496504883408   -0.0021096838934592126
-0.00586605087425753   -0.05091128583532616   -0.0021513464347894624
-0.009998996635827902   -0.05096976793474059   -0.0022657773437011926
-0.005960444371345323   -0.05889496504883408   -0.0021096838934592126
-0.009364597102031271   -0.05884864825637925   -0.002241134430692187
-0.009488310155939667   -0.05878492295907627   -0.0021878079465073082
-0.009998996635827902   -0.05096976793474059   -0.0022657773437011926
-0.005960444371345323   -0.05889496504883408   -0.0021096838934592126
-0.009488310155939667   -0.05878492295907627   -0.0021878079465073082
-0.00586605087425753   -0.05091128583532616   -0.0021513464347894624
-0.009998996635827902   -0.05096976793474059   -0.0022657773437011926
-0.009364597102031271   -0.05884864825637925   -0.002241134430692187
-0.0057964420909961635   -0.050959386207146254   -0.00213377255071061
-0.009912687009593558   -0.05107014830049262   -0.002297925851572538
-0.009364597102031271   -0.05884864825637925   -0.002241134430692187
-0.005960444371345323   -0.05889496504883408   -0.0021096838934592126
-0.0057964420909961635   -0.050959386207146254   -0.00213377255071061
-0.00585632207291457   -0.05897195033425815   -0.00210917973317914
-0.009912687009593558   -0.05107014830049262   -0.002297925851572538
-0.0057248928733725545   -0.05102925249605225   -0.0021262501402181965
-0.00585632207291457   -0.05897195033425815   -0.00210917973317914
-0.0057964420909961635   -0.050959386207146254   -0.00213377255071061
-0.009912687009593558   -0.05107014830049262   -0.002297925851572538
-0.00585632207291457   -0.05897195033425815   -0.00210917973317914
-0.009242539009774594   -0.05895313296356634   -0.002304206913908794
-0.009364597102031271   -0.05884864825637925   -0.002241134430692187
-0.009912687009593558   -0.05107014830049262   -0.002297925851572538
-0.00585632207291457   -0.05897195033425815   -0.00210917973317914
-0.009364597102031271   -0.05884864825637925   -0.002241134430692187
-0.0057964420909961635   -0.050959386207146254   -0.00213377255071061
-0.0059307666193670625   -0.0508843447476842   -0.002178501803492433
-0.00616577378479092   -0.05884438533815067   -0.002139093115466993
-0.0018500291350540844   -0.05085330733803906   -0.0021698803731699454
-0.00586605087425753   -0.05091128583532616   -0.0021513464347894624
-0.00616577378479092   -0.05884438533815067   -0.002139093115466993
-0.002858267599090802   -0.05882862243520797   -0.0021636908817703436
-0.0018500291350540844   -0.05085330733803906   -0.0021698803731699454
-0.002747595655867022   -0.05881724477921909   -0.0020834543546904023
-0.00586605087425753   -0.05091128583532616   -0.0021513464347894624
-0.0017784529908936356   -0.05085388510321554   -0.002104464211339441
-0.002747595655867022   -0.05881724477921909   -0.0020834543546904023
-0.0018500291350540844   -0.05085330733803906   -0.0021698803731699454
-0.00586605087425753   -0.05091128583532616   -0.0021513464347894624
-0.002747595655867022   -0.05881724477921909   -0.0020834543546904023
-0.006064734411702127   -0.05885309259817259   -0.0021196149425962768
-0.00616577378479092   -0.05884438533815067   -0.002139093115466993
-0.00586605087425753   -0.05091128583532616   -0.0021513464347894624
-0.002747595655867022   -0.05881724477921909   -0.0020834543546904023
-0.00616577378479092   -0.05884438533815067   -0.002139093115466993
-0.0018500291350540844   -0.05085330733803906   -0.0021698803731699454
-0.00586605087425753   -0.05091128583532616   -0.0021513464347894624
-0.006064734411702127   -0.05885309259817259   -0.0021196149425962768
-0.0017784529908936356   -0.05085388510321554   -0.002104464211339441
-0.0057964420909961635   -0.050959386207146254   -0.00213377255071061
-0.006064734411702127   -0.05885309259817259   -0.0021196149425962768
-0.002747595655867022   -0.05881724477921909   -0.0020834543546904023
-0.0017784529908936356   -0.05085388510321554   -0.002104464211339441
-0.002640179621751862   -0.0588358648189737   -0.0020133949214692923
-0.0057964420909961635   -0.050959386207146254   -0.00213377255071061
-0.0017087479024108284   -0.05087407710680371   -0.0020486541855928666
-0.002640179621751862   -0.0588358648189737   -0.0020133949214692923
-0.0017784529908936356   -0.05085388510321554   -0.002104464211339441
-0.0057964420909961635   -0.050959386207146254   -0.00213377255071061
-0.002640179621751862   -0.0588358648189737   -0.0020133949214692923
-0.005960444371345323   -0.05889496504883408   -0.0021096838934592126
-0.006064734411702127   -0.05885309259817259   -0.0021196149425962768
-0.0057964420909961635   -0.050959386207146254   -0.00213377255071061
-0.002640179621751862   -0.0588358648189737   -0.0020133949214692923
-0.006064734411702127   -0.05885309259817259   -0.0021196149425962768
-0.0017784529908936356   -0.05085388510321554   -0.002104464211339441
-0.0057964420909961635   -0.050959386207146254   -0.00213377255071061
-0.005960444371345323   -0.05889496504883408   -0.0021096838934592126
-0.0017087479024108284   -0.05087407710680371   -0.0020486541855928666
-0.0057248928733725545   -0.05102925249605225   -0.0021262501402181965
-0.005960444371345323   -0.05889496504883408   -0.0021096838934592126
-0.002640179621751862   -0.0588358648189737   -0.0020133949214692923
-0.0017087479024108284   -0.05087407710680371   -0.0020486541855928666
-0.002543126040807027   -0.05888882070596802   -0.0019526323917418154
-0.0057248928733725545   -0.05102925249605225   -0.0021262501402181965
-0.001646540863908121   -0.05091555229422868   -0.0020027838169082044
-0.002543126040807027   -0.05888882070596802   -0.0019526323917418154
-0.0017087479024108284   -0.05087407710680371   -0.0020486541855928666
-0.0057248928733725545   -0.05102925249605225   -0.0021262501402181965
-0.002543126040807027   -0.05888882070596802   -0.0019526323917418154
-0.00585632207291457   -0.05897195033425815   -0.00210917973317914
-0.005960444371345323   -0.05889496504883408   -0.0021096838934592126
-0.0057248928733725545   -0.05102925249605225   -0.0021262501402181965
-0.002543126040807027   -0.05888882070596802   -0.0019526323917418154
-0.005960444371345323   -0.05889496504883408   -0.0021096838934592126
-0.0017087479024108284   -0.05087407710680371   -0.0020486541855928666
-0.0018500291350540844   -0.05085330733803906   -0.0021698803731699454
-0.002858267599090802   -0.05882862243520797   -0.0021636908817703436
0.0023711494556517285   -0.050753021471271746   -0.0022087383464750045
-0.0017784529908936356   -0.05085388510321554   -0.002104464211339441
-0.002858267599090802   -0.05882862243520797   -0.0021636908817703436
0.000603902774096735   -0.058707403196929124   -0.0022234913009223016
0.0023711494556517285   -0.050753021471271746   -0.0022087383464750045
0.0007385502791816658   -0.05867052785402171   -0.0020827008367565133
-0.0017784529908936356   -0.05085388510321554   -0.002104464211339441
0.0024586679084419795   -0.05072545840271296   -0.002105417235627661
0.0007385502791816658   -0.05867052785402171   -0.0020827008367565133
0.0023711494556517285   -0.050753021471271746   -0.0022087383464750045
-0.0017784529908936356   -0.05085388510321554   -0.002104464211339441
0.0007385502791816658   -0.05867052785402171   -0.0020827008367565133
-0.002747595655867022   -0.05881724477921909   -0.0020834543546904023
-0.002858267599090802   -0.05882862243520797   -0.0021636908817703436
-0.0017784529908936356   -0.05085388510321554   -0.002104464211339441
0.0007385502791816658   -0.05867052785402171   -0.0020827008367565133
-0.002858267599090802   -0.05882862243520797   -0.0021636908817703436
0.0023711494556517285   -0.050753021471271746   -0.0022087383464750045
-0.0017784529908936356   -0.05085388510321554   -0.002104464211339441
-0.002747595655867022   -0.05881724477921909   -0.0020834543546904023
0.0024586679084419795   -0.05072545840271296   -0.002105417235627661
-0.0017087479024108284   -0.05087407710680371   -0.0020486541855928666
-0.002747595655867022   -0.05881724477921909   -0.0020834543546904023
0.0007385502791816658   -0.05867052785402171   -0.0020827008367565133
0.0024586679084419795   -0.05072545840271296   -0.002105417235627661
0.0008804717432539538   -0.058667190516291996   -0.0019548091449045437
-0.0017087479024108284   -0.05087407710680371   -0.0020486541855928666
0.002548424794129386   -0.05072030608966363   -0.0020123163232357104
0.0008804717432539538   -0.058667190516291996   -0.0019548091449045437
0.0024586679084419795   -0.05072545840271296   -0.002105417235627661
-0.0017087479024108284   -0.05087407710680371   -0.0020486541855928666
0.0008804717432539538   -0.058667190516291996   -0.0019548091449045437
-0.002640179621751862   -0.0588358648189737   -0.0020133949214692923
-0.002747595655867022   -0.05881724477921909   -0.0020834543546904023
-0.0017087479024108284   -0.05087407710680371   -0.0020486541855928666
0.0008804717432539538   -0.058667190516291996   -0.0019548091449045437
-0.002747595655867022   -0.05881724477921909   -0.0020834543546904023
0.0024586679084419795   -0.05072545840271296   -0.002105417235627661
-0.0017087479024108284   -0.05087407710680371   -0.0020486541855928666
-0.002640179621751862   -0.0588358648189737   -0.0020133949214692923
0.002548424794129386   -0.05072030608966363   -0.0020123163232357104
-0.001646540863908121   -0.05091555229422868   -0.0020027838169082044
-0.002640179621751862   -0.0588358648189737   -0.0020133949214692923
0.0008804717432539538   -0.058667190516291996   -0.0019548091449045437
0.002548424794129386   -0.05072030608966363   -0.0020123163232357104
0.0009842676823554853   -0.05869586164223622   -0.0018357980280365807
-0.001646540863908121   -0.05091555229422868   -0.0020027838169082044
0.0026081454603710903   -0.05073343294566125   -0.0019280874861632557
0.0009842676823554853   -0.05869586164223622   -0.0018357980280365807
0.002548424794129386   -0.05072030608966363   -0.0020123163232357104
-0.001646540863908121   -0.05091555229422868   -0.0020027838169082044
0.0009842676823554853   -0.05869586164223622   -0.0018357980280365807
-0.002543126040807027   -0.05888882070596802   -0.0019526323917418154
-0.002640179621751862   -0.0588358648189737   -0.0020133949214692923
-0.001646540863908121   -0.05091555229422868   -0.0020027838169082044
0.0009842676823554853   -0.05869586164223622   -0.0018357980280365807
-0.002640179621751862   -0.0588358648189737   -0.0020133949214692923
0.002548424794129386   -0.05072030608966363   -0.0020123163232357104
0.0023711494556517285   -0.050753021471271746   -0.0022087383464750045
0.000603902774096735   -0.058707403196929124   -0.0022234913009223016
0.006861214656892905   -0.050580594078519475   -0.0023088798985235817
0.0024586679084419795   -0.05072545840271296   -0.002105417235627661
0.000603902774096735   -0.058707403196929124   -0.0022234913009223016
0.004294353991750833   -0.05846924382211651   -0.002351235254260444
0.006861214656892905   -0.050580594078519475   -0.0023088798985235817
0.004635566641399703   -0.058398489074791136   -0.0021357491313818825
0.0024586679084419795   -0.05072545840271296   -0.002105417235627661
0.00709407851900899   -0.050523808224101185   -0.0021585136861085106
0.004635566641399703   -0.058398489074791136   -0.0021357491313818825
0.006861214656892905   -0.050580594078519475   -0.0023088798985235817
0.0024586679084419795   -0.05072545840271296   -0.002105417235627661
0.004635566641399703   -0.058398489074791136   -0.0021357491313818825
0.0007385502791816658   -0.05867052785402171   -0.0020827008367565133
0.000603902774096735   -0.058707403196929124   -0.0022234913009223016
0.0024586679084419795   -0.05072545840271296   -0.002105417235627661
0.004635566641399703   -0.058398489074791136   -0.0021357491313818825
0.000603902774096735   -0.058707403196929124   -0.0022234913009223016
0.006861214656892905   -0.050580594078519475   -0.0023088798985235817
0.0024586679084419795   -0.05072545840271296   -0.002105417235627661
0.0007385502791816658   -0.05867052785402171   -0.0020827008367565133
0.00709407851900899   -0.050523808224101185   -0.0021585136861085106
0.002548424794129386   -0.05072030608966363   -0.0020123163232357104
0.0007385502791816658   -0.05867052785402171   -0.0020827008367565133
0.004635566641399703   -0.058398489074791136   -0.0021357491313818825
0.00709407851900899   -0.050523808224101185   -0.0021585136861085106
0.004897195401976503   -0.05838623673274729   -0.0019362594414607615
0.002548424794129386   -0.05072030608966363   -0.0020123163232357104
0.007266549997418753   -0.050508182877616   -0.0020217414951092024
0.004897195401976503   -0.05838623673274729   -0.0019362594414607615
0.00709407851900899   -0.050523808224101185   -0.0021585136861085106
0.002548424794129386   -0.05072030608966363   -0.0020123163232357104
0.004897195401976503   -0.05838623673274729   -0.0019362594414607615
0.0008804717432539538   -0.058667190516291996   -0.0019548091449045437
0.0007385502791816658   -0.05867052785402171   -0.0020827008367565133
0.002548424794129386   -0.05072030608966363   -0.0020123163232357104
0.004897195401976503   -0.05838623673274729   -0.0019362594414607615
0.0007385502791816658   -0.05867052785402171   -0.0020827008367565133
0.00709407851900899   -0.050523808224101185   -0.0021585136861085106
0.002548424794129386   -0.05072030608966363   -0.0020123163232357104
0.0008804717432539538   -0.058667190516291996   -0.0019548091449045437
0.007266549997418753   -0.050508182877616   -0.0020217414951092024
0.0026081454603710903   -0.05073343294566125   -0.0019280874861632557
0.0008804717432539538   -0.058667190516291996   -0.0019548091449045437
0.004897195401976503   -0.05838623673274729   -0.0019362594414607615
0.007266549997418753   -0.050508182877616   -0.0020217414951092024
0.005168328196071249   -0.058407247980990895   -0.0017543947263340197
0.0026081454603710903   -0.05073343294566125   -0.0019280874861632557
0.007441471546733866   -0.0505080470844596   -0.0018991846340576585
0.005168328196071249   -0.058407247980990895   -0.0017543947263340197
0.007266549997418753   -0.050508182877616   -0.0020217414951092024
0.0026081454603710903   -0.05073343294566125   -0.0019280874861632557
0.005168328196071249   -0.058407247980990895   -0.0017543947263340197
0.0009842676823554853   -0.05869586164223622   -0.0018357980280365807
0.0008804717432539538   -0.058667190516291996   -0.0019548091449045437
0.0026081454603710903   -0.05073343294566125   -0.0019280874861632557
0.005168328196071249   -0.058407247980990895   -0.0017543947263340197
0.0008804717432539538   -0.058667190516291996   -0.0019548091449045437
0.007266549997418753   -0.050508182877616   -0.0020217414951092024
-0.013537210965961704   -0.05857448429967545   -0.00215754779245101
-0.011339366297530375   -0.06472189741339382   -0.001957660488995855
-0.009586803497908773   -0.05875833690747988   -0.0021443199508806026
-0.013331995295300119   -0.058613930669391016   -0.0022793251710944654
-0.011339366297530375   -0.06472189741339382   -0.001957660488995855
-0.00852782207338668   -0.0649940512659465   -0.0020392712847441138
-0.009586803497908773   -0.05875833690747988   -0.0021443199508806026
-0.00838605759423715   -0.06498006494761158   -0.0021061928900122776
-0.013331995295300119   -0.058613930669391016   -0.0022793251710944654
-0.009488310155939667   -0.05878492295907627   -0.0021878079465073082
-0.00838605759423715   -0.06498006494761158   -0.0021061928900122776
-0.009586803497908773   -0.05875833690747988   -0.0021443199508806026
-0.013331995295300119   -0.058613930669391016   -0.0022793251710944654
-0.00838605759423715   -0.06498006494761158   -0.0021061928900122776
-0.011033618697736851   -0.06471425770002133   -0.002138091309733342
-0.011339366297530375   -0.06472189741339382   -0.001957660488995855
-0.013331995295300119   -0.058613930669391016   -0.0022793251710944654
-0.00838605759423715   -0.06498006494761158   -0.0021061928900122776
-0.011339366297530375   -0.06472189741339382   -0.001957660488995855
-0.009586803497908773   -0.05875833690747988   -0.0021443199508806026
-0.013331995295300119   -0.058613930669391016   -0.0022793251710944654
-0.011033618697736851   -0.06471425770002133   -0.002138091309733342
-0.009488310155939667   -0.05878492295907627   -0.0021878079465073082
-0.013127339147633435   -0.05868871811507042   -0.002417122062039003
-0.011033618697736851   -0.06471425770002133   -0.002138091309733342
-0.00838605759423715   -0.06498006494761158   -0.0021061928900122776
-0.009488310155939667   -0.05878492295907627   -0.0021878079465073082
-0.008219297092992298   -0.06501929306136416   -0.0021831619343342145
-0.013127339147633435   -0.05868871811507042   -0.002417122062039003
-0.009364597102031271   -0.05884864825637925   -0.002241134430692187
-0.008219297092992298   -0.06501929306136416   -0.0021831619343342145
-0.009488310155939667   -0.05878492295907627   -0.0021878079465073082
-0.013127339147633435   -0.05868871811507042   -0.002417122062039003
-0.008219297092992298   -0.06501929306136416   -0.0021831619343342145
-0.0107518080539645   -0.06476271696800966   -0.0023326742299211085
-0.011033618697736851   -0.06471425770002133   -0.002138091309733342
-0.013127339147633435   -0.05868871811507042   -0.002417122062039003
-0.008219297092992298   -0.06501929306136416   -0.0021831619343342145
-0.011033618697736851   -0.06471425770002133   -0.002138091309733342
-0.009488310155939667   -0.05878492295907627   -0.0021878079465073082
-0.013127339147633435   -0.05868871811507042   -0.002417122062039003
-0.0107518080539645   -0.06476271696800966   -0.0023326742299211085
-0.009364597102031271   -0.05884864825637925   -0.002241134430692187
-0.012865198741118675   -0.05882817479873547   -0.0025706462625394704
-0.0107518080539645   -0.06476271696800966   -0.0023326742299211085
-0.008219297092992298   -0.06501929306136416   -0.0021831619343342145
-0.009364597102031271   -0.05884864825637925   -0.002241134430692187
-0.008068013890681174   -0.06511263292879114   -0.0022695362643361653
-0.012865198741118675   -0.05882817479873547   -0.0025706462625394704
-0.009242539009774594   -0.05895313296356634   -0.002304206913908794
-0.008068013890681174   -0.06511263292879114   -0.0022695362643361653
-0.009364597102031271   -0.05884864825637925   -0.002241134430692187
-0.012865198741118675   -0.05882817479873547   -0.0025706462625394704
-0.008068013890681174   -0.06511263292879114   -0.0022695362643361653
-0.010408077570451027   -0.06489205150736417   -0.0025405782102617663
-0.0107518080539645   -0.06476271696800966   -0.0023326742299211085
-0.012865198741118675   -0.05882817479873547   -0.0025706462625394704
-0.008068013890681174   -0.06511263292879114   -0.0022695362643361653
-0.0107518080539645   -0.06476271696800966   -0.0023326742299211085
-0.009364597102031271   -0.05884864825637925   -0.002241134430692187
-0.009586803497908773   -0.05875833690747988   -0.0021443199508806026
-0.00852782207338668   -0.0649940512659465   -0.0020392712847441138
-0.00616577378479092   -0.05884438533815067   -0.002139093115466993
-0.009488310155939667   -0.05878492295907627   -0.0021878079465073082
-0.00852782207338668   -0.0649940512659465   -0.0020392712847441138
-0.0062301881756575235   -0.06517030744071471   -0.0021031447045300826
-0.00616577378479092   -0.05884438533815067   -0.002139093115466993
-0.006084738234263954   -0.06514786763359567   -0.002082677479618252
-0.009488310155939667   -0.05878492295907627   -0.0021878079465073082
-0.006064734411702127   -0.05885309259817259   -0.0021196149425962768
-0.006084738234263954   -0.06514786763359567   -0.002082677479618252
-0.00616577378479092   -0.05884438533815067   -0.002139093115466993
-0.009488310155939667   -0.05878492295907627   -0.0021878079465073082
-0.006084738234263954   -0.06514786763359567   -0.002082677479618252
-0.00838605759423715   -0.06498006494761158   -0.0021061928900122776
-0.00852782207338668   -0.0649940512659465   -0.0020392712847441138
-0.009488310155939667   -0.05878492295907627   -0.0021878079465073082
-0.006084738234263954   -0.06514786763359567   -0.002082677479618252
-0.00852782207338668   -0.0649940512659465   -0.0020392712847441138
-0.00616577378479092   -0.05884438533815067   -0.002139093115466993
-0.009488310155939667   -0.05878492295907627   -0.0021878079465073082
-0.00838605759423715   -0.06498006494761158   -0.0021061928900122776
-0.006064734411702127   -0.05885309259817259   -0.0021196149425962768
-0.009364597102031271   -0.05884864825637925   -0.002241134430692187
-0.00838605759423715   -0.06498006494761158   -0.0021061928900122776
-0.006084738234263954   -0.06514786763359567   -0.002082677479618252
-0.006064734411702127   -0.05885309259817259   -0.0021196149425962768
-0.005941321032011319   -0.06517136848650912   -0.002071970607508626
-0.009364597102031271   -0.05884864825637925   -0.002241134430692187
-0.005960444371345323   -0.05889496504883408   -0.0021096838934592126
-0.005941321032011319   -0.06517136848650912   -0.002071970607508626
-0.006064734411702127   -0.05885309259817259   -0.0021196149425962768
-0.009364597102031271   -0.05884864825637925   -0.002241134430692187
-0.005941321032011319   -0.06517136848650912   -0.002071970607508626
-0.008219297092992298   -0.06501929306136416   -0.0021831619343342145
-0.00838605759423715   -0.06498006494761158   -0.0021061928900122776
-0.009364597102031271   -0.05884864825637925   -0.002241134430692187
-0.005941321032011319   -0.06517136848650912   -0.002071970607508626
-0.00838605759423715   -0.06498006494761158   -0.0021061928900122776
-0.006064734411702127   -0.05885309259817259   -0.0021196149425962768
-0.009364597102031271   -0.05884864825637925   -0.002241134430692187
-0.008219297092992298   -0.06501929306136416   -0.0021831619343342145
-0.005960444371345323   -0.05889496504883408   -0.0021096838934592126
-0.009242539009774594   -0.05895313296356634   -0.002304206913908794
-0.008219297092992298   -0.06501929306136416   -0.0021831619343342145
-0.005941321032011319   -0.06517136848650912   -0.002071970607508626
-0.005960444371345323   -0.05889496504883408   -0.0021096838934592126
-0.0058093461066896935   -0.0652423311444771   -0.0020730664381168194
-0.009242539009774594   -0.05895313296356634   -0.002304206913908794
-0.00585632207291457   -0.05897195033425815   -0.00210917973317914
-0.0058093461066896935   -0.0652423311444771   -0.0020730664381168194
-0.005960444371345323   -0.05889496504883408   -0.0021096838934592126
-0.009242539009774594   -0.05895313296356634   -0.002304206913908794
-0.0058093461066896935   -0.0652423311444771   -0.0020730664381168194
-0.008068013890681174   -0.06511263292879114   -0.0022695362643361653
-0.008219297092992298   -0.06501929306136416   -0.0021831619343342145
-0.009242539009774594   -0.05895313296356634   -0.002304206913908794
-0.0058093461066896935   -0.0652423311444771   -0.0020730664381168194
-0.008219297092992298   -0.06501929306136416   -0.0021831619343342145
-0.005960444371345323   -0.05889496504883408   -0.0021096838934592126
-0.00616577378479092   -0.05884438533815067   -0.002139093115466993
-0.0062301881756575235   -0.06517030744071471   -0.0021031447045300826
-0.002858267599090802   -0.05882862243520797   -0.0021636908817703436
-0.006064734411702127   -0.05885309259817259   -0.0021196149425962768
-0.0062301881756575235   -0.06517030744071471   -0.0021031447045300826
-0.004029483560377286   -0.06526268988992572   -0.002178672229682155
-0.002858267599090802   -0.05882862243520797   -0.0021636908817703436
-0.0038655247386339187   -0.0652302849614988   -0.002075783190445247
-0.006064734411702127   -0.05885309259817259   -0.0021196149425962768
-0.002747595655867022   -0.05881724477921909   -0.0020834543546904023
-0.0038655247386339187   -0.0652302849614988   -0.002075783190445247
-0.002858267599090802   -0.05882862243520797   -0.0021636908817703436
-0.006064734411702127   -0.05885309259817259   -0.0021196149425962768
-0.0038655247386339187   -0.0652302849614988   -0.002075783190445247
-0.006084738234263954   -0.06514786763359567   -0.002082677479618252
-0.0062301881756575235   -0.06517030744071471   -0.0021031447045300826
-0.006064734411702127   -0.05885309259817259   -0.0021196149425962768
-0.0038655247386339187   -0.0652302849614988   -0.002075783190445247
-0.0062301881756575235   -0.06517030744071471   -0.0021031447045300826
-0.002858267599090802   -0.05882862243520797   -0.0021636908817703436
-0.006064734411702127   -0.05885309259817259   -0.0021196149425962768
-0.006084738234263954   -0.06514786763359567   -0.002082677479618252
-0.002747595655867022   -0.05881724477921909   -0.0020834543546904023
-0.005960444371345323   -0.05889496504883408   -0.0021096838934592126
-0.006084738234263954   -0.06514786763359567   -0.002082677479618252
-0.0038655247386339187   -0.0652302849614988   -0.002075783190445247
-0.002747595655867022   -0.05881724477921909   -0.0020834543546904023
-0.0037092210238133354   -0.06523828871417611   -0.0019815267304267173
-0.005960444371345323   -0.05889496504883408   -0.0021096838934592126
-0.002640179621751862   -0.0588358648189737   -0.0020133949214692923
-0.0037092210238133354   -0.06523828871417611   -0.0019815267304267173
-0.002747595655867022   -0.05881724477921909   -0.0020834543546904023
-0.005960444371345323   -0.05889496504883408   -0.0021096838934592126
-0.0037092210238133354   -0.06523828871417611   -0.0019815267304267173
-0.005941321032011319   -0.06517136848650912   -0.002071970607508626
-0.006084738234263954   -0.06514786763359567   -0.002082677479618252
-0.005960444371345323   -0.05889496504883408   -0.0021096838934592126
-0.0037092210238133354   -0.06523828871417611   -0.0019815267304267173
-0.006084738234263954   -0.06514786763359567   -0.002082677479618252
-0.002747595655867022   -0.05881724477921909   -0.0020834543546904023
-0.005960444371345323   -0.05889496504883408   -0.0021096838934592126
-0.005941321032011319   -0.06517136848650912   -0.002071970607508626
-0.002640179621751862   -0.0588358648189737   -0.0020133949214692923
-0.00585632207291457   -0.05897195033425815   -0.00210917973317914
-0.005941321032011319   -0.06517136848650912   -0.002071970607508626
-0.0037092210238133354   -0.06523828871417611   -0.0019815267304267173
-0.002640179621751862   -0.0588358648189737   -0.0020133949214692923
-0.0035792069772887015   -0.0652945533225513   -0.0019012850753685306
-0.00585632207291457   -0.05897195033425815   -0.00210917973317914
-0.002543126040807027   -0.05888882070596802   -0.0019526323917418154
-0.0035792069772887015   -0.0652945533225513   -0.0019012850753685306
-0.002640179621751862   -0.0588358648189737   -0.0020133949214692923
-0.00585632207291457   -0.05897195033425815   -0.00210917973317914
-0.0035792069772887015   -0.0652945533225513   -0.0019012850753685306
-0.0058093461066896935   -0.0652423311444771   -0.0020730664381168194
-0.005941321032011319   -0.06517136848650912   -0.002071970607508626
-0.00585632207291457   -0.05897195033425815   -0.00210917973317914
-0.0035792069772887015   -0.0652945533225513   -0.0019012850753685306
-0.005941321032011319   -0.06517136848650912   -0.002071970607508626
-0.002640179621751862   -0.0588358648189737   -0.0020133949214692923
-0.002858267599090802   -0.05882862243520797   -0.0021636908817703436
-0.004029483560377286   -0.06526268988992572   -0.002178672229682155
0.000603902774096735   -0.058707403196929124   -0.0022234913009223016
-0.002747595655867022   -0.05881724477921909   -0.0020834543546904023
-0.004029483560377286   -0.06526268988992572   -0.002178672229682155
-0.0016895842502629508   -0.06523887876022036   -0.002267679972457294
0.000603902774096735   -0.058707403196929124   -0.0022234913009223016
-0.001479073868983136   -0.06518806937566286   -0.0020859282865290482
-0.002747595655867022   -0.05881724477921909   -0.0020834543546904023
0.0007385502791816658   -0.05867052785402171   -0.0020827008367565133
-0.001479073868983136   -0.06518806937566286   -0.0020859282865290482
0.000603902774096735   -0.058707403196929124   -0.0022234913009223016
-0.002747595655867022   -0.05881724477921909   -0.0020834543546904023
-0.001479073868983136   -0.06518806937566286   -0.0020859282865290482
-0.0038655247386339187   -0.0652302849614988   -0.002075783190445247
-0.004029483560377286   -0.06526268988992572   -0.002178672229682155
-0.002747595655867022   -0.05881724477921909   -0.0020834543546904023
-0.001479073868983136   -0.06518806937566286   -0.0020859282865290482
-0.004029483560377286   -0.06526268988992572   -0.002178672229682155
0.000603902774096735   -0.058707403196929124   -0.0022234913009223016
-0.002747595655867022   -0.05881724477921909   -0.0020834543546904023
-0.0038655247386339187   -0.0652302849614988   -0.002075783190445247
0.0007385502791816658   -0.05867052785402171   -0.0020827008367565133
-0.002640179621751862   -0.0588358648189737   -0.0020133949214692923
-0.0038655247386339187   -0.0652302849614988   -0.002075783190445247
-0.001479073868983136   -0.06518806937566286   -0.0020859282865290482
0.0007385502791816658   -0.05867052785402171   -0.0020827008367565133
-0.0012638035538103522   -0.06517913294135474   -0.0019134084847064507
-0.002640179621751862   -0.0588358648189737   -0.0020133949214692923
0.0008804717432539538   -0.058667190516291996   -0.0019548091449045437
-0.0012638035538103522   -0.06517913294135474   -0.0019134084847064507
0.0007385502791816658   -0.05867052785402171   -0.0020827008367565133
-0.002640179621751862   -0.0588358648189737   -0.0020133949214692923
-0.0012638035538103522   -0.06517913294135474   -0.0019134084847064507
-0.0037092210238133354   -0.06523828871417611   -0.0019815267304267173
-0.0038655247386339187   -0.0652302849614988   -0.002075783190445247
-0.002640179621751862   -0.0588358648189737   -0.0020133949214692923
-0.0012638035538103522   -0.06517913294135474   -0.0019134084847064507
-0.0038655247386339187   -0.0652302849614988   -0.002075783190445247
0.0007385502791816658   -0.05867052785402171   -0.0020827008367565133
-0.002640179621751862   -0.0588358648189737   -0.0020133949214692923
-0.0037092210238133354   -0.06523828871417611   -0.0019815267304267173
0.0008804717432539538   -0.058667190516291996   -0.0019548091449045437
-0.002543126040807027   -0.05888882070596802   -0.0019526323917418154
-0.0037092210238133354   -0.06523828871417611   -0.0019815267304267173
-0.0012638035538103522   -0.06517913294135474   -0.0019134084847064507
0.0008804717432539538   -0.058667190516291996   -0.0019548091449045437
-0.0011043857688926898   -0.06522107281443243   -0.001756699358469989
-0.002543126040807027   -0.05888882070596802   -0.0019526323917418154
0.0009842676823554853   -0.05869586164223622   -0.0018357980280365807
-0.0011043857688926898   -0.06522107281443243   -0.001756699358469989
0.0008804717432539538   -0.058667190516291996   -0.0019548091449045437
-0.002543126040807027   -0.05888882070596802   -0.0019526323917418154
-0.0011043857688926898   -0.06522107281443243   -0.001756699358469989
-0.0035792069772887015   -0.0652945533225513   -0.0019012850753685306
-0.0037092210238133354   -0.06523828871417611   -0.0019815267304267173
-0.002543126040807027   -0.05888882070596802   -0.0019526323917418154
-0.0011043857688926898   -0.06522107281443243   -0.001756699358469989
-0.0037092210238133354   -0.06523828871417611   -0.0019815267304267173
0.0008804717432539538   -0.058667190516291996   -0.0019548091449045437
0.000603902774096735   -0.058707403196929124   -0.0022234913009223016
-0.0016895842502629508   -0.06523887876022036   -0.002267679972457294
0.004294353991750833   -0.05846924382211651   -0.002351235254260444
0.0007385502791816658   -0.05867052785402171   -0.0020827008367565133
-0.0016895842502629508   -0.06523887876022036   -0.002267679972457294
0.000828222747701106   -0.0650139669321819   -0.0024499427631099126
0.004294353991750833   -0.05846924382211651   -0.002351235254260444
0.0013191958562296996   -0.06490344622720876   -0.0021526593196192854
0.0007385502791816658   -0.05867052785402171   -0.0020827008367565133
0.004635566641399703   -0.058398489074791136   -0.0021357491313818825
0.0013191958562296996   -0.06490344622720876   -0.0021526593196192854
0.004294353991750833   -0.05846924382211651   -0.002351235254260444
0.0007385502791816658   -0.05867052785402171   -0.0020827008367565133
0.0013191958562296996   -0.06490344622720876   -0.0021526593196192854
-0.001479073868983136   -0.06518806937566286   -0.0020859282865290482
-0.0016895842502629508   -0.06523887876022036   -0.002267679972457294
0.0007385502791816658   -0.05867052785402171   -0.0020827008367565133
0.0013191958562296996   -0.06490344622720876   -0.0021526593196192854
-0.0016895842502629508   -0.06523887876022036   -0.002267679972457294
0.004294353991750833   -0.05846924382211651   -0.002351235254260444
0.0007385502791816658   -0.05867052785402171   -0.0020827008367565133
-0.001479073868983136   -0.06518806937566286   -0.0020859282865290482
0.004635566641399703   -0.058398489074791136   -0.0021357491313818825
0.0008804717432539538   -0.058667190516291996   -0.0019548091449045437
-0.001479073868983136   -0.06518806937566286   -0.0020859282865290482
0.0013191958562296996   -0.06490344622720876   -0.0021526593196192854
0.004635566641399703   -0.058398489074791136   -0.0021357491313818825
0.001705019515253546   -0.0648810857886495   -0.0018734992949157349
0.0008804717432539538   -0.058667190516291996   -0.0019548091449045437
0.004897195401976503   -0.05838623673274729   -0.0019362594414607615
0.001705019515253546   -0.0648810857886495   -0.0018734992949157349
0.004635566641399703   -0.058398489074791136   -0.0021357491313818825
0.0008804717432539538   -0.058667190516291996   -0.0019548091449045437
0.001705019515253546   -0.0648810857886495   -0.0018734992949157349
-0.0012638035538103522   -0.06517913294135474   -0.0019134084847064507
-0.001479073868983136   -0.06518806937566286   -0.0020859282865290482
0.0008804717432539538   -0.058667190516291996   -0.0019548091449045437
0.001705019515253546   -0.0648810857886495   -0.0018734992949157349
-0.001479073868983136   -0.06518806937566286   -0.0020859282865290482
0.004635566641399703   -0.058398489074791136   -0.0021357491313818825
0.0008804717432539538   -0.058667190516291996   -0.0019548091449045437
-0.0012638035538103522   -0.06517913294135474   -0.0019134084847064507
0.004897195401976503   -0.05838623673274729   -0.0019362594414607615
0.0009842676823554853   -0.05869586164223622   -0.0018357980280365807
-0.0012638035538103522   -0.06517913294135474   -0.0019134084847064507
0.001705019515253546   -0.0648810857886495   -0.0018734992949157349
0.004897195401976503   -0.05838623673274729   -0.0019362594414607615
0.002106058772292457   -0.064900000554741   -0.0016185135277772577
0.0009842676823554853   -0.05869586164223622   -0.0018357980280365807
0.005168328196071249   -0.058407247980990895   -0.0017543947263340197
0.002106058772292457   -0.064900000554741   -0.0016185135277772577
0.004897195401976503   -0.05838623673274729   -0.0019362594414607615
0.0009842676823554853   -0.05869586164223622   -0.0018357980280365807
0.002106058772292457   -0.064900000554741   -0.0016185135277772577
-0.0011043857688926898   -0.06522107281443243   -0.001756699358469989
-0.0012638035538103522   -0.06517913294135474   -0.0019134084847064507
0.0009842676823554853   -0.05869586164223622   -0.0018357980280365807
0.002106058772292457   -0.064900000554741   -0.0016185135277772577
-0.0012638035538103522   -0.06517913294135474   -0.0019134084847064507
0.004897195401976503   -0.05838623673274729   -0.0019362594414607615
-0.011339366297530375   -0.06472189741339382   -0.001957660488995855
-0.008318778828645143   -0.06837665588594587   -0.0017228558298426075
-0.00852782207338668   -0.0649940512659465   -0.0020392712847441138
-0.011033618697736851   -0.06471425770002133   -0.002138091309733342
-0.008318778828645143   -0.06837665588594587   -0.0017228558298426075
-0.007009693892598098   -0.06872077798044228   -0.0019295469152589147
-0.00852782207338668   -0.0649940512659465   -0.0020392712847441138
-0.006830903333792318   -0.06865285498517026   -0.0020007799412918763
-0.011033618697736851   -0.06471425770002133   -0.002138091309733342
-0.00838605759423715   -0.06498006494761158   -0.0021061928900122776
-0.006830903333792318   -0.06865285498517026   -0.0020007799412918763
-0.00852782207338668   -0.0649940512659465   -0.0020392712847441138
-0.011033618697736851   -0.06471425770002133   -0.002138091309733342
-0.006830903333792318   -0.06865285498517026   -0.0020007799412918763
-0.007937847702268167   -0.06830012389971743   -0.001939305506570431
-0.008318778828645143   -0.06837665588594587   -0.0017228558298426075
-0.011033618697736851   -0.06471425770002133   -0.002138091309733342
-0.006830903333792318   -0.06865285498517026   -0.0020007799412918763
-0.008318778828645143   -0.06837665588594587   -0.0017228558298426075
-0.00852782207338668   -0.0649940512659465   -0.0020392712847441138
-0.011033618697736851   -0.06471425770002133   -0.002138091309733342
-0.007937847702268167   -0.06830012389971743   -0.001939305506570431
-0.00838605759423715   -0.06498006494761158   -0.0021061928900122776
-0.0107518080539645   -0.06476271696800966   -0.0023326742299211085
-0.007937847702268167   -0.06830012389971743   -0.001939305506570431
-0.006830903333792318   -0.06865285498517026   -0.0020007799412918763
-0.00838605759423715   -0.06498006494761158   -0.0021061928900122776
-0.0066328482192834866   -0.06865631095544322   -0.0020727366268957804
-0.0107518080539645   -0.06476271696800966   -0.0023326742299211085
-0.008219297092992298   -0.06501929306136416   -0.0021831619343342145
-0.0066328482192834866   -0.06865631095544322   -0.0020727366268957804
-0.00838605759423715   -0.06498006494761158   -0.0021061928900122776
-0.0107518080539645   -0.06476271696800966   -0.0023326742299211085
-0.0066328482192834866   -0.06865631095544322   -0.0020727366268957804
-0.007609188672598788   -0.06830678316752956   -0.0021549303207963996
-0.007937847702268167   -0.06830012389971743   -0.001939305506570431
-0.0107518080539645   -0.06476271696800966   -0.0023326742299211085
-0.0066328482192834866   -0.06865631095544322   -0.0020727366268957804
-0.007937847702268167   -0.06830012389971743   -0.001939305506570431
-0.00838605759423715   -0.06498006494761158   -0.0021061928900122776
-0.0107518080539645   -0.06476271696800966   -0.0023326742299211085
-0.007609188672598788   -0.06830678316752956   -0.0021549303207963996
-0.008219297092992298   -0.06501929306136416   -0.0021831619343342145
-0.010408077570451027   -0.06489205150736417   -0.0025405782102617663
-0.007609188672598788   -0.06830678316752956   -0.0021549303207963996
-0.0066328482192834866   -0.06865631095544322   -0.0020727366268957804
-0.008219297092992298   -0.06501929306136416   -0.0021831619343342145
-0.006448879086751596   -0.06873148203120594   -0.002145718018679664
-0.010408077570451027   -0.06489205150736417   -0.0025405782102617663
-0.008068013890681174   -0.06511263292879114   -0.0022695362643361653
-0.006448879086751596   -0.06873148203120594   -0.002145718018679664
-0.008219297092992298   -0.06501929306136416   -0.0021831619343342145
-0.010408077570451027   -0.06489205150736417   -0.0025405782102617663
-0.006448879086751596   -0.06873148203120594   -0.002145718018679664
-0.007219327858296872   -0.06840142133465221   -0.0023751968335846796
-0.007609188672598788   -0.06830678316752956   -0.0021549303207963996
-0.010408077570451027   -0.06489205150736417   -0.0025405782102617663
-0.006448879086751596   -0.06873148203120594   -0.002145718018679664
-0.007609188672598788   -0.06830678316752956   -0.0021549303207963996
-0.008219297092992298   -0.06501929306136416   -0.0021831619343342145
-0.00852782207338668   -0.0649940512659465   -0.0020392712847441138
-0.007009693892598098   -0.06872077798044228   -0.0019295469152589147
-0.0062301881756575235   -0.06517030744071471   -0.0021031447045300826
-0.00838605759423715   -0.06498006494761158   -0.0021061928900122776
-0.007009693892598098   -0.06872077798044228   -0.0019295469152589147
-0.006050585549105966   -0.06906576193140482   -0.0021121944155546406
-0.0062301881756575235   -0.06517030744071471   -0.0021031447045300826
-0.005861988093764195   -0.06899605036610244   -0.0020623965420749606
-0.00838605759423715   -0.06498006494761158   -0.0021061928900122776
-0.006084738234263954   -0.06514786763359567   -0.002082677479618252
-0.005861988093764195   -0.06899605036610244   -0.0020623965420749606
-0.0062301881756575235   -0.06517030744071471   -0.0021031447045300826
-0.00838605759423715   -0.06498006494761158   -0.0021061928900122776
-0.005861988093764195   -0.06899605036610244   -0.0020623965420749606
-0.006830903333792318   -0.06865285498517026   -0.0020007799412918763
-0.007009693892598098   -0.06872077798044228   -0.0019295469152589147
-0.00838605759423715   -0.06498006494761158   -0.0021061928900122776
-0.005861988093764195   -0.06899605036610244   -0.0020623965420749606
-0.007009693892598098   -0.06872077798044228   -0.0019295469152589147
-0.0062301881756575235   -0.06517030744071471   -0.0021031447045300826
-0.00838605759423715   -0.06498006494761158   -0.0021061928900122776
-0.006830903333792318   -0.06865285498517026   -0.0020007799412918763
-0.006084738234263954   -0.06514786763359567   -0.002082677479618252
-0.008219297092992298   -0.06501929306136416   -0.0021831619343342145
-0.006830903333792318   -0.06865285498517026   -0.0020007799412918763
-0.005861988093764195   -0.06899605036610244   -0.0020623965420749606
-0.006084738234263954   -0.06514786763359567   -0.002082677479618252
-0.005679623930818017   -0.06899487426185882   -0.002011982164600763
-0.008219297092992298   -0.06501929306136416   -0.0021831619343342145
-0.005941321032011319   -0.06517136848650912   -0.002071970607508626
-0.005679623930818017   -0.06899487426185882   -0.002011982164600763
-0.006084738234263954   -0.06514786763359567   -0.002082677479618252
-0.008219297092992298   -0.06501929306136416   -0.0021831619343342145
-0.005679623930818017   -0.06899487426185882   -0.002011982164600763
-0.0066328482192834866   -0.06865631095544322   -0.0020727366268957804
-0.006830903333792318   -0.06865285498517026   -0.0020007799412918763
-0.008219297092992298   -0.06501929306136416   -0.0021831619343342145
-0.005679623930818017   -0.06899487426185882   -0.002011982164600763
-0.006830903333792318   -0.06865285498517026   -0.0020007799412918763
-0.006084738234263954   -0.06514786763359567   -0.002082677479618252
-0.008219297092992298   -0.06501929306136416   -0.0021831619343342145
-0.0066328482192834866   -0.06865631095544322   -0.0020727366268957804
-0.005941321032011319   -0.06517136848650912   -0.002071970607508626
-0.008068013890681174   -0.06511263292879114   -0.0022695362643361653
-0.0066328482192834866   -0.06865631095544322   -0.0020727366268957804
-0.005679623930818017   -0.06899487426185882   -0.002011982164600763
-0.005941321032011319   -0.06517136848650912   -0.002071970607508626
-0.005489516383797322   -0.06906080759497725   -0.0019635655470667777
-0.008068013890681174   -0.06511263292879114   -0.0022695362643361653
-0.0058093461066896935   -0.0652423311444771   -0.0020730664381168194
-0.005489516383797322   -0.06906080759497725   -0.0019635655470667777
-0.005941321032011319   -0.06517136848650912   -0.002071970607508626
-0.008068013890681174   -0.06511263292879114   -0.0022695362643361653
-0.005489516383797322   -0.06906080759497725   -0.0019635655470667777
-0.006448879086751596   -0.06873148203120594   -0.002145718018679664
-0.0066328482192834866   -0.06865631095544322   -0.0020727366268957804
-0.008068013890681174   -0.06511263292879114   -0.0022695362643361653
-0.005489516383797322   -0.06906080759497725   -0.0019635655470667777
-0.0066328482192834866   -0.06865631095544322   -0.0020727366268957804
-0.005941321032011319   -0.06517136848650912   -0.002071970607508626
-0.0062301881756575235   -0.06517030744071471   -0.0021031447045300826
-0.006050585549105966   -0.06906576193140482   -0.0021121944155546406
-0.004029483560377286   -0.06526268988992572   -0.002178672229682155
-0.006084738234263954   -0.06514786763359567   -0.002082677479618252
-0.006050585549105966   -0.06906576193140482   -0.0021121944155546406
-0.005174544465779607   -0.0694816739648259   -0.002313384952990234
-0.004029483560377286   -0.06526268988992572   -0.002178672229682155
-0.004943369388062626   -0.06942113360210873   -0.002135775297009882
-0.006084738234263954   -0.06514786763359567   -0.002082677479618252
-0.0038655247386339187   -0.0652302849614988   -0.002075783190445247
-0.004943369388062626   -0.06942113360210873   -0.002135775297009882
-0.004029483560377286   -0.06526268988992572   -0.002178672229682155
-0.006084738234263954   -0.06514786763359567   -0.002082677479618252
-0.004943369388062626   -0.06942113360210873   -0.002135775297009882
-0.005861988093764195   -0.06899605036610244   -0.0020623965420749606
-0.006050585549105966   -0.06906576193140482   -0.0021121944155546406
-0.006084738234263954   -0.06514786763359567   -0.002082677479618252
-0.004943369388062626   -0.06942113360210873   -0.002135775297009882
-0.006050585549105966   -0.06906576193140482   -0.0021121944155546406
-0.004029483560377286   -0.06526268988992572   -0.002178672229682155
-0.006084738234263954   -0.06514786763359567   -0.002082677479618252
-0.005861988093764195   -0.06899605036610244   -0.0020623965420749606
-0.0038655247386339187   -0.0652302849614988   -0.002075783190445247
-0.005941321032011319   -0.06517136848650912   -0.002071970607508626
-0.005861988093764195   -0.06899605036610244   -0.0020623965420749606
-0.004943369388062626   -0.06942113360210873   -0.002135775297009882
-0.0038655247386339187   -0.0652302849614988   -0.002075783190445247
-0.004729137325176343   -0.06941793652659824   -0.001958749182925829
-0.005941321032011319   -0.06517136848650912   -0.002071970607508626
-0.0037092210238133354   -0.06523828871417611   -0.0019815267304267173
-0.004729137325176343   -0.06941793652659824   -0.001958749182925829
-0.0038655247386339187   -0.0652302849614988   -0.002075783190445247
-0.005941321032011319   -0.06517136848650912   -0.002071970607508626
-0.004729137325176343   -0.06941793652659824   -0.001958749182925829
-0.005679623930818017   -0.06899487426185882   -0.002011982164600763
-0.005861988093764195   -0.06899605036610244   -0.0020623965420749606
-0.005941321032011319   -0.06517136848650912   -0.002071970607508626
-0.004729137325176343   -0.06941793652659824   -0.001958749182925829
-0.005861988093764195   -0.06899605036610244   -0.0020623965420749606
-0.0038655247386339187   -0.0652302849614988   -0.002075783190445247
-0.005941321032011319   -0.06517136848650912   -0.002071970607508626
-0.005679623930818017   -0.06899487426185882   -0.002011982164600763
-0.0037092210238133354   -0.06523828871417611   -0.0019815267304267173
-0.0058093461066896935   -0.0652423311444771   -0.0020730664381168194
-0.005679623930818017   -0.06899487426185882   -0.002011982164600763
-0.004729137325176343   -0.06941793652659824   -0.001958749182925829
-0.0037092210238133354   -0.06523828871417611   -0.0019815267304267173
-0.004499171490220886   -0.06946899716183727   -0.0017813568723615545
-0.0058093461066896935   -0.0652423311444771   -0.0020730664381168194
-0.0035792069772887015   -0.0652945533225513   -0.0019012850753685306
-0.004499171490220886   -0.06946899716183727   -0.0017813568723615545
-0.0037092210238133354   -0.06523828871417611   -0.0019815267304267173
-0.0058093461066896935   -0.0652423311444771   -0.0020730664381168194
-0.004499171490220886   -0.06946899716183727   -0.0017813568723615545
-0.005489516383797322   -0.06906080759497725   -0.0019635655470667777
-0.005679623930818017   -0.06899487426185882   -0.002011982164600763
-0.0058093461066896935   -0.0652423311444771   -0.0020730664381168194
-0.004499171490220886   -0.06946899716183727   -0.0017813568723615545
-0.005679623930818017   -0.06899487426185882   -0.002011982164600763
-0.0037092210238133354   -0.06523828871417611   -0.0019815267304267173
-0.004029483560377286   -0.06526268988992572   -0.002178672229682155
-0.005174544465779607   -0.0694816739648259   -0.002313384952990234
-0.0016895842502629508   -0.06523887876022036   -0.002267679972457294
-0.0038655247386339187   -0.0652302849614988   -0.002075783190445247
-0.005174544465779607   -0.0694816739648259   -0.002313384952990234
-0.004312365230469999   -0.07   -0.0024681575066605693
-0.0016895842502629508   -0.06523887876022036   -0.002267679972457294
-0.004021547570074505   -0.07   -0.0021982345771540466
-0.0038655247386339187   -0.0652302849614988   -0.002075783190445247
-0.001479073868983136   -0.06518806937566286   -0.0020859282865290482
-0.004021547570074505   -0.07   -0.0021982345771540466
-0.0016895842502629508   -0.06523887876022036   -0.002267679972457294
-0.0038655247386339187   -0.0652302849614988   -0.002075783190445247
-0.004021547570074505   -0.07   -0.0021982345771540466
-0.004943369388062626   -0.06942113360210873   -0.002135775297009882
-0.005174544465779607   -0.0694816739648259   -0.002313384952990234
-0.0038655247386339187   -0.0652302849614988   -0.002075783190445247
-0.004021547570074505   -0.07   -0.0021982345771540466
-0.005174544465779607   -0.0694816739648259   -0.002313384952990234
-0.0016895842502629508   -0.06523887876022036   -0.002267679972457294
-0.0038655247386339187   -0.0652302849614988   -0.002075783190445247
-0.004943369388062626   -0.06942113360210873   -0.002135775297009882
-0.001479073868983136   -0.06518806937566286   -0.0020859282865290482
-0.0037092210238133354   -0.06523828871417611   -0.0019815267304267173
-0.004943369388062626   -0.06942113360210873   -0.002135775297009882
-0.004021547570074505   -0.07   -0.0021982345771540466
-0.001479073868983136   -0.06518806937566286   -0.0020859282865290482
-0.0037292991985115845   -0.07   -0.0019251122280332148
-0.0037092210238133354   -0.06523828871417611   -0.0019815267304267173
-0.0012638035538103522   -0.06517913294135474   -0.0019134084847064507
-0.0037292991985115845   -0.07   -0.0019251122280332148
-0.001479073868983136   -0.06518806937566286   -0.0020859282865290482
-0.0037092210238133354   -0.06523828871417611   -0.0019815267304267173
-0.0037292991985115845   -0.07   -0.0019251122280332148
-0.004729137325176343   -0.06941793652659824   -0.001958749182925829
-0.004943369388062626   -0.06942113360210873   -0.002135775297009882
-0.0037092210238133354   -0.06523828871417611   -0.0019815267304267173
-0.0037292991985115845   -0.07   -0.0019251122280332148
-0.004943369388062626   -0.06942113360210873   -0.002135775297009882
-0.001479073868983136   -0.06518806937566286   -0.0020859282865290482
-0.0037092210238133354   -0.06523828871417611   -0.0019815267304267173
-0.004729137325176343   -0.06941793652659824   -0.001958749182925829
-0.0012638035538103522   -0.06517913294135474   -0.0019134084847064507
-0.0035792069772887015   -0.0652945533225513   -0.0019012850753685306
-0.004729137325176343   -0.06941793652659824   -0.001958749182925829
-0.0037292991985115845   -0.07   -0.0019251122280332148
-0.0012638035538103522   -0.06517913294135474   -0.0019134084847064507
-0.003443680232562343   -0.07   -0.0016556048338169885
-0.0035792069772887015   -0.0652945533225513   -0.0019012850753685306
-0.0011043857688926898   -0.06522107281443243   -0.001756699358469989
-0.003443680232562343   -0.07   -0.0016556048338169885
-0.0012638035538103522   -0.06517913294135474   -0.0019134084847064507
-0.0035792069772887015   -0.0652945533225513   -0.0019012850753685306
-0.003443680232562343   -0.07   -0.0016556048338169885
-0.004499171490220886   -0.06946899716183727   -0.0017813568723615545
-0.004729137325176343   -0.06941793652659824   -0.001958749182925829
-0.0035792069772887015   -0.0652945533225513   -0.0019012850753685306
-0.003443680232562343   -0.07   -0.0016556048338169885
-0.004729137325176343   -0.06941793652659824   -0.001958749182925829
-0.0012638035538103522   -0.06517913294135474   -0.0019134084847064507
-0.0016895842502629508   -0.06523887876022036   -0.002267679972457294
-0.004312365230469999   -0.07   -0.0024681575066605693
0.000828222747701106   -0.0650139669321819   -0.0024499427631099126
-0.001479073868983136   -0.06518806937566286   -0.0020859282865290482
-0.004312365230469999   -0.07   -0.0024681575066605693
-0.003686426608722448   -0.07   -0.002655600910586604
0.000828222747701106   -0.0650139669321819   -0.0024499427631099126
-0.0030779839522189646   -0.07   -0.002265018047556948
-0.001479073868983136   -0.06518806937566286   -0.0020859282865290482
0.0013191958562296996   -0.06490344622720876   -0.0021526593196192854
-0.0030779839522189646   -0.07   -0.002265018047556948
0.000828222747701106   -0.0650139669321819   -0.0024499427631099126
-0.001479073868983136   -0.06518806937566286   -0.0020859282865290482
-0.0030779839522189646   -0.07   -0.002265018047556948
-0.004021547570074505   -0.07   -0.0021982345771540466
-0.004312365230469999   -0.07   -0.0024681575066605693
-0.001479073868983136   -0.06518806937566286   -0.0020859282865290482
-0.0030779839522189646   -0.07   -0.002265018047556948
-0.004312365230469999   -0.07   -0.0024681575066605693
0.000828222747701106   -0.0650139669321819   -0.0024499427631099126
-0.001479073868983136   -0.06518806937566286   -0.0020859282865290482
-0.004021547570074505   -0.07   -0.0021982345771540466
0.0013191958562296996   -0.06490344622720876   -0.0021526593196192854
-0.0012638035538103522   -0.06517913294135474   -0.0019134084847064507
-0.004021547570074505   -0.07   -0.0021982345771540466
-0.0030779839522189646   -0.07   -0.002265018047556948
0.0013191958562296996   -0.06490344622720876   -0.0021526593196192854
-0.0025927638078705245   -0.07   -0.0018913815804281434
-0.0012638035538103522   -0.06517913294135474   -0.0019134084847064507
0.001705019515253546   -0.0648810857886495   -0.0018734992949157349
-0.0025927638078705245   -0.07   -0.0018913815804281434
0.0013191958562296996   -0.06490344622720876   -0.0021526593196192854
-0.0012638035538103522   -0.06517913294135474   -0.0019134084847064507
-0.0025927638078705245   -0.07   -0.0018913815804281434
-0.0037292991985115845   -0.07   -0.0019251122280332148
-0.004021547570074505   -0.07   -0.0021982345771540466
-0.0012638035538103522   -0.06517913294135474   -0.0019134084847064507
-0.0025927638078705245   -0.07   -0.0018913815804281434
-0.004021547570074505   -0.07   -0.0021982345771540466
0.0013191958562296996   -0.06490344622720876   -0.0021526593196192854
-0.0012638035538103522   -0.06517913294135474   -0.0019134084847064507
-0.0037292991985115845   -0.07   -0.0019251122280332148
0.001705019515253546   -0.0648810857886495   -0.0018734992949157349
-0.0011043857688926898   -0.06522107281443243   -0.001756699358469989
-0.0037292991985115845   -0.07   -0.0019251122280332148
-0.0025927638078705245   -0.07   -0.0018913815804281434
0.001705019515253546   -0.0648810857886495   -0.0018734992949157349
-0.001993384744556162   -0.07   -0.0015035008065309293
-0.0011043857688926898   -0.06522107281443243   -0.001756699358469989
0.002106058772292457   -0.064900000554741   -0.0016185135277772577
-0.001993384744556162   -0.07   -0.0015035008065309293
0.001705019515253546   -0.0648810857886495   -0.0018734992949157349
-0.0011043857688926898   -0.06522107281443243   -0.001756699358469989
-0.001993384744556162   -0.07   -0.0015035008065309293
-0.003443680232562343   -0.07   -0.0016556048338169885
-0.0037292991985115845   -0.07   -0.0019251122280332148
-0.0011043857688926898   -0.06522107281443243   -0.001756699358469989
-0.001993384744556162   -0.07   -0.0015035008065309293
-0.0037292991985115845   -0.07   -0.0019251122280332148
0.001705019515253546   -0.0648810857886495   -0.0018734992949157349
-0.008318778828645143   -0.06837665588594587   -0.0017228558298426075
-0.004977001911276058   -0.06856422469994786   -0.0014746835628453938
-0.007009693892598098   -0.06872077798044228   -0.0019295469152589147
-0.007937847702268167   -0.06830012389971743   -0.001939305506570431
-0.004977001911276058   -0.06856422469994786   -0.0014746835628453938
-0.005276193786132393   -0.06882955195223754   -0.001740825192838889
-0.007009693892598098   -0.06872077798044228   -0.0019295469152589147
-0.00514094698862706   -0.06873677831960943   -0.0018379661054289025
-0.007937847702268167   -0.06830012389971743   -0.001939305506570431
-0.006830903333792318   -0.06865285498517026   -0.0020007799412918763
-0.00514094698862706   -0.06873677831960943   -0.0018379661054289025
-0.007009693892598098   -0.06872077798044228   -0.0019295469152589147
-0.007937847702268167   -0.06830012389971743   -0.001939305506570431
-0.00514094698862706   -0.06873677831960943   -0.0018379661054289025
-0.004631719509295335   -0.06844508954802137   -0.0017021109390722336
-0.004977001911276058   -0.06856422469994786   -0.0014746835628453938
-0.007937847702268167   -0.06830012389971743   -0.001939305506570431
-0.00514094698862706   -0.06873677831960943   -0.0018379661054289025
-0.004977001911276058   -0.06856422469994786   -0.0014746835628453938
-0.007009693892598098   -0.06872077798044228   -0.0019295469152589147
-0.007937847702268167   -0.06830012389971743   -0.001939305506570431
-0.004631719509295335   -0.06844508954802137   -0.0017021109390722336
-0.006830903333792318   -0.06865285498517026   -0.0020007799412918763
-0.007609188672598788   -0.06830678316752956   -0.0021549303207963996
-0.004631719509295335   -0.06844508954802137   -0.0017021109390722336
-0.00514094698862706   -0.06873677831960943   -0.0018379661054289025
-0.006830903333792318   -0.06865285498517026   -0.0020007799412918763
-0.004982288969423331   -0.06870262998257931   -0.0019276032097993415
-0.007609188672598788   -0.06830678316752956   -0.0021549303207963996
-0.0066328482192834866   -0.06865631095544322   -0.0020727366268957804
-0.004982288969423331   -0.06870262998257931   -0.0019276032097993415
-0.006830903333792318   -0.06865285498517026   -0.0020007799412918763
-0.007609188672598788   -0.06830678316752956   -0.0021549303207963996
-0.004982288969423331   -0.06870262998257931   -0.0019276032097993415
-0.0043443136941643985   -0.06840852772024167   -0.0019202273949634726
-0.004631719509295335   -0.06844508954802137   -0.0017021109390722336
-0.007609188672598788   -0.06830678316752956   -0.0021549303207963996
-0.004982288969423331   -0.06870262998257931   -0.0019276032097993415
-0.004631719509295335   -0.06844508954802137   -0.0017021109390722336
-0.006830903333792318   -0.06865285498517026   -0.0020007799412918763
-0.007609188672598788   -0.06830678316752956   -0.0021549303207963996
-0.0043443136941643985   -0.06840852772024167   -0.0019202273949634726
-0.0066328482192834866   -0.06865631095544322   -0.0020727366268957804
-0.007219327858296872   -0.06840142133465221   -0.0023751968335846796
-0.0043443136941643985   -0.06840852772024167   -0.0019202273949634726
-0.004982288969423331   -0.06870262998257931   -0.0019276032097993415
-0.0066328482192834866   -0.06865631095544322   -0.0020727366268957804
-0.004846388788532247   -0.06872760504852023   -0.002009269174447891
-0.007219327858296872   -0.06840142133465221   -0.0023751968335846796
-0.006448879086751596   -0.06873148203120594   -0.002145718018679664
-0.004846388788532247   -0.06872760504852023   -0.002009269174447891
-0.0066328482192834866   -0.06865631095544322   -0.0020727366268957804
-0.007219327858296872   -0.06840142133465221   -0.0023751968335846796
-0.004846388788532247   -0.06872760504852023   -0.002009269174447891
-0.00401909162848566   -0.06843968100490919   -0.0021280668624749643
-0.0043443136941643985   -0.06840852772024167   -0.0019202273949634726
-0.007219327858296872   -0.06840142133465221   -0.0023751968335846796
-0.004846388788532247   -0.06872760504852023   -0.002009269174447891
-0.0043443136941643985   -0.06840852772024167   -0.0019202273949634726
-0.0066328482192834866   -0.06865631095544322   -0.0020727366268957804
-0.007009693892598098   -0.06872077798044228   -0.0019295469152589147
-0.005276193786132393   -0.06882955195223754   -0.001740825192838889
-0.006050585549105966   -0.06906576193140482   -0.0021121944155546406
-0.006830903333792318   -0.06865285498517026   -0.0020007799412918763
-0.005276193786132393   -0.06882955195223754   -0.001740825192838889
-0.005682273548332519   -0.06899343278681941   -0.001953595665577367
-0.006050585549105966   -0.06906576193140482   -0.0021121944155546406
-0.00556258851577548   -0.06891058457188429   -0.001956117714028937
-0.006830903333792318   -0.06865285498517026   -0.0020007799412918763
-0.005861988093764195   -0.06899605036610244   -0.0020623965420749606
-0.00556258851577548   -0.06891058457188429   -0.001956117714028937
-0.006050585549105966   -0.06906576193140482   -0.0021121944155546406
-0.006830903333792318   -0.06865285498517026   -0.0020007799412918763
-0.00556258851577548   -0.06891058457188429   -0.001956117714028937
-0.00514094698862706   -0.06873677831960943   -0.0018379661054289025
-0.005276193786132393   -0.06882955195223754   -0.001740825192838889
-0.006830903333792318   -0.06865285498517026   -0.0020007799412918763
-0.00556258851577548   -0.06891058457188429   -0.001956117714028937
-0.005276193786132393   -0.06882955195223754   -0.001740825192838889
-0.006050585549105966   -0.06906576193140482   -0.0021121944155546406
-0.006830903333792318   -0.06865285498517026   -0.0020007799412918763
-0.00514094698862706   -0.06873677831960943   -0.0018379661054289025
-0.005861988093764195   -0.06899605036610244   -0.0020623965420749606
-0.0066328482192834866   -0.06865631095544322   -0.0020727366268957804
-0.00514094698862706   -0.06873677831960943   -0.0018379661054289025
-0.00556258851577548   -0.06891058457188429   -0.001956117714028937
-0.005861988093764195   -0.06899605036610244   -0.0020623965420749606
-0.005429376925438467   -0.06888083298644955   -0.0019489114538278859
-0.0066328482192834866   -0.06865631095544322   -0.0020727366268957804
-0.005679623930818017   -0.06899487426185882   -0.002011982164600763
-0.005429376925438467   -0.06888083298644955   -0.0019489114538278859
-0.005861988093764195   -0.06899605036610244   -0.0020623965420749606
-0.0066328482192834866   -0.06865631095544322   -0.0020727366268957804
-0.005429376925438467   -0.06888083298644955   -0.0019489114538278859
-0.004982288969423331   -0.06870262998257931   -0.0019276032097993415
-0.00514094698862706   -0.06873677831960943   -0.0018379661054289025
-0.0066328482192834866   -0.06865631095544322   -0.0020727366268957804
-0.005429376925438467   -0.06888083298644955   -0.0019489114538278859
-0.00514094698862706   -0.06873677831960943   -0.0018379661054289025
-0.005861988093764195   -0.06899605036610244   -0.0020623965420749606
-0.0066328482192834866   -0.06865631095544322   -0.0020727366268957804
-0.004982288969423331   -0.06870262998257931   -0.0019276032097993415
-0.005679623930818017   -0.06899487426185882   -0.002011982164600763
-0.006448879086751596   -0.06873148203120594   -0.002145718018679664
-0.004982288969423331   -0.06870262998257931   -0.0019276032097993415
-0.005429376925438467   -0.06888083298644955   -0.0019489114538278859
-0.005679623930818017   -0.06899487426185882   -0.002011982164600763
-0.005293942606888662   -0.06890175999300242   -0.001934071140156235
-0.006448879086751596   -0.06873148203120594   -0.002145718018679664
-0.005489516383797322   -0.06906080759497725   -0.0019635655470667777
-0.005293942606888662   -0.06890175999300242   -0.001934071140156235
-0.005679623930818017   -0.06899487426185882   -0.002011982164600763
-0.006448879086751596   -0.06873148203120594   -0.002145718018679664
-0.005293942606888662   -0.06890175999300242   -0.001934071140156235
-0.004846388788532247   -0.06872760504852023   -0.002009269174447891
-0.004982288969423331   -0.06870262998257931   -0.0019276032097993415
-0.006448879086751596   -0.06873148203120594   -0.002145718018679664
-0.005293942606888662   -0.06890175999300242   -0.001934071140156235
-0.004982288969423331   -0.06870262998257931   -0.0019276032097993415
-0.005679623930818017   -0.06899487426185882   -0.002011982164600763
-0.006050585549105966   -0.06906576193140482   -0.0021121944155546406
-0.005682273548332519   -0.06899343278681941   -0.001953595665577367
-0.005174544465779607   -0.0694816739648259   -0.002313384952990234
-0.005861988093764195   -0.06899605036610244   -0.0020623965420749606
-0.005682273548332519   -0.06899343278681941   -0.001953595665577367
-0.00611773465256628   -0.06906207176501972   -0.0021630358178808037
-0.005174544465779607   -0.0694816739648259   -0.002313384952990234
-0.005993753093642776   -0.0689830549051989   -0.0020745736978544575
-0.005861988093764195   -0.06899605036610244   -0.0020623965420749606
-0.004943369388062626   -0.06942113360210873   -0.002135775297009882
-0.005993753093642776   -0.0689830549051989   -0.0020745736978544575
-0.005174544465779607   -0.0694816739648259   -0.002313384952990234
-0.005861988093764195   -0.06899605036610244   -0.0020623965420749606
-0.005993753093642776   -0.0689830549051989   -0.0020745736978544575
-0.00556258851577548   -0.06891058457188429   -0.001956117714028937
-0.005682273548332519   -0.06899343278681941   -0.001953595665577367
-0.005861988093764195   -0.06899605036610244   -0.0020623965420749606
-0.005993753093642776   -0.0689830549051989   -0.0020745736978544575
-0.005682273548332519   -0.06899343278681941   -0.001953595665577367
-0.005174544465779607   -0.0694816739648259   -0.002313384952990234
-0.005861988093764195   -0.06899605036610244   -0.0020623965420749606
-0.00556258851577548   -0.06891058457188429   -0.001956117714028937
-0.004943369388062626   -0.06942113360210873   -0.002135775297009882
-0.005679623930818017   -0.06899487426185882   -0.002011982164600763
-0.00556258851577548   -0.06891058457188429   -0.001956117714028937
-0.005993753093642776   -0.0689830549051989   -0.0020745736978544575
-0.004943369388062626   -0.06942113360210873   -0.002135775297009882
-0.005845055803923335   -0.06895800054185516   -0.001974262917244307
-0.005679623930818017   -0.06899487426185882   -0.002011982164600763
-0.004729137325176343   -0.06941793652659824   -0.001958749182925829
-0.005845055803923335   -0.06895800054185516   -0.001974262917244307
-0.004943369388062626   -0.06942113360210873   -0.002135775297009882
-0.005679623930818017   -0.06899487426185882   -0.002011982164600763
-0.005845055803923335   -0.06895800054185516   -0.001974262917244307
-0.005429376925438467   -0.06888083298644955   -0.0019489114538278859
-0.00556258851577548   -0.06891058457188429   -0.001956117714028937
-0.005679623930818017   -0.06899487426185882   -0.002011982164600763
-0.005845055803923335   -0.06895800054185516   -0.001974262917244307
-0.00556258851577548   -0.06891058457188429   -0.001956117714028937
-0.004943369388062626   -0.06942113360210873   -0.002135775297009882
-0.005679623930818017   -0.06899487426185882   -0.002011982164600763
-0.005429376925438467   -0.06888083298644955   -0.0019489114538278859
-0.004729137325176343   -0.06941793652659824   -0.001958749182925829
-0.005489516383797322   -0.06906080759497725   -0.0019635655470667777
-0.005429376925438467   -0.06888083298644955   -0.0019489114538278859
-0.005845055803923335   -0.06895800054185516   -0.001974262917244307
-0.004729137325176343   -0.06941793652659824   -0.001958749182925829
-0.005692147333101205   -0.06897844854526575   -0.001867428748893327
-0.005489516383797322   -0.06906080759497725   -0.0019635655470667777
-0.004499171490220886   -0.06946899716183727   -0.0017813568723615545
-0.005692147333101205   -0.06897844854526575   -0.001867428748893327
-0.004729137325176343   -0.06941793652659824   -0.001958749182925829
-0.005489516383797322   -0.06906080759497725   -0.0019635655470667777
-0.005692147333101205   -0.06897844854526575   -0.001867428748893327
-0.005293942606888662   -0.06890175999300242   -0.001934071140156235
-0.005429376925438467   -0.06888083298644955   -0.0019489114538278859
-0.005489516383797322   -0.06906080759497725   -0.0019635655470667777
-0.005692147333101205   -0.06897844854526575   -0.001867428748893327
-0.005429376925438467   -0.06888083298644955   -0.0019489114538278859
-0.004729137325176343   -0.06941793652659824   -0.001958749182925829
-0.005174544465779607   -0.0694816739648259   -0.002313384952990234
-0.00611773465256628   -0.06906207176501972   -0.0021630358178808037
-0.004312365230469999   -0.07   -0.0024681575066605693
-0.004943369388062626   -0.06942113360210873   -0.002135775297009882
-0.00611773465256628   -0.06906207176501972   -0.0021630358178808037
-0.006748490418720305   -0.0689874783786197   -0.002362088723862367
-0.004312365230469999   -0.07   -0.0024681575066605693
-0.006586550962346454   -0.0689128441893657   -0.0021869874437484573
-0.004943369388062626   -0.06942113360210873   -0.002135775297009882
-0.004021547570074505   -0.07   -0.0021982345771540466
-0.006586550962346454   -0.0689128441893657   -0.0021869874437484573
-0.004312365230469999   -0.07   -0.0024681575066605693
-0.004943369388062626   -0.06942113360210873   -0.002135775297009882
-0.006586550962346454   -0.0689128441893657   -0.0021869874437484573
-0.005993753093642776   -0.0689830549051989   -0.0020745736978544575
-0.00611773465256628   -0.06906207176501972   -0.0021630358178808037
-0.004943369388062626   -0.06942113360210873   -0.002135775297009882
-0.006586550962346454   -0.0689128441893657   -0.0021869874437484573
-0.00611773465256628   -0.06906207176501972   -0.0021630358178808037
-0.004312365230469999   -0.07   -0.0024681575066605693
-0.004943369388062626   -0.06942113360210873   -0.002135775297009882
-0.005993753093642776   -0.0689830549051989   -0.0020745736978544575
-0.004021547570074505   -0.07   -0.0021982345771540466
-0.004729137325176343   -0.06941793652659824   -0.001958749182925829
-0.005993753093642776   -0.0689830549051989   -0.0020745736978544575
-0.006586550962346454   -0.0689128441893657   -0.0021869874437484573
-0.004021547570074505   -0.07   -0.0021982345771540466
-0.006372842262451419   -0.06889591782675482   -0.0019986865168222442
-0.004729137325176343   -0.06941793652659824   -0.001958749182925829
-0.0037292991985115845   -0.07   -0.0019251122280332148
-0.006372842262451419   -0.06889591782675482   -0.0019986865168222442
-0.004021547570074505   -0.07   -0.0021982345771540466
-0.004729137325176343   -0.06941793652659824   -0.001958749182925829
-0.006372842262451419   -0.06889591782675482   -0.0019986865168222442
-0.005845055803923335   -0.06895800054185516   -0.001974262917244307
-0.005993753093642776   -0.0689830549051989   -0.0020745736978544575
-0.004729137325176343   -0.06941793652659824   -0.001958749182925829
-0.006372842262451419   -0.06889591782675482   -0.0019986865168222442
-0.005993753093642776   -0.0689830549051989   -0.0020745736978544575
-0.004021547570074505   -0.07   -0.0021982345771540466
-0.004729137325176343   -0.06941793652659824   -0.001958749182925829
-0.005845055803923335   -0.06895800054185516   -0.001974262917244307
-0.0037292991985115845   -0.07   -0.0019251122280332148
-0.004499171490220886   -0.06946899716183727   -0.0017813568723615545
-0.005845055803923335   -0.06895800054185516   -0.001974262917244307
-0.006372842262451419   -0.06889591782675482   -0.0019986865168222442
-0.0037292991985115845   -0.07   -0.0019251122280332148
-0.00617186125812164   -0.06892557491811835   -0.0018031270887007747
-0.004499171490220886   -0.06946899716183727   -0.0017813568723615545
-0.003443680232562343   -0.07   -0.0016556048338169885
-0.00617186125812164   -0.06892557491811835   -0.0018031270887007747
-0.0037292991985115845   -0.07   -0.0019251122280332148
-0.004499171490220886   -0.06946899716183727   -0.0017813568723615545
-0.00617186125812164   -0.06892557491811835   -0.0018031270887007747
-0.005692147333101205   -0.06897844854526575   -0.001867428748893327
-0.005845055803923335   -0.06895800054185516   -0.001974262917244307
-0.004499171490220886   -0.06946899716183727   -0.0017813568723615545
-0.00617186125812164   -0.06892557491811835   -0.0018031270887007747
-0.005845055803923335   -0.06895800054185516   -0.001974262917244307
-0.0037292991985115845   -0.07   -0.0019251122280332148
-0.004312365230469999   -0.07   -0.0024681575066605693
-0.006748490418720305   -0.0689874783786197   -0.002362088723862367
-0.003686426608722448   -0.07   -0.002655600910586604
-0.004021547570074505   -0.07   -0.0021982345771540466
-0.006748490418720305   -0.0689874783786197   -0.002362088723862367
-0.007975442156832737   -0.0686499471178662   -0.0025732752253334263
-0.003686426608722448   -0.07   -0.002655600910586604
-0.007544613165073387   -0.06858698309711077   -0.0022860054575921276
-0.004021547570074505   -0.07   -0.0021982345771540466
-0.0030779839522189646   -0.07   -0.002265018047556948
-0.007544613165073387   -0.06858698309711077   -0.0022860054575921276
-0.003686426608722448   -0.07   -0.002655600910586604
-0.004021547570074505   -0.07   -0.0021982345771540466
-0.007544613165073387   -0.06858698309711077   -0.0022860054575921276
-0.006586550962346454   -0.0689128441893657   -0.0021869874437484573
-0.006748490418720305   -0.0689874783786197   -0.002362088723862367
-0.004021547570074505   -0.07   -0.0021982345771540466
-0.007544613165073387   -0.06858698309711077   -0.0022860054575921276
-0.006748490418720305   -0.0689874783786197   -0.002362088723862367
-0.003686426608722448   -0.07   -0.002655600910586604
-0.004021547570074505   -0.07   -0.0021982345771540466
-0.006586550962346454   -0.0689128441893657   -0.0021869874437484573
-0.0030779839522189646   -0.07   -0.002265018047556948
-0.0037292991985115845   -0.07   -0.0019251122280332148
-0.006586550962346454   -0.0689128441893657   -0.0021869874437484573
-0.007544613165073387   -0.06858698309711077   -0.0022860054575921276
-0.0030779839522189646   -0.07   -0.002265018047556948
-0.007148829840183541   -0.0685783802045159   -0.001979406668449186
-0.0037292991985115845   -0.07   -0.0019251122280332148
-0.0025927638078705245   -0.07   -0.0018913815804281434
-0.007148829840183541   -0.0685783802045159   -0.001979406668449186
-0.0030779839522189646   -0.07   -0.002265018047556948
-0.0037292991985115845   -0.07   -0.0019251122280332148
-0.007148829840183541   -0.0685783802045159   -0.001979406668449186
-0.006372842262451419   -0.06889591782675482   -0.0019986865168222442
-0.006586550962346454   -0.0689128441893657   -0.0021869874437484573
-0.0037292991985115845   -0.07   -0.0019251122280332148
-0.007148829840183541   -0.0685783802045159   -0.001979406668449186
-0.006586550962346454   -0.0689128441893657   -0.0021869874437484573
-0.0030779839522189646   -0.07   -0.002265018047556948
-0.0037292991985115845   -0.07   -0.0019251122280332148
-0.006372842262451419   -0.06889591782675482   -0.0019986865168222442
-0.0025927638078705245   -0.07   -0.0018913815804281434
-0.003443680232562343   -0.07   -0.0016556048338169885
-0.006372842262451419   -0.06889591782675482   -0.0019986865168222442
-0.007148829840183541   -0.0685783802045159   -0.001979406668449186
-0.0025927638078705245   -0.07   -0.0018913815804281434
-0.006648986387336917   -0.06866099796614714   -0.0016587759816553797
-0.003443680232562343   -0.07   -0.0016556048338169885
-0.001993384744556162   -0.07   -0.0015035008065309293
-0.006648986387336917   -0.06866099796614714   -0.0016587759816553797
-0.0025927638078705245   -0.07   -0.0018913815804281434
-0.003443680232562343   -0.07   -0.0016556048338169885
-0.006648986387336917   -0.06866099796614714   -0.0016587759816553797
-0.00617186125812164   -0.06892557491811835   -0.0018031270887007747
-0.006372842262451419   -0.06889591782675482   -0.0019986865168222442
-0.003443680232562343   -0.07   -0.0016556048338169885
-0.006648986387336917   -0.06866099796614714   -0.0016587759816553797
-0.006372842262451419   -0.06889591782675482   -0.0019986865168222442
-0.0025927638078705245   -0.07   -0.0018913815804281434
-0.004977001911276058   -0.06856422469994786   -0.0014746835628453938
-0.0020366131064891734   -0.06597900098270336   -0.0012740564975097844
-0.005276193786132393   -0.06882955195223754   -0.001740825192838889
-0.004631719509295335   -0.06844508954802137   -0.0017021109390722336
-0.0020366131064891734   -0.06597900098270336   -0.0012740564975097844
-0.0037892989310541734   -0.06617923790371431   -0.0015567673659472967
-0.005276193786132393   -0.06882955195223754   -0.001740825192838889
-0.0036932258058190418   -0.06606697262110005   -0.0016433970620004224
-0.004631719509295335   -0.06844508954802137   -0.0017021109390722336
-0.00514094698862706   -0.06873677831960943   -0.0018379661054289025
-0.0036932258058190418   -0.06606697262110005   -0.0016433970620004224
-0.005276193786132393   -0.06882955195223754   -0.001740825192838889
-0.004631719509295335   -0.06844508954802137   -0.0017021109390722336
-0.0036932258058190418   -0.06606697262110005   -0.0016433970620004224
-0.0017612412870895654   -0.06584006105384574   -0.001470670628204682
-0.0020366131064891734   -0.06597900098270336   -0.0012740564975097844
-0.004631719509295335   -0.06844508954802137   -0.0017021109390722336
-0.0036932258058190418   -0.06606697262110005   -0.0016433970620004224
-0.0020366131064891734   -0.06597900098270336   -0.0012740564975097844
-0.005276193786132393   -0.06882955195223754   -0.001740825192838889
-0.004631719509295335   -0.06844508954802137   -0.0017021109390722336
-0.0017612412870895654   -0.06584006105384574   -0.001470670628204682
-0.00514094698862706   -0.06873677831960943   -0.0018379661054289025
-0.0043443136941643985   -0.06840852772024167   -0.0019202273949634726
-0.0017612412870895654   -0.06584006105384574   -0.001470670628204682
-0.0036932258058190418   -0.06606697262110005   -0.0016433970620004224
-0.00514094698862706   -0.06873677831960943   -0.0018379661054289025
-0.0035850441672225586   -0.06600485802351376   -0.0017222284965477072
-0.0043443136941643985   -0.06840852772024167   -0.0019202273949634726
-0.004982288969423331   -0.06870262998257931   -0.0019276032097993415
-0.0035850441672225586   -0.06600485802351376   -0.0017222284965477072
-0.00514094698862706   -0.06873677831960943   -0.0018379661054289025
-0.0043443136941643985   -0.06840852772024167   -0.0019202273949634726
-0.0035850441672225586   -0.06600485802351376   -0.0017222284965477072
-0.001544554066676791   -0.06577398945296443   -0.0016557263688562168
-0.0017612412870895654   -0.06584006105384574   -0.001470670628204682
-0.0043443136941643985   -0.06840852772024167   -0.0019202273949634726
-0.0035850441672225586   -0.06600485802351376   -0.0017222284965477072
-0.0017612412870895654   -0.06584006105384574   -0.001470670628204682
-0.00514094698862706   -0.06873677831960943   -0.0018379661054289025
-0.0043443136941643985   -0.06840852772024167   -0.0019202273949634726
-0.001544554066676791   -0.06577398945296443   -0.0016557263688562168
-0.004982288969423331   -0.06870262998257931   -0.0019276032097993415
-0.00401909162848566   -0.06843968100490919   -0.0021280668624749643
-0.001544554066676791   -0.06577398945296443   -0.0016557263688562168
-0.0035850441672225586   -0.06600485802351376   -0.0017222284965477072
-0.004982288969423331   -0.06870262998257931   -0.0019276032097993415
-0.003502107608785277   -0.06599115775446598   -0.0017935115353646376
-0.00401909162848566   -0.06843968100490919   -0.0021280668624749643
-0.004846388788532247   -0.06872760504852023   -0.002009269174447891
-0.003502107608785277   -0.06599115775446598   -0.0017935115353646376
-0.004982288969423331   -0.06870262998257931   -0.0019276032097993415
-0.00401909162848566   -0.06843968100490919   -0.0021280668624749643
-0.003502107608785277   -0.06599115775446598   -0.0017935115353646376
-0.0013078606558308901   -0.0657617846677098   -0.0018287360407294821
-0.001544554066676791   -0.06577398945296443   -0.0016557263688562168
-0.00401909162848566   -0.06843968100490919   -0.0021280668624749643
-0.003502107608785277   -0.06599115775446598   -0.0017935115353646376
-0.001544554066676791   -0.06577398945296443   -0.0016557263688562168
-0.004982288969423331   -0.06870262998257931   -0.0019276032097993415
-0.005276193786132393   -0.06882955195223754   -0.001740825192838889
-0.0037892989310541734   -0.06617923790371431   -0.0015567673659472967
-0.005682273548332519   -0.06899343278681941   -0.001953595665577367
-0.00514094698862706   -0.06873677831960943   -0.0018379661054289025
-0.0037892989310541734   -0.06617923790371431   -0.0015567673659472967
-0.005519821151542817   -0.06624984586002065   -0.0017873279211499287
-0.005682273548332519   -0.06899343278681941   -0.001953595665577367
-0.005439057303419805   -0.06615190676711147   -0.0017920786020428738
-0.00514094698862706   -0.06873677831960943   -0.0018379661054289025
-0.00556258851577548   -0.06891058457188429   -0.001956117714028937
-0.005439057303419805   -0.06615190676711147   -0.0017920786020428738
-0.005682273548332519   -0.06899343278681941   -0.001953595665577367
-0.00514094698862706   -0.06873677831960943   -0.0018379661054289025
-0.005439057303419805   -0.06615190676711147   -0.0017920786020428738
-0.0036932258058190418   -0.06606697262110005   -0.0016433970620004224
-0.0037892989310541734   -0.06617923790371431   -0.0015567673659472967
-0.00514094698862706   -0.06873677831960943   -0.0018379661054289025
-0.005439057303419805   -0.06615190676711147   -0.0017920786020428738
-0.0037892989310541734   -0.06617923790371431   -0.0015567673659472967
-0.005682273548332519   -0.06899343278681941   -0.001953595665577367
-0.00514094698862706   -0.06873677831960943   -0.0018379661054289025
-0.0036932258058190418   -0.06606697262110005   -0.0016433970620004224
-0.00556258851577548   -0.06891058457188429   -0.001956117714028937
-0.004982288969423331   -0.06870262998257931   -0.0019276032097993415
-0.0036932258058190418   -0.06606697262110005   -0.0016433970620004224
-0.005439057303419805   -0.06615190676711147   -0.0017920786020428738
-0.00556258851577548   -0.06891058457188429   -0.001956117714028937
-0.005355522695432508   -0.06609917530734347   -0.001789606872512317
-0.004982288969423331   -0.06870262998257931   -0.0019276032097993415
-0.005429376925438467   -0.06888083298644955   -0.0019489114538278859
-0.005355522695432508   -0.06609917530734347   -0.001789606872512317
-0.00556258851577548   -0.06891058457188429   -0.001956117714028937
-0.004982288969423331   -0.06870262998257931   -0.0019276032097993415
-0.005355522695432508   -0.06609917530734347   -0.001789606872512317
-0.0035850441672225586   -0.06600485802351376   -0.0017222284965477072
-0.0036932258058190418   -0.06606697262110005   -0.0016433970620004224
-0.004982288969423331   -0.06870262998257931   -0.0019276032097993415
-0.005355522695432508   -0.06609917530734347   -0.001789606872512317
-0.0036932258058190418   -0.06606697262110005   -0.0016433970620004224
-0.00556258851577548   -0.06891058457188429   -0.001956117714028937
-0.004982288969423331   -0.06870262998257931   -0.0019276032097993415
-0.0035850441672225586   -0.06600485802351376   -0.0017222284965477072
-0.005429376925438467   -0.06888083298644955   -0.0019489114538278859
-0.004846388788532247   -0.06872760504852023   -0.002009269174447891
-0.0035850441672225586   -0.06600485802351376   -0.0017222284965477072
-0.005355522695432508   -0.06609917530734347   -0.001789606872512317
-0.005429376925438467   -0.06888083298644955   -0.0019489114538278859
-0.005274965077502883   -0.06608947866411748   -0.0017798464478093452
-0.004846388788532247   -0.06872760504852023   -0.002009269174447891
-0.005293942606888662   -0.06890175999300242   -0.001934071140156235
-0.005274965077502883   -0.06608947866411748   -0.0017798464478093452
-0.005429376925438467   -0.06888083298644955   -0.0019489114538278859
-0.004846388788532247   -0.06872760504852023   -0.002009269174447891
-0.005274965077502883   -0.06608947866411748   -0.0017798464478093452
-0.003502107608785277   -0.06599115775446598   -0.0017935115353646376
-0.0035850441672225586   -0.06600485802351376   -0.0017222284965477072
-0.004846388788532247   -0.06872760504852023   -0.002009269174447891
-0.005274965077502883   -0.06608947866411748   -0.0017798464478093452
-0.0035850441672225586   -0.06600485802351376   -0.0017222284965477072
-0.005429376925438467   -0.06888083298644955   -0.0019489114538278859
-0.005682273548332519   -0.06899343278681941   -0.001953595665577367
-0.005519821151542817   -0.06624984586002065   -0.0017873279211499287
-0.00611773465256628   -0.06906207176501972   -0.0021630358178808037
-0.00556258851577548   -0.06891058457188429   -0.001956117714028937
-0.005519821151542817   -0.06624984586002065   -0.0017873279211499287
-0.0072384319006085825   -0.06618699603037298   -0.0020031188264470375
-0.00611773465256628   -0.06906207176501972   -0.0021630358178808037
-0.00715830624905029   -0.0661000058970666   -0.0019293556245405113
-0.00556258851577548   -0.06891058457188429   -0.001956117714028937
-0.005993753093642776   -0.0689830549051989   -0.0020745736978544575
-0.00715830624905029   -0.0661000058970666   -0.0019293556245405113
-0.00611773465256628   -0.06906207176501972   -0.0021630358178808037
-0.00556258851577548   -0.06891058457188429   -0.001956117714028937
-0.00715830624905029   -0.0661000058970666   -0.0019293556245405113
-0.005439057303419805   -0.06615190676711147   -0.0017920786020428738
-0.005519821151542817   -0.06624984586002065   -0.0017873279211499287
-0.00556258851577548   -0.06891058457188429   -0.001956117714028937
-0.00715830624905029   -0.0661000058970666   -0.0019293556245405113
-0.005519821151542817   -0.06624984586002065   -0.0017873279211499287
-0.00611773465256628   -0.06906207176501972   -0.0021630358178808037
-0.00556258851577548   -0.06891058457188429   -0.001956117714028937
-0.005439057303419805   -0.06615190676711147   -0.0017920786020428738
-0.005993753093642776   -0.0689830549051989   -0.0020745736978544575
-0.005429376925438467   -0.06888083298644955   -0.0019489114538278859
-0.005439057303419805   -0.06615190676711147   -0.0017920786020428738
-0.00715830624905029   -0.0661000058970666   -0.0019293556245405113
-0.005993753093642776   -0.0689830549051989   -0.0020745736978544575
-0.007068387643590907   -0.06605746653451323   -0.001848477606749291
-0.005429376925438467   -0.06888083298644955   -0.0019489114538278859
-0.005845055803923335   -0.06895800054185516   -0.001974262917244307
-0.007068387643590907   -0.06605746653451323   -0.001848477606749291
-0.005993753093642776   -0.0689830549051989   -0.0020745736978544575
-0.005429376925438467   -0.06888083298644955   -0.0019489114538278859
-0.007068387643590907   -0.06605746653451323   -0.001848477606749291
-0.005355522695432508   -0.06609917530734347   -0.001789606872512317
-0.005439057303419805   -0.06615190676711147   -0.0017920786020428738
-0.005429376925438467   -0.06888083298644955   -0.0019489114538278859
-0.007068387643590907   -0.06605746653451323   -0.001848477606749291
-0.005439057303419805   -0.06615190676711147   -0.0017920786020428738
-0.005993753093642776   -0.0689830549051989   -0.0020745736978544575
-0.005429376925438467   -0.06888083298644955   -0.0019489114538278859
-0.005355522695432508   -0.06609917530734347   -0.001789606872512317
-0.005845055803923335   -0.06895800054185516   -0.001974262917244307
-0.005293942606888662   -0.06890175999300242   -0.001934071140156235
-0.005355522695432508   -0.06609917530734347   -0.001789606872512317
-0.007068387643590907   -0.06605746653451323   -0.001848477606749291
-0.005845055803923335   -0.06895800054185516   -0.001974262917244307
-0.006978103195494404   -0.06605510720629129   -0.0017596180506150904
-0.005293942606888662   -0.06890175999300242   -0.001934071140156235
-0.005692147333101205   -0.06897844854526575   -0.001867428748893327
-0.006978103195494404   -0.06605510720629129   -0.0017596180506150904
-0.005845055803923335   -0.06895800054185516   -0.001974262917244307
-0.005293942606888662   -0.06890175999300242   -0.001934071140156235
-0.006978103195494404   -0.06605510720629129   -0.0017596180506150904
-0.005274965077502883   -0.06608947866411748   -0.0017798464478093452
-0.005355522695432508   -0.06609917530734347   -0.001789606872512317
-0.005293942606888662   -0.06890175999300242   -0.001934071140156235
-0.006978103195494404   -0.06605510720629129   -0.0017596180506150904
-0.005355522695432508   -0.06609917530734347   -0.001789606872512317
-0.005845055803923335   -0.06895800054185516   -0.001974262917244307
-0.00611773465256628   -0.06906207176501972   -0.0021630358178808037
-0.0072384319006085825   -0.06618699603037298   -0.0020031188264470375
-0.006748490418720305   -0.0689874783786197   -0.002362088723862367
-0.005993753093642776   -0.0689830549051989   -0.0020745736978544575
-0.0072384319006085825   -0.06618699603037298   -0.0020031188264470375
-0.009126447224242475   -0.06598237894007919   -0.002201355792283407
-0.006748490418720305   -0.0689874783786197   -0.002362088723862367
-0.009028344646270376   -0.0659063563707323   -0.002050820589013996
-0.005993753093642776   -0.0689830549051989   -0.0020745736978544575
-0.006586550962346454   -0.0689128441893657   -0.0021869874437484573
-0.009028344646270376   -0.0659063563707323   -0.002050820589013996
-0.006748490418720305   -0.0689874783786197   -0.002362088723862367
-0.005993753093642776   -0.0689830549051989   -0.0020745736978544575
-0.009028344646270376   -0.0659063563707323   -0.002050820589013996
-0.00715830624905029   -0.0661000058970666   -0.0019293556245405113
-0.0072384319006085825   -0.06618699603037298   -0.0020031188264470375
-0.005993753093642776   -0.0689830549051989   -0.0020745736978544575
-0.009028344646270376   -0.0659063563707323   -0.002050820589013996
-0.0072384319006085825   -0.06618699603037298   -0.0020031188264470375
-0.006748490418720305   -0.0689874783786197   -0.002362088723862367
-0.005993753093642776   -0.0689830549051989   -0.0020745736978544575
-0.00715830624905029   -0.0661000058970666   -0.0019293556245405113
-0.006586550962346454   -0.0689128441893657   -0.0021869874437484573
-0.005845055803923335   -0.06895800054185516   -0.001974262917244307
-0.00715830624905029   -0.0661000058970666   -0.0019293556245405113
-0.009028344646270376   -0.0659063563707323   -0.002050820589013996
-0.006586550962346454   -0.0689128441893657   -0.0021869874437484573
-0.008892880799638554   -0.06587396853653735   -0.0018936945955801577
-0.005845055803923335   -0.06895800054185516   -0.001974262917244307
-0.006372842262451419   -0.06889591782675482   -0.0019986865168222442
-0.008892880799638554   -0.06587396853653735   -0.0018936945955801577
-0.006586550962346454   -0.0689128441893657   -0.0021869874437484573
-0.005845055803923335   -0.06895800054185516   -0.001974262917244307
-0.008892880799638554   -0.06587396853653735   -0.0018936945955801577
-0.007068387643590907   -0.06605746653451323   -0.001848477606749291
-0.00715830624905029   -0.0661000058970666   -0.0019293556245405113
-0.005845055803923335   -0.06895800054185516   -0.001974262917244307
-0.008892880799638554   -0.06587396853653735   -0.0018936945955801577
-0.00715830624905029   -0.0661000058970666   -0.0019293556245405113
-0.006586550962346454   -0.0689128441893657   -0.0021869874437484573
-0.005845055803923335   -0.06895800054185516   -0.001974262917244307
-0.007068387643590907   -0.06605746653451323   -0.001848477606749291
-0.006372842262451419   -0.06889591782675482   -0.0019986865168222442
-0.005692147333101205   -0.06897844854526575   -0.001867428748893327
-0.007068387643590907   -0.06605746653451323   -0.001848477606749291
-0.008892880799638554   -0.06587396853653735   -0.0018936945955801577
-0.006372842262451419   -0.06889591782675482   -0.0019986865168222442
-0.008774675372228879   -0.06588526533933463   -0.0017256045150580031
-0.005692147333101205   -0.06897844854526575   -0.001867428748893327
-0.00617186125812164   -0.06892557491811835   -0.0018031270887007747
-0.008774675372228879   -0.06588526533933463   -0.0017256045150580031
-0.006372842262451419   -0.06889591782675482   -0.0019986865168222442
-0.005692147333101205   -0.06897844854526575   -0.001867428748893327
-0.008774675372228879   -0.06588526533933463   -0.0017256045150580031
-0.006978103195494404   -0.06605510720629129   -0.0017596180506150904
-0.007068387643590907   -0.06605746653451323   -0.001848477606749291
-0.005692147333101205   -0.06897844854526575   -0.001867428748893327
-0.008774675372228879   -0.06588526533933463   -0.0017256045150580031
-0.007068387643590907   -0.06605746653451323   -0.001848477606749291
-0.006372842262451419   -0.06889591782675482   -0.0019986865168222442
-0.006748490418720305   -0.0689874783786197   -0.002362088723862367
-0.009126447224242475   -0.06598237894007919   -0.002201355792283407
-0.007975442156832737   -0.0686499471178662   -0.0025732752253334263
-0.006586550962346454   -0.0689128441893657   -0.0021869874437484573
-0.009126447224242475   -0.06598237894007919   -0.002201355792283407
-0.01155772767010984   -0.06564960483627473   -0.0023916919785175045
-0.007975442156832737   -0.0686499471178662   -0.0025732752253334263
-0.011241513997547897   -0.06556715720363142   -0.0021540155617278734
-0.006586550962346454   -0.0689128441893657   -0.0021869874437484573
-0.007544613165073387   -0.06858698309711077   -0.0022860054575921276
-0.011241513997547897   -0.06556715720363142   -0.0021540155617278734
-0.007975442156832737   -0.0686499471178662   -0.0025732752253334263
-0.006586550962346454   -0.0689128441893657   -0.0021869874437484573
-0.011241513997547897   -0.06556715720363142   -0.0021540155617278734
-0.009028344646270376   -0.0659063563707323   -0.002050820589013996
-0.009126447224242475   -0.06598237894007919   -0.002201355792283407
-0.006586550962346454   -0.0689128441893657   -0.0021869874437484573
-0.011241513997547897   -0.06556715720363142   -0.0021540155617278734
-0.009126447224242475   -0.06598237894007919   -0.002201355792283407
-0.007975442156832737   -0.0686499471178662   -0.0025732752253334263
-0.006586550962346454   -0.0689128441893657   -0.0021869874437484573
-0.009028344646270376   -0.0659063563707323   -0.002050820589013996
-0.007544613165073387   -0.06858698309711077   -0.0022860054575921276
-0.006372842262451419   -0.06889591782675482   -0.0019986865168222442
-0.009028344646270376   -0.0659063563707323   -0.002050820589013996
-0.011241513997547897   -0.06556715720363142   -0.0021540155617278734
-0.007544613165073387   -0.06858698309711077   -0.0022860054575921276
-0.010958126706238013   -0.06553719946926274   -0.0019025137745662486
-0.006372842262451419   -0.06889591782675482   -0.0019986865168222442
-0.007148829840183541   -0.0685783802045159   -0.001979406668449186
-0.010958126706238013   -0.06553719946926274   -0.0019025137745662486
-0.007544613165073387   -0.06858698309711077   -0.0022860054575921276
-0.006372842262451419   -0.06889591782675482   -0.0019986865168222442
-0.010958126706238013   -0.06553719946926274   -0.0019025137745662486
-0.008892880799638554   -0.06587396853653735   -0.0018936945955801577
-0.009028344646270376   -0.0659063563707323   -0.002050820589013996
-0.006372842262451419   -0.06889591782675482   -0.0019986865168222442
-0.010958126706238013   -0.06553719946926274   -0.0019025137745662486
-0.009028344646270376   -0.0659063563707323   -0.002050820589013996
-0.007544613165073387   -0.06858698309711077   -0.0022860054575921276
-0.006372842262451419   -0.06889591782675482   -0.0019986865168222442
-0.008892880799638554   -0.06587396853653735   -0.0018936945955801577
-0.007148829840183541   -0.0685783802045159   -0.001979406668449186
-0.00617186125812164   -0.06892557491811835   -0.0018031270887007747
-0.008892880799638554   -0.06587396853653735   -0.0018936945955801577
-0.010958126706238013   -0.06553719946926274   -0.0019025137745662486
-0.007148829840183541   -0.0685783802045159   -0.001979406668449186
-0.010590849421990517   -0.06557520511580762   -0.0016395743295370836
-0.00617186125812164   -0.06892557491811835   -0.0018031270887007747
-0.006648986387336917   -0.06866099796614714   -0.0016587759816553797
-0.010590849421990517   -0.06557520511580762   -0.0016395743295370836
-0.007148829840183541   -0.0685783802045159   -0.001979406668449186
-0.00617186125812164   -0.06892557491811835   -0.0018031270887007747
-0.010590849421990517   -0.06557520511580762   -0.0016395743295370836
-0.008774675372228879   -0.06588526533933463   -0.0017256045150580031
-0.008892880799638554   -0.06587396853653735   -0.0018936945955801577
-0.00617186125812164   -0.06892557491811835   -0.0018031270887007747
-0.010590849421990517   -0.06557520511580762   -0.0016395743295370836
-0.008892880799638554   -0.06587396853653735   -0.0018936945955801577
-0.007148829840183541   -0.0685783802045159   -0.001979406668449186
-0.0020366131064891734   -0.06597900098270336   -0.0012740564975097844
0.0003493304609110139   -0.06121773731155475   -0.0010537638600282577
-0.0037892989310541734   -0.06617923790371431   -0.0015567673659472967
-0.0017612412870895654   -0.06584006105384574   -0.001470670628204682
0.0003493304609110139   -0.06121773731155475   -0.0010537638600282577
-0.002608221442786452   -0.06136464223337031   -0.0013313358137513151
-0.0037892989310541734   -0.06617923790371431   -0.0015567673659472967
-0.002557276619850073   -0.0612469840935445   -0.0014000846501323748
-0.0017612412870895654   -0.06584006105384574   -0.001470670628204682
-0.0036932258058190418   -0.06606697262110005   -0.0016433970620004224
-0.002557276619850073   -0.0612469840935445   -0.0014000846501323748
-0.0037892989310541734   -0.06617923790371431   -0.0015567673659472967
-0.0017612412870895654   -0.06584006105384574   -0.001470670628204682
-0.002557276619850073   -0.0612469840935445   -0.0014000846501323748
0.0005417151564744317   -0.0610765632282421   -0.0012103800215101717
0.0003493304609110139   -0.06121773731155475   -0.0010537638600282577
-0.0017612412870895654   -0.06584006105384574   -0.001470670628204682
-0.002557276619850073   -0.0612469840935445   -0.0014000846501323748
0.0003493304609110139   -0.06121773731155475   -0.0010537638600282577
-0.0037892989310541734   -0.06617923790371431   -0.0015567673659472967
-0.0017612412870895654   -0.06584006105384574   -0.001470670628204682
0.0005417151564744317   -0.0610765632282421   -0.0012103800215101717
-0.0036932258058190418   -0.06606697262110005   -0.0016433970620004224
-0.001544554066676791   -0.06577398945296443   -0.0016557263688562168
0.0005417151564744317   -0.0610765632282421   -0.0012103800215101717
-0.002557276619850073   -0.0612469840935445   -0.0014000846501323748
-0.0036932258058190418   -0.06606697262110005   -0.0016433970620004224
-0.0024992463461875514   -0.061170235414243705   -0.001460837697784633
-0.001544554066676791   -0.06577398945296443   -0.0016557263688562168
-0.0035850441672225586   -0.06600485802351376   -0.0017222284965477072
-0.0024992463461875514   -0.061170235414243705   -0.001460837697784633
-0.0036932258058190418   -0.06606697262110005   -0.0016433970620004224
-0.001544554066676791   -0.06577398945296443   -0.0016557263688562168
-0.0024992463461875514   -0.061170235414243705   -0.001460837697784633
0.0006832440493710245   -0.06099509542437081   -0.0013558046282959638
0.0005417151564744317   -0.0610765632282421   -0.0012103800215101717
-0.001544554066676791   -0.06577398945296443   -0.0016557263688562168
-0.0024992463461875514   -0.061170235414243705   -0.001460837697784633
0.0005417151564744317   -0.0610765632282421   -0.0012103800215101717
-0.0036932258058190418   -0.06606697262110005   -0.0016433970620004224
-0.001544554066676791   -0.06577398945296443   -0.0016557263688562168
0.0006832440493710245   -0.06099509542437081   -0.0013558046282959638
-0.0035850441672225586   -0.06600485802351376   -0.0017222284965477072
-0.0013078606558308901   -0.0657617846677098   -0.0018287360407294821
0.0006832440493710245   -0.06099509542437081   -0.0013558046282959638
-0.0024992463461875514   -0.061170235414243705   -0.001460837697784633
-0.0035850441672225586   -0.06600485802351376   -0.0017222284965477072
-0.0024645502409145733   -0.06113212175481787   -0.0015143845306546317
-0.0013078606558308901   -0.0657617846677098   -0.0018287360407294821
-0.003502107608785277   -0.06599115775446598   -0.0017935115353646376
-0.0024645502409145733   -0.06113212175481787   -0.0015143845306546317
-0.0035850441672225586   -0.06600485802351376   -0.0017222284965477072
-0.0013078606558308901   -0.0657617846677098   -0.0018287360407294821
-0.0024645502409145733   -0.06113212175481787   -0.0015143845306546317
0.0008348041517231035   -0.060955100337401355   -0.0014899837602676616
0.0006832440493710245   -0.06099509542437081   -0.0013558046282959638
-0.0013078606558308901   -0.0657617846677098   -0.0018287360407294821
-0.0024645502409145733   -0.06113212175481787   -0.0015143845306546317
0.0006832440493710245   -0.06099509542437081   -0.0013558046282959638
-0.0035850441672225586   -0.06600485802351376   -0.0017222284965477072
-0.0037892989310541734   -0.06617923790371431   -0.0015567673659472967
-0.002608221442786452   -0.06136464223337031   -0.0013313358137513151
-0.005519821151542817   -0.06624984586002065   -0.0017873279211499287
-0.0036932258058190418   -0.06606697262110005   -0.0016433970620004224
-0.002608221442786452   -0.06136464223337031   -0.0013313358137513151
-0.0054697018409841066   -0.061392750895659154   -0.0015599973116639024
-0.005519821151542817   -0.06624984586002065   -0.0017873279211499287
-0.005432265356047469   -0.06129176108610071   -0.0015617513566286018
-0.0036932258058190418   -0.06606697262110005   -0.0016433970620004224
-0.005439057303419805   -0.06615190676711147   -0.0017920786020428738
-0.005432265356047469   -0.06129176108610071   -0.0015617513566286018
-0.005519821151542817   -0.06624984586002065   -0.0017873279211499287
-0.0036932258058190418   -0.06606697262110005   -0.0016433970620004224
-0.005432265356047469   -0.06129176108610071   -0.0015617513566286018
-0.002557276619850073   -0.0612469840935445   -0.0014000846501323748
-0.002608221442786452   -0.06136464223337031   -0.0013313358137513151
-0.0036932258058190418   -0.06606697262110005   -0.0016433970620004224
-0.005432265356047469   -0.06129176108610071   -0.0015617513566286018
-0.002608221442786452   -0.06136464223337031   -0.0013313358137513151
-0.005519821151542817   -0.06624984586002065   -0.0017873279211499287
-0.0036932258058190418   -0.06606697262110005   -0.0016433970620004224
-0.002557276619850073   -0.0612469840935445   -0.0014000846501323748
-0.005439057303419805   -0.06615190676711147   -0.0017920786020428738
-0.0035850441672225586   -0.06600485802351376   -0.0017222284965477072
-0.002557276619850073   -0.0612469840935445   -0.0014000846501323748
-0.005432265356047469   -0.06129176108610071   -0.0015617513566286018
-0.005439057303419805   -0.06615190676711147   -0.0017920786020428738
-0.005393767192972454   -0.0612273860920556   -0.0015558440989882614
-0.0035850441672225586   -0.06600485802351376   -0.0017222284965477072
-0.005355522695432508   -0.06609917530734347   -0.001789606872512317
-0.005393767192972454   -0.0612273860920556   -0.0015558440989882614
-0.005439057303419805   -0.06615190676711147   -0.0017920786020428738
-0.0035850441672225586   -0.06600485802351376   -0.0017222284965477072
-0.005393767192972454   -0.0612273860920556   -0.0015558440989882614
-0.0024992463461875514   -0.061170235414243705   -0.001460837697784633
-0.002557276619850073   -0.0612469840935445   -0.0014000846501323748
-0.0035850441672225586   -0.06600485802351376   -0.0017222284965477072
-0.005393767192972454   -0.0612273860920556   -0.0015558440989882614
-0.002557276619850073   -0.0612469840935445   -0.0014000846501323748
-0.005439057303419805   -0.06615190676711147   -0.0017920786020428738
-0.0035850441672225586   -0.06600485802351376   -0.0017222284965477072
-0.0024992463461875514   -0.061170235414243705   -0.001460837697784633
-0.005355522695432508   -0.06609917530734347   -0.001789606872512317
-0.003502107608785277   -0.06599115775446598   -0.0017935115353646376
-0.0024992463461875514   -0.061170235414243705   -0.001460837697784633
-0.005393767192972454   -0.0612273860920556   -0.0015558440989882614
-0.005355522695432508   -0.06609917530734347   -0.001789606872512317
-0.0053600958232266046   -0.0611990233977607   -0.001542786526662659
-0.003502107608785277   -0.06599115775446598   -0.0017935115353646376
-0.005274965077502883   -0.06608947866411748   -0.0017798464478093452
-0.0053600958232266046   -0.0611990233977607   -0.001542786526662659
-0.005355522695432508   -0.06609917530734347   -0.001789606872512317
-0.003502107608785277   -0.06599115775446598   -0.0017935115353646376
-0.0053600958232266046   -0.0611990233977607   -0.001542786526662659
-0.0024645502409145733   -0.06113212175481787   -0.0015143845306546317
-0.0024992463461875514   -0.061170235414243705   -0.001460837697784633
-0.003502107608785277   -0.06599115775446598   -0.0017935115353646376
-0.0053600958232266046   -0.0611990233977607   -0.001542786526662659
-0.0024992463461875514   -0.061170235414243705   -0.001460837697784633
-0.005355522695432508   -0.06609917530734347   -0.001789606872512317
-0.005519821151542817   -0.06624984586002065   -0.0017873279211499287
-0.0054697018409841066   -0.061392750895659154   -0.0015599973116639024
-0.0072384319006085825   -0.06618699603037298   -0.0020031188264470375
-0.005439057303419805   -0.06615190676711147   -0.0017920786020428738
-0.0054697018409841066   -0.061392750895659154   -0.0015599973116639024
-0.008286275785982757   -0.0613015904018711   -0.0017663979689400216
-0.0072384319006085825   -0.06618699603037298   -0.0020031188264470375
-0.008251423755404537   -0.061214461038852044   -0.0017027719579918248
-0.005439057303419805   -0.06615190676711147   -0.0017920786020428738
-0.00715830624905029   -0.0661000058970666   -0.0019293556245405113
-0.008251423755404537   -0.061214461038852044   -0.0017027719579918248
-0.0072384319006085825   -0.06618699603037298   -0.0020031188264470375
-0.005439057303419805   -0.06615190676711147   -0.0017920786020428738
-0.008251423755404537   -0.061214461038852044   -0.0017027719579918248
-0.005432265356047469   -0.06129176108610071   -0.0015617513566286018
-0.0054697018409841066   -0.061392750895659154   -0.0015599973116639024
-0.005439057303419805   -0.06615190676711147   -0.0017920786020428738
-0.008251423755404537   -0.061214461038852044   -0.0017027719579918248
-0.0054697018409841066   -0.061392750895659154   -0.0015599973116639024
-0.0072384319006085825   -0.06618699603037298   -0.0020031188264470375
-0.005439057303419805   -0.06615190676711147   -0.0017920786020428738
-0.005432265356047469   -0.06129176108610071   -0.0015617513566286018
-0.00715830624905029   -0.0661000058970666   -0.0019293556245405113
-0.005355522695432508   -0.06609917530734347   -0.001789606872512317
-0.005432265356047469   -0.06129176108610071   -0.0015617513566286018
-0.008251423755404537   -0.061214461038852044   -0.0017027719579918248
-0.00715830624905029   -0.0661000058970666   -0.0019293556245405113
-0.0082093085460707   -0.06116354408891068   -0.0016316513512078846
-0.005355522695432508   -0.06609917530734347   -0.001789606872512317
-0.007068387643590907   -0.06605746653451323   -0.001848477606749291
-0.0082093085460707   -0.06116354408891068   -0.0016316513512078846
-0.00715830624905029   -0.0661000058970666   -0.0019293556245405113
-0.005355522695432508   -0.06609917530734347   -0.001789606872512317
-0.0082093085460707   -0.06116354408891068   -0.0016316513512078846
-0.005393767192972454   -0.0612273860920556   -0.0015558440989882614
-0.005432265356047469   -0.06129176108610071   -0.0015617513566286018
-0.005355522695432508   -0.06609917530734347   -0.001789606872512317
-0.0082093085460707   -0.06116354408891068   -0.0016316513512078846
-0.005432265356047469   -0.06129176108610071   -0.0015617513566286018
-0.00715830624905029   -0.0661000058970666   -0.0019293556245405113
-0.005355522695432508   -0.06609917530734347   -0.001789606872512317
-0.005393767192972454   -0.0612273860920556   -0.0015558440989882614
-0.007068387643590907   -0.06605746653451323   -0.001848477606749291
-0.005274965077502883   -0.06608947866411748   -0.0017798464478093452
-0.005393767192972454   -0.0612273860920556   -0.0015558440989882614
-0.0082093085460707   -0.06116354408891068   -0.0016316513512078846
-0.007068387643590907   -0.06605746653451323   -0.001848477606749291
-0.008168350693612823   -0.06114716005218565   -0.0015532668255283366
-0.005274965077502883   -0.06608947866411748   -0.0017798464478093452
-0.006978103195494404   -0.06605510720629129   -0.0017596180506150904
-0.008168350693612823   -0.06114716005218565   -0.0015532668255283366
-0.007068387643590907   -0.06605746653451323   -0.001848477606749291
-0.005274965077502883   -0.06608947866411748   -0.0017798464478093452
-0.008168350693612823   -0.06114716005218565   -0.0015532668255283366
-0.0053600958232266046   -0.0611990233977607   -0.001542786526662659
-0.005393767192972454   -0.0612273860920556   -0.0015558440989882614
-0.005274965077502883   -0.06608947866411748   -0.0017798464478093452
-0.008168350693612823   -0.06114716005218565   -0.0015532668255283366
-0.005393767192972454   -0.0612273860920556   -0.0015558440989882614
-0.007068387643590907   -0.06605746653451323   -0.001848477606749291
-0.0072384319006085825   -0.06618699603037298   -0.0020031188264470375
-0.008286275785982757   -0.0613015904018711   -0.0017663979689400216
-0.009126447224242475   -0.06598237894007919   -0.002201355792283407
-0.00715830624905029   -0.0661000058970666   -0.0019293556245405113
-0.008286275785982757   -0.0613015904018711   -0.0017663979689400216
-0.011237837775879573   -0.06109438120868201   -0.0019497584249087091
-0.009126447224242475   -0.06598237894007919   -0.002201355792283407
-0.011192292715832936   -0.0610204791182863   -0.001820667127073299
-0.00715830624905029   -0.0661000058970666   -0.0019293556245405113
-0.009028344646270376   -0.0659063563707323   -0.002050820589013996
-0.011192292715832936   -0.0610204791182863   -0.001820667127073299
-0.009126447224242475   -0.06598237894007919   -0.002201355792283407
-0.00715830624905029   -0.0661000058970666   -0.0019293556245405113
-0.011192292715832936   -0.0610204791182863   -0.001820667127073299
-0.008251423755404537   -0.061214461038852044   -0.0017027719579918248
-0.008286275785982757   -0.0613015904018711   -0.0017663979689400216
-0.00715830624905029   -0.0661000058970666   -0.0019293556245405113
-0.011192292715832936   -0.0610204791182863   -0.001820667127073299
-0.008286275785982757   -0.0613015904018711   -0.0017663979689400216
-0.009126447224242475   -0.06598237894007919   -0.002201355792283407
-0.00715830624905029   -0.0661000058970666   -0.0019293556245405113
-0.008251423755404537   -0.061214461038852044   -0.0017027719579918248
-0.009028344646270376   -0.0659063563707323   -0.002050820589013996
-0.007068387643590907   -0.06605746653451323   -0.001848477606749291
-0.008251423755404537   -0.061214461038852044   -0.0017027719579918248
-0.011192292715832936   -0.0610204791182863   -0.001820667127073299
-0.009028344646270376   -0.0659063563707323   -0.002050820589013996
-0.011115071165672034   -0.06098176345573665   -0.001685233735489777
-0.007068387643590907   -0.06605746653451323   -0.001848477606749291
-0.008892880799638554   -0.06587396853653735   -0.0018936945955801577
-0.011115071165672034   -0.06098176345573665   -0.001685233735489777
-0.009028344646270376   -0.0659063563707323   -0.002050820589013996
-0.007068387643590907   -0.06605746653451323   -0.001848477606749291
-0.011115071165672034   -0.06098176345573665   -0.001685233735489777
-0.0082093085460707   -0.06116354408891068   -0.0016316513512078846
-0.008251423755404537   -0.061214461038852044   -0.0017027719579918248
-0.007068387643590907   -0.06605746653451323   -0.001848477606749291
-0.011115071165672034   -0.06098176345573665   -0.001685233735489777
-0.008251423755404537   -0.061214461038852044   -0.0017027719579918248
-0.009028344646270376   -0.0659063563707323   -0.002050820589013996
-0.007068387643590907   -0.06605746653451323   -0.001848477606749291
-0.0082093085460707   -0.06116354408891068   -0.0016316513512078846
-0.008892880799638554   -0.06587396853653735   -0.0018936945955801577
-0.006978103195494404   -0.06605510720629129   -0.0017596180506150904
-0.0082093085460707   -0.06116354408891068   -0.0016316513512078846
-0.011115071165672034   -0.06098176345573665   -0.001685233735489777
-0.008892880799638554   -0.06587396853653735   -0.0018936945955801577
-0.011052368377010109   -0.060980286587746846   -0.0015414790130011057
-0.006978103195494404   -0.06605510720629129   -0.0017596180506150904
-0.008774675372228879   -0.06588526533933463   -0.0017256045150580031
-0.011052368377010109   -0.060980286587746846   -0.0015414790130011057
-0.008892880799638554   -0.06587396853653735   -0.0018936945955801577
-0.006978103195494404   -0.06605510720629129   -0.0017596180506150904
-0.011052368377010109   -0.060980286587746846   -0.0015414790130011057
-0.008168350693612823   -0.06114716005218565   -0.0015532668255283366
-0.0082093085460707   -0.06116354408891068   -0.0016316513512078846
-0.006978103195494404   -0.06605510720629129   -0.0017596180506150904
-0.011052368377010109   -0.060980286587746846   -0.0015414790130011057
-0.0082093085460707   -0.06116354408891068   -0.0016316513512078846
-0.008892880799638554   -0.06587396853653735   -0.0018936945955801577
-0.009126447224242475   -0.06598237894007919   -0.002201355792283407
-0.011237837775879573   -0.06109438120868201   -0.0019497584249087091
-0.01155772767010984   -0.06564960483627473   -0.0023916919785175045
-0.009028344646270376   -0.0659063563707323   -0.002050820589013996
-0.011237837775879573   -0.06109438120868201   -0.0019497584249087091
-0.014679990883284696   -0.06079597045142579   -0.0021207620740785944
-0.01155772767010984   -0.06564960483627473   -0.0023916919785175045
-0.01444654677390069   -0.060718878180730976   -0.001918691976381232
-0.009028344646270376   -0.0659063563707323   -0.002050820589013996
-0.011241513997547897   -0.06556715720363142   -0.0021540155617278734
-0.01444654677390069   -0.060718878180730976   -0.001918691976381232
-0.01155772767010984   -0.06564960483627473   -0.0023916919785175045
-0.009028344646270376   -0.0659063563707323   -0.002050820589013996
-0.01444654677390069   -0.060718878180730976   -0.001918691976381232
-0.011192292715832936   -0.0610204791182863   -0.001820667127073299
-0.011237837775879573   -0.06109438120868201   -0.0019497584249087091
-0.009028344646270376   -0.0659063563707323   -0.002050820589013996
-0.01444654677390069   -0.060718878180730976   -0.001918691976381232
-0.011237837775879573   -0.06109438120868201   -0.0019497584249087091
-0.01155772767010984   -0.06564960483627473   -0.0023916919785175045
-0.009028344646270376   -0.0659063563707323   -0.002050820589013996
-0.011192292715832936   -0.0610204791182863   -0.001820667127073299
-0.011241513997547897   -0.06556715720363142   -0.0021540155617278734
-0.008892880799638554   -0.06587396853653735   -0.0018936945955801577
-0.011192292715832936   -0.0610204791182863   -0.001820667127073299
-0.01444654677390069   -0.060718878180730976   -0.001918691976381232
-0.011241513997547897   -0.06556715720363142   -0.0021540155617278734
-0.014243967709705815   -0.06068347497627877   -0.0017061626735437648
-0.008892880799638554   -0.06587396853653735   -0.0018936945955801577
-0.010958126706238013   -0.06553719946926274   -0.0019025137745662486
-0.014243967709705815   -0.06068347497627877   -0.0017061626735437648
-0.011241513997547897   -0.06556715720363142   -0.0021540155617278734
-0.008892880799638554   -0.06587396853653735   -0.0018936945955801577
-0.014243967709705815   -0.06068347497627877   -0.0017061626735437648
-0.011115071165672034   -0.06098176345573665   -0.001685233735489777
-0.011192292715832936   -0.0610204791182863   -0.001820667127073299
-0.008892880799638554   -0.06587396853653735   -0.0018936945955801577
-0.014243967709705815   -0.06068347497627877   -0.0017061626735437648
-0.011192292715832936   -0.0610204791182863   -0.001820667127073299
-0.011241513997547897   -0.06556715720363142   -0.0021540155617278734
-0.008892880799638554   -0.06587396853653735   -0.0018936945955801577
-0.011115071165672034   -0.06098176345573665   -0.001685233735489777
-0.010958126706238013   -0.06553719946926274   -0.0019025137745662486
-0.008774675372228879   -0.06588526533933463   -0.0017256045150580031
-0.011115071165672034   -0.06098176345573665   -0.001685233735489777
-0.014243967709705815   -0.06068347497627877   -0.0017061626735437648
-0.010958126706238013   -0.06553719946926274   -0.0019025137745662486
-0.013971052637443993   -0.06070498068295889   -0.0014845280044011226
-0.008774675372228879   -0.06588526533933463   -0.0017256045150580031
-0.010590849421990517   -0.06557520511580762   -0.0016395743295370836
-0.013971052637443993   -0.06070498068295889   -0.0014845280044011226
-0.010958126706238013   -0.06553719946926274   -0.0019025137745662486
-0.008774675372228879   -0.06588526533933463   -0.0017256045150580031
-0.013971052637443993   -0.06070498068295889   -0.0014845280044011226
-0.011052368377010109   -0.060980286587746846   -0.0015414790130011057
-0.011115071165672034   -0.06098176345573665   -0.001685233735489777
-0.008774675372228879   -0.06588526533933463   -0.0017256045150580031
-0.013971052637443993   -0.06070498068295889   -0.0014845280044011226
-0.011115071165672034   -0.06098176345573665   -0.001685233735489777
-0.010958126706238013   -0.06553719946926274   -0.0019025137745662486
0.0003493304609110139   -0.06121773731155475   -0.0010537638600282577
0.0021616484360551568   -0.054751374614806204   -0.0008029657472609092
-0.002608221442786452   -0.06136464223337031   -0.0013313358137513151
0.0005417151564744317   -0.0610765632282421   -0.0012103800215101717
0.0021616484360551568   -0.054751374614806204   -0.0008029657472609092
-0.0017551195076670558   -0.05484853783404858   -0.0010679172188114202
-0.002608221442786452   -0.06136464223337031   -0.0013313358137513151
-0.0017444888509843652   -0.05473150884203249   -0.0011156045567734137
0.0005417151564744317   -0.0610765632282421   -0.0012103800215101717
-0.002557276619850073   -0.0612469840935445   -0.0014000846501323748
-0.0017444888509843652   -0.05473150884203249   -0.0011156045567734137
-0.002608221442786452   -0.06136464223337031   -0.0013313358137513151
0.0005417151564744317   -0.0610765632282421   -0.0012103800215101717
-0.0017444888509843652   -0.05473150884203249   -0.0011156045567734137
0.0022760270361317286   -0.054613606169119436   -0.0009188624041975807
0.0021616484360551568   -0.054751374614806204   -0.0008029657472609092
0.0005417151564744317   -0.0610765632282421   -0.0012103800215101717
-0.0017444888509843652   -0.05473150884203249   -0.0011156045567734137
0.0021616484360551568   -0.054751374614806204   -0.0008029657472609092
-0.002608221442786452   -0.06136464223337031   -0.0013313358137513151
0.0005417151564744317   -0.0610765632282421   -0.0012103800215101717
0.0022760270361317286   -0.054613606169119436   -0.0009188624041975807
-0.002557276619850073   -0.0612469840935445   -0.0014000846501323748
0.0006832440493710245   -0.06099509542437081   -0.0013558046282959638
0.0022760270361317286   -0.054613606169119436   -0.0009188624041975807
-0.0017444888509843652   -0.05473150884203249   -0.0011156045567734137
-0.002557276619850073   -0.0612469840935445   -0.0014000846501323748
-0.0017309615282888392   -0.05464676418470047   -0.0011559820811968004
0.0006832440493710245   -0.06099509542437081   -0.0013558046282959638
-0.0024992463461875514   -0.061170235414243705   -0.001460837697784633
-0.0017309615282888392   -0.05464676418470047   -0.0011559820811968004
-0.002557276619850073   -0.0612469840935445   -0.0014000846501323748
0.0006832440493710245   -0.06099509542437081   -0.0013558046282959638
-0.0017309615282888392   -0.05464676418470047   -0.0011559820811968004
0.002349184296048785   -0.05452332498176576   -0.001024428522116813
0.0022760270361317286   -0.054613606169119436   -0.0009188624041975807
0.0006832440493710245   -0.06099509542437081   -0.0013558046282959638
-0.0017309615282888392   -0.05464676418470047   -0.0011559820811968004
0.0022760270361317286   -0.054613606169119436   -0.0009188624041975807
-0.002557276619850073   -0.0612469840935445   -0.0014000846501323748
0.0006832440493710245   -0.06099509542437081   -0.0013558046282959638
0.002349184296048785   -0.05452332498176576   -0.001024428522116813
-0.0024992463461875514   -0.061170235414243705   -0.001460837697784633
0.0008348041517231035   -0.060955100337401355   -0.0014899837602676616
0.002349184296048785   -0.05452332498176576   -0.001024428522116813
-0.0017309615282888392   -0.05464676418470047   -0.0011559820811968004
-0.0024992463461875514   -0.061170235414243705   -0.001460837697784633
-0.0017373612562300664   -0.05459158676299689   -0.0011895828894387477
0.0008348041517231035   -0.060955100337401355   -0.0014899837602676616
-0.0024645502409145733   -0.06113212175481787   -0.0015143845306546317
-0.0017373612562300664   -0.05459158676299689   -0.0011895828894387477
-0.0024992463461875514   -0.061170235414243705   -0.001460837697784633
0.0008348041517231035   -0.060955100337401355   -0.0014899837602676616
-0.0017373612562300664   -0.05459158676299689   -0.0011895828894387477
0.002424342088456644   -0.054462991879095535   -0.0011198813077783754
0.002349184296048785   -0.05452332498176576   -0.001024428522116813
0.0008348041517231035   -0.060955100337401355   -0.0014899837602676616
-0.0017373612562300664   -0.05459158676299689   -0.0011895828894387477
0.002349184296048785   -0.05452332498176576   -0.001024428522116813
-0.0024992463461875514   -0.061170235414243705   -0.001460837697784633
-0.002608221442786452   -0.06136464223337031   -0.0013313358137513151
-0.0017551195076670558   -0.05484853783404858   -0.0010679172188114202
-0.0054697018409841066   -0.061392750895659154   -0.0015599973116639024
-0.002557276619850073   -0.0612469840935445   -0.0014000846501323748
-0.0017551195076670558   -0.05484853783404858   -0.0010679172188114202
-0.0055244634397743665   -0.054849075872139   -0.0012863732513857483
-0.0054697018409841066   -0.061392750895659154   -0.0015599973116639024
-0.005524931208675911   -0.05475007972506198   -0.0012818705875291079
-0.002557276619850073   -0.0612469840935445   -0.0014000846501323748
-0.005432265356047469   -0.06129176108610071   -0.0015617513566286018
-0.005524931208675911   -0.05475007972506198   -0.0012818705875291079
-0.0054697018409841066   -0.061392750895659154   -0.0015599973116639024
-0.002557276619850073   -0.0612469840935445   -0.0014000846501323748
-0.005524931208675911   -0.05475007972506198   -0.0012818705875291079
-0.0017444888509843652   -0.05473150884203249   -0.0011156045567734137
-0.0017551195076670558   -0.05484853783404858   -0.0010679172188114202
-0.002557276619850073   -0.0612469840935445   -0.0014000846501323748
-0.005524931208675911   -0.05475007972506198   -0.0012818705875291079
-0.0017551195076670558   -0.05484853783404858   -0.0010679172188114202
-0.0054697018409841066   -0.061392750895659154   -0.0015599973116639024
-0.002557276619850073   -0.0612469840935445   -0.0014000846501323748
-0.0017444888509843652   -0.05473150884203249   -0.0011156045567734137
-0.005432265356047469   -0.06129176108610071   -0.0015617513566286018
-0.0024992463461875514   -0.061170235414243705   -0.001460837697784633
-0.0017444888509843652   -0.05473150884203249   -0.0011156045567734137
-0.005524931208675911   -0.05475007972506198   -0.0012818705875291079
-0.005432265356047469   -0.06129176108610071   -0.0015617513566286018
-0.005525145107907496   -0.05467954325256887   -0.0012700859891999104
-0.0024992463461875514   -0.061170235414243705   -0.001460837697784633
-0.005393767192972454   -0.0612273860920556   -0.0015558440989882614
-0.005525145107907496   -0.05467954325256887   -0.0012700859891999104
-0.005432265356047469   -0.06129176108610071   -0.0015617513566286018
-0.0024992463461875514   -0.061170235414243705   -0.001460837697784633
-0.005525145107907496   -0.05467954325256887   -0.0012700859891999104
-0.0017309615282888392   -0.05464676418470047   -0.0011559820811968004
-0.0017444888509843652   -0.05473150884203249   -0.0011156045567734137
-0.0024992463461875514   -0.061170235414243705   -0.001460837697784633
-0.005525145107907496   -0.05467954325256887   -0.0012700859891999104
-0.0017444888509843652   -0.05473150884203249   -0.0011156045567734137
-0.005432265356047469   -0.06129176108610071   -0.0015617513566286018
-0.0024992463461875514   -0.061170235414243705   -0.001460837697784633
-0.0017309615282888392   -0.05464676418470047   -0.0011559820811968004
-0.005393767192972454   -0.0612273860920556   -0.0015558440989882614
-0.0024645502409145733   -0.06113212175481787   -0.0015143845306546317
-0.0017309615282888392   -0.05464676418470047   -0.0011559820811968004
-0.005525145107907496   -0.05467954325256887   -0.0012700859891999104
-0.005393767192972454   -0.0612273860920556   -0.0015558440989882614
-0.00553039664733996   -0.05463751699791731   -0.0012513979821805277
-0.0024645502409145733   -0.06113212175481787   -0.0015143845306546317
-0.0053600958232266046   -0.0611990233977607   -0.001542786526662659
-0.00553039664733996   -0.05463751699791731   -0.0012513979821805277
-0.005393767192972454   -0.0612273860920556   -0.0015558440989882614
-0.0024645502409145733   -0.06113212175481787   -0.0015143845306546317
-0.00553039664733996   -0.05463751699791731   -0.0012513979821805277
-0.0017373612562300664   -0.05459158676299689   -0.0011895828894387477
-0.0017309615282888392   -0.05464676418470047   -0.0011559820811968004
-0.0024645502409145733   -0.06113212175481787   -0.0015143845306546317
-0.00553039664733996   -0.05463751699791731   -0.0012513979821805277
-0.0017309615282888392   -0.05464676418470047   -0.0011559820811968004
-0.005393767192972454   -0.0612273860920556   -0.0015558440989882614
-0.0054697018409841066   -0.061392750895659154   -0.0015599973116639024
-0.0055244634397743665   -0.054849075872139   -0.0012863732513857483
-0.008286275785982757   -0.0613015904018711   -0.0017663979689400216
-0.005432265356047469   -0.06129176108610071   -0.0015617513566286018
-0.0055244634397743665   -0.054849075872139   -0.0012863732513857483
-0.00922985225637454   -0.054755230516642855   -0.0014777166618178904
-0.008286275785982757   -0.0613015904018711   -0.0017663979689400216
-0.009233111925573762   -0.054672072651458625   -0.0014216544613055674
-0.005432265356047469   -0.06129176108610071   -0.0015617513566286018
-0.008251423755404537   -0.061214461038852044   -0.0017027719579918248
-0.009233111925573762   -0.054672072651458625   -0.0014216544613055674
-0.008286275785982757   -0.0613015904018711   -0.0017663979689400216
-0.005432265356047469   -0.06129176108610071   -0.0015617513566286018
-0.009233111925573762   -0.054672072651458625   -0.0014216544613055674
-0.005524931208675911   -0.05475007972506198   -0.0012818705875291079
-0.0055244634397743665   -0.054849075872139   -0.0012863732513857483
-0.005432265356047469   -0.06129176108610071   -0.0015617513566286018
-0.009233111925573762   -0.054672072651458625   -0.0014216544613055674
-0.0055244634397743665   -0.054849075872139   -0.0012863732513857483
-0.008286275785982757   -0.0613015904018711   -0.0017663979689400216
-0.005432265356047469   -0.06129176108610071   -0.0015617513566286018
-0.005524931208675911   -0.05475007972506198   -0.0012818705875291079
-0.008251423755404537   -0.061214461038852044   -0.0017027719579918248
-0.005393767192972454   -0.0612273860920556   -0.0015558440989882614
-0.005524931208675911   -0.05475007972506198   -0.0012818705875291079
-0.009233111925573762   -0.054672072651458625   -0.0014216544613055674
-0.008251423755404537   -0.061214461038852044   -0.0017027719579918248
-0.00923005828910444   -0.054617122767004284   -0.0013584520581472468
-0.005393767192972454   -0.0612273860920556   -0.0015558440989882614
-0.0082093085460707   -0.06116354408891068   -0.0016316513512078846
-0.00923005828910444   -0.054617122767004284   -0.0013584520581472468
-0.008251423755404537   -0.061214461038852044   -0.0017027719579918248
-0.005393767192972454   -0.0612273860920556   -0.0015558440989882614
-0.00923005828910444   -0.054617122767004284   -0.0013584520581472468
-0.005525145107907496   -0.05467954325256887   -0.0012700859891999104
-0.005524931208675911   -0.05475007972506198   -0.0012818705875291079
-0.005393767192972454   -0.0612273860920556   -0.0015558440989882614
-0.00923005828910444   -0.054617122767004284   -0.0013584520581472468
-0.005524931208675911   -0.05475007972506198   -0.0012818705875291079
-0.008251423755404537   -0.061214461038852044   -0.0017027719579918248
-0.005393767192972454   -0.0612273860920556   -0.0015558440989882614
-0.005525145107907496   -0.05467954325256887   -0.0012700859891999104
-0.0082093085460707   -0.06116354408891068   -0.0016316513512078846
-0.0053600958232266046   -0.0611990233977607   -0.001542786526662659
-0.005525145107907496   -0.05467954325256887   -0.0012700859891999104
-0.00923005828910444   -0.054617122767004284   -0.0013584520581472468
-0.0082093085460707   -0.06116354408891068   -0.0016316513512078846
-0.009228144773353326   -0.054589886352331085   -0.0012883174611593485
-0.0053600958232266046   -0.0611990233977607   -0.001542786526662659
-0.008168350693612823   -0.06114716005218565   -0.0015532668255283366
-0.009228144773353326   -0.054589886352331085   -0.0012883174611593485
-0.0082093085460707   -0.06116354408891068   -0.0016316513512078846
-0.0053600958232266046   -0.0611990233977607   -0.001542786526662659
-0.009228144773353326   -0.054589886352331085   -0.0012883174611593485
-0.00553039664733996   -0.05463751699791731   -0.0012513979821805277
-0.005525145107907496   -0.05467954325256887   -0.0012700859891999104
-0.0053600958232266046   -0.0611990233977607   -0.001542786526662659
-0.009228144773353326   -0.054589886352331085   -0.0012883174611593485
-0.005525145107907496   -0.05467954325256887   -0.0012700859891999104
-0.0082093085460707   -0.06116354408891068   -0.0016316513512078846
-0.008286275785982757   -0.0613015904018711   -0.0017663979689400216
-0.00922985225637454   -0.054755230516642855   -0.0014777166618178904
-0.011237837775879573   -0.06109438120868201   -0.0019497584249087091
-0.008251423755404537   -0.061214461038852044   -0.0017027719579918248
-0.00922985225637454   -0.054755230516642855   -0.0014777166618178904
-0.013050693377201932   -0.05457054737495279   -0.0016423153157997879
-0.011237837775879573   -0.06109438120868201   -0.0019497584249087091
-0.013046160159506673   -0.05450255205537567   -0.0015340819199858766
-0.008251423755404537   -0.061214461038852044   -0.0017027719579918248
-0.011192292715832936   -0.0610204791182863   -0.001820667127073299
-0.013046160159506673   -0.05450255205537567   -0.0015340819199858766
-0.011237837775879573   -0.06109438120868201   -0.0019497584249087091
-0.008251423755404537   -0.061214461038852044   -0.0017027719579918248
-0.013046160159506673   -0.05450255205537567   -0.0015340819199858766
-0.009233111925573762   -0.054672072651458625   -0.0014216544613055674
-0.00922985225637454   -0.054755230516642855   -0.0014777166618178904
-0.008251423755404537   -0.061214461038852044   -0.0017027719579918248
-0.013046160159506673   -0.05450255205537567   -0.0015340819199858766
-0.00922985225637454   -0.054755230516642855   -0.0014777166618178904
-0.011237837775879573   -0.06109438120868201   -0.0019497584249087091
-0.008251423755404537   -0.061214461038852044   -0.0017027719579918248
-0.009233111925573762   -0.054672072651458625   -0.0014216544613055674
-0.011192292715832936   -0.0610204791182863   -0.001820667127073299
-0.0082093085460707   -0.06116354408891068   -0.0016316513512078846
-0.009233111925573762   -0.054672072651458625   -0.0014216544613055674
-0.013046160159506673   -0.05450255205537567   -0.0015340819199858766
-0.011192292715832936   -0.0610204791182863   -0.001820667127073299
-0.013014081940441949   -0.05446173514480644   -0.001419784904171418
-0.0082093085460707   -0.06116354408891068   -0.0016316513512078846
-0.011115071165672034   -0.06098176345573665   -0.001685233735489777
-0.013014081940441949   -0.05446173514480644   -0.001419784904171418
-0.011192292715832936   -0.0610204791182863   -0.001820667127073299
-0.0082093085460707   -0.06116354408891068   -0.0016316513512078846
-0.013014081940441949   -0.05446173514480644   -0.001419784904171418
-0.00923005828910444   -0.054617122767004284   -0.0013584520581472468
-0.009233111925573762   -0.054672072651458625   -0.0014216544613055674
-0.0082093085460707   -0.06116354408891068   -0.0016316513512078846
-0.013014081940441949   -0.05446173514480644   -0.001419784904171418
-0.009233111925573762   -0.054672072651458625   -0.0014216544613055674
-0.011192292715832936   -0.0610204791182863   -0.001820667127073299
-0.0082093085460707   -0.06116354408891068   -0.0016316513512078846
-0.00923005828910444   -0.054617122767004284   -0.0013584520581472468
-0.011115071165672034   -0.06098176345573665   -0.001685233735489777
-0.008168350693612823   -0.06114716005218565   -0.0015532668255283366
-0.00923005828910444   -0.054617122767004284   -0.0013584520581472468
-0.013014081940441949   -0.05446173514480644   -0.001419784904171418
-0.011115071165672034   -0.06098176345573665   -0.001685233735489777
-0.012992651108698471   -0.05445096149895006   -0.0012979982319979303
-0.008168350693612823   -0.06114716005218565   -0.0015532668255283366
-0.011052368377010109   -0.060980286587746846   -0.0015414790130011057
-0.012992651108698471   -0.05445096149895006   -0.0012979982319979303
-0.011115071165672034   -0.06098176345573665   -0.001685233735489777
-0.008168350693612823   -0.06114716005218565   -0.0015532668255283366
-0.012992651108698471   -0.05445096149895006   -0.0012979982319979303
-0.009228144773353326   -0.054589886352331085   -0.0012883174611593485
-0.00923005828910444   -0.054617122767004284   -0.0013584520581472468
-0.008168350693612823   -0.06114716005218565   -0.0015532668255283366
-0.012992651108698471   -0.05445096149895006   -0.0012979982319979303
-0.00923005828910444   -0.054617122767004284   -0.0013584520581472468
-0.011115071165672034   -0.06098176345573665   -0.001685233735489777
-0.011237837775879573   -0.06109438120868201   -0.0019497584249087091
-0.013050693377201932   -0.05457054737495279   -0.0016423153157997879
-0.014679990883284696   -0.06079597045142579   -0.0021207620740785944
-0.011192292715832936   -0.0610204791182863   -0.001820667127073299
-0.013050693377201932   -0.05457054737495279   -0.0016423153157997879
-0.01731853011736015   -0.05431595762039841   -0.0017907599385921181
-0.014679990883284696   -0.06079597045142579   -0.0021207620740785944
-0.017158801749845663   -0.05424921598914822   -0.0016251728125319797
-0.011192292715832936   -0.0610204791182863   -0.001820667127073299
-0.01444654677390069   -0.060718878180730976   -0.001918691976381232
-0.017158801749845663   -0.05424921598914822   -0.0016251728125319797
-0.014679990883284696   -0.06079597045142579   -0.0021207620740785944
-0.011192292715832936   -0.0610204791182863   -0.001820667127073299
-0.017158801749845663   -0.05424921598914822   -0.0016251728125319797
-0.013046160159506673   -0.05450255205537567   -0.0015340819199858766
-0.013050693377201932   -0.05457054737495279   -0.0016423153157997879
-0.011192292715832936   -0.0610204791182863   -0.001820667127073299
-0.017158801749845663   -0.05424921598914822   -0.0016251728125319797
-0.013050693377201932   -0.05457054737495279   -0.0016423153157997879
-0.014679990883284696   -0.06079597045142579   -0.0021207620740785944
-0.011192292715832936   -0.0610204791182863   -0.001820667127073299
-0.013046160159506673   -0.05450255205537567   -0.0015340819199858766
-0.01444654677390069   -0.060718878180730976   -0.001918691976381232
-0.011115071165672034   -0.06098176345573665   -0.001685233735489777
-0.013046160159506673   -0.05450255205537567   -0.0015340819199858766
-0.017158801749845663   -0.05424921598914822   -0.0016251728125319797
-0.01444654677390069   -0.060718878180730976   -0.001918691976381232
-0.017022214996165144   -0.05421355517127218   -0.0014493923837198817
-0.011115071165672034   -0.06098176345573665   -0.001685233735489777
-0.014243967709705815   -0.06068347497627877   -0.0017061626735437648
-0.017022214996165144   -0.05421355517127218   -0.0014493923837198817
-0.01444654677390069   -0.060718878180730976   -0.001918691976381232
-0.011115071165672034   -0.06098176345573665   -0.001685233735489777
-0.017022214996165144   -0.05421355517127218   -0.0014493923837198817
-0.013014081940441949   -0.05446173514480644   -0.001419784904171418
-0.013046160159506673   -0.05450255205537567   -0.0015340819199858766
-0.011115071165672034   -0.06098176345573665   -0.001685233735489777
-0.017022214996165144   -0.05421355517127218   -0.0014493923837198817
-0.013046160159506673   -0.05450255205537567   -0.0015340819199858766
-0.01444654677390069   -0.060718878180730976   -0.001918691976381232
-0.011115071165672034   -0.06098176345573665   -0.001685233735489777
-0.013014081940441949   -0.05446173514480644   -0.001419784904171418
-0.014243967709705815   -0.06068347497627877   -0.0017061626735437648
-0.011052368377010109   -0.060980286587746846   -0.0015414790130011057
-0.013014081940441949   -0.05446173514480644   -0.001419784904171418
-0.017022214996165144   -0.05421355517127218   -0.0014493923837198817
-0.014243967709705815   -0.06068347497627877   -0.0017061626735437648
-0.01682511953015242   -0.05422554138364304   -0.001264816590000627
-0.011052368377010109   -0.060980286587746846   -0.0015414790130011057
-0.013971052637443993   -0.06070498068295889   -0.0014845280044011226
-0.01682511953015242   -0.05422554138364304   -0.001264816590000627
-0.014243967709705815   -0.06068347497627877   -0.0017061626735437648
-0.011052368377010109   -0.060980286587746846   -0.0015414790130011057
-0.01682511953015242   -0.05422554138364304   -0.001264816590000627
-0.012992651108698471   -0.05445096149895006   -0.0012979982319979303
-0.013014081940441949   -0.05446173514480644   -0.001419784904171418
-0.011052368377010109   -0.060980286587746846   -0.0015414790130011057
-0.01682511953015242   -0.05422554138364304   -0.001264816590000627
-0.013014081940441949   -0.05446173514480644   -0.001419784904171418
-0.014243967709705815   -0.06068347497627877   -0.0017061626735437648
0.0021616484360551568   -0.054751374614806204   -0.0008029657472609092
0.003411259017563492   -0.04697144062009352   -0.0005349260953622597
-0.0017551195076670558   -0.05484853783404858   -0.0010679172188114202
0.0022760270361317286   -0.054613606169119436   -0.0009188624041975807
0.003411259017563492   -0.04697144062009352   -0.0005349260953622597
-0.001236546048327134   -0.04701928703597008   -0.0007841941682970933
-0.0017551195076670558   -0.05484853783404858   -0.0010679172188114202
-0.0012583513619462573   -0.04690511354810929   -0.0008099264122766469
0.0022760270361317286   -0.054613606169119436   -0.0009188624041975807
-0.0017444888509843652   -0.05473150884203249   -0.0011156045567734137
-0.0012583513619462573   -0.04690511354810929   -0.0008099264122766469
-0.0017551195076670558   -0.05484853783404858   -0.0010679172188114202
0.0022760270361317286   -0.054613606169119436   -0.0009188624041975807
-0.0012583513619462573   -0.04690511354810929   -0.0008099264122766469
0.0034565791383655295   -0.04683870866642736   -0.0006109155412145358
0.003411259017563492   -0.04697144062009352   -0.0005349260953622597
0.0022760270361317286   -0.054613606169119436   -0.0009188624041975807
-0.0012583513619462573   -0.04690511354810929   -0.0008099264122766469
0.003411259017563492   -0.04697144062009352   -0.0005349260953622597
-0.0017551195076670558   -0.05484853783404858   -0.0010679172188114202
0.0022760270361317286   -0.054613606169119436   -0.0009188624041975807
0.0034565791383655295   -0.04683870866642736   -0.0006109155412145358
-0.0017444888509843652   -0.05473150884203249   -0.0011156045567734137
0.002349184296048785   -0.05452332498176576   -0.001024428522116813
0.0034565791383655295   -0.04683870866642736   -0.0006109155412145358
-0.0012583513619462573   -0.04690511354810929   -0.0008099264122766469
-0.0017444888509843652   -0.05473150884203249   -0.0011156045567734137
-0.001281260999599968   -0.046814875769404324   -0.0008291303430683758
0.002349184296048785   -0.05452332498176576   -0.001024428522116813
-0.0017309615282888392   -0.05464676418470047   -0.0011559820811968004
-0.001281260999599968   -0.046814875769404324   -0.0008291303430683758
-0.0017444888509843652   -0.05473150884203249   -0.0011156045567734137
0.002349184296048785   -0.05452332498176576   -0.001024428522116813
-0.001281260999599968   -0.046814875769404324   -0.0008291303430683758
0.003470447607152231   -0.0467420859770434   -0.0006772730928506564
0.0034565791383655295   -0.04683870866642736   -0.0006109155412145358
0.002349184296048785   -0.05452332498176576   -0.001024428522116813
-0.001281260999599968   -0.046814875769404324   -0.0008291303430683758
0.0034565791383655295   -0.04683870866642736   -0.0006109155412145358
-0.0017444888509843652   -0.05473150884203249   -0.0011156045567734137
0.002349184296048785   -0.05452332498176576   -0.001024428522116813
0.003470447607152231   -0.0467420859770434   -0.0006772730928506564
-0.0017309615282888392   -0.05464676418470047   -0.0011559820811968004
0.002424342088456644   -0.054462991879095535   -0.0011198813077783754
0.003470447607152231   -0.0467420859770434   -0.0006772730928506564
-0.001281260999599968   -0.046814875769404324   -0.0008291303430683758
-0.0017309615282888392   -0.05464676418470047   -0.0011559820811968004
-0.0013203254979229557   -0.04674573359195671   -0.0008420265490940408
0.002424342088456644   -0.054462991879095535   -0.0011198813077783754
-0.0017373612562300664   -0.05459158676299689   -0.0011895828894387477
-0.0013203254979229557   -0.04674573359195671   -0.0008420265490940408
-0.0017309615282888392   -0.05464676418470047   -0.0011559820811968004
0.002424342088456644   -0.054462991879095535   -0.0011198813077783754
-0.0013203254979229557   -0.04674573359195671   -0.0008420265490940408
0.003478347821399519   -0.04666451573108978   -0.0007344549112414396
0.003470447607152231   -0.0467420859770434   -0.0006772730928506564
0.002424342088456644   -0.054462991879095535   -0.0011198813077783754
-0.0013203254979229557   -0.04674573359195671   -0.0008420265490940408
0.003470447607152231   -0.0467420859770434   -0.0006772730928506564
-0.0017309615282888392   -0.05464676418470047   -0.0011559820811968004
-0.0017551195076670558   -0.05484853783404858   -0.0010679172188114202
-0.001236546048327134   -0.04701928703597008   -0.0007841941682970933
-0.0055244634397743665   -0.054849075872139   -0.0012863732513857483
-0.0017444888509843652   -0.05473150884203249   -0.0011156045567734137
-0.001236546048327134   -0.04701928703597008   -0.0007841941682970933
-0.005691824806752496   -0.0469947774850983   -0.0009893909979917935
-0.0055244634397743665   -0.054849075872139   -0.0012863732513857483
-0.005722099610381366   -0.046899385088900805   -0.000977381272146361
-0.0017444888509843652   -0.05473150884203249   -0.0011156045567734137
-0.005524931208675911   -0.05475007972506198   -0.0012818705875291079
-0.005722099610381366   -0.046899385088900805   -0.000977381272146361
-0.0055244634397743665   -0.054849075872139   -0.0012863732513857483
-0.0017444888509843652   -0.05473150884203249   -0.0011156045567734137
-0.005722099610381366   -0.046899385088900805   -0.000977381272146361
-0.0012583513619462573   -0.04690511354810929   -0.0008099264122766469
-0.001236546048327134   -0.04701928703597008   -0.0007841941682970933
-0.0017444888509843652   -0.05473150884203249   -0.0011156045567734137
-0.005722099610381366   -0.046899385088900805   -0.000977381272146361
-0.001236546048327134   -0.04701928703597008   -0.0007841941682970933
-0.0055244634397743665   -0.054849075872139   -0.0012863732513857483
-0.0017444888509843652   -0.05473150884203249   -0.0011156045567734137
-0.0012583513619462573   -0.04690511354810929   -0.0008099264122766469
-0.005524931208675911   -0.05475007972506198   -0.0012818705875291079
-0.0017309615282888392   -0.05464676418470047   -0.0011559820811968004
-0.0012583513619462573   -0.04690511354810929   -0.0008099264122766469
-0.005722099610381366   -0.046899385088900805   -0.000977381272146361
-0.005524931208675911   -0.05475007972506198   -0.0012818705875291079
-0.0057527904817429535   -0.046824509915431904   -0.0009586502603038061
-0.0017309615282888392   -0.05464676418470047   -0.0011559820811968004
-0.005525145107907496   -0.05467954325256887   -0.0012700859891999104
-0.0057527904817429535   -0.046824509915431904   -0.0009586502603038061
-0.005524931208675911   -0.05475007972506198   -0.0012818705875291079
-0.0017309615282888392   -0.05464676418470047   -0.0011559820811968004
-0.0057527904817429535   -0.046824509915431904   -0.0009586502603038061
-0.001281260999599968   -0.046814875769404324   -0.0008291303430683758
-0.0012583513619462573   -0.04690511354810929   -0.0008099264122766469
-0.0017309615282888392   -0.05464676418470047   -0.0011559820811968004
-0.0057527904817429535   -0.046824509915431904   -0.0009586502603038061
-0.0012583513619462573   -0.04690511354810929   -0.0008099264122766469
-0.005524931208675911   -0.05475007972506198   -0.0012818705875291079
-0.0017309615282888392   -0.05464676418470047   -0.0011559820811968004
-0.001281260999599968   -0.046814875769404324   -0.0008291303430683758
-0.005525145107907496   -0.05467954325256887   -0.0012700859891999104
-0.0017373612562300664   -0.05459158676299689   -0.0011895828894387477
-0.001281260999599968   -0.046814875769404324   -0.0008291303430683758
-0.0057527904817429535   -0.046824509915431904   -0.0009586502603038061
-0.005525145107907496   -0.05467954325256887   -0.0012700859891999104
-0.005788264036626406   -0.04677050010217524   -0.0009335226937284452
-0.0017373612562300664   -0.05459158676299689   -0.0011895828894387477
-0.00553039664733996   -0.05463751699791731   -0.0012513979821805277
-0.005788264036626406   -0.04677050010217524   -0.0009335226937284452
-0.005525145107907496   -0.05467954325256887   -0.0012700859891999104
-0.0017373612562300664   -0.05459158676299689   -0.0011895828894387477
-0.005788264036626406   -0.04677050010217524   -0.0009335226937284452
-0.0013203254979229557   -0.04674573359195671   -0.0008420265490940408
-0.001281260999599968   -0.046814875769404324   -0.0008291303430683758
-0.0017373612562300664   -0.05459158676299689   -0.0011895828894387477
-0.005788264036626406   -0.04677050010217524   -0.0009335226937284452
-0.001281260999599968   -0.046814875769404324   -0.0008291303430683758
-0.005525145107907496   -0.05467954325256887   -0.0012700859891999104
-0.0055244634397743665   -0.054849075872139   -0.0012863732513857483
-0.005691824806752496   -0.0469947774850983   -0.0009893909979917935
-0.00922985225637454   -0.054755230516642855   -0.0014777166618178904
-0.005524931208675911   -0.05475007972506198   -0.0012818705875291079
-0.005691824806752496   -0.0469947774850983   -0.0009893909979917935
-0.010071826269791756   -0.04690240734154887   -0.0011649371540840081
-0.00922985225637454   -0.054755230516642855   -0.0014777166618178904
-0.010104496133360489   -0.046824075286912105   -0.0011153693387283784
-0.005524931208675911   -0.05475007972506198   -0.0012818705875291079
-0.009233111925573762   -0.054672072651458625   -0.0014216544613055674
-0.010104496133360489   -0.046824075286912105   -0.0011153693387283784
-0.00922985225637454   -0.054755230516642855   -0.0014777166618178904
-0.005524931208675911   -0.05475007972506198   -0.0012818705875291079
-0.010104496133360489   -0.046824075286912105   -0.0011153693387283784
-0.005722099610381366   -0.046899385088900805   -0.000977381272146361
-0.005691824806752496   -0.0469947774850983   -0.0009893909979917935
-0.005524931208675911   -0.05475007972506198   -0.0012818705875291079
-0.010104496133360489   -0.046824075286912105   -0.0011153693387283784
-0.005691824806752496   -0.0469947774850983   -0.0009893909979917935
-0.00922985225637454   -0.054755230516642855   -0.0014777166618178904
-0.005524931208675911   -0.05475007972506198   -0.0012818705875291079
-0.005722099610381366   -0.046899385088900805   -0.000977381272146361
-0.009233111925573762   -0.054672072651458625   -0.0014216544613055674
-0.005525145107907496   -0.05467954325256887   -0.0012700859891999104
-0.005722099610381366   -0.046899385088900805   -0.000977381272146361
-0.010104496133360489   -0.046824075286912105   -0.0011153693387283784
-0.009233111925573762   -0.054672072651458625   -0.0014216544613055674
-0.01013155885150968   -0.04676606456874017   -0.0010591994297708925
-0.005525145107907496   -0.05467954325256887   -0.0012700859891999104
-0.00923005828910444   -0.054617122767004284   -0.0013584520581472468
-0.01013155885150968   -0.04676606456874017   -0.0010591994297708925
-0.009233111925573762   -0.054672072651458625   -0.0014216544613055674
-0.005525145107907496   -0.05467954325256887   -0.0012700859891999104
-0.01013155885150968   -0.04676606456874017   -0.0010591994297708925
-0.0057527904817429535   -0.046824509915431904   -0.0009586502603038061
-0.005722099610381366   -0.046899385088900805   -0.000977381272146361
-0.005525145107907496   -0.05467954325256887   -0.0012700859891999104
-0.01013155885150968   -0.04676606456874017   -0.0010591994297708925
-0.005722099610381366   -0.046899385088900805   -0.000977381272146361
-0.009233111925573762   -0.054672072651458625   -0.0014216544613055674
-0.005525145107907496   -0.05467954325256887   -0.0012700859891999104
-0.0057527904817429535   -0.046824509915431904   -0.0009586502603038061
-0.00923005828910444   -0.054617122767004284   -0.0013584520581472468
-0.00553039664733996   -0.05463751699791731   -0.0012513979821805277
-0.0057527904817429535   -0.046824509915431904   -0.0009586502603038061
-0.01013155885150968   -0.04676606456874017   -0.0010591994297708925
-0.00923005828910444   -0.054617122767004284   -0.0013584520581472468
-0.010159409918795112   -0.046728289849625085   -0.0009966215897307398
-0.00553039664733996   -0.05463751699791731   -0.0012513979821805277
-0.009228144773353326   -0.054589886352331085   -0.0012883174611593485
-0.010159409918795112   -0.046728289849625085   -0.0009966215897307398
-0.00923005828910444   -0.054617122767004284   -0.0013584520581472468
-0.00553039664733996   -0.05463751699791731   -0.0012513979821805277
-0.010159409918795112   -0.046728289849625085   -0.0009966215897307398
-0.005788264036626406   -0.04677050010217524   -0.0009335226937284452
-0.0057527904817429535   -0.046824509915431904   -0.0009586502603038061
-0.00553039664733996   -0.05463751699791731   -0.0012513979821805277
-0.010159409918795112   -0.046728289849625085   -0.0009966215897307398
-0.0057527904817429535   -0.046824509915431904   -0.0009586502603038061
-0.00923005828910444   -0.054617122767004284   -0.0013584520581472468
-0.00922985225637454   -0.054755230516642855   -0.0014777166618178904
-0.010071826269791756   -0.04690240734154887   -0.0011649371540840081
-0.013050693377201932   -0.05457054737495279   -0.0016423153157997879
-0.009233111925573762   -0.054672072651458625   -0.0014216544613055674
-0.010071826269791756   -0.04690240734154887   -0.0011649371540840081
-0.014556002534494057   -0.04674401541049215   -0.001311507230290219
-0.013050693377201932   -0.05457054737495279   -0.0016423153157997879
-0.01458302038899119   -0.04668234565704389   -0.001223869391270377
-0.009233111925573762   -0.054672072651458625   -0.0014216544613055674
-0.013046160159506673   -0.05450255205537567   -0.0015340819199858766
-0.01458302038899119   -0.04668234565704389   -0.001223869391270377
-0.013050693377201932   -0.05457054737495279   -0.0016423153157997879
-0.009233111925573762   -0.054672072651458625   -0.0014216544613055674
-0.01458302038899119   -0.04668234565704389   -0.001223869391270377
-0.010104496133360489   -0.046824075286912105   -0.0011153693387283784
-0.010071826269791756   -0.04690240734154887   -0.0011649371540840081
-0.009233111925573762   -0.054672072651458625   -0.0014216544613055674
-0.01458302038899119   -0.04668234565704389   -0.001223869391270377
-0.010071826269791756   -0.04690240734154887   -0.0011649371540840081
-0.013050693377201932   -0.05457054737495279   -0.0016423153157997879
-0.009233111925573762   -0.054672072651458625   -0.0014216544613055674
-0.010104496133360489   -0.046824075286912105   -0.0011153693387283784
-0.013046160159506673   -0.05450255205537567   -0.0015340819199858766
-0.00923005828910444   -0.054617122767004284   -0.0013584520581472468
-0.010104496133360489   -0.046824075286912105   -0.0011153693387283784
-0.01458302038899119   -0.04668234565704389   -0.001223869391270377
-0.013046160159506673   -0.05450255205537567   -0.0015340819199858766
-0.014586447578115284   -0.04663975636977499   -0.0011305429167271794
-0.00923005828910444   -0.054617122767004284   -0.0013584520581472468
-0.013014081940441949   -0.05446173514480644   -0.001419784904171418
-0.014586447578115284   -0.04663975636977499   -0.0011305429167271794
-0.013046160159506673   -0.05450255205537567   -0.0015340819199858766
-0.00923005828910444   -0.054617122767004284   -0.0013584520581472468
-0.014586447578115284   -0.04663975636977499   -0.0011305429167271794
-0.01013155885150968   -0.04676606456874017   -0.0010591994297708925
-0.010104496133360489   -0.046824075286912105   -0.0011153693387283784
-0.00923005828910444   -0.054617122767004284   -0.0013584520581472468
-0.014586447578115284   -0.04663975636977499   -0.0011305429167271794
-0.010104496133360489   -0.046824075286912105   -0.0011153693387283784
-0.013046160159506673   -0.05450255205537567   -0.0015340819199858766
-0.00923005828910444   -0.054617122767004284   -0.0013584520581472468
-0.01013155885150968   -0.04676606456874017   -0.0010591994297708925
-0.013014081940441949   -0.05446173514480644   -0.001419784904171418
-0.009228144773353326   -0.054589886352331085   -0.0012883174611593485
-0.01013155885150968   -0.04676606456874017   -0.0010591994297708925
-0.014586447578115284   -0.04663975636977499   -0.0011305429167271794
-0.013014081940441949   -0.05446173514480644   -0.001419784904171418
-0.014596579432284441   -0.04661922461084757   -0.0010303226903114247
-0.009228144773353326   -0.054589886352331085   -0.0012883174611593485
-0.012992651108698471   -0.05445096149895006   -0.0012979982319979303
-0.014596579432284441   -0.04661922461084757   -0.0010303226903114247
-0.013014081940441949   -0.05446173514480644   -0.001419784904171418
-0.009228144773353326   -0.054589886352331085   -0.0012883174611593485
-0.014596579432284441   -0.04661922461084757   -0.0010303226903114247
-0.010159409918795112   -0.046728289849625085   -0.0009966215897307398
-0.01013155885150968   -0.04676606456874017   -0.0010591994297708925
-0.009228144773353326   -0.054589886352331085   -0.0012883174611593485
-0.014596579432284441   -0.04661922461084757   -0.0010303226903114247
-0.01013155885150968   -0.04676606456874017   -0.0010591994297708925
-0.013014081940441949   -0.05446173514480644   -0.001419784904171418
-0.013050693377201932   -0.05457054737495279   -0.0016423153157997879
-0.014556002534494057   -0.04674401541049215   -0.001311507230290219
-0.01731853011736015   -0.05431595762039841   -0.0017907599385921181
-0.013046160159506673   -0.05450255205537567   -0.0015340819199858766
-0.014556002534494057   -0.04674401541049215   -0.001311507230290219
-0.019445978999678634   -0.046536197751604697   -0.0014367158561447706
-0.01731853011736015   -0.05431595762039841   -0.0017907599385921181
-0.019352230986509397   -0.046479864222500146   -0.0013088078301119787
-0.013046160159506673   -0.05450255205537567   -0.0015340819199858766
-0.017158801749845663   -0.05424921598914822   -0.0016251728125319797
-0.019352230986509397   -0.046479864222500146   -0.0013088078301119787
-0.01731853011736015   -0.05431595762039841   -0.0017907599385921181
-0.013046160159506673   -0.05450255205537567   -0.0015340819199858766
-0.019352230986509397   -0.046479864222500146   -0.0013088078301119787
-0.01458302038899119   -0.04668234565704389   -0.001223869391270377
-0.014556002534494057   -0.04674401541049215   -0.001311507230290219
-0.013046160159506673   -0.05450255205537567   -0.0015340819199858766
-0.019352230986509397   -0.046479864222500146   -0.0013088078301119787
-0.014556002534494057   -0.04674401541049215   -0.001311507230290219
-0.01731853011736015   -0.05431595762039841   -0.0017907599385921181
-0.013046160159506673   -0.05450255205537567   -0.0015340819199858766
-0.01458302038899119   -0.04668234565704389   -0.001223869391270377
-0.017158801749845663   -0.05424921598914822   -0.0016251728125319797
-0.013014081940441949   -0.05446173514480644   -0.001419784904171418
-0.01458302038899119   -0.04668234565704389   -0.001223869391270377
-0.019352230986509397   -0.046479864222500146   -0.0013088078301119787
-0.017158801749845663   -0.05424921598914822   -0.0016251728125319797
-0.019273203343188813   -0.04644381342609206   -0.001170966851358256
-0.013014081940441949   -0.05446173514480644   -0.001419784904171418
-0.017022214996165144   -0.05421355517127218   -0.0014493923837198817
-0.019273203343188813   -0.04644381342609206   -0.001170966851358256
-0.017158801749845663   -0.05424921598914822   -0.0016251728125319797
-0.013014081940441949   -0.05446173514480644   -0.001419784904171418
-0.019273203343188813   -0.04644381342609206   -0.001170966851358256
-0.014586447578115284   -0.04663975636977499   -0.0011305429167271794
-0.01458302038899119   -0.04668234565704389   -0.001223869391270377
-0.013014081940441949   -0.05446173514480644   -0.001419784904171418
-0.019273203343188813   -0.04644381342609206   -0.001170966851358256
-0.01458302038899119   -0.04668234565704389   -0.001223869391270377
-0.017158801749845663   -0.05424921598914822   -0.0016251728125319797
-0.013014081940441949   -0.05446173514480644   -0.001419784904171418
-0.014586447578115284   -0.04663975636977499   -0.0011305429167271794
-0.017022214996165144   -0.05421355517127218   -0.0014493923837198817
-0.012992651108698471   -0.05445096149895006   -0.0012979982319979303
-0.014586447578115284   -0.04663975636977499   -0.0011305429167271794
-0.019273203343188813   -0.04644381342609206   -0.001170966851358256
-0.017022214996165144   -0.05421355517127218   -0.0014493923837198817
-0.019142869704798716   -0.04644523560609625   -0.0010244314460903011
-0.012992651108698471   -0.05445096149895006   -0.0012979982319979303
-0.01682511953015242   -0.05422554138364304   -0.001264816590000627
-0.019142869704798716   -0.04644523560609625   -0.0010244314460903011
-0.017022214996165144   -0.05421355517127218   -0.0014493923837198817
-0.012992651108698471   -0.05445096149895006   -0.0012979982319979303
-0.019142869704798716   -0.04644523560609625   -0.0010244314460903011
-0.014596579432284441   -0.04661922461084757   -0.0010303226903114247
-0.014586447578115284   -0.04663975636977499   -0.0011305429167271794
-0.012992651108698471   -0.05445096149895006   -0.0012979982319979303
-0.019142869704798716   -0.04644523560609625   -0.0010244314460903011
-0.014586447578115284   -0.04663975636977499   -0.0011305429167271794
-0.017022214996165144   -0.05421355517127218   -0.0014493923837198817
0.003411259017563492   -0.04697144062009352   -0.0005349260953622597
0.004106167710169823   -0.03823947587176035   -0.000272566138448515
-0.001236546048327134   -0.04701928703597008   -0.0007841941682970933
0.0034565791383655295   -0.04683870866642736   -0.0006109155412145358
0.004106167710169823   -0.03823947587176035   -0.000272566138448515
-0.001054474473819204   -0.03823848945312002   -0.0005036928416097038
-0.001236546048327134   -0.04701928703597008   -0.0007841941682970933
-0.0011005562699630993   -0.038128063662864156   -0.0005071802757158322
0.0034565791383655295   -0.04683870866642736   -0.0006109155412145358
-0.0012583513619462573   -0.04690511354810929   -0.0008099264122766469
-0.0011005562699630993   -0.038128063662864156   -0.0005071802757158322
-0.001236546048327134   -0.04701928703597008   -0.0007841941682970933
0.0034565791383655295   -0.04683870866642736   -0.0006109155412145358
-0.0011005562699630993   -0.038128063662864156   -0.0005071802757158322
0.004091470415158755   -0.03811241494397766   -0.00030907617706470945
0.004106167710169823   -0.03823947587176035   -0.000272566138448515
0.0034565791383655295   -0.04683870866642736   -0.0006109155412145358
-0.0011005562699630993   -0.038128063662864156   -0.0005071802757158322
0.004106167710169823   -0.03823947587176035   -0.000272566138448515
-0.001236546048327134   -0.04701928703597008   -0.0007841941682970933
0.0034565791383655295   -0.04683870866642736   -0.0006109155412145358
0.004091470415158755   -0.03811241494397766   -0.00030907617706470945
-0.0012583513619462573   -0.04690511354810929   -0.0008099264122766469
0.003470447607152231   -0.0467420859770434   -0.0006772730928506564
0.004091470415158755   -0.03811241494397766   -0.00030907617706470945
-0.0011005562699630993   -0.038128063662864156   -0.0005071802757158322
-0.0012583513619462573   -0.04690511354810929   -0.0008099264122766469
-0.0011517628814985497   -0.03803307715468448   -0.0005048763333739621
0.003470447607152231   -0.0467420859770434   -0.0006772730928506564
-0.001281260999599968   -0.046814875769404324   -0.0008291303430683758
-0.0011517628814985497   -0.03803307715468448   -0.0005048763333739621
-0.0012583513619462573   -0.04690511354810929   -0.0008099264122766469
0.003470447607152231   -0.0467420859770434   -0.0006772730928506564
-0.0011517628814985497   -0.03803307715468448   -0.0005048763333739621
0.00405451750979315   -0.03801026117488552   -0.00033630364393265084
0.004091470415158755   -0.03811241494397766   -0.00030907617706470945
0.003470447607152231   -0.0467420859770434   -0.0006772730928506564
-0.0011517628814985497   -0.03803307715468448   -0.0005048763333739621
0.004091470415158755   -0.03811241494397766   -0.00030907617706470945
-0.0012583513619462573   -0.04690511354810929   -0.0008099264122766469
0.003470447607152231   -0.0467420859770434   -0.0006772730928506564
0.00405451750979315   -0.03801026117488552   -0.00033630364393265084
-0.001281260999599968   -0.046814875769404324   -0.0008291303430683758
0.003478347821399519   -0.04666451573108978   -0.0007344549112414396
0.00405451750979315   -0.03801026117488552   -0.00033630364393265084
-0.0011517628814985497   -0.03803307715468448   -0.0005048763333739621
-0.001281260999599968   -0.046814875769404324   -0.0008291303430683758
-0.001215346722641262   -0.03795106459052372   -0.000496552699337615
0.003478347821399519   -0.04666451573108978   -0.0007344549112414396
-0.0013203254979229557   -0.04674573359195671   -0.0008420265490940408
-0.001215346722641262   -0.03795106459052372   -0.000496552699337615
-0.001281260999599968   -0.046814875769404324   -0.0008291303430683758
0.003478347821399519   -0.04666451573108978   -0.0007344549112414396
-0.001215346722641262   -0.03795106459052372   -0.000496552699337615
0.004002898332260996   -0.03791631968501123   -0.00035489681650455277
0.00405451750979315   -0.03801026117488552   -0.00033630364393265084
0.003478347821399519   -0.04666451573108978   -0.0007344549112414396
-0.001215346722641262   -0.03795106459052372   -0.000496552699337615
0.00405451750979315   -0.03801026117488552   -0.00033630364393265084
-0.001281260999599968   -0.046814875769404324   -0.0008291303430683758
-0.001236546048327134   -0.04701928703597008   -0.0007841941682970933
-0.001054474473819204   -0.03823848945312002   -0.0005036928416097038
-0.005691824806752496   -0.0469947774850983   -0.0009893909979917935
-0.0012583513619462573   -0.04690511354810929   -0.0008099264122766469
-0.001054474473819204   -0.03823848945312002   -0.0005036928416097038
-0.0059769089170367785   -0.03819185788326154   -0.0006943696392498935
-0.005691824806752496   -0.0469947774850983   -0.0009893909979917935
-0.006028512416609537   -0.038100223052208004   -0.0006742226025529986
-0.0012583513619462573   -0.04690511354810929   -0.0008099264122766469
-0.005722099610381366   -0.046899385088900805   -0.000977381272146361
-0.006028512416609537   -0.038100223052208004   -0.0006742226025529986
-0.005691824806752496   -0.0469947774850983   -0.0009893909979917935
-0.0012583513619462573   -0.04690511354810929   -0.0008099264122766469
-0.006028512416609537   -0.038100223052208004   -0.0006742226025529986
-0.0011005562699630993   -0.038128063662864156   -0.0005071802757158322
-0.001054474473819204   -0.03823848945312002   -0.0005036928416097038
-0.0012583513619462573   -0.04690511354810929   -0.0008099264122766469
-0.006028512416609537   -0.038100223052208004   -0.0006742226025529986
-0.001054474473819204   -0.03823848945312002   -0.0005036928416097038
-0.005691824806752496   -0.0469947774850983   -0.0009893909979917935
-0.0012583513619462573   -0.04690511354810929   -0.0008099264122766469
-0.0011005562699630993   -0.038128063662864156   -0.0005071802757158322
-0.005722099610381366   -0.046899385088900805   -0.000977381272146361
-0.001281260999599968   -0.046814875769404324   -0.0008291303430683758
-0.0011005562699630993   -0.038128063662864156   -0.0005071802757158322
-0.006028512416609537   -0.038100223052208004   -0.0006742226025529986
-0.005722099610381366   -0.046899385088900805   -0.000977381272146361
-0.00608115581179831   -0.03802115668833994   -0.000648042373929562
-0.001281260999599968   -0.046814875769404324   -0.0008291303430683758
-0.0057527904817429535   -0.046824509915431904   -0.0009586502603038061
-0.00608115581179831   -0.03802115668833994   -0.000648042373929562
-0.005722099610381366   -0.046899385088900805   -0.000977381272146361
-0.001281260999599968   -0.046814875769404324   -0.0008291303430683758
-0.00608115581179831   -0.03802115668833994   -0.000648042373929562
-0.0011517628814985497   -0.03803307715468448   -0.0005048763333739621
-0.0011005562699630993   -0.038128063662864156   -0.0005071802757158322
-0.001281260999599968   -0.046814875769404324   -0.0008291303430683758
-0.00608115581179831   -0.03802115668833994   -0.000648042373929562
-0.0011005562699630993   -0.038128063662864156   -0.0005071802757158322
-0.005722099610381366   -0.046899385088900805   -0.000977381272146361
-0.001281260999599968   -0.046814875769404324   -0.0008291303430683758
-0.0011517628814985497   -0.03803307715468448   -0.0005048763333739621
-0.0057527904817429535   -0.046824509915431904   -0.0009586502603038061
-0.0013203254979229557   -0.04674573359195671   -0.0008420265490940408
-0.0011517628814985497   -0.03803307715468448   -0.0005048763333739621
-0.00608115581179831   -0.03802115668833994   -0.000648042373929562
-0.0057527904817429535   -0.046824509915431904   -0.0009586502603038061
-0.006138255523713889   -0.03795540695729441   -0.0006161124870892965
-0.0013203254979229557   -0.04674573359195671   -0.0008420265490940408
-0.005788264036626406   -0.04677050010217524   -0.0009335226937284452
-0.006138255523713889   -0.03795540695729441   -0.0006161124870892965
-0.0057527904817429535   -0.046824509915431904   -0.0009586502603038061
-0.0013203254979229557   -0.04674573359195671   -0.0008420265490940408
-0.006138255523713889   -0.03795540695729441   -0.0006161124870892965
-0.001215346722641262   -0.03795106459052372   -0.000496552699337615
-0.0011517628814985497   -0.03803307715468448   -0.0005048763333739621
-0.0013203254979229557   -0.04674573359195671   -0.0008420265490940408
-0.006138255523713889   -0.03795540695729441   -0.0006161124870892965
-0.0011517628814985497   -0.03803307715468448   -0.0005048763333739621
-0.0057527904817429535   -0.046824509915431904   -0.0009586502603038061
-0.005691824806752496   -0.0469947774850983   -0.0009893909979917935
-0.0059769089170367785   -0.03819185788326154   -0.0006943696392498935
-0.010071826269791756   -0.04690240734154887   -0.0011649371540840081
-0.005722099610381366   -0.046899385088900805   -0.000977381272146361
-0.0059769089170367785   -0.03819185788326154   -0.0006943696392498935
-0.010816117090744468   -0.03810476667728067   -0.0008551903316171349
-0.010071826269791756   -0.04690240734154887   -0.0011649371540840081
-0.010869253684914003   -0.038030450522268416   -0.0008114534284081758
-0.005722099610381366   -0.046899385088900805   -0.000977381272146361
-0.010104496133360489   -0.046824075286912105   -0.0011153693387283784
-0.010869253684914003   -0.038030450522268416   -0.0008114534284081758
-0.010071826269791756   -0.04690240734154887   -0.0011649371540840081
-0.005722099610381366   -0.046899385088900805   -0.000977381272146361
-0.010869253684914003   -0.038030450522268416   -0.0008114534284081758
-0.006028512416609537   -0.038100223052208004   -0.0006742226025529986
-0.0059769089170367785   -0.03819185788326154   -0.0006943696392498935
-0.005722099610381366   -0.046899385088900805   -0.000977381272146361
-0.010869253684914003   -0.038030450522268416   -0.0008114534284081758
-0.0059769089170367785   -0.03819185788326154   -0.0006943696392498935
-0.010071826269791756   -0.04690240734154887   -0.0011649371540840081
-0.005722099610381366   -0.046899385088900805   -0.000977381272146361
-0.006028512416609537   -0.038100223052208004   -0.0006742226025529986
-0.010104496133360489   -0.046824075286912105   -0.0011153693387283784
-0.0057527904817429535   -0.046824509915431904   -0.0009586502603038061
-0.006028512416609537   -0.038100223052208004   -0.0006742226025529986
-0.010869253684914003   -0.038030450522268416   -0.0008114534284081758
-0.010104496133360489   -0.046824075286912105   -0.0011153693387283784
-0.010917453388209207   -0.03796861400235584   -0.0007618241480526211
-0.0057527904817429535   -0.046824509915431904   -0.0009586502603038061
-0.01013155885150968   -0.04676606456874017   -0.0010591994297708925
-0.010917453388209207   -0.03796861400235584   -0.0007618241480526211
-0.010104496133360489   -0.046824075286912105   -0.0011153693387283784
-0.0057527904817429535   -0.046824509915431904   -0.0009586502603038061
-0.010917453388209207   -0.03796861400235584   -0.0007618241480526211
-0.00608115581179831   -0.03802115668833994   -0.000648042373929562
-0.006028512416609537   -0.038100223052208004   -0.0006742226025529986
-0.0057527904817429535   -0.046824509915431904   -0.0009586502603038061
-0.010917453388209207   -0.03796861400235584   -0.0007618241480526211
-0.006028512416609537   -0.038100223052208004   -0.0006742226025529986
-0.010104496133360489   -0.046824075286912105   -0.0011153693387283784
-0.0057527904817429535   -0.046824509915431904   -0.0009586502603038061
-0.00608115581179831   -0.03802115668833994   -0.000648042373929562
-0.01013155885150968   -0.04676606456874017   -0.0010591994297708925
-0.005788264036626406   -0.04677050010217524   -0.0009335226937284452
-0.00608115581179831   -0.03802115668833994   -0.000648042373929562
-0.010917453388209207   -0.03796861400235584   -0.0007618241480526211
-0.01013155885150968   -0.04676606456874017   -0.0010591994297708925
-0.010966110777120204   -0.03791936101470606   -0.0007065269241520061
-0.005788264036626406   -0.04677050010217524   -0.0009335226937284452
-0.010159409918795112   -0.046728289849625085   -0.0009966215897307398
-0.010966110777120204   -0.03791936101470606   -0.0007065269241520061
-0.01013155885150968   -0.04676606456874017   -0.0010591994297708925
-0.005788264036626406   -0.04677050010217524   -0.0009335226937284452
-0.010966110777120204   -0.03791936101470606   -0.0007065269241520061
-0.006138255523713889   -0.03795540695729441   -0.0006161124870892965
-0.00608115581179831   -0.03802115668833994   -0.000648042373929562
-0.005788264036626406   -0.04677050010217524   -0.0009335226937284452
-0.010966110777120204   -0.03791936101470606   -0.0007065269241520061
-0.00608115581179831   -0.03802115668833994   -0.000648042373929562
-0.01013155885150968   -0.04676606456874017   -0.0010591994297708925
-0.010071826269791756   -0.04690240734154887   -0.0011649371540840081
-0.010816117090744468   -0.03810476667728067   -0.0008551903316171349
-0.014556002534494057   -0.04674401541049215   -0.001311507230290219
-0.010104496133360489   -0.046824075286912105   -0.0011153693387283784
-0.010816117090744468   -0.03810476667728067   -0.0008551903316171349
-0.015751190764540263   -0.03797536486023259   -0.0009865209435975793
-0.014556002534494057   -0.04674401541049215   -0.001311507230290219
-0.015800519017979936   -0.03791851218161739   -0.0009190134730543171
-0.010104496133360489   -0.046824075286912105   -0.0011153693387283784
-0.01458302038899119   -0.04668234565704389   -0.001223869391270377
-0.015800519017979936   -0.03791851218161739   -0.0009190134730543171
-0.014556002534494057   -0.04674401541049215   -0.001311507230290219
-0.010104496133360489   -0.046824075286912105   -0.0011153693387283784
-0.015800519017979936   -0.03791851218161739   -0.0009190134730543171
-0.010869253684914003   -0.038030450522268416   -0.0008114534284081758
-0.010816117090744468   -0.03810476667728067   -0.0008551903316171349
-0.010104496133360489   -0.046824075286912105   -0.0011153693387283784
-0.015800519017979936   -0.03791851218161739   -0.0009190134730543171
-0.010816117090744468   -0.03810476667728067   -0.0008551903316171349
-0.014556002534494057   -0.04674401541049215   -0.001311507230290219
-0.010104496133360489   -0.046824075286912105   -0.0011153693387283784
-0.010869253684914003   -0.038030450522268416   -0.0008114534284081758
-0.01458302038899119   -0.04668234565704389   -0.001223869391270377
-0.01013155885150968   -0.04676606456874017   -0.0010591994297708925
-0.010869253684914003   -0.038030450522268416   -0.0008114534284081758
-0.015800519017979936   -0.03791851218161739   -0.0009190134730543171
-0.01458302038899119   -0.04668234565704389   -0.001223869391270377
-0.01583036555149155   -0.037872555431401535   -0.0008464081987786639
-0.01013155885150968   -0.04676606456874017   -0.0010591994297708925
-0.014586447578115284   -0.04663975636977499   -0.0011305429167271794
-0.01583036555149155   -0.037872555431401535   -0.0008464081987786639
-0.01458302038899119   -0.04668234565704389   -0.001223869391270377
-0.01013155885150968   -0.04676606456874017   -0.0010591994297708925
-0.01583036555149155   -0.037872555431401535   -0.0008464081987786639
-0.010917453388209207   -0.03796861400235584   -0.0007618241480526211
-0.010869253684914003   -0.038030450522268416   -0.0008114534284081758
-0.01013155885150968   -0.04676606456874017   -0.0010591994297708925
-0.01583036555149155   -0.037872555431401535   -0.0008464081987786639
-0.010869253684914003   -0.038030450522268416   -0.0008114534284081758
-0.01458302038899119   -0.04668234565704389   -0.001223869391270377
-0.01013155885150968   -0.04676606456874017   -0.0010591994297708925
-0.010917453388209207   -0.03796861400235584   -0.0007618241480526211
-0.014586447578115284   -0.04663975636977499   -0.0011305429167271794
-0.010159409918795112   -0.046728289849625085   -0.0009966215897307398
-0.010917453388209207   -0.03796861400235584   -0.0007618241480526211
-0.01583036555149155   -0.037872555431401535   -0.0008464081987786639
-0.014586447578115284   -0.04663975636977499   -0.0011305429167271794
-0.01586316538481244   -0.03784027522569275   -0.000767651343542038
-0.010159409918795112   -0.046728289849625085   -0.0009966215897307398
-0.014596579432284441   -0.04661922461084757   -0.0010303226903114247
-0.01586316538481244   -0.03784027522569275   -0.000767651343542038
-0.014586447578115284   -0.04663975636977499   -0.0011305429167271794
-0.010159409918795112   -0.046728289849625085   -0.0009966215897307398
-0.01586316538481244   -0.03784027522569275   -0.000767651343542038
-0.010966110777120204   -0.03791936101470606   -0.0007065269241520061
-0.010917453388209207   -0.03796861400235584   -0.0007618241480526211
-0.010159409918795112   -0.046728289849625085   -0.0009966215897307398
-0.01586316538481244   -0.03784027522569275   -0.000767651343542038
-0.010917453388209207   -0.03796861400235584   -0.0007618241480526211
-0.014586447578115284   -0.04663975636977499   -0.0011305429167271794
-0.014556002534494057   -0.04674401541049215   -0.001311507230290219
-0.015751190764540263   -0.03797536486023259   -0.0009865209435975793
-0.019445978999678634   -0.046536197751604697   -0.0014367158561447706
-0.01458302038899119   -0.04668234565704389   -0.001223869391270377
-0.015751190764540263   -0.03797536486023259   -0.0009865209435975793
-0.021047939652524078   -0.03781611973142823   -0.001090906656827615
-0.019445978999678634   -0.046536197751604697   -0.0014367158561447706
-0.02101139188972187   -0.037768215380322316   -0.0010009396729606932
-0.01458302038899119   -0.04668234565704389   -0.001223869391270377
-0.019352230986509397   -0.046479864222500146   -0.0013088078301119787
-0.02101139188972187   -0.037768215380322316   -0.0010009396729606932
-0.019445978999678634   -0.046536197751604697   -0.0014367158561447706
-0.01458302038899119   -0.04668234565704389   -0.001223869391270377
-0.02101139188972187   -0.037768215380322316   -0.0010009396729606932
-0.015800519017979936   -0.03791851218161739   -0.0009190134730543171
-0.015751190764540263   -0.03797536486023259   -0.0009865209435975793
-0.01458302038899119   -0.04668234565704389   -0.001223869391270377
-0.02101139188972187   -0.037768215380322316   -0.0010009396729606932
-0.015751190764540263   -0.03797536486023259   -0.0009865209435975793
-0.019445978999678634   -0.046536197751604697   -0.0014367158561447706
-0.01458302038899119   -0.04668234565704389   -0.001223869391270377
-0.015800519017979936   -0.03791851218161739   -0.0009190134730543171
-0.019352230986509397   -0.046479864222500146   -0.0013088078301119787
-0.014586447578115284   -0.04663975636977499   -0.0011305429167271794
-0.015800519017979936   -0.03791851218161739   -0.0009190134730543171
-0.02101139188972187   -0.037768215380322316   -0.0010009396729606932
-0.019352230986509397   -0.046479864222500146   -0.0013088078301119787
-0.02098160676215969   -0.03772974004992704   -0.0009016184053847723
-0.014586447578115284   -0.04663975636977499   -0.0011305429167271794
-0.019273203343188813   -0.04644381342609206   -0.001170966851358256
-0.02098160676215969   -0.03772974004992704   -0.0009016184053847723
-0.019352230986509397   -0.046479864222500146   -0.0013088078301119787
-0.014586447578115284   -0.04663975636977499   -0.0011305429167271794
-0.02098160676215969   -0.03772974004992704   -0.0009016184053847723
-0.01583036555149155   -0.037872555431401535   -0.0008464081987786639
-0.015800519017979936   -0.03791851218161739   -0.0009190134730543171
-0.014586447578115284   -0.04663975636977499   -0.0011305429167271794
-0.02098160676215969   -0.03772974004992704   -0.0009016184053847723
-0.015800519017979936   -0.03791851218161739   -0.0009190134730543171
-0.019352230986509397   -0.046479864222500146   -0.0013088078301119787
-0.014586447578115284   -0.04663975636977499   -0.0011305429167271794
-0.01583036555149155   -0.037872555431401535   -0.0008464081987786639
-0.019273203343188813   -0.04644381342609206   -0.001170966851358256
-0.014596579432284441   -0.04661922461084757   -0.0010303226903114247
-0.01583036555149155   -0.037872555431401535   -0.0008464081987786639
-0.02098160676215969   -0.03772974004992704   -0.0009016184053847723
-0.019273203343188813   -0.04644381342609206   -0.001170966851358256
-0.020910201760857502   -0.03771781650691702   -0.0007940096277974284
-0.014596579432284441   -0.04661922461084757   -0.0010303226903114247
-0.019142869704798716   -0.04644523560609625   -0.0010244314460903011
-0.020910201760857502   -0.03771781650691702   -0.0007940096277974284
-0.019273203343188813   -0.04644381342609206   -0.001170966851358256
-0.014596579432284441   -0.04661922461084757   -0.0010303226903114247
-0.020910201760857502   -0.03771781650691702   -0.0007940096277974284
-0.01586316538481244   -0.03784027522569275   -0.000767651343542038
-0.01583036555149155   -0.037872555431401535   -0.0008464081987786639
-0.014596579432284441   -0.04661922461084757   -0.0010303226903114247
-0.020910201760857502   -0.03771781650691702   -0.0007940096277974284
-0.01583036555149155   -0.037872555431401535   -0.0008464081987786639
-0.019273203343188813   -0.04644381342609206   -0.001170966851358256
0.004106167710169823   -0.03823947587176035   -0.000272566138448515
0.00424636013798995   -0.028902512754740203   -4.281205986016145e-05
-0.001054474473819204   -0.03823848945312002   -0.0005036928416097038
0.004091470415158755   -0.03811241494397766   -0.00030907617706470945
0.00424636013798995   -0.028902512754740203   -4.281205986016145e-05
-0.0012080187043659954   -0.028854628142176163   -0.00025056240524241934
-0.001054474473819204   -0.03823848945312002   -0.0005036928416097038
-0.00127130803868958   -0.028748962006247526   -0.0002318000081234898
0.004091470415158755   -0.03811241494397766   -0.00030907617706470945
-0.0011005562699630993   -0.038128063662864156   -0.0005071802757158322
-0.00127130803868958   -0.028748962006247526   -0.0002318000081234898
-0.001054474473819204   -0.03823848945312002   -0.0005036928416097038
0.004091470415158755   -0.03811241494397766   -0.00030907617706470945
-0.00127130803868958   -0.028748962006247526   -0.0002318000081234898
0.004179305163975592   -0.02878132756323157   -3.913955335135863e-05
0.00424636013798995   -0.028902512754740203   -4.281205986016145e-05
0.004091470415158755   -0.03811241494397766   -0.00030907617706470945
-0.00127130803868958   -0.028748962006247526   -0.0002318000081234898
0.00424636013798995   -0.028902512754740203   -4.281205986016145e-05
-0.001054474473819204   -0.03823848945312002   -0.0005036928416097038
0.004091470415158755   -0.03811241494397766   -0.00030907617706470945
0.004179305163975592   -0.02878132756323157   -3.913955335135863e-05
-0.0011005562699630993   -0.038128063662864156   -0.0005071802757158322
0.00405451750979315   -0.03801026117488552   -0.00033630364393265084
0.004179305163975592   -0.02878132756323157   -3.913955335135863e-05
-0.00127130803868958   -0.028748962006247526   -0.0002318000081234898
-0.0011005562699630993   -0.038128063662864156   -0.0005071802757158322
-0.001343773839189899   -0.028649273200350954   -0.00020778418171477268
0.00405451750979315   -0.03801026117488552   -0.00033630364393265084
-0.0011517628814985497   -0.03803307715468448   -0.0005048763333739621
-0.001343773839189899   -0.028649273200350954   -0.00020778418171477268
-0.0011005562699630993   -0.038128063662864156   -0.0005071802757158322
0.00405451750979315   -0.03801026117488552   -0.00033630364393265084
-0.001343773839189899   -0.028649273200350954   -0.00020778418171477268
0.004096912945323062   -0.02867310312394259   -2.4734230036606246e-05
0.004179305163975592   -0.02878132756323157   -3.913955335135863e-05
0.00405451750979315   -0.03801026117488552   -0.00033630364393265084
-0.001343773839189899   -0.028649273200350954   -0.00020778418171477268
0.004179305163975592   -0.02878132756323157   -3.913955335135863e-05
-0.0011005562699630993   -0.038128063662864156   -0.0005071802757158322
0.00405451750979315   -0.03801026117488552   -0.00033630364393265084
0.004096912945323062   -0.02867310312394259   -2.4734230036606246e-05
-0.0011517628814985497   -0.03803307715468448   -0.0005048763333739621
0.004002898332260996   -0.03791631968501123   -0.00035489681650455277
0.004096912945323062   -0.02867310312394259   -2.4734230036606246e-05
-0.001343773839189899   -0.028649273200350954   -0.00020778418171477268
-0.0011517628814985497   -0.03803307715468448   -0.0005048763333739621
-0.001425129287090635   -0.028554195270367937   -0.00017719829521141976
0.004002898332260996   -0.03791631968501123   -0.00035489681650455277
-0.001215346722641262   -0.03795106459052372   -0.000496552699337615
-0.001425129287090635   -0.028554195270367937   -0.00017719829521141976
-0.0011517628814985497   -0.03803307715468448   -0.0005048763333739621
0.004002898332260996   -0.03791631968501123   -0.00035489681650455277
-0.001425129287090635   -0.028554195270367937   -0.00017719829521141976
0.003988282267589615   -0.028559928288530906   -8.133372468208179e-08
0.004096912945323062   -0.02867310312394259   -2.4734230036606246e-05
0.004002898332260996   -0.03791631968501123   -0.00035489681650455277
-0.001425129287090635   -0.028554195270367937   -0.00017719829521141976
0.004096912945323062   -0.02867310312394259   -2.4734230036606246e-05
-0.0011517628814985497   -0.03803307715468448   -0.0005048763333739621
-0.001054474473819204   -0.03823848945312002   -0.0005036928416097038
-0.0012080187043659954   -0.028854628142176163   -0.00025056240524241934
-0.0059769089170367785   -0.03819185788326154   -0.0006943696392498935
-0.0011005562699630993   -0.038128063662864156   -0.0005071802757158322
-0.0012080187043659954   -0.028854628142176163   -0.00025056240524241934
-0.006376291252360835   -0.028798730230575772   -0.0004262974136182106
-0.0059769089170367785   -0.03819185788326154   -0.0006943696392498935
-0.006440876866117461   -0.02871039110287929   -0.0003974925674265613
-0.0011005562699630993   -0.038128063662864156   -0.0005071802757158322
-0.006028512416609537   -0.038100223052208004   -0.0006742226025529986
-0.006440876866117461   -0.02871039110287929   -0.0003974925674265613
-0.0059769089170367785   -0.03819185788326154   -0.0006943696392498935
-0.0011005562699630993   -0.038128063662864156   -0.0005071802757158322
-0.006440876866117461   -0.02871039110287929   -0.0003974925674265613
-0.00127130803868958   -0.028748962006247526   -0.0002318000081234898
-0.0012080187043659954   -0.028854628142176163   -0.00025056240524241934
-0.0011005562699630993   -0.038128063662864156   -0.0005071802757158322
-0.006440876866117461   -0.02871039110287929   -0.0003974925674265613
-0.0012080187043659954   -0.028854628142176163   -0.00025056240524241934
-0.0059769089170367785   -0.03819185788326154   -0.0006943696392498935
-0.0011005562699630993   -0.038128063662864156   -0.0005071802757158322
-0.00127130803868958   -0.028748962006247526   -0.0002318000081234898
-0.006028512416609537   -0.038100223052208004   -0.0006742226025529986
-0.0011517628814985497   -0.03803307715468448   -0.0005048763333739621
-0.00127130803868958   -0.028748962006247526   -0.0002318000081234898
-0.006440876866117461   -0.02871039110287929   -0.0003974925674265613
-0.006028512416609537   -0.038100223052208004   -0.0006742226025529986
-0.006506911288635474   -0.028626690765096635   -0.0003636803966493615
-0.0011517628814985497   -0.03803307715468448   -0.0005048763333739621
-0.00608115581179831   -0.03802115668833994   -0.000648042373929562
-0.006506911288635474   -0.028626690765096635   -0.0003636803966493615
-0.006028512416609537   -0.038100223052208004   -0.0006742226025529986
-0.0011517628814985497   -0.03803307715468448   -0.0005048763333739621
-0.006506911288635474   -0.028626690765096635   -0.0003636803966493615
-0.001343773839189899   -0.028649273200350954   -0.00020778418171477268
-0.00127130803868958   -0.028748962006247526   -0.0002318000081234898
-0.0011517628814985497   -0.03803307715468448   -0.0005048763333739621
-0.006506911288635474   -0.028626690765096635   -0.0003636803966493615
-0.00127130803868958   -0.028748962006247526   -0.0002318000081234898
-0.006028512416609537   -0.038100223052208004   -0.0006742226025529986
-0.0011517628814985497   -0.03803307715468448   -0.0005048763333739621
-0.001343773839189899   -0.028649273200350954   -0.00020778418171477268
-0.00608115581179831   -0.03802115668833994   -0.000648042373929562
-0.001215346722641262   -0.03795106459052372   -0.000496552699337615
-0.001343773839189899   -0.028649273200350954   -0.00020778418171477268
-0.006506911288635474   -0.028626690765096635   -0.0003636803966493615
-0.00608115581179831   -0.03802115668833994   -0.000648042373929562
-0.006577148739563207   -0.028548928131924636   -0.0003248074941734264
-0.001215346722641262   -0.03795106459052372   -0.000496552699337615
-0.006138255523713889   -0.03795540695729441   -0.0006161124870892965
-0.006577148739563207   -0.028548928131924636   -0.0003248074941734264
-0.00608115581179831   -0.03802115668833994   -0.000648042373929562
-0.001215346722641262   -0.03795106459052372   -0.000496552699337615
-0.006577148739563207   -0.028548928131924636   -0.0003248074941734264
-0.001425129287090635   -0.028554195270367937   -0.00017719829521141976
-0.001343773839189899   -0.028649273200350954   -0.00020778418171477268
-0.001215346722641262   -0.03795106459052372   -0.000496552699337615
-0.006577148739563207   -0.028548928131924636   -0.0003248074941734264
-0.001343773839189899   -0.028649273200350954   -0.00020778418171477268
-0.00608115581179831   -0.03802115668833994   -0.000648042373929562
-0.0059769089170367785   -0.03819185788326154   -0.0006943696392498935
-0.006376291252360835   -0.028798730230575772   -0.0004262974136182106
-0.010816117090744468   -0.03810476667728067   -0.0008551903316171349
-0.006028512416609537   -0.038100223052208004   -0.0006742226025529986
-0.006376291252360835   -0.028798730230575772   -0.0004262974136182106
-0.0114604394617355   -0.028731658104964145   -0.0005754902405779685
-0.010816117090744468   -0.03810476667728067   -0.0008551903316171349
-0.011524566697636402   -0.028659371143159317   -0.0005366535402552224
-0.006028512416609537   -0.038100223052208004   -0.0006742226025529986
-0.010869253684914003   -0.038030450522268416   -0.0008114534284081758
-0.011524566697636402   -0.028659371143159317   -0.0005366535402552224
-0.010816117090744468   -0.03810476667728067   -0.0008551903316171349
-0.006028512416609537   -0.038100223052208004   -0.0006742226025529986
-0.011524566697636402   -0.028659371143159317   -0.0005366535402552224
-0.006440876866117461   -0.02871039110287929   -0.0003974925674265613
-0.006376291252360835   -0.028798730230575772   -0.0004262974136182106
-0.006028512416609537   -0.038100223052208004   -0.0006742226025529986
-0.011524566697636402   -0.028659371143159317   -0.0005366535402552224
-0.006376291252360835   -0.028798730230575772   -0.0004262974136182106
-0.010816117090744468   -0.03810476667728067   -0.0008551903316171349
-0.006028512416609537   -0.038100223052208004   -0.0006742226025529986
-0.006440876866117461   -0.02871039110287929   -0.0003974925674265613
-0.010869253684914003   -0.038030450522268416   -0.0008114534284081758
-0.00608115581179831   -0.03802115668833994   -0.000648042373929562
-0.006440876866117461   -0.02871039110287929   -0.0003974925674265613
-0.011524566697636402   -0.028659371143159317   -0.0005366535402552224
-0.010869253684914003   -0.038030450522268416   -0.0008114534284081758
-0.011584542340435528   -0.02859198488975342   -0.0004929806793224139
-0.00608115581179831   -0.03802115668833994   -0.000648042373929562
-0.010917453388209207   -0.03796861400235584   -0.0007618241480526211
-0.011584542340435528   -0.02859198488975342   -0.0004929806793224139
-0.010869253684914003   -0.038030450522268416   -0.0008114534284081758
-0.00608115581179831   -0.03802115668833994   -0.000648042373929562
-0.011584542340435528   -0.02859198488975342   -0.0004929806793224139
-0.006506911288635474   -0.028626690765096635   -0.0003636803966493615
-0.006440876866117461   -0.02871039110287929   -0.0003974925674265613
-0.00608115581179831   -0.03802115668833994   -0.000648042373929562
-0.011584542340435528   -0.02859198488975342   -0.0004929806793224139
-0.006440876866117461   -0.02871039110287929   -0.0003974925674265613
-0.010869253684914003   -0.038030450522268416   -0.0008114534284081758
-0.00608115581179831   -0.03802115668833994   -0.000648042373929562
-0.006506911288635474   -0.028626690765096635   -0.0003636803966493615
-0.010917453388209207   -0.03796861400235584   -0.0007618241480526211
-0.006138255523713889   -0.03795540695729441   -0.0006161124870892965
-0.006506911288635474   -0.028626690765096635   -0.0003636803966493615
-0.011584542340435528   -0.02859198488975342   -0.0004929806793224139
-0.010917453388209207   -0.03796861400235584   -0.0007618241480526211
-0.01164473259905825   -0.02852968564223172   -0.00044471098773472687
-0.006138255523713889   -0.03795540695729441   -0.0006161124870892965
-0.010966110777120204   -0.03791936101470606   -0.0007065269241520061
-0.01164473259905825   -0.02852968564223172   -0.00044471098773472687
-0.010917453388209207   -0.03796861400235584   -0.0007618241480526211
-0.006138255523713889   -0.03795540695729441   -0.0006161124870892965
-0.01164473259905825   -0.02852968564223172   -0.00044471098773472687
-0.006577148739563207   -0.028548928131924636   -0.0003248074941734264
-0.006506911288635474   -0.028626690765096635   -0.0003636803966493615
-0.006138255523713889   -0.03795540695729441   -0.0006161124870892965
-0.01164473259905825   -0.02852968564223172   -0.00044471098773472687
-0.006506911288635474   -0.028626690765096635   -0.0003636803966493615
-0.010917453388209207   -0.03796861400235584   -0.0007618241480526211
-0.010816117090744468   -0.03810476667728067   -0.0008551903316171349
-0.0114604394617355   -0.028731658104964145   -0.0005754902405779685
-0.015751190764540263   -0.03797536486023259   -0.0009865209435975793
-0.010869253684914003   -0.038030450522268416   -0.0008114534284081758
-0.0114604394617355   -0.028731658104964145   -0.0005754902405779685
-0.016636447133102656   -0.028640957510072704   -0.0006968651245710044
-0.015751190764540263   -0.03797536486023259   -0.0009865209435975793
-0.016697852773414443   -0.028585558205391187   -0.000648116030676083
-0.010869253684914003   -0.038030450522268416   -0.0008114534284081758
-0.015800519017979936   -0.03791851218161739   -0.0009190134730543171
-0.016697852773414443   -0.028585558205391187   -0.000648116030676083
-0.015751190764540263   -0.03797536486023259   -0.0009865209435975793
-0.010869253684914003   -0.038030450522268416   -0.0008114534284081758
-0.016697852773414443   -0.028585558205391187   -0.000648116030676083
-0.011524566697636402   -0.028659371143159317   -0.0005366535402552224
-0.0114604394617355   -0.028731658104964145   -0.0005754902405779685
-0.010869253684914003   -0.038030450522268416   -0.0008114534284081758
-0.016697852773414443   -0.028585558205391187   -0.000648116030676083
-0.0114604394617355   -0.028731658104964145   -0.0005754902405779685
-0.015751190764540263   -0.03797536486023259   -0.0009865209435975793
-0.010869253684914003   -0.038030450522268416   -0.0008114534284081758
-0.011524566697636402   -0.028659371143159317   -0.0005366535402552224
-0.015800519017979936   -0.03791851218161739   -0.0009190134730543171
-0.010917453388209207   -0.03796861400235584   -0.0007618241480526211
-0.011524566697636402   -0.028659371143159317   -0.0005366535402552224
-0.016697852773414443   -0.028585558205391187   -0.000648116030676083
-0.015800519017979936   -0.03791851218161739   -0.0009190134730543171
-0.01674438257240298   -0.0285331977638804   -0.0005953279043856298
-0.010917453388209207   -0.03796861400235584   -0.0007618241480526211
-0.01583036555149155   -0.037872555431401535   -0.0008464081987786639
-0.01674438257240298   -0.0285331977638804   -0.0005953279043856298
-0.015800519017979936   -0.03791851218161739   -0.0009190134730543171
-0.010917453388209207   -0.03796861400235584   -0.0007618241480526211
-0.01674438257240298   -0.0285331977638804   -0.0005953279043856298
-0.011584542340435528   -0.02859198488975342   -0.0004929806793224139
-0.011524566697636402   -0.028659371143159317   -0.0005366535402552224
-0.010917453388209207   -0.03796861400235584   -0.0007618241480526211
-0.01674438257240298   -0.0285331977638804   -0.0005953279043856298
-0.011524566697636402   -0.028659371143159317   -0.0005366535402552224
-0.015800519017979936   -0.03791851218161739   -0.0009190134730543171
-0.010917453388209207   -0.03796861400235584   -0.0007618241480526211
-0.011584542340435528   -0.02859198488975342   -0.0004929806793224139
-0.01583036555149155   -0.037872555431401535   -0.0008464081987786639
-0.010966110777120204   -0.03791936101470606   -0.0007065269241520061
-0.011584542340435528   -0.02859198488975342   -0.0004929806793224139
-0.01674438257240298   -0.0285331977638804   -0.0005953279043856298
-0.01583036555149155   -0.037872555431401535   -0.0008464081987786639
-0.016790555255350937   -0.028486207501970135   -0.0005374478314892633
-0.010966110777120204   -0.03791936101470606   -0.0007065269241520061
-0.01586316538481244   -0.03784027522569275   -0.000767651343542038
-0.016790555255350937   -0.028486207501970135   -0.0005374478314892633
-0.01583036555149155   -0.037872555431401535   -0.0008464081987786639
-0.010966110777120204   -0.03791936101470606   -0.0007065269241520061
-0.016790555255350937   -0.028486207501970135   -0.0005374478314892633
-0.01164473259905825   -0.02852968564223172   -0.00044471098773472687
-0.011584542340435528   -0.02859198488975342   -0.0004929806793224139
-0.010966110777120204   -0.03791936101470606   -0.0007065269241520061
-0.016790555255350937   -0.028486207501970135   -0.0005374478314892633
-0.011584542340435528   -0.02859198488975342   -0.0004929806793224139
-0.01583036555149155   -0.037872555431401535   -0.0008464081987786639
-0.015751190764540263   -0.03797536486023259   -0.0009865209435975793
-0.016636447133102656   -0.028640957510072704   -0.0006968651245710044
-0.021047939652524078   -0.03781611973142823   -0.001090906656827615
-0.015800519017979936   -0.03791851218161739   -0.0009190134730543171
-0.016636447133102656   -0.028640957510072704   -0.0006968651245710044
-0.022122514801327934   -0.0285337529932758   -0.0007868474559202101
-0.021047939652524078   -0.03781611973142823   -0.001090906656827615
-0.02213177307336647   -0.028489590547602875   -0.0007329493305211457
-0.015800519017979936   -0.03791851218161739   -0.0009190134730543171
-0.02101139188972187   -0.037768215380322316   -0.0010009396729606932
-0.02213177307336647   -0.028489590547602875   -0.0007329493305211457
-0.021047939652524078   -0.03781611973142823   -0.001090906656827615
-0.015800519017979936   -0.03791851218161739   -0.0009190134730543171
-0.02213177307336647   -0.028489590547602875   -0.0007329493305211457
-0.016697852773414443   -0.028585558205391187   -0.000648116030676083
-0.016636447133102656   -0.028640957510072704   -0.0006968651245710044
-0.015800519017979936   -0.03791851218161739   -0.0009190134730543171
-0.02213177307336647   -0.028489590547602875   -0.0007329493305211457
-0.016636447133102656   -0.028640957510072704   -0.0006968651245710044
-0.021047939652524078   -0.03781611973142823   -0.001090906656827615
-0.015800519017979936   -0.03791851218161739   -0.0009190134730543171
-0.016697852773414443   -0.028585558205391187   -0.000648116030676083
-0.02101139188972187   -0.037768215380322316   -0.0010009396729606932
-0.01583036555149155   -0.037872555431401535   -0.0008464081987786639
-0.016697852773414443   -0.028585558205391187   -0.000648116030676083
-0.02213177307336647   -0.028489590547602875   -0.0007329493305211457
-0.02101139188972187   -0.037768215380322316   -0.0010009396729606932
-0.02214130901846867   -0.02844494824685216   -0.0006709199493247105
-0.01583036555149155   -0.037872555431401535   -0.0008464081987786639
-0.02098160676215969   -0.03772974004992704   -0.0009016184053847723
-0.02214130901846867   -0.02844494824685216   -0.0006709199493247105
-0.02101139188972187   -0.037768215380322316   -0.0010009396729606932
-0.01583036555149155   -0.037872555431401535   -0.0008464081987786639
-0.02214130901846867   -0.02844494824685216   -0.0006709199493247105
-0.01674438257240298   -0.0285331977638804   -0.0005953279043856298
-0.016697852773414443   -0.028585558205391187   -0.000648116030676083
-0.01583036555149155   -0.037872555431401535   -0.0008464081987786639
-0.02214130901846867   -0.02844494824685216   -0.0006709199493247105
-0.016697852773414443   -0.028585558205391187   -0.000648116030676083
-0.02101139188972187   -0.037768215380322316   -0.0010009396729606932
-0.01583036555149155   -0.037872555431401535   -0.0008464081987786639
-0.01674438257240298   -0.0285331977638804   -0.0005953279043856298
-0.02098160676215969   -0.03772974004992704   -0.0009016184053847723
-0.01586316538481244   -0.03784027522569275   -0.000767651343542038
-0.01674438257240298   -0.0285331977638804   -0.0005953279043856298
-0.02214130901846867   -0.02844494824685216   -0.0006709199493247105
-0.02098160676215969   -0.03772974004992704   -0.0009016184053847723
-0.02211996109362392   -0.028415685894038124   -0.0006017233764557101
-0.01586316538481244   -0.03784027522569275   -0.000767651343542038
-0.020910201760857502   -0.03771781650691702   -0.0007940096277974284
-0.02211996109362392   -0.028415685894038124   -0.0006017233764557101
-0.02098160676215969   -0.03772974004992704   -0.0009016184053847723
-0.01586316538481244   -0.03784027522569275   -0.000767651343542038
-0.02211996109362392   -0.028415685894038124   -0.0006017233764557101
-0.016790555255350937   -0.028486207501970135   -0.0005374478314892633
-0.01674438257240298   -0.0285331977638804   -0.0005953279043856298
-0.01586316538481244   -0.03784027522569275   -0.000767651343542038
-0.02211996109362392   -0.028415685894038124   -0.0006017233764557101
-0.01674438257240298   -0.0285331977638804   -0.0005953279043856298
-0.02098160676215969   -0.03772974004992704   -0.0009016184053847723
0.00424636013798995   -0.028902512754740203   -4.281205986016145e-05
0.0038076173854728686   -0.019286539488361495   0.00011578223239643965
-0.0012080187043659954   -0.028854628142176163   -0.00025056240524241934
0.004179305163975592   -0.02878132756323157   -3.913955335135863e-05
0.0038076173854728686   -0.019286539488361495   0.00011578223239643965
-0.0016883317761818499   -0.019196040534996333   -4.918767129081261e-05
-0.0012080187043659954   -0.028854628142176163   -0.00025056240524241934
-0.001763999461634688   -0.019100412963268663   -9.934497695496674e-06
0.004179305163975592   -0.02878132756323157   -3.913955335135863e-05
-0.00127130803868958   -0.028748962006247526   -0.0002318000081234898
-0.001763999461634688   -0.019100412963268663   -9.934497695496674e-06
-0.0012080187043659954   -0.028854628142176163   -0.00025056240524241934
0.004179305163975592   -0.02878132756323157   -3.913955335135863e-05
-0.001763999461634688   -0.019100412963268663   -9.934497695496674e-06
0.00368851956914908   -0.01917110576194394   0.00016456775017865814
0.0038076173854728686   -0.019286539488361495   0.00011578223239643965
0.004179305163975592   -0.02878132756323157   -3.913955335135863e-05
-0.001763999461634688   -0.019100412963268663   -9.934497695496674e-06
0.0038076173854728686   -0.019286539488361495   0.00011578223239643965
-0.0012080187043659954   -0.028854628142176163   -0.00025056240524241934
0.004179305163975592   -0.02878132756323157   -3.913955335135863e-05
0.00368851956914908   -0.01917110576194394   0.00016456775017865814
-0.00127130803868958   -0.028748962006247526   -0.0002318000081234898
0.004096912945323062   -0.02867310312394259   -2.4734230036606246e-05
0.00368851956914908   -0.01917110576194394   0.00016456775017865814
-0.001763999461634688   -0.019100412963268663   -9.934497695496674e-06
-0.00127130803868958   -0.028748962006247526   -0.0002318000081234898
-0.0018525301498118593   -0.018999503986967054   3.631247740783855e-05
0.004096912945323062   -0.02867310312394259   -2.4734230036606246e-05
-0.001343773839189899   -0.028649273200350954   -0.00020778418171477268
-0.0018525301498118593   -0.018999503986967054   3.631247740783855e-05
-0.00127130803868958   -0.028748962006247526   -0.0002318000081234898
0.004096912945323062   -0.02867310312394259   -2.4734230036606246e-05
-0.0018525301498118593   -0.018999503986967054   3.631247740783855e-05
0.0035555049529162647   -0.019056509252904683   0.0002347040797381005
0.00368851956914908   -0.01917110576194394   0.00016456775017865814
0.004096912945323062   -0.02867310312394259   -2.4734230036606246e-05
-0.0018525301498118593   -0.018999503986967054   3.631247740783855e-05
0.00368851956914908   -0.01917110576194394   0.00016456775017865814
-0.00127130803868958   -0.028748962006247526   -0.0002318000081234898
0.004096912945323062   -0.02867310312394259   -2.4734230036606246e-05
0.0035555049529162647   -0.019056509252904683   0.0002347040797381005
-0.001343773839189899   -0.028649273200350954   -0.00020778418171477268
0.003988282267589615   -0.028559928288530906   -8.133372468208179e-08
0.0035555049529162647   -0.019056509252904683   0.0002347040797381005
-0.0018525301498118593   -0.018999503986967054   3.631247740783855e-05
-0.001343773839189899   -0.028649273200350954   -0.00020778418171477268
-0.0019441196150977512   -0.018892376095708513   8.946193106194876e-05
0.003988282267589615   -0.028559928288530906   -8.133372468208179e-08
-0.001425129287090635   -0.028554195270367937   -0.00017719829521141976
-0.0019441196150977512   -0.018892376095708513   8.946193106194876e-05
-0.001343773839189899   -0.028649273200350954   -0.00020778418171477268
0.003988282267589615   -0.028559928288530906   -8.133372468208179e-08
-0.0019441196150977512   -0.018892376095708513   8.946193106194876e-05
0.0033929716157086727   -0.0189157180714679   0.00031189098513585944
0.0035555049529162647   -0.019056509252904683   0.0002347040797381005
0.003988282267589615   -0.028559928288530906   -8.133372468208179e-08
-0.0019441196150977512   -0.018892376095708513   8.946193106194876e-05
0.0035555049529162647   -0.019056509252904683   0.0002347040797381005
-0.001343773839189899   -0.028649273200350954   -0.00020778418171477268
-0.0012080187043659954   -0.028854628142176163   -0.00025056240524241934
-0.0016883317761818499   -0.019196040534996333   -4.918767129081261e-05
-0.006376291252360835   -0.028798730230575772   -0.0004262974136182106
-0.00127130803868958   -0.028748962006247526   -0.0002318000081234898
-0.0016883317761818499   -0.019196040534996333   -4.918767129081261e-05
-0.006863465642409636   -0.019172612950456365   -0.00020814223760044155
-0.006376291252360835   -0.028798730230575772   -0.0004262974136182106
-0.006931891334386697   -0.01908919364027998   -0.00017158579734323617
-0.00127130803868958   -0.028748962006247526   -0.0002318000081234898
-0.006440876866117461   -0.02871039110287929   -0.0003974925674265613
-0.006931891334386697   -0.01908919364027998   -0.00017158579734323617
-0.006376291252360835   -0.028798730230575772   -0.0004262974136182106
-0.00127130803868958   -0.028748962006247526   -0.0002318000081234898
-0.006931891334386697   -0.01908919364027998   -0.00017158579734323617
-0.001763999461634688   -0.019100412963268663   -9.934497695496674e-06
-0.0016883317761818499   -0.019196040534996333   -4.918767129081261e-05
-0.00127130803868958   -0.028748962006247526   -0.0002318000081234898
-0.006931891334386697   -0.01908919364027998   -0.00017158579734323617
-0.0016883317761818499   -0.019196040534996333   -4.918767129081261e-05
-0.006376291252360835   -0.028798730230575772   -0.0004262974136182106
-0.00127130803868958   -0.028748962006247526   -0.0002318000081234898
-0.001763999461634688   -0.019100412963268663   -9.934497695496674e-06
-0.006440876866117461   -0.02871039110287929   -0.0003974925674265613
-0.001343773839189899   -0.028649273200350954   -0.00020778418171477268
-0.001763999461634688   -0.019100412963268663   -9.934497695496674e-06
-0.006931891334386697   -0.01908919364027998   -0.00017158579734323617
-0.006440876866117461   -0.02871039110287929   -0.0003974925674265613
-0.007002681099832684   -0.019002428706151084   -0.00013139616804144427
-0.001343773839189899   -0.028649273200350954   -0.00020778418171477268
-0.006506911288635474   -0.028626690765096635   -0.0003636803966493615
-0.007002681099832684   -0.019002428706151084   -0.00013139616804144427
-0.006440876866117461   -0.02871039110287929   -0.0003974925674265613
-0.001343773839189899   -0.028649273200350954   -0.00020778418171477268
-0.007002681099832684   -0.019002428706151084   -0.00013139616804144427
-0.0018525301498118593   -0.018999503986967054   3.631247740783855e-05
-0.001763999461634688   -0.019100412963268663   -9.934497695496674e-06
-0.001343773839189899   -0.028649273200350954   -0.00020778418171477268
-0.007002681099832684   -0.019002428706151084   -0.00013139616804144427
-0.001763999461634688   -0.019100412963268663   -9.934497695496674e-06
-0.006440876866117461   -0.02871039110287929   -0.0003974925674265613
-0.001343773839189899   -0.028649273200350954   -0.00020778418171477268
-0.0018525301498118593   -0.018999503986967054   3.631247740783855e-05
-0.006506911288635474   -0.028626690765096635   -0.0003636803966493615
-0.001425129287090635   -0.028554195270367937   -0.00017719829521141976
-0.0018525301498118593   -0.018999503986967054   3.631247740783855e-05
-0.007002681099832684   -0.019002428706151084   -0.00013139616804144427
-0.006506911288635474   -0.028626690765096635   -0.0003636803966493615
-0.0070763857272102115   -0.018913879702860483   -8.684871153868497e-05
-0.001425129287090635   -0.028554195270367937   -0.00017719829521141976
-0.006577148739563207   -0.028548928131924636   -0.0003248074941734264
-0.0070763857272102115   -0.018913879702860483   -8.684871153868497e-05
-0.006506911288635474   -0.028626690765096635   -0.0003636803966493615
-0.001425129287090635   -0.028554195270367937   -0.00017719829521141976
-0.0070763857272102115   -0.018913879702860483   -8.684871153868497e-05
-0.0019441196150977512   -0.018892376095708513   8.946193106194876e-05
-0.0018525301498118593   -0.018999503986967054   3.631247740783855e-05
-0.001425129287090635   -0.028554195270367937   -0.00017719829521141976
-0.0070763857272102115   -0.018913879702860483   -8.684871153868497e-05
-0.0018525301498118593   -0.018999503986967054   3.631247740783855e-05
-0.006506911288635474   -0.028626690765096635   -0.0003636803966493615
-0.006376291252360835   -0.028798730230575772   -0.0004262974136182106
-0.006863465642409636   -0.019172612950456365   -0.00020814223760044155
-0.0114604394617355   -0.028731658104964145   -0.0005754902405779685
-0.006440876866117461   -0.02871039110287929   -0.0003974925674265613
-0.006863465642409636   -0.019172612950456365   -0.00020814223760044155
-0.011985336972546447   -0.01916609078686897   -0.0003517847148759435
-0.0114604394617355   -0.028731658104964145   -0.0005754902405779685
-0.012050765436383068   -0.019092976248168844   -0.00031688130136653554
-0.006440876866117461   -0.02871039110287929   -0.0003974925674265613
-0.011524566697636402   -0.028659371143159317   -0.0005366535402552224
-0.012050765436383068   -0.019092976248168844   -0.00031688130136653554
-0.0114604394617355   -0.028731658104964145   -0.0005754902405779685
-0.006440876866117461   -0.02871039110287929   -0.0003974925674265613
-0.012050765436383068   -0.019092976248168844   -0.00031688130136653554
-0.006931891334386697   -0.01908919364027998   -0.00017158579734323617
-0.006863465642409636   -0.019172612950456365   -0.00020814223760044155
-0.006440876866117461   -0.02871039110287929   -0.0003974925674265613
-0.012050765436383068   -0.019092976248168844   -0.00031688130136653554
-0.006863465642409636   -0.019172612950456365   -0.00020814223760044155
-0.0114604394617355   -0.028731658104964145   -0.0005754902405779685
-0.006440876866117461   -0.02871039110287929   -0.0003974925674265613
-0.006931891334386697   -0.01908919364027998   -0.00017158579734323617
-0.011524566697636402   -0.028659371143159317   -0.0005366535402552224
-0.006506911288635474   -0.028626690765096635   -0.0003636803966493615
-0.006931891334386697   -0.01908919364027998   -0.00017158579734323617
-0.012050765436383068   -0.019092976248168844   -0.00031688130136653554
-0.011524566697636402   -0.028659371143159317   -0.0005366535402552224
-0.012113093784957932   -0.01901855038085474   -0.0002787998868133517
-0.006506911288635474   -0.028626690765096635   -0.0003636803966493615
-0.011584542340435528   -0.02859198488975342   -0.0004929806793224139
-0.012113093784957932   -0.01901855038085474   -0.0002787998868133517
-0.011524566697636402   -0.028659371143159317   -0.0005366535402552224
-0.006506911288635474   -0.028626690765096635   -0.0003636803966493615
-0.012113093784957932   -0.01901855038085474   -0.0002787998868133517
-0.007002681099832684   -0.019002428706151084   -0.00013139616804144427
-0.006931891334386697   -0.01908919364027998   -0.00017158579734323617
-0.006506911288635474   -0.028626690765096635   -0.0003636803966493615
-0.012113093784957932   -0.01901855038085474   -0.0002787998868133517
-0.006931891334386697   -0.01908919364027998   -0.00017158579734323617
-0.011524566697636402   -0.028659371143159317   -0.0005366535402552224
-0.006506911288635474   -0.028626690765096635   -0.0003636803966493615
-0.007002681099832684   -0.019002428706151084   -0.00013139616804144427
-0.011584542340435528   -0.02859198488975342   -0.0004929806793224139
-0.006577148739563207   -0.028548928131924636   -0.0003248074941734264
-0.007002681099832684   -0.019002428706151084   -0.00013139616804144427
-0.012113093784957932   -0.01901855038085474   -0.0002787998868133517
-0.011584542340435528   -0.02859198488975342   -0.0004929806793224139
-0.012174795860324727   -0.018942386937522124   -0.000237719658140325
-0.006577148739563207   -0.028548928131924636   -0.0003248074941734264
-0.01164473259905825   -0.02852968564223172   -0.00044471098773472687
-0.012174795860324727   -0.018942386937522124   -0.000237719658140325
-0.011584542340435528   -0.02859198488975342   -0.0004929806793224139
-0.006577148739563207   -0.028548928131924636   -0.0003248074941734264
-0.012174795860324727   -0.018942386937522124   -0.000237719658140325
-0.0070763857272102115   -0.018913879702860483   -8.684871153868497e-05
-0.007002681099832684   -0.019002428706151084   -0.00013139616804144427
-0.006577148739563207   -0.028548928131924636   -0.0003248074941734264
-0.012174795860324727   -0.018942386937522124   -0.000237719658140325
-0.007002681099832684   -0.019002428706151084   -0.00013139616804144427
-0.011584542340435528   -0.02859198488975342   -0.0004929806793224139
-0.0114604394617355   -0.028731658104964145   -0.0005754902405779685
-0.011985336972546447   -0.01916609078686897   -0.0003517847148759435
-0.016636447133102656   -0.028640957510072704   -0.0006968651245710044
-0.011524566697636402   -0.028659371143159317   -0.0005366535402552224
-0.011985336972546447   -0.01916609078686897   -0.0003517847148759435
-0.017215738815647107   -0.01913629355880735   -0.0004723682797035844
-0.016636447133102656   -0.028640957510072704   -0.0006968651245710044
-0.017278112704345403   -0.019076757901959722   -0.00043929774447537203
-0.011524566697636402   -0.028659371143159317   -0.0005366535402552224
-0.016697852773414443   -0.028585558205391187   -0.000648116030676083
-0.017278112704345403   -0.019076757901959722   -0.00043929774447537203
-0.016636447133102656   -0.028640957510072704   -0.0006968651245710044
-0.011524566697636402   -0.028659371143159317   -0.0005366535402552224
-0.017278112704345403   -0.019076757901959722   -0.00043929774447537203
-0.012050765436383068   -0.019092976248168844   -0.00031688130136653554
-0.011985336972546447   -0.01916609078686897   -0.0003517847148759435
-0.011524566697636402   -0.028659371143159317   -0.0005366535402552224
-0.017278112704345403   -0.019076757901959722   -0.00043929774447537203
-0.011985336972546447   -0.01916609078686897   -0.0003517847148759435
-0.016636447133102656   -0.028640957510072704   -0.0006968651245710044
-0.011524566697636402   -0.028659371143159317   -0.0005366535402552224
-0.012050765436383068   -0.019092976248168844   -0.00031688130136653554
-0.016697852773414443   -0.028585558205391187   -0.000648116030676083
-0.011584542340435528   -0.02859198488975342   -0.0004929806793224139
-0.012050765436383068   -0.019092976248168844   -0.00031688130136653554
-0.017278112704345403   -0.019076757901959722   -0.00043929774447537203
-0.016697852773414443   -0.028585558205391187   -0.000648116030676083
-0.017330948174522454   -0.01901396066248381   -0.0004039674609127431
-0.011584542340435528   -0.02859198488975342   -0.0004929806793224139
-0.01674438257240298   -0.0285331977638804   -0.0005953279043856298
-0.017330948174522454   -0.01901396066248381   -0.0004039674609127431
-0.016697852773414443   -0.028585558205391187   -0.000648116030676083
-0.011584542340435528   -0.02859198488975342   -0.0004929806793224139
-0.017330948174522454   -0.01901396066248381   -0.0004039674609127431
-0.012113093784957932   -0.01901855038085474   -0.0002787998868133517
-0.012050765436383068   -0.019092976248168844   -0.00031688130136653554
-0.011584542340435528   -0.02859198488975342   -0.0004929806793224139
-0.017330948174522454   -0.01901396066248381   -0.0004039674609127431
-0.012050765436383068   -0.019092976248168844   -0.00031688130136653554
-0.016697852773414443   -0.028585558205391187   -0.000648116030676083
-0.011584542340435528   -0.02859198488975342   -0.0004929806793224139
-0.012113093784957932   -0.01901855038085474   -0.0002787998868133517
-0.01674438257240298   -0.0285331977638804   -0.0005953279043856298
-0.01164473259905825   -0.02852968564223172   -0.00044471098773472687
-0.012113093784957932   -0.01901855038085474   -0.0002787998868133517
-0.017330948174522454   -0.01901396066248381   -0.0004039674609127431
-0.01674438257240298   -0.0285331977638804   -0.0005953279043856298
-0.017380884652401007   -0.018949520466461964   -0.0003653960225279947
-0.01164473259905825   -0.02852968564223172   -0.00044471098773472687
-0.016790555255350937   -0.028486207501970135   -0.0005374478314892633
-0.017380884652401007   -0.018949520466461964   -0.0003653960225279947
-0.01674438257240298   -0.0285331977638804   -0.0005953279043856298
-0.01164473259905825   -0.02852968564223172   -0.00044471098773472687
-0.017380884652401007   -0.018949520466461964   -0.0003653960225279947
-0.012174795860324727   -0.018942386937522124   -0.000237719658140325
-0.012113093784957932   -0.01901855038085474   -0.0002787998868133517
-0.01164473259905825   -0.02852968564223172   -0.00044471098773472687
-0.017380884652401007   -0.018949520466461964   -0.0003653960225279947
-0.012113093784957932   -0.01901855038085474   -0.0002787998868133517
-0.01674438257240298   -0.0285331977638804   -0.0005953279043856298
-0.016636447133102656   -0.028640957510072704   -0.0006968651245710044
-0.017215738815647107   -0.01913629355880735   -0.0004723682797035844
-0.022122514801327934   -0.0285337529932758   -0.0007868474559202101
-0.016697852773414443   -0.028585558205391187   -0.000648116030676083
-0.017215738815647107   -0.01913629355880735   -0.0004723682797035844
-0.02269488905953085   -0.01908716370889863   -0.000561464872913506
-0.022122514801327934   -0.0285337529932758   -0.0007868474559202101
-0.022733581267955195   -0.01903724015843624   -0.0005366155971397554
-0.016697852773414443   -0.028585558205391187   -0.000648116030676083
-0.02213177307336647   -0.028489590547602875   -0.0007329493305211457
-0.022733581267955195   -0.01903724015843624   -0.0005366155971397554
-0.022122514801327934   -0.0285337529932758   -0.0007868474559202101
-0.016697852773414443   -0.028585558205391187   -0.000648116030676083
-0.022733581267955195   -0.01903724015843624   -0.0005366155971397554
-0.017278112704345403   -0.019076757901959722   -0.00043929774447537203
-0.017215738815647107   -0.01913629355880735   -0.0004723682797035844
-0.016697852773414443   -0.028585558205391187   -0.000648116030676083
-0.022733581267955195   -0.01903724015843624   -0.0005366155971397554
-0.017215738815647107   -0.01913629355880735   -0.0004723682797035844
-0.022122514801327934   -0.0285337529932758   -0.0007868474559202101
-0.016697852773414443   -0.028585558205391187   -0.000648116030676083
-0.017278112704345403   -0.019076757901959722   -0.00043929774447537203
-0.02213177307336647   -0.028489590547602875   -0.0007329493305211457
-0.01674438257240298   -0.0285331977638804   -0.0005953279043856298
-0.017278112704345403   -0.019076757901959722   -0.00043929774447537203
-0.022733581267955195   -0.01903724015843624   -0.0005366155971397554
-0.02213177307336647   -0.028489590547602875   -0.0007329493305211457
-0.022768960884131273   -0.018980727450545156   -0.0005062288079377604
-0.01674438257240298   -0.0285331977638804   -0.0005953279043856298
-0.02214130901846867   -0.02844494824685216   -0.0006709199493247105
-0.022768960884131273   -0.018980727450545156   -0.0005062288079377604
-0.02213177307336647   -0.028489590547602875   -0.0007329493305211457
-0.01674438257240298   -0.0285331977638804   -0.0005953279043856298
-0.022768960884131273   -0.018980727450545156   -0.0005062288079377604
-0.017330948174522454   -0.01901396066248381   -0.0004039674609127431
-0.017278112704345403   -0.019076757901959722   -0.00043929774447537203
-0.01674438257240298   -0.0285331977638804   -0.0005953279043856298
-0.022768960884131273   -0.018980727450545156   -0.0005062288079377604
-0.017278112704345403   -0.019076757901959722   -0.00043929774447537203
-0.02213177307336647   -0.028489590547602875   -0.0007329493305211457
-0.01674438257240298   -0.0285331977638804   -0.0005953279043856298
-0.017330948174522454   -0.01901396066248381   -0.0004039674609127431
-0.02214130901846867   -0.02844494824685216   -0.0006709199493247105
-0.016790555255350937   -0.028486207501970135   -0.0005374478314892633
-0.017330948174522454   -0.01901396066248381   -0.0004039674609127431
-0.022768960884131273   -0.018980727450545156   -0.0005062288079377604
-0.02214130901846867   -0.02844494824685216   -0.0006709199493247105
-0.022786024881037478   -0.0189289340924694   -0.00047168543235764156
-0.016790555255350937   -0.028486207501970135   -0.0005374478314892633
-0.02211996109362392   -0.028415685894038124   -0.0006017233764557101
-0.022786024881037478   -0.0189289340924694   -0.00047168543235764156
-0.02214130901846867   -0.02844494824685216   -0.0006709199493247105
-0.016790555255350937   -0.028486207501970135   -0.0005374478314892633
-0.022786024881037478   -0.0189289340924694   -0.00047168543235764156
-0.017380884652401007   -0.018949520466461964   -0.0003653960225279947
-0.017330948174522454   -0.01901396066248381   -0.0004039674609127431
-0.016790555255350937   -0.028486207501970135   -0.0005374478314892633
-0.022786024881037478   -0.0189289340924694   -0.00047168543235764156
-0.017330948174522454   -0.01901396066248381   -0.0004039674609127431
-0.02214130901846867   -0.02844494824685216   -0.0006709199493247105
0.0038076173854728686   -0.019286539488361495   0.00011578223239643965
0.002668584527188522   -0.009687031084223854   0.00012449310675199146
-0.0016883317761818499   -0.019196040534996333   -4.918767129081261e-05
0.00368851956914908   -0.01917110576194394   0.00016456775017865814
0.002668584527188522   -0.009687031084223854   0.00012449310675199146
-0.0024574064934046102   -0.009561725688124745   6.380631320373427e-05
-0.0016883317761818499   -0.019196040534996333   -4.918767129081261e-05
-0.0025327118302546324   -0.009513594655537102   0.00011839982856329038
0.00368851956914908   -0.01917110576194394   0.00016456775017865814
-0.001763999461634688   -0.019100412963268663   -9.934497695496674e-06
-0.0025327118302546324   -0.009513594655537102   0.00011839982856329038
-0.0016883317761818499   -0.019196040534996333   -4.918767129081261e-05
0.00368851956914908   -0.01917110576194394   0.00016456775017865814
-0.0025327118302546324   -0.009513594655537102   0.00011839982856329038
0.0024338264016972163   -0.009564342925649767   0.0002595831188405699
0.002668584527188522   -0.009687031084223854   0.00012449310675199146
0.00368851956914908   -0.01917110576194394   0.00016456775017865814
-0.0025327118302546324   -0.009513594655537102   0.00011839982856329038
0.002668584527188522   -0.009687031084223854   0.00012449310675199146
-0.0016883317761818499   -0.019196040534996333   -4.918767129081261e-05
0.00368851956914908   -0.01917110576194394   0.00016456775017865814
0.0024338264016972163   -0.009564342925649767   0.0002595831188405699
-0.001763999461634688   -0.019100412963268663   -9.934497695496674e-06
0.0035555049529162647   -0.019056509252904683   0.0002347040797381005
0.0024338264016972163   -0.009564342925649767   0.0002595831188405699
-0.0025327118302546324   -0.009513594655537102   0.00011839982856329038
-0.001763999461634688   -0.019100412963268663   -9.934497695496674e-06
-0.0026317420125472946   -0.009427673868796872   0.00018470921339791858
0.0035555049529162647   -0.019056509252904683   0.0002347040797381005
-0.0018525301498118593   -0.018999503986967054   3.631247740783855e-05
-0.0026317420125472946   -0.009427673868796872   0.00018470921339791858
-0.001763999461634688   -0.019100412963268663   -9.934497695496674e-06
0.0035555049529162647   -0.019056509252904683   0.0002347040797381005
-0.0026317420125472946   -0.009427673868796872   0.00018470921339791858
0.0022963839069296724   -0.009464084899759688   0.0003603625372575808
0.0024338264016972163   -0.009564342925649767   0.0002595831188405699
0.0035555049529162647   -0.019056509252904683   0.0002347040797381005
-0.0026317420125472946   -0.009427673868796872   0.00018470921339791858
0.0024338264016972163   -0.009564342925649767   0.0002595831188405699
-0.001763999461634688   -0.019100412963268663   -9.934497695496674e-06
0.0035555049529162647   -0.019056509252904683   0.0002347040797381005
0.0022963839069296724   -0.009464084899759688   0.0003603625372575808
-0.0018525301498118593   -0.018999503986967054   3.631247740783855e-05
0.0033929716157086727   -0.0189157180714679   0.00031189098513585944
0.0022963839069296724   -0.009464084899759688   0.0003603625372575808
-0.0026317420125472946   -0.009427673868796872   0.00018470921339791858
-0.0018525301498118593   -0.018999503986967054   3.631247740783855e-05
-0.0027150266476866423   -0.009335326381203496   0.00024307696893115547
0.0033929716157086727   -0.0189157180714679   0.00031189098513585944
-0.0019441196150977512   -0.018892376095708513   8.946193106194876e-05
-0.0027150266476866423   -0.009335326381203496   0.00024307696893115547
-0.0018525301498118593   -0.018999503986967054   3.631247740783855e-05
0.0033929716157086727   -0.0189157180714679   0.00031189098513585944
-0.0027150266476866423   -0.009335326381203496   0.00024307696893115547
0.0021202027739249097   -0.009310763629158409   0.0004757745286881348
0.0022963839069296724   -0.009464084899759688   0.0003603625372575808
0.0033929716157086727   -0.0189157180714679   0.00031189098513585944
-0.0027150266476866423   -0.009335326381203496   0.00024307696893115547
0.0022963839069296724   -0.009464084899759688   0.0003603625372575808
-0.0018525301498118593   -0.018999503986967054   3.631247740783855e-05
-0.0016883317761818499   -0.019196040534996333   -4.918767129081261e-05
-0.0024574064934046102   -0.009561725688124745   6.380631320373427e-05
-0.006863465642409636   -0.019172612950456365   -0.00020814223760044155
-0.001763999461634688   -0.019100412963268663   -9.934497695496674e-06
-0.0024574064934046102   -0.009561725688124745   6.380631320373427e-05
-0.007335408734622252   -0.009703267060587375   -6.252194427762576e-05
-0.006863465642409636   -0.019172612950456365   -0.00020814223760044155
-0.007404801752986741   -0.00962952195339859   -2.3829330403019812e-05
-0.001763999461634688   -0.019100412963268663   -9.934497695496674e-06
-0.006931891334386697   -0.01908919364027998   -0.00017158579734323617
-0.007404801752986741   -0.00962952195339859   -2.3829330403019812e-05
-0.006863465642409636   -0.019172612950456365   -0.00020814223760044155
-0.001763999461634688   -0.019100412963268663   -9.934497695496674e-06
-0.007404801752986741   -0.00962952195339859   -2.3829330403019812e-05
-0.0025327118302546324   -0.009513594655537102   0.00011839982856329038
-0.0024574064934046102   -0.009561725688124745   6.380631320373427e-05
-0.001763999461634688   -0.019100412963268663   -9.934497695496674e-06
-0.007404801752986741   -0.00962952195339859   -2.3829330403019812e-05
-0.0024574064934046102   -0.009561725688124745   6.380631320373427e-05
-0.006863465642409636   -0.019172612950456365   -0.00020814223760044155
-0.001763999461634688   -0.019100412963268663   -9.934497695496674e-06
-0.0025327118302546324   -0.009513594655537102   0.00011839982856329038
-0.006931891334386697   -0.01908919364027998   -0.00017158579734323617
-0.0018525301498118593   -0.018999503986967054   3.631247740783855e-05
-0.0025327118302546324   -0.009513594655537102   0.00011839982856329038
-0.007404801752986741   -0.00962952195339859   -2.3829330403019812e-05
-0.006931891334386697   -0.01908919364027998   -0.00017158579734323617
-0.007477466046244029   -0.009546220166444479   1.713412692411671e-05
-0.0018525301498118593   -0.018999503986967054   3.631247740783855e-05
-0.007002681099832684   -0.019002428706151084   -0.00013139616804144427
-0.007477466046244029   -0.009546220166444479   1.713412692411671e-05
-0.006931891334386697   -0.01908919364027998   -0.00017158579734323617
-0.0018525301498118593   -0.018999503986967054   3.631247740783855e-05
-0.007477466046244029   -0.009546220166444479   1.713412692411671e-05
-0.0026317420125472946   -0.009427673868796872   0.00018470921339791858
-0.0025327118302546324   -0.009513594655537102   0.00011839982856329038
-0.0018525301498118593   -0.018999503986967054   3.631247740783855e-05
-0.007477466046244029   -0.009546220166444479   1.713412692411671e-05
-0.0025327118302546324   -0.009513594655537102   0.00011839982856329038
-0.006931891334386697   -0.01908919364027998   -0.00017158579734323617
-0.0018525301498118593   -0.018999503986967054   3.631247740783855e-05
-0.0026317420125472946   -0.009427673868796872   0.00018470921339791858
-0.007002681099832684   -0.019002428706151084   -0.00013139616804144427
-0.0019441196150977512   -0.018892376095708513   8.946193106194876e-05
-0.0026317420125472946   -0.009427673868796872   0.00018470921339791858
-0.007477466046244029   -0.009546220166444479   1.713412692411671e-05
-0.007002681099832684   -0.019002428706151084   -0.00013139616804144427
-0.007546556520724798   -0.009454921018953837   6.231901598398227e-05
-0.0019441196150977512   -0.018892376095708513   8.946193106194876e-05
-0.0070763857272102115   -0.018913879702860483   -8.684871153868497e-05
-0.007546556520724798   -0.009454921018953837   6.231901598398227e-05
-0.007002681099832684   -0.019002428706151084   -0.00013139616804144427
-0.0019441196150977512   -0.018892376095708513   8.946193106194876e-05
-0.007546556520724798   -0.009454921018953837   6.231901598398227e-05
-0.0027150266476866423   -0.009335326381203496   0.00024307696893115547
-0.0026317420125472946   -0.009427673868796872   0.00018470921339791858
-0.0019441196150977512   -0.018892376095708513   8.946193106194876e-05
-0.007546556520724798   -0.009454921018953837   6.231901598398227e-05
-0.0026317420125472946   -0.009427673868796872   0.00018470921339791858
-0.007002681099832684   -0.019002428706151084   -0.00013139616804144427
-0.006863465642409636   -0.019172612950456365   -0.00020814223760044155
-0.007335408734622252   -0.009703267060587375   -6.252194427762576e-05
-0.011985336972546447   -0.01916609078686897   -0.0003517847148759435
-0.006931891334386697   -0.01908919364027998   -0.00017158579734323617
-0.007335408734622252   -0.009703267060587375   -6.252194427762576e-05
-0.012332721171105112   -0.00981384178409756   -0.0002026259641153438
-0.011985336972546447   -0.01916609078686897   -0.0003517847148759435
-0.012395069309373225   -0.009738119374756622   -0.00017262662311462785
-0.006931891334386697   -0.01908919364027998   -0.00017158579734323617
-0.012050765436383068   -0.019092976248168844   -0.00031688130136653554
-0.012395069309373225   -0.009738119374756622   -0.00017262662311462785
-0.011985336972546447   -0.01916609078686897   -0.0003517847148759435
-0.006931891334386697   -0.01908919364027998   -0.00017158579734323617
-0.012395069309373225   -0.009738119374756622   -0.00017262662311462785
-0.007404801752986741   -0.00962952195339859   -2.3829330403019812e-05
-0.007335408734622252   -0.009703267060587375   -6.252194427762576e-05
-0.006931891334386697   -0.01908919364027998   -0.00017158579734323617
-0.012395069309373225   -0.009738119374756622   -0.00017262662311462785
-0.007335408734622252   -0.009703267060587375   -6.252194427762576e-05
-0.011985336972546447   -0.01916609078686897   -0.0003517847148759435
-0.006931891334386697   -0.01908919364027998   -0.00017158579734323617
-0.007404801752986741   -0.00962952195339859   -2.3829330403019812e-05
-0.012050765436383068   -0.019092976248168844   -0.00031688130136653554
-0.007002681099832684   -0.019002428706151084   -0.00013139616804144427
-0.007404801752986741   -0.00962952195339859   -2.3829330403019812e-05
-0.012395069309373225   -0.009738119374756622   -0.00017262662311462785
-0.012050765436383068   -0.019092976248168844   -0.00031688130136653554
-0.012454763329742507   -0.009658127691433628   -0.000142714973900694
-0.007002681099832684   -0.019002428706151084   -0.00013139616804144427
-0.012113093784957932   -0.01901855038085474   -0.0002787998868133517
-0.012454763329742507   -0.009658127691433628   -0.000142714973900694
-0.012050765436383068   -0.019092976248168844   -0.00031688130136653554
-0.007002681099832684   -0.019002428706151084   -0.00013139616804144427
-0.012454763329742507   -0.009658127691433628   -0.000142714973900694
-0.007477466046244029   -0.009546220166444479   1.713412692411671e-05
-0.007404801752986741   -0.00962952195339859   -2.3829330403019812e-05
-0.007002681099832684   -0.019002428706151084   -0.00013139616804144427
-0.012454763329742507   -0.009658127691433628   -0.000142714973900694
-0.007404801752986741   -0.00962952195339859   -2.3829330403019812e-05
-0.012050765436383068   -0.019092976248168844   -0.00031688130136653554
-0.007002681099832684   -0.019002428706151084   -0.00013139616804144427
-0.007477466046244029   -0.009546220166444479   1.713412692411671e-05
-0.012113093784957932   -0.01901855038085474   -0.0002787998868133517
-0.0070763857272102115   -0.018913879702860483   -8.684871153868497e-05
-0.007477466046244029   -0.009546220166444479   1.713412692411671e-05
-0.012454763329742507   -0.009658127691433628   -0.000142714973900694
-0.012113093784957932   -0.01901855038085474   -0.0002787998868133517
-0.012509799048136963   -0.00957150823743707   -0.00011013980045362245
-0.0070763857272102115   -0.018913879702860483   -8.684871153868497e-05
-0.012174795860324727   -0.018942386937522124   -0.000237719658140325
-0.012509799048136963   -0.00957150823743707   -0.00011013980045362245
-0.012113093784957932   -0.01901855038085474   -0.0002787998868133517
-0.0070763857272102115   -0.018913879702860483   -8.684871153868497e-05
-0.012509799048136963   -0.00957150823743707   -0.00011013980045362245
-0.007546556520724798   -0.009454921018953837   6.231901598398227e-05
-0.007477466046244029   -0.009546220166444479   1.713412692411671e-05
-0.0070763857272102115   -0.018913879702860483   -8.684871153868497e-05
-0.012509799048136963   -0.00957150823743707   -0.00011013980045362245
-0.007477466046244029   -0.009546220166444479   1.713412692411671e-05
-0.012113093784957932   -0.01901855038085474   -0.0002787998868133517
-0.011985336972546447   -0.01916609078686897   -0.0003517847148759435
-0.012332721171105112   -0.00981384178409756   -0.0002026259641153438
-0.017215738815647107   -0.01913629355880735   -0.0004723682797035844
-0.012050765436383068   -0.019092976248168844   -0.00031688130136653554
-0.012332721171105112   -0.00981384178409756   -0.0002026259641153438
-0.017505577708341206   -0.009859225101975936   -0.0003319472537284579
-0.017215738815647107   -0.01913629355880735   -0.0004723682797035844
-0.01756175319992846   -0.009791234794705872   -0.0003100664284037598
-0.012050765436383068   -0.019092976248168844   -0.00031688130136653554
-0.017278112704345403   -0.019076757901959722   -0.00043929774447537203
-0.01756175319992846   -0.009791234794705872   -0.0003100664284037598
-0.017215738815647107   -0.01913629355880735   -0.0004723682797035844
-0.012050765436383068   -0.019092976248168844   -0.00031688130136653554
-0.01756175319992846   -0.009791234794705872   -0.0003100664284037598
-0.012395069309373225   -0.009738119374756622   -0.00017262662311462785
-0.012332721171105112   -0.00981384178409756   -0.0002026259641153438
-0.012050765436383068   -0.019092976248168844   -0.00031688130136653554
-0.01756175319992846   -0.009791234794705872   -0.0003100664284037598
-0.012332721171105112   -0.00981384178409756   -0.0002026259641153438
-0.017215738815647107   -0.01913629355880735   -0.0004723682797035844
-0.012050765436383068   -0.019092976248168844   -0.00031688130136653554
-0.012395069309373225   -0.009738119374756622   -0.00017262662311462785
-0.017278112704345403   -0.019076757901959722   -0.00043929774447537203
-0.012113093784957932   -0.01901855038085474   -0.0002787998868133517
-0.012395069309373225   -0.009738119374756622   -0.00017262662311462785
-0.01756175319992846   -0.009791234794705872   -0.0003100664284037598
-0.017278112704345403   -0.019076757901959722   -0.00043929774447537203
-0.01761181261349512   -0.009717162388882395   -0.0002888007933099983
-0.012113093784957932   -0.01901855038085474   -0.0002787998868133517
-0.017330948174522454   -0.01901396066248381   -0.0004039674609127431
-0.01761181261349512   -0.009717162388882395   -0.0002888007933099983
-0.017278112704345403   -0.019076757901959722   -0.00043929774447537203
-0.012113093784957932   -0.01901855038085474   -0.0002787998868133517
-0.01761181261349512   -0.009717162388882395   -0.0002888007933099983
-0.012454763329742507   -0.009658127691433628   -0.000142714973900694
-0.012395069309373225   -0.009738119374756622   -0.00017262662311462785
-0.012113093784957932   -0.01901855038085474   -0.0002787998868133517
-0.01761181261349512   -0.009717162388882395   -0.0002888007933099983
-0.012395069309373225   -0.009738119374756622   -0.00017262662311462785
-0.017278112704345403   -0.019076757901959722   -0.00043929774447537203
-0.012113093784957932   -0.01901855038085474   -0.0002787998868133517
-0.012454763329742507   -0.009658127691433628   -0.000142714973900694
-0.017330948174522454   -0.01901396066248381   -0.0004039674609127431
-0.012174795860324727   -0.018942386937522124   -0.000237719658140325
-0.012454763329742507   -0.009658127691433628   -0.000142714973900694
-0.01761181261349512   -0.009717162388882395   -0.0002888007933099983
-0.017330948174522454   -0.01901396066248381   -0.0004039674609127431
-0.017657146387652627   -0.009638303622800626   -0.00026689368255617866
-0.012174795860324727   -0.018942386937522124   -0.000237719658140325
-0.017380884652401007   -0.018949520466461964   -0.0003653960225279947
-0.017657146387652627   -0.009638303622800626   -0.00026689368255617866
-0.017330948174522454   -0.01901396066248381   -0.0004039674609127431
-0.012174795860324727   -0.018942386937522124   -0.000237719658140325
-0.017657146387652627   -0.009638303622800626   -0.00026689368255617866
-0.012509799048136963   -0.00957150823743707   -0.00011013980045362245
-0.012454763329742507   -0.009658127691433628   -0.000142714973900694
-0.012174795860324727   -0.018942386937522124   -0.000237719658140325
-0.017657146387652627   -0.009638303622800626   -0.00026689368255617866
-0.012454763329742507   -0.009658127691433628   -0.000142714973900694
-0.017330948174522454   -0.01901396066248381   -0.0004039674609127431
-0.017215738815647107   -0.01913629355880735   -0.0004723682797035844
-0.017505577708341206   -0.009859225101975936   -0.0003319472537284579
-0.02269488905953085   -0.01908716370889863   -0.000561464872913506
-0.017278112704345403   -0.019076757901959722   -0.00043929774447537203
-0.017505577708341206   -0.009859225101975936   -0.0003319472537284579
-0.022862837515185388   -0.009864286950357615   -0.00043924295125060564
-0.02269488905953085   -0.01908716370889863   -0.000561464872913506
-0.022911090277077262   -0.00979829922782776   -0.0004298267471240507
-0.017278112704345403   -0.019076757901959722   -0.00043929774447537203
-0.022733581267955195   -0.01903724015843624   -0.0005366155971397554
-0.022911090277077262   -0.00979829922782776   -0.0004298267471240507
-0.02269488905953085   -0.01908716370889863   -0.000561464872913506
-0.017278112704345403   -0.019076757901959722   -0.00043929774447537203
-0.022911090277077262   -0.00979829922782776   -0.0004298267471240507
-0.01756175319992846   -0.009791234794705872   -0.0003100664284037598
-0.017505577708341206   -0.009859225101975936   -0.0003319472537284579
-0.017278112704345403   -0.019076757901959722   -0.00043929774447537203
-0.022911090277077262   -0.00979829922782776   -0.0004298267471240507
-0.017505577708341206   -0.009859225101975936   -0.0003319472537284579
-0.02269488905953085   -0.01908716370889863   -0.000561464872913506
-0.017278112704345403   -0.019076757901959722   -0.00043929774447537203
-0.01756175319992846   -0.009791234794705872   -0.0003100664284037598
-0.022733581267955195   -0.01903724015843624   -0.0005366155971397554
-0.017330948174522454   -0.01901396066248381   -0.0004039674609127431
-0.01756175319992846   -0.009791234794705872   -0.0003100664284037598
-0.022911090277077262   -0.00979829922782776   -0.0004298267471240507
-0.022733581267955195   -0.01903724015843624   -0.0005366155971397554
-0.02295432054234204   -0.009726935483453412   -0.0004188098517265631
-0.017330948174522454   -0.01901396066248381   -0.0004039674609127431
-0.022768960884131273   -0.018980727450545156   -0.0005062288079377604
-0.02295432054234204   -0.009726935483453412   -0.0004188098517265631
-0.022733581267955195   -0.01903724015843624   -0.0005366155971397554
-0.017330948174522454   -0.01901396066248381   -0.0004039674609127431
-0.02295432054234204   -0.009726935483453412   -0.0004188098517265631
-0.01761181261349512   -0.009717162388882395   -0.0002888007933099983
-0.01756175319992846   -0.009791234794705872   -0.0003100664284037598
-0.017330948174522454   -0.01901396066248381   -0.0004039674609127431
-0.02295432054234204   -0.009726935483453412   -0.0004188098517265631
-0.01756175319992846   -0.009791234794705872   -0.0003100664284037598
-0.022733581267955195   -0.01903724015843624   -0.0005366155971397554
-0.017330948174522454   -0.01901396066248381   -0.0004039674609127431
-0.01761181261349512   -0.009717162388882395   -0.0002888007933099983
-0.022768960884131273   -0.018980727450545156   -0.0005062288079377604
-0.017380884652401007   -0.018949520466461964   -0.0003653960225279947
-0.01761181261349512   -0.009717162388882395   -0.0002888007933099983
-0.02295432054234204   -0.009726935483453412   -0.0004188098517265631
-0.022768960884131273   -0.018980727450545156   -0.0005062288079377604
-0.02299065674037302   -0.009651371486436551   -0.00040854948964675974
-0.017380884652401007   -0.018949520466461964   -0.0003653960225279947
-0.022786024881037478   -0.0189289340924694   -0.00047168543235764156
-0.02299065674037302   -0.009651371486436551   -0.00040854948964675974
-0.022768960884131273   -0.018980727450545156   -0.0005062288079377604
-0.017380884652401007   -0.018949520466461964   -0.0003653960225279947
-0.02299065674037302   -0.009651371486436551   -0.00040854948964675974
-0.017657146387652627   -0.009638303622800626   -0.00026689368255617866
-0.01761181261349512   -0.009717162388882395   -0.0002888007933099983
-0.017380884652401007   -0.018949520466461964   -0.0003653960225279947
-0.02299065674037302   -0.009651371486436551   -0.00040854948964675974
-0.01761181261349512   -0.009717162388882395   -0.0002888007933099983
-0.022768960884131273   -0.018980727450545156   -0.0005062288079377604
0.002668584527188522   -0.009687031084223854   0.00012449310675199146
0.0   0.0   0.0
-0.0024574064934046102   -0.009561725688124745   6.380631320373427e-05
0.0024338264016972163   -0.009564342925649767   0.0002595831188405699
0.0   0.0   0.0
-0.0030847448673634896   -0.0007825148361087554   -2.5900246508420785e-05
-0.0024574064934046102   -0.009561725688124745   6.380631320373427e-05
-0.003269058743431307   -0.0006082253915582095   8.039993742903873e-05
0.0024338264016972163   -0.009564342925649767   0.0002595831188405699
-0.0025327118302546324   -0.009513594655537102   0.00011839982856329038
-0.003269058743431307   -0.0006082253915582095   8.039993742903873e-05
-0.0024574064934046102   -0.009561725688124745   6.380631320373427e-05
0.0024338264016972163   -0.009564342925649767   0.0002595831188405699
-0.003269058743431307   -0.0006082253915582095   8.039993742903873e-05
0.0   0.0   0.0
0.0   0.0   0.0
0.0024338264016972163   -0.009564342925649767   0.0002595831188405699
-0.003269058743431307   -0.0006082253915582095   8.039993742903873e-05
0.0   0.0   0.0
-0.0024574064934046102   -0.009561725688124745   6.380631320373427e-05
0.0024338264016972163   -0.009564342925649767   0.0002595831188405699
0.0   0.0   0.0
-0.0025327118302546324   -0.009513594655537102   0.00011839982856329038
0.0022963839069296724   -0.009464084899759688   0.0003603625372575808
0.0   0.0   0.0
-0.003269058743431307   -0.0006082253915582095   8.039993742903873e-05
-0.0025327118302546324   -0.009513594655537102   0.00011839982856329038
-0.0033847451099798783   -0.000524245262191776   0.00014177564964578984
0.0022963839069296724   -0.009464084899759688   0.0003603625372575808
-0.0026317420125472946   -0.009427673868796872   0.00018470921339791858
-0.0033847451099798783   -0.000524245262191776   0.00014177564964578984
-0.0025327118302546324   -0.009513594655537102   0.00011839982856329038
0.0022963839069296724   -0.009464084899759688   0.0003603625372575808
-0.0033847451099798783   -0.000524245262191776   0.00014177564964578984
0.0   0.0   0.0
0.0   0.0   0.0
0.0022963839069296724   -0.009464084899759688   0.0003603625372575808
-0.0033847451099798783   -0.000524245262191776   0.00014177564964578984
0.0   0.0   0.0
-0.0025327118302546324   -0.009513594655537102   0.00011839982856329038
0.0022963839069296724   -0.009464084899759688   0.0003603625372575808
0.0   0.0   0.0
-0.0026317420125472946   -0.009427673868796872   0.00018470921339791858
0.0021202027739249097   -0.009310763629158409   0.0004757745286881348
0.0   0.0   0.0
-0.0033847451099798783   -0.000524245262191776   0.00014177564964578984
-0.0026317420125472946   -0.009427673868796872   0.00018470921339791858
-0.003539869872497575   -0.00041271881272940284   0.0002122273350091696
0.0021202027739249097   -0.009310763629158409   0.0004757745286881348
-0.0027150266476866423   -0.009335326381203496   0.00024307696893115547
-0.003539869872497575   -0.00041271881272940284   0.0002122273350091696
-0.0026317420125472946   -0.009427673868796872   0.00018470921339791858
0.0021202027739249097   -0.009310763629158409   0.0004757745286881348
-0.003539869872497575   -0.00041271881272940284   0.0002122273350091696
0.0   0.0   0.0
0.0   0.0   0.0
0.0021202027739249097   -0.009310763629158409   0.0004757745286881348
-0.003539869872497575   -0.00041271881272940284   0.0002122273350091696
0.0   0.0   0.0
-0.0026317420125472946   -0.009427673868796872   0.00018470921339791858
-0.0024574064934046102   -0.009561725688124745   6.380631320373427e-05
-0.0030847448673634896   -0.0007825148361087554   -2.5900246508420785e-05
-0.007335408734622252   -0.009703267060587375   -6.252194427762576e-05
-0.0025327118302546324   -0.009513594655537102   0.00011839982856329038
-0.0030847448673634896   -0.0007825148361087554   -2.5900246508420785e-05
-0.007553931535572227   -0.0010251226628648126   -2.4316775106160095e-05
-0.007335408734622252   -0.009703267060587375   -6.252194427762576e-05
-0.007648921119350382   -0.0009298692152950745   2.9368860494163827e-06
-0.0025327118302546324   -0.009513594655537102   0.00011839982856329038
-0.007404801752986741   -0.00962952195339859   -2.3829330403019812e-05
-0.007648921119350382   -0.0009298692152950745   2.9368860494163827e-06
-0.007335408734622252   -0.009703267060587375   -6.252194427762576e-05
-0.0025327118302546324   -0.009513594655537102   0.00011839982856329038
-0.007648921119350382   -0.0009298692152950745   2.9368860494163827e-06
-0.003269058743431307   -0.0006082253915582095   8.039993742903873e-05
-0.0030847448673634896   -0.0007825148361087554   -2.5900246508420785e-05
-0.0025327118302546324   -0.009513594655537102   0.00011839982856329038
-0.007648921119350382   -0.0009298692152950745   2.9368860494163827e-06
-0.0030847448673634896   -0.0007825148361087554   -2.5900246508420785e-05
-0.007335408734622252   -0.009703267060587375   -6.252194427762576e-05
-0.0025327118302546324   -0.009513594655537102   0.00011839982856329038
-0.003269058743431307   -0.0006082253915582095   8.039993742903873e-05
-0.007404801752986741   -0.00962952195339859   -2.3829330403019812e-05
-0.0026317420125472946   -0.009427673868796872   0.00018470921339791858
-0.003269058743431307   -0.0006082253915582095   8.039993742903873e-05
-0.007648921119350382   -0.0009298692152950745   2.9368860494163827e-06
-0.007404801752986741   -0.00962952195339859   -2.3829330403019812e-05
-0.00774351583089747   -0.0008184187857008633   5.1752040015603585e-05
-0.0026317420125472946   -0.009427673868796872   0.00018470921339791858
-0.007477466046244029   -0.009546220166444479   1.713412692411671e-05
-0.00774351583089747   -0.0008184187857008633   5.1752040015603585e-05
-0.007404801752986741   -0.00962952195339859   -2.3829330403019812e-05
-0.0026317420125472946   -0.009427673868796872   0.00018470921339791858
-0.00774351583089747   -0.0008184187857008633   5.1752040015603585e-05
-0.0033847451099798783   -0.000524245262191776   0.00014177564964578984
-0.003269058743431307   -0.0006082253915582095   8.039993742903873e-05
-0.0026317420125472946   -0.009427673868796872   0.00018470921339791858
-0.00774351583089747   -0.0008184187857008633   5.1752040015603585e-05
-0.003269058743431307   -0.0006082253915582095   8.039993742903873e-05
-0.007404801752986741   -0.00962952195339859   -2.3829330403019812e-05
-0.0026317420125472946   -0.009427673868796872   0.00018470921339791858
-0.0033847451099798783   -0.000524245262191776   0.00014177564964578984
-0.007477466046244029   -0.009546220166444479   1.713412692411671e-05
-0.0027150266476866423   -0.009335326381203496   0.00024307696893115547
-0.0033847451099798783   -0.000524245262191776   0.00014177564964578984
-0.00774351583089747   -0.0008184187857008633   5.1752040015603585e-05
-0.007477466046244029   -0.009546220166444479   1.713412692411671e-05
-0.007848281051123878   -0.0006895651857331955   9.849436794946913e-05
-0.0027150266476866423   -0.009335326381203496   0.00024307696893115547
-0.007546556520724798   -0.009454921018953837   6.231901598398227e-05
-0.007848281051123878   -0.0006895651857331955   9.849436794946913e-05
-0.007477466046244029   -0.009546220166444479   1.713412692411671e-05
-0.0027150266476866423   -0.009335326381203496   0.00024307696893115547
-0.007848281051123878   -0.0006895651857331955   9.849436794946913e-05
-0.003539869872497575   -0.00041271881272940284   0.0002122273350091696
-0.0033847451099798783   -0.000524245262191776   0.00014177564964578984
-0.0027150266476866423   -0.009335326381203496   0.00024307696893115547
-0.007848281051123878   -0.0006895651857331955   9.849436794946913e-05
-0.0033847451099798783   -0.000524245262191776   0.00014177564964578984
-0.007477466046244029   -0.009546220166444479   1.713412692411671e-05
-0.007335408734622252   -0.009703267060587375   -6.252194427762576e-05
-0.007553931535572227   -0.0010251226628648126   -2.4316775106160095e-05
-0.012332721171105112   -0.00981384178409756   -0.0002026259641153438
-0.007404801752986741   -0.00962952195339859   -2.3829330403019812e-05
-0.007553931535572227   -0.0010251226628648126   -2.4316775106160095e-05
-0.01245464366777575   -0.0010929197349550616   -0.00011297827984330444
-0.012332721171105112   -0.00981384178409756   -0.0002026259641153438
-0.012512266561178742   -0.001018607251277289   -0.00010545434098235842
-0.007404801752986741   -0.00962952195339859   -2.3829330403019812e-05
-0.012395069309373225   -0.009738119374756622   -0.00017262662311462785
-0.012512266561178742   -0.001018607251277289   -0.00010545434098235842
-0.012332721171105112   -0.00981384178409756   -0.0002026259641153438
-0.007404801752986741   -0.00962952195339859   -2.3829330403019812e-05
-0.012512266561178742   -0.001018607251277289   -0.00010545434098235842
-0.007648921119350382   -0.0009298692152950745   2.9368860494163827e-06
-0.007553931535572227   -0.0010251226628648126   -2.4316775106160095e-05
-0.007404801752986741   -0.00962952195339859   -2.3829330403019812e-05
-0.012512266561178742   -0.001018607251277289   -0.00010545434098235842
-0.007553931535572227   -0.0010251226628648126   -2.4316775106160095e-05
-0.012332721171105112   -0.00981384178409756   -0.0002026259641153438
-0.007404801752986741   -0.00962952195339859   -2.3829330403019812e-05
-0.007648921119350382   -0.0009298692152950745   2.9368860494163827e-06
-0.012395069309373225   -0.009738119374756622   -0.00017262662311462785
-0.007477466046244029   -0.009546220166444479   1.713412692411671e-05
-0.007648921119350382   -0.0009298692152950745   2.9368860494163827e-06
-0.012512266561178742   -0.001018607251277289   -0.00010545434098235842
-0.012395069309373225   -0.009738119374756622   -0.00017262662311462785
-0.01257218134129454   -0.0009323740212603044   -9.223561834684434e-05
-0.007477466046244029   -0.009546220166444479   1.713412692411671e-05
-0.012454763329742507   -0.009658127691433628   -0.000142714973900694
-0.01257218134129454   -0.0009323740212603044   -9.223561834684434e-05
-0.012395069309373225   -0.009738119374756622   -0.00017262662311462785
-0.007477466046244029   -0.009546220166444479   1.713412692411671e-05
-0.01257218134129454   -0.0009323740212603044   -9.223561834684434e-05
-0.00774351583089747   -0.0008184187857008633   5.1752040015603585e-05
-0.007648921119350382   -0.0009298692152950745   2.9368860494163827e-06
-0.007477466046244029   -0.009546220166444479   1.713412692411671e-05
-0.01257218134129454   -0.0009323740212603044   -9.223561834684434e-05
-0.007648921119350382   -0.0009298692152950745   2.9368860494163827e-06
-0.012395069309373225   -0.009738119374756622   -0.00017262662311462785
-0.007477466046244029   -0.009546220166444479   1.713412692411671e-05
-0.00774351583089747   -0.0008184187857008633   5.1752040015603585e-05
-0.012454763329742507   -0.009658127691433628   -0.000142714973900694
-0.007546556520724798   -0.009454921018953837   6.231901598398227e-05
-0.00774351583089747   -0.0008184187857008633   5.1752040015603585e-05
-0.01257218134129454   -0.0009323740212603044   -9.223561834684434e-05
-0.012454763329742507   -0.009658127691433628   -0.000142714973900694
-0.012629044022886586   -0.000827483962682677   -7.474565389435026e-05
-0.007546556520724798   -0.009454921018953837   6.231901598398227e-05
-0.012509799048136963   -0.00957150823743707   -0.00011013980045362245
-0.012629044022886586   -0.000827483962682677   -7.474565389435026e-05
-0.012454763329742507   -0.009658127691433628   -0.000142714973900694
-0.007546556520724798   -0.009454921018953837   6.231901598398227e-05
-0.012629044022886586   -0.000827483962682677   -7.474565389435026e-05
-0.007848281051123878   -0.0006895651857331955   9.849436794946913e-05
-0.00774351583089747   -0.0008184187857008633   5.1752040015603585e-05
-0.007546556520724798   -0.009454921018953837   6.231901598398227e-05
-0.012629044022886586   -0.000827483962682677   -7.474565389435026e-05
-0.00774351583089747   -0.0008184187857008633   5.1752040015603585e-05
-0.012454763329742507   -0.009658127691433628   -0.000142714973900694
-0.012332721171105112   -0.00981384178409756   -0.0002026259641153438
-0.01245464366777575   -0.0010929197349550616   -0.00011297827984330444
-0.017505577708341206   -0.009859225101975936   -0.0003319472537284579
-0.012395069309373225   -0.009738119374756622   -0.00017262662311462785
-0.01245464366777575   -0.0010929197349550616   -0.00011297827984330444
-0.017596157647763063   -0.0010812727912803115   -0.0002404090126573515
-0.017505577708341206   -0.009859225101975936   -0.0003319472537284579
-0.017635074249030377   -0.0010144686976865426   -0.00023719157605079207
-0.012395069309373225   -0.009738119374756622   -0.00017262662311462785
-0.01756175319992846   -0.009791234794705872   -0.0003100664284037598
-0.017635074249030377   -0.0010144686976865426   -0.00023719157605079207
-0.017505577708341206   -0.009859225101975936   -0.0003319472537284579
-0.012395069309373225   -0.009738119374756622   -0.00017262662311462785
-0.017635074249030377   -0.0010144686976865426   -0.00023719157605079207
-0.012512266561178742   -0.001018607251277289   -0.00010545434098235842
-0.01245464366777575   -0.0010929197349550616   -0.00011297827984330444
-0.012395069309373225   -0.009738119374756622   -0.00017262662311462785
-0.017635074249030377   -0.0010144686976865426   -0.00023719157605079207
-0.01245464366777575   -0.0010929197349550616   -0.00011297827984330444
-0.017505577708341206   -0.009859225101975936   -0.0003319472537284579
-0.012395069309373225   -0.009738119374756622   -0.00017262662311462785
-0.012512266561178742   -0.001018607251277289   -0.00010545434098235842
-0.01756175319992846   -0.009791234794705872   -0.0003100664284037598
-0.012454763329742507   -0.009658127691433628   -0.000142714973900694
-0.012512266561178742   -0.001018607251277289   -0.00010545434098235842
-0.017635074249030377   -0.0010144686976865426   -0.00023719157605079207
-0.01756175319992846   -0.009791234794705872   -0.0003100664284037598
-0.017675676303745967   -0.0009401291197565865   -0.00023497472994580456
-0.012454763329742507   -0.009658127691433628   -0.000142714973900694
-0.01761181261349512   -0.009717162388882395   -0.0002888007933099983
-0.017675676303745967   -0.0009401291197565865   -0.00023497472994580456
-0.01756175319992846   -0.009791234794705872   -0.0003100664284037598
-0.012454763329742507   -0.009658127691433628   -0.000142714973900694
-0.017675676303745967   -0.0009401291197565865   -0.00023497472994580456
-0.01257218134129454   -0.0009323740212603044   -9.223561834684434e-05
-0.012512266561178742   -0.001018607251277289   -0.00010545434098235842
-0.012454763329742507   -0.009658127691433628   -0.000142714973900694
-0.017675676303745967   -0.0009401291197565865   -0.00023497472994580456
-0.012512266561178742   -0.001018607251277289   -0.00010545434098235842
-0.01756175319992846   -0.009791234794705872   -0.0003100664284037598
-0.012454763329742507   -0.009658127691433628   -0.000142714973900694
-0.01257218134129454   -0.0009323740212603044   -9.223561834684434e-05
-0.01761181261349512   -0.009717162388882395   -0.0002888007933099983
-0.012509799048136963   -0.00957150823743707   -0.00011013980045362245
-0.01257218134129454   -0.0009323740212603044   -9.223561834684434e-05
-0.017675676303745967   -0.0009401291197565865   -0.00023497472994580456
-0.01761181261349512   -0.009717162388882395   -0.0002888007933099983
-0.017706505501484424   -0.0008596557536495771   -0.00023393331701560585
-0.012509799048136963   -0.00957150823743707   -0.00011013980045362245
-0.017657146387652627   -0.009638303622800626   -0.00026689368255617866
-0.017706505501484424   -0.0008596557536495771   -0.00023393331701560585
-0.01761181261349512   -0.009717162388882395   -0.0002888007933099983
-0.012509799048136963   -0.00957150823743707   -0.00011013980045362245
-0.017706505501484424   -0.0008596557536495771   -0.00023393331701560585
-0.012629044022886586   -0.000827483962682677   -7.474565389435026e-05
-0.01257218134129454   -0.0009323740212603044   -9.223561834684434e-05
-0.012509799048136963   -0.00957150823743707   -0.00011013980045362245
-0.017706505501484424   -0.0008596557536495771   -0.00023393331701560585
-0.01257218134129454   -0.0009323740212603044   -9.223561834684434e-05
-0.01761181261349512   -0.009717162388882395   -0.0002888007933099983
-0.017505577708341206   -0.009859225101975936   -0.0003319472537284579
-0.017596157647763063   -0.0010812727912803115   -0.0002404090126573515
-0.022862837515185388   -0.009864286950357615   -0.00043924295125060564
-0.01756175319992846   -0.009791234794705872   -0.0003100664284037598
-0.017596157647763063   -0.0010812727912803115   -0.0002404090126573515
-0.022879729074177995   -0.0010735011376881024   -0.0003658502836313009
-0.022862837515185388   -0.009864286950357615   -0.00043924295125060564
-0.022911035597148948   -0.0010010275462311517   -0.000365797338336519
-0.01756175319992846   -0.009791234794705872   -0.0003100664284037598
-0.022911090277077262   -0.00979829922782776   -0.0004298267471240507
-0.022911035597148948   -0.0010010275462311517   -0.000365797338336519
-0.022862837515185388   -0.009864286950357615   -0.00043924295125060564
-0.01756175319992846   -0.009791234794705872   -0.0003100664284037598
-0.022911035597148948   -0.0010010275462311517   -0.000365797338336519
-0.017635074249030377   -0.0010144686976865426   -0.00023719157605079207
-0.017596157647763063   -0.0010812727912803115   -0.0002404090126573515
-0.01756175319992846   -0.009791234794705872   -0.0003100664284037598
-0.022911035597148948   -0.0010010275462311517   -0.000365797338336519
-0.017596157647763063   -0.0010812727912803115   -0.0002404090126573515
-0.022862837515185388   -0.009864286950357615   -0.00043924295125060564
-0.01756175319992846   -0.009791234794705872   -0.0003100664284037598
-0.017635074249030377   -0.0010144686976865426   -0.00023719157605079207
-0.022911090277077262   -0.00979829922782776   -0.0004298267471240507
-0.01761181261349512   -0.009717162388882395   -0.0002888007933099983
-0.017635074249030377   -0.0010144686976865426   -0.00023719157605079207
-0.022911035597148948   -0.0010010275462311517   -0.000365797338336519
-0.022911090277077262   -0.00979829922782776   -0.0004298267471240507
-0.022945402948279892   -0.0009286367138958873   -0.00037139887467635744
-0.01761181261349512   -0.009717162388882395   -0.0002888007933099983
-0.02295432054234204   -0.009726935483453412   -0.0004188098517265631
-0.022945402948279892   -0.0009286367138958873   -0.00037139887467635744
-0.022911090277077262   -0.00979829922782776   -0.0004298267471240507
-0.01761181261349512   -0.009717162388882395   -0.0002888007933099983
-0.022945402948279892   -0.0009286367138958873   -0.00037139887467635744
-0.017675676303745967   -0.0009401291197565865   -0.00023497472994580456
-0.017635074249030377   -0.0010144686976865426   -0.00023719157605079207
-0.01761181261349512   -0.009717162388882395   -0.0002888007933099983
-0.022945402948279892   -0.0009286367138958873   -0.00037139887467635744
-0.017635074249030377   -0.0010144686976865426   -0.00023719157605079207
-0.022911090277077262   -0.00979829922782776   -0.0004298267471240507
-0.01761181261349512   -0.009717162388882395   -0.0002888007933099983
-0.017675676303745967   -0.0009401291197565865   -0.00023497472994580456
-0.02295432054234204   -0.009726935483453412   -0.0004188098517265631
-0.017657146387652627   -0.009638303622800626   -0.00026689368255617866
-0.017675676303745967   -0.0009401291197565865   -0.00023497472994580456
-0.022945402948279892   -0.0009286367138958873   -0.00037139887467635744
-0.02295432054234204   -0.009726935483453412   -0.0004188098517265631
-0.022970719512611835   -0.0008498313758037415   -0.00037735730436655376
-0.017657146387652627   -0.009638303622800626   -0.00026689368255617866
-0.02299065674037302   -0.009651371486436551   -0.00040854948964675974
-0.022970719512611835   -0.0008498313758037415   -0.00037735730436655376
-0.02295432054234204   -0.009726935483453412   -0.0004188098517265631
-0.017657146387652627   -0.009638303622800626   -0.00026689368255617866
-0.022970719512611835   -0.0008498313758037415   -0.00037735730436655376
-0.017706505501484424   -0.0008596557536495771   -0.00023393331701560585
-0.017675676303745967   -0.0009401291197565865   -0.00023497472994580456
-0.017657146387652627   -0.009638303622800626   -0.00026689368255617866
-0.022970719512611835   -0.0008498313758037415   -0.00037735730436655376
-0.017675676303745967   -0.0009401291197565865   -0.00023497472994580456
-0.02295432054234204   -0.009726935483453412   -0.0004188098517265631
              </DataArray>   
          </PointData>  
       </Piece>  
   </UnstructuredGrid> 
</VTKFile> 
