<?xml version="1.0"?> 
<VTKFile type="UnstructuredGrid"> 
   <UnstructuredGrid> 
      <Piece NumberOfPoints="6000"  NumberOfCells="1500">  
          <Points>  
             <DataArray type="Float64" NumberOfComponents="3" format="ascii">   
-500.0   0.0   0.0
-450.0   0.0   0.0
-500.0   30.0   0.0
-500.0   0.0   16.666666666666668
-450.0   0.0   0.0
-450.0   30.0   0.0
-500.0   30.0   0.0
-450.0   30.0   16.666666666666668
-500.0   0.0   16.666666666666668
-500.0   30.0   16.666666666666668
-450.0   30.0   16.666666666666668
-500.0   30.0   0.0
-500.0   0.0   16.666666666666668
-450.0   30.0   16.666666666666668
-450.0   0.0   16.666666666666668
-450.0   0.0   0.0
-500.0   0.0   16.666666666666668
-450.0   30.0   16.666666666666668
-450.0   0.0   0.0
-500.0   30.0   0.0
-500.0   0.0   16.666666666666668
-450.0   0.0   16.666666666666668
-500.0   30.0   16.666666666666668
-500.0   0.0   33.333333333333336
-450.0   0.0   16.666666666666668
-450.0   30.0   16.666666666666668
-500.0   30.0   16.666666666666668
-450.0   30.0   33.333333333333336
-500.0   0.0   33.333333333333336
-500.0   30.0   33.333333333333336
-450.0   30.0   33.333333333333336
-500.0   30.0   16.666666666666668
-500.0   0.0   33.333333333333336
-450.0   30.0   33.333333333333336
-450.0   0.0   33.333333333333336
-450.0   0.0   16.666666666666668
-500.0   0.0   33.333333333333336
-450.0   30.0   33.333333333333336
-450.0   0.0   16.666666666666668
-500.0   30.0   16.666666666666668
-500.0   0.0   33.333333333333336
-450.0   0.0   33.333333333333336
-500.0   30.0   33.333333333333336
-500.0   0.0   50.0
-450.0   0.0   33.333333333333336
-450.0   30.0   33.333333333333336
-500.0   30.0   33.333333333333336
-450.0   30.0   50.0
-500.0   0.0   50.0
-500.0   30.0   50.0
-450.0   30.0   50.0
-500.0   30.0   33.333333333333336
-500.0   0.0   50.0
-450.0   30.0   50.0
-450.0   0.0   50.0
-450.0   0.0   33.333333333333336
-500.0   0.0   50.0
-450.0   30.0   50.0
-450.0   0.0   33.333333333333336
-500.0   30.0   33.333333333333336
-500.0   30.0   0.0
-450.0   30.0   0.0
-500.0   60.0   0.0
-500.0   30.0   16.666666666666668
-450.0   30.0   0.0
-450.0   60.0   0.0
-500.0   60.0   0.0
-450.0   60.0   16.666666666666668
-500.0   30.0   16.666666666666668
-500.0   60.0   16.666666666666668
-450.0   60.0   16.666666666666668
-500.0   60.0   0.0
-500.0   30.0   16.666666666666668
-450.0   60.0   16.666666666666668
-450.0   30.0   16.666666666666668
-450.0   30.0   0.0
-500.0   30.0   16.666666666666668
-450.0   60.0   16.666666666666668
-450.0   30.0   0.0
-500.0   60.0   0.0
-500.0   30.0   16.666666666666668
-450.0   30.0   16.666666666666668
-500.0   60.0   16.666666666666668
-500.0   30.0   33.333333333333336
-450.0   30.0   16.666666666666668
-450.0   60.0   16.666666666666668
-500.0   60.0   16.666666666666668
-450.0   60.0   33.333333333333336
-500.0   30.0   33.333333333333336
-500.0   60.0   33.333333333333336
-450.0   60.0   33.333333333333336
-500.0   60.0   16.666666666666668
-500.0   30.0   33.333333333333336
-450.0   60.0   33.333333333333336
-450.0   30.0   33.333333333333336
-450.0   30.0   16.666666666666668
-500.0   30.0   33.333333333333336
-450.0   60.0   33.333333333333336
-450.0   30.0   16.666666666666668
-500.0   60.0   16.666666666666668
-500.0   30.0   33.333333333333336
-450.0   30.0   33.333333333333336
-500.0   60.0   33.333333333333336
-500.0   30.0   50.0
-450.0   30.0   33.333333333333336
-450.0   60.0   33.333333333333336
-500.0   60.0   33.333333333333336
-450.0   60.0   50.0
-500.0   30.0   50.0
-500.0   60.0   50.0
-450.0   60.0   50.0
-500.0   60.0   33.333333333333336
-500.0   30.0   50.0
-450.0   60.0   50.0
-450.0   30.0   50.0
-450.0   30.0   33.333333333333336
-500.0   30.0   50.0
-450.0   60.0   50.0
-450.0   30.0   33.333333333333336
-500.0   60.0   33.333333333333336
-500.0   60.0   0.0
-450.0   60.0   0.0
-500.0   90.0   0.0
-500.0   60.0   16.666666666666668
-450.0   60.0   0.0
-450.0   90.0   0.0
-500.0   90.0   0.0
-450.0   90.0   16.666666666666668
-500.0   60.0   16.666666666666668
-500.0   90.0   16.666666666666668
-450.0   90.0   16.666666666666668
-500.0   90.0   0.0
-500.0   60.0   16.666666666666668
-450.0   90.0   16.666666666666668
-450.0   60.0   16.666666666666668
-450.0   60.0   0.0
-500.0   60.0   16.666666666666668
-450.0   90.0   16.666666666666668
-450.0   60.0   0.0
-500.0   90.0   0.0
-500.0   60.0   16.666666666666668
-450.0   60.0   16.666666666666668
-500.0   90.0   16.666666666666668
-500.0   60.0   33.333333333333336
-450.0   60.0   16.666666666666668
-450.0   90.0   16.666666666666668
-500.0   90.0   16.666666666666668
-450.0   90.0   33.333333333333336
-500.0   60.0   33.333333333333336
-500.0   90.0   33.333333333333336
-450.0   90.0   33.333333333333336
-500.0   90.0   16.666666666666668
-500.0   60.0   33.333333333333336
-450.0   90.0   33.333333333333336
-450.0   60.0   33.333333333333336
-450.0   60.0   16.666666666666668
-500.0   60.0   33.333333333333336
-450.0   90.0   33.333333333333336
-450.0   60.0   16.666666666666668
-500.0   90.0   16.666666666666668
-500.0   60.0   33.333333333333336
-450.0   60.0   33.333333333333336
-500.0   90.0   33.333333333333336
-500.0   60.0   50.0
-450.0   60.0   33.333333333333336
-450.0   90.0   33.333333333333336
-500.0   90.0   33.333333333333336
-450.0   90.0   50.0
-500.0   60.0   50.0
-500.0   90.0   50.0
-450.0   90.0   50.0
-500.0   90.0   33.333333333333336
-500.0   60.0   50.0
-450.0   90.0   50.0
-450.0   60.0   50.0
-450.0   60.0   33.333333333333336
-500.0   60.0   50.0
-450.0   90.0   50.0
-450.0   60.0   33.333333333333336
-500.0   90.0   33.333333333333336
-500.0   90.0   0.0
-450.0   90.0   0.0
-500.0   120.0   0.0
-500.0   90.0   16.666666666666668
-450.0   90.0   0.0
-450.0   120.0   0.0
-500.0   120.0   0.0
-450.0   120.0   16.666666666666668
-500.0   90.0   16.666666666666668
-500.0   120.0   16.666666666666668
-450.0   120.0   16.666666666666668
-500.0   120.0   0.0
-500.0   90.0   16.666666666666668
-450.0   120.0   16.666666666666668
-450.0   90.0   16.666666666666668
-450.0   90.0   0.0
-500.0   90.0   16.666666666666668
-450.0   120.0   16.666666666666668
-450.0   90.0   0.0
-500.0   120.0   0.0
-500.0   90.0   16.666666666666668
-450.0   90.0   16.666666666666668
-500.0   120.0   16.666666666666668
-500.0   90.0   33.333333333333336
-450.0   90.0   16.666666666666668
-450.0   120.0   16.666666666666668
-500.0   120.0   16.666666666666668
-450.0   120.0   33.333333333333336
-500.0   90.0   33.333333333333336
-500.0   120.0   33.333333333333336
-450.0   120.0   33.333333333333336
-500.0   120.0   16.666666666666668
-500.0   90.0   33.333333333333336
-450.0   120.0   33.333333333333336
-450.0   90.0   33.333333333333336
-450.0   90.0   16.666666666666668
-500.0   90.0   33.333333333333336
-450.0   120.0   33.333333333333336
-450.0   90.0   16.666666666666668
-500.0   120.0   16.666666666666668
-500.0   90.0   33.333333333333336
-450.0   90.0   33.333333333333336
-500.0   120.0   33.333333333333336
-500.0   90.0   50.0
-450.0   90.0   33.333333333333336
-450.0   120.0   33.333333333333336
-500.0   120.0   33.333333333333336
-450.0   120.0   50.0
-500.0   90.0   50.0
-500.0   120.0   50.0
-450.0   120.0   50.0
-500.0   120.0   33.333333333333336
-500.0   90.0   50.0
-450.0   120.0   50.0
-450.0   90.0   50.0
-450.0   90.0   33.333333333333336
-500.0   90.0   50.0
-450.0   120.0   50.0
-450.0   90.0   33.333333333333336
-500.0   120.0   33.333333333333336
-500.0   120.0   0.0
-450.0   120.0   0.0
-500.0   150.0   0.0
-500.0   120.0   16.666666666666668
-450.0   120.0   0.0
-450.0   150.0   0.0
-500.0   150.0   0.0
-450.0   150.0   16.666666666666668
-500.0   120.0   16.666666666666668
-500.0   150.0   16.666666666666668
-450.0   150.0   16.666666666666668
-500.0   150.0   0.0
-500.0   120.0   16.666666666666668
-450.0   150.0   16.666666666666668
-450.0   120.0   16.666666666666668
-450.0   120.0   0.0
-500.0   120.0   16.666666666666668
-450.0   150.0   16.666666666666668
-450.0   120.0   0.0
-500.0   150.0   0.0
-500.0   120.0   16.666666666666668
-450.0   120.0   16.666666666666668
-500.0   150.0   16.666666666666668
-500.0   120.0   33.333333333333336
-450.0   120.0   16.666666666666668
-450.0   150.0   16.666666666666668
-500.0   150.0   16.666666666666668
-450.0   150.0   33.333333333333336
-500.0   120.0   33.333333333333336
-500.0   150.0   33.333333333333336
-450.0   150.0   33.333333333333336
-500.0   150.0   16.666666666666668
-500.0   120.0   33.333333333333336
-450.0   150.0   33.333333333333336
-450.0   120.0   33.333333333333336
-450.0   120.0   16.666666666666668
-500.0   120.0   33.333333333333336
-450.0   150.0   33.333333333333336
-450.0   120.0   16.666666666666668
-500.0   150.0   16.666666666666668
-500.0   120.0   33.333333333333336
-450.0   120.0   33.333333333333336
-500.0   150.0   33.333333333333336
-500.0   120.0   50.0
-450.0   120.0   33.333333333333336
-450.0   150.0   33.333333333333336
-500.0   150.0   33.333333333333336
-450.0   150.0   50.0
-500.0   120.0   50.0
-500.0   150.0   50.0
-450.0   150.0   50.0
-500.0   150.0   33.333333333333336
-500.0   120.0   50.0
-450.0   150.0   50.0
-450.0   120.0   50.0
-450.0   120.0   33.333333333333336
-500.0   120.0   50.0
-450.0   150.0   50.0
-450.0   120.0   33.333333333333336
-500.0   150.0   33.333333333333336
-450.0   0.0   0.0
-400.0   0.0   0.0
-450.0   30.0   0.0
-450.0   0.0   16.666666666666668
-400.0   0.0   0.0
-400.0   30.0   0.0
-450.0   30.0   0.0
-400.0   30.0   16.666666666666668
-450.0   0.0   16.666666666666668
-450.0   30.0   16.666666666666668
-400.0   30.0   16.666666666666668
-450.0   30.0   0.0
-450.0   0.0   16.666666666666668
-400.0   30.0   16.666666666666668
-400.0   0.0   16.666666666666668
-400.0   0.0   0.0
-450.0   0.0   16.666666666666668
-400.0   30.0   16.666666666666668
-400.0   0.0   0.0
-450.0   30.0   0.0
-450.0   0.0   16.666666666666668
-400.0   0.0   16.666666666666668
-450.0   30.0   16.666666666666668
-450.0   0.0   33.333333333333336
-400.0   0.0   16.666666666666668
-400.0   30.0   16.666666666666668
-450.0   30.0   16.666666666666668
-400.0   30.0   33.333333333333336
-450.0   0.0   33.333333333333336
-450.0   30.0   33.333333333333336
-400.0   30.0   33.333333333333336
-450.0   30.0   16.666666666666668
-450.0   0.0   33.333333333333336
-400.0   30.0   33.333333333333336
-400.0   0.0   33.333333333333336
-400.0   0.0   16.666666666666668
-450.0   0.0   33.333333333333336
-400.0   30.0   33.333333333333336
-400.0   0.0   16.666666666666668
-450.0   30.0   16.666666666666668
-450.0   0.0   33.333333333333336
-400.0   0.0   33.333333333333336
-450.0   30.0   33.333333333333336
-450.0   0.0   50.0
-400.0   0.0   33.333333333333336
-400.0   30.0   33.333333333333336
-450.0   30.0   33.333333333333336
-400.0   30.0   50.0
-450.0   0.0   50.0
-450.0   30.0   50.0
-400.0   30.0   50.0
-450.0   30.0   33.333333333333336
-450.0   0.0   50.0
-400.0   30.0   50.0
-400.0   0.0   50.0
-400.0   0.0   33.333333333333336
-450.0   0.0   50.0
-400.0   30.0   50.0
-400.0   0.0   33.333333333333336
-450.0   30.0   33.333333333333336
-450.0   30.0   0.0
-400.0   30.0   0.0
-450.0   60.0   0.0
-450.0   30.0   16.666666666666668
-400.0   30.0   0.0
-400.0   60.0   0.0
-450.0   60.0   0.0
-400.0   60.0   16.666666666666668
-450.0   30.0   16.666666666666668
-450.0   60.0   16.666666666666668
-400.0   60.0   16.666666666666668
-450.0   60.0   0.0
-450.0   30.0   16.666666666666668
-400.0   60.0   16.666666666666668
-400.0   30.0   16.666666666666668
-400.0   30.0   0.0
-450.0   30.0   16.666666666666668
-400.0   60.0   16.666666666666668
-400.0   30.0   0.0
-450.0   60.0   0.0
-450.0   30.0   16.666666666666668
-400.0   30.0   16.666666666666668
-450.0   60.0   16.666666666666668
-450.0   30.0   33.333333333333336
-400.0   30.0   16.666666666666668
-400.0   60.0   16.666666666666668
-450.0   60.0   16.666666666666668
-400.0   60.0   33.333333333333336
-450.0   30.0   33.333333333333336
-450.0   60.0   33.333333333333336
-400.0   60.0   33.333333333333336
-450.0   60.0   16.666666666666668
-450.0   30.0   33.333333333333336
-400.0   60.0   33.333333333333336
-400.0   30.0   33.333333333333336
-400.0   30.0   16.666666666666668
-450.0   30.0   33.333333333333336
-400.0   60.0   33.333333333333336
-400.0   30.0   16.666666666666668
-450.0   60.0   16.666666666666668
-450.0   30.0   33.333333333333336
-400.0   30.0   33.333333333333336
-450.0   60.0   33.333333333333336
-450.0   30.0   50.0
-400.0   30.0   33.333333333333336
-400.0   60.0   33.333333333333336
-450.0   60.0   33.333333333333336
-400.0   60.0   50.0
-450.0   30.0   50.0
-450.0   60.0   50.0
-400.0   60.0   50.0
-450.0   60.0   33.333333333333336
-450.0   30.0   50.0
-400.0   60.0   50.0
-400.0   30.0   50.0
-400.0   30.0   33.333333333333336
-450.0   30.0   50.0
-400.0   60.0   50.0
-400.0   30.0   33.333333333333336
-450.0   60.0   33.333333333333336
-450.0   60.0   0.0
-400.0   60.0   0.0
-450.0   90.0   0.0
-450.0   60.0   16.666666666666668
-400.0   60.0   0.0
-400.0   90.0   0.0
-450.0   90.0   0.0
-400.0   90.0   16.666666666666668
-450.0   60.0   16.666666666666668
-450.0   90.0   16.666666666666668
-400.0   90.0   16.666666666666668
-450.0   90.0   0.0
-450.0   60.0   16.666666666666668
-400.0   90.0   16.666666666666668
-400.0   60.0   16.666666666666668
-400.0   60.0   0.0
-450.0   60.0   16.666666666666668
-400.0   90.0   16.666666666666668
-400.0   60.0   0.0
-450.0   90.0   0.0
-450.0   60.0   16.666666666666668
-400.0   60.0   16.666666666666668
-450.0   90.0   16.666666666666668
-450.0   60.0   33.333333333333336
-400.0   60.0   16.666666666666668
-400.0   90.0   16.666666666666668
-450.0   90.0   16.666666666666668
-400.0   90.0   33.333333333333336
-450.0   60.0   33.333333333333336
-450.0   90.0   33.333333333333336
-400.0   90.0   33.333333333333336
-450.0   90.0   16.666666666666668
-450.0   60.0   33.333333333333336
-400.0   90.0   33.333333333333336
-400.0   60.0   33.333333333333336
-400.0   60.0   16.666666666666668
-450.0   60.0   33.333333333333336
-400.0   90.0   33.333333333333336
-400.0   60.0   16.666666666666668
-450.0   90.0   16.666666666666668
-450.0   60.0   33.333333333333336
-400.0   60.0   33.333333333333336
-450.0   90.0   33.333333333333336
-450.0   60.0   50.0
-400.0   60.0   33.333333333333336
-400.0   90.0   33.333333333333336
-450.0   90.0   33.333333333333336
-400.0   90.0   50.0
-450.0   60.0   50.0
-450.0   90.0   50.0
-400.0   90.0   50.0
-450.0   90.0   33.333333333333336
-450.0   60.0   50.0
-400.0   90.0   50.0
-400.0   60.0   50.0
-400.0   60.0   33.333333333333336
-450.0   60.0   50.0
-400.0   90.0   50.0
-400.0   60.0   33.333333333333336
-450.0   90.0   33.333333333333336
-450.0   90.0   0.0
-400.0   90.0   0.0
-450.0   120.0   0.0
-450.0   90.0   16.666666666666668
-400.0   90.0   0.0
-400.0   120.0   0.0
-450.0   120.0   0.0
-400.0   120.0   16.666666666666668
-450.0   90.0   16.666666666666668
-450.0   120.0   16.666666666666668
-400.0   120.0   16.666666666666668
-450.0   120.0   0.0
-450.0   90.0   16.666666666666668
-400.0   120.0   16.666666666666668
-400.0   90.0   16.666666666666668
-400.0   90.0   0.0
-450.0   90.0   16.666666666666668
-400.0   120.0   16.666666666666668
-400.0   90.0   0.0
-450.0   120.0   0.0
-450.0   90.0   16.666666666666668
-400.0   90.0   16.666666666666668
-450.0   120.0   16.666666666666668
-450.0   90.0   33.333333333333336
-400.0   90.0   16.666666666666668
-400.0   120.0   16.666666666666668
-450.0   120.0   16.666666666666668
-400.0   120.0   33.333333333333336
-450.0   90.0   33.333333333333336
-450.0   120.0   33.333333333333336
-400.0   120.0   33.333333333333336
-450.0   120.0   16.666666666666668
-450.0   90.0   33.333333333333336
-400.0   120.0   33.333333333333336
-400.0   90.0   33.333333333333336
-400.0   90.0   16.666666666666668
-450.0   90.0   33.333333333333336
-400.0   120.0   33.333333333333336
-400.0   90.0   16.666666666666668
-450.0   120.0   16.666666666666668
-450.0   90.0   33.333333333333336
-400.0   90.0   33.333333333333336
-450.0   120.0   33.333333333333336
-450.0   90.0   50.0
-400.0   90.0   33.333333333333336
-400.0   120.0   33.333333333333336
-450.0   120.0   33.333333333333336
-400.0   120.0   50.0
-450.0   90.0   50.0
-450.0   120.0   50.0
-400.0   120.0   50.0
-450.0   120.0   33.333333333333336
-450.0   90.0   50.0
-400.0   120.0   50.0
-400.0   90.0   50.0
-400.0   90.0   33.333333333333336
-450.0   90.0   50.0
-400.0   120.0   50.0
-400.0   90.0   33.333333333333336
-450.0   120.0   33.333333333333336
-450.0   120.0   0.0
-400.0   120.0   0.0
-450.0   150.0   0.0
-450.0   120.0   16.666666666666668
-400.0   120.0   0.0
-400.0   150.0   0.0
-450.0   150.0   0.0
-400.0   150.0   16.666666666666668
-450.0   120.0   16.666666666666668
-450.0   150.0   16.666666666666668
-400.0   150.0   16.666666666666668
-450.0   150.0   0.0
-450.0   120.0   16.666666666666668
-400.0   150.0   16.666666666666668
-400.0   120.0   16.666666666666668
-400.0   120.0   0.0
-450.0   120.0   16.666666666666668
-400.0   150.0   16.666666666666668
-400.0   120.0   0.0
-450.0   150.0   0.0
-450.0   120.0   16.666666666666668
-400.0   120.0   16.666666666666668
-450.0   150.0   16.666666666666668
-450.0   120.0   33.333333333333336
-400.0   120.0   16.666666666666668
-400.0   150.0   16.666666666666668
-450.0   150.0   16.666666666666668
-400.0   150.0   33.333333333333336
-450.0   120.0   33.333333333333336
-450.0   150.0   33.333333333333336
-400.0   150.0   33.333333333333336
-450.0   150.0   16.666666666666668
-450.0   120.0   33.333333333333336
-400.0   150.0   33.333333333333336
-400.0   120.0   33.333333333333336
-400.0   120.0   16.666666666666668
-450.0   120.0   33.333333333333336
-400.0   150.0   33.333333333333336
-400.0   120.0   16.666666666666668
-450.0   150.0   16.666666666666668
-450.0   120.0   33.333333333333336
-400.0   120.0   33.333333333333336
-450.0   150.0   33.333333333333336
-450.0   120.0   50.0
-400.0   120.0   33.333333333333336
-400.0   150.0   33.333333333333336
-450.0   150.0   33.333333333333336
-400.0   150.0   50.0
-450.0   120.0   50.0
-450.0   150.0   50.0
-400.0   150.0   50.0
-450.0   150.0   33.333333333333336
-450.0   120.0   50.0
-400.0   150.0   50.0
-400.0   120.0   50.0
-400.0   120.0   33.333333333333336
-450.0   120.0   50.0
-400.0   150.0   50.0
-400.0   120.0   33.333333333333336
-450.0   150.0   33.333333333333336
-400.0   0.0   0.0
-350.0   0.0   0.0
-400.0   30.0   0.0
-400.0   0.0   16.666666666666668
-350.0   0.0   0.0
-350.0   30.0   0.0
-400.0   30.0   0.0
-350.0   30.0   16.666666666666668
-400.0   0.0   16.666666666666668
-400.0   30.0   16.666666666666668
-350.0   30.0   16.666666666666668
-400.0   30.0   0.0
-400.0   0.0   16.666666666666668
-350.0   30.0   16.666666666666668
-350.0   0.0   16.666666666666668
-350.0   0.0   0.0
-400.0   0.0   16.666666666666668
-350.0   30.0   16.666666666666668
-350.0   0.0   0.0
-400.0   30.0   0.0
-400.0   0.0   16.666666666666668
-350.0   0.0   16.666666666666668
-400.0   30.0   16.666666666666668
-400.0   0.0   33.333333333333336
-350.0   0.0   16.666666666666668
-350.0   30.0   16.666666666666668
-400.0   30.0   16.666666666666668
-350.0   30.0   33.333333333333336
-400.0   0.0   33.333333333333336
-400.0   30.0   33.333333333333336
-350.0   30.0   33.333333333333336
-400.0   30.0   16.666666666666668
-400.0   0.0   33.333333333333336
-350.0   30.0   33.333333333333336
-350.0   0.0   33.333333333333336
-350.0   0.0   16.666666666666668
-400.0   0.0   33.333333333333336
-350.0   30.0   33.333333333333336
-350.0   0.0   16.666666666666668
-400.0   30.0   16.666666666666668
-400.0   0.0   33.333333333333336
-350.0   0.0   33.333333333333336
-400.0   30.0   33.333333333333336
-400.0   0.0   50.0
-350.0   0.0   33.333333333333336
-350.0   30.0   33.333333333333336
-400.0   30.0   33.333333333333336
-350.0   30.0   50.0
-400.0   0.0   50.0
-400.0   30.0   50.0
-350.0   30.0   50.0
-400.0   30.0   33.333333333333336
-400.0   0.0   50.0
-350.0   30.0   50.0
-350.0   0.0   50.0
-350.0   0.0   33.333333333333336
-400.0   0.0   50.0
-350.0   30.0   50.0
-350.0   0.0   33.333333333333336
-400.0   30.0   33.333333333333336
-400.0   30.0   0.0
-350.0   30.0   0.0
-400.0   60.0   0.0
-400.0   30.0   16.666666666666668
-350.0   30.0   0.0
-350.0   60.0   0.0
-400.0   60.0   0.0
-350.0   60.0   16.666666666666668
-400.0   30.0   16.666666666666668
-400.0   60.0   16.666666666666668
-350.0   60.0   16.666666666666668
-400.0   60.0   0.0
-400.0   30.0   16.666666666666668
-350.0   60.0   16.666666666666668
-350.0   30.0   16.666666666666668
-350.0   30.0   0.0
-400.0   30.0   16.666666666666668
-350.0   60.0   16.666666666666668
-350.0   30.0   0.0
-400.0   60.0   0.0
-400.0   30.0   16.666666666666668
-350.0   30.0   16.666666666666668
-400.0   60.0   16.666666666666668
-400.0   30.0   33.333333333333336
-350.0   30.0   16.666666666666668
-350.0   60.0   16.666666666666668
-400.0   60.0   16.666666666666668
-350.0   60.0   33.333333333333336
-400.0   30.0   33.333333333333336
-400.0   60.0   33.333333333333336
-350.0   60.0   33.333333333333336
-400.0   60.0   16.666666666666668
-400.0   30.0   33.333333333333336
-350.0   60.0   33.333333333333336
-350.0   30.0   33.333333333333336
-350.0   30.0   16.666666666666668
-400.0   30.0   33.333333333333336
-350.0   60.0   33.333333333333336
-350.0   30.0   16.666666666666668
-400.0   60.0   16.666666666666668
-400.0   30.0   33.333333333333336
-350.0   30.0   33.333333333333336
-400.0   60.0   33.333333333333336
-400.0   30.0   50.0
-350.0   30.0   33.333333333333336
-350.0   60.0   33.333333333333336
-400.0   60.0   33.333333333333336
-350.0   60.0   50.0
-400.0   30.0   50.0
-400.0   60.0   50.0
-350.0   60.0   50.0
-400.0   60.0   33.333333333333336
-400.0   30.0   50.0
-350.0   60.0   50.0
-350.0   30.0   50.0
-350.0   30.0   33.333333333333336
-400.0   30.0   50.0
-350.0   60.0   50.0
-350.0   30.0   33.333333333333336
-400.0   60.0   33.333333333333336
-400.0   60.0   0.0
-350.0   60.0   0.0
-400.0   90.0   0.0
-400.0   60.0   16.666666666666668
-350.0   60.0   0.0
-350.0   90.0   0.0
-400.0   90.0   0.0
-350.0   90.0   16.666666666666668
-400.0   60.0   16.666666666666668
-400.0   90.0   16.666666666666668
-350.0   90.0   16.666666666666668
-400.0   90.0   0.0
-400.0   60.0   16.666666666666668
-350.0   90.0   16.666666666666668
-350.0   60.0   16.666666666666668
-350.0   60.0   0.0
-400.0   60.0   16.666666666666668
-350.0   90.0   16.666666666666668
-350.0   60.0   0.0
-400.0   90.0   0.0
-400.0   60.0   16.666666666666668
-350.0   60.0   16.666666666666668
-400.0   90.0   16.666666666666668
-400.0   60.0   33.333333333333336
-350.0   60.0   16.666666666666668
-350.0   90.0   16.666666666666668
-400.0   90.0   16.666666666666668
-350.0   90.0   33.333333333333336
-400.0   60.0   33.333333333333336
-400.0   90.0   33.333333333333336
-350.0   90.0   33.333333333333336
-400.0   90.0   16.666666666666668
-400.0   60.0   33.333333333333336
-350.0   90.0   33.333333333333336
-350.0   60.0   33.333333333333336
-350.0   60.0   16.666666666666668
-400.0   60.0   33.333333333333336
-350.0   90.0   33.333333333333336
-350.0   60.0   16.666666666666668
-400.0   90.0   16.666666666666668
-400.0   60.0   33.333333333333336
-350.0   60.0   33.333333333333336
-400.0   90.0   33.333333333333336
-400.0   60.0   50.0
-350.0   60.0   33.333333333333336
-350.0   90.0   33.333333333333336
-400.0   90.0   33.333333333333336
-350.0   90.0   50.0
-400.0   60.0   50.0
-400.0   90.0   50.0
-350.0   90.0   50.0
-400.0   90.0   33.333333333333336
-400.0   60.0   50.0
-350.0   90.0   50.0
-350.0   60.0   50.0
-350.0   60.0   33.333333333333336
-400.0   60.0   50.0
-350.0   90.0   50.0
-350.0   60.0   33.333333333333336
-400.0   90.0   33.333333333333336
-400.0   90.0   0.0
-350.0   90.0   0.0
-400.0   120.0   0.0
-400.0   90.0   16.666666666666668
-350.0   90.0   0.0
-350.0   120.0   0.0
-400.0   120.0   0.0
-350.0   120.0   16.666666666666668
-400.0   90.0   16.666666666666668
-400.0   120.0   16.666666666666668
-350.0   120.0   16.666666666666668
-400.0   120.0   0.0
-400.0   90.0   16.666666666666668
-350.0   120.0   16.666666666666668
-350.0   90.0   16.666666666666668
-350.0   90.0   0.0
-400.0   90.0   16.666666666666668
-350.0   120.0   16.666666666666668
-350.0   90.0   0.0
-400.0   120.0   0.0
-400.0   90.0   16.666666666666668
-350.0   90.0   16.666666666666668
-400.0   120.0   16.666666666666668
-400.0   90.0   33.333333333333336
-350.0   90.0   16.666666666666668
-350.0   120.0   16.666666666666668
-400.0   120.0   16.666666666666668
-350.0   120.0   33.333333333333336
-400.0   90.0   33.333333333333336
-400.0   120.0   33.333333333333336
-350.0   120.0   33.333333333333336
-400.0   120.0   16.666666666666668
-400.0   90.0   33.333333333333336
-350.0   120.0   33.333333333333336
-350.0   90.0   33.333333333333336
-350.0   90.0   16.666666666666668
-400.0   90.0   33.333333333333336
-350.0   120.0   33.333333333333336
-350.0   90.0   16.666666666666668
-400.0   120.0   16.666666666666668
-400.0   90.0   33.333333333333336
-350.0   90.0   33.333333333333336
-400.0   120.0   33.333333333333336
-400.0   90.0   50.0
-350.0   90.0   33.333333333333336
-350.0   120.0   33.333333333333336
-400.0   120.0   33.333333333333336
-350.0   120.0   50.0
-400.0   90.0   50.0
-400.0   120.0   50.0
-350.0   120.0   50.0
-400.0   120.0   33.333333333333336
-400.0   90.0   50.0
-350.0   120.0   50.0
-350.0   90.0   50.0
-350.0   90.0   33.333333333333336
-400.0   90.0   50.0
-350.0   120.0   50.0
-350.0   90.0   33.333333333333336
-400.0   120.0   33.333333333333336
-400.0   120.0   0.0
-350.0   120.0   0.0
-400.0   150.0   0.0
-400.0   120.0   16.666666666666668
-350.0   120.0   0.0
-350.0   150.0   0.0
-400.0   150.0   0.0
-350.0   150.0   16.666666666666668
-400.0   120.0   16.666666666666668
-400.0   150.0   16.666666666666668
-350.0   150.0   16.666666666666668
-400.0   150.0   0.0
-400.0   120.0   16.666666666666668
-350.0   150.0   16.666666666666668
-350.0   120.0   16.666666666666668
-350.0   120.0   0.0
-400.0   120.0   16.666666666666668
-350.0   150.0   16.666666666666668
-350.0   120.0   0.0
-400.0   150.0   0.0
-400.0   120.0   16.666666666666668
-350.0   120.0   16.666666666666668
-400.0   150.0   16.666666666666668
-400.0   120.0   33.333333333333336
-350.0   120.0   16.666666666666668
-350.0   150.0   16.666666666666668
-400.0   150.0   16.666666666666668
-350.0   150.0   33.333333333333336
-400.0   120.0   33.333333333333336
-400.0   150.0   33.333333333333336
-350.0   150.0   33.333333333333336
-400.0   150.0   16.666666666666668
-400.0   120.0   33.333333333333336
-350.0   150.0   33.333333333333336
-350.0   120.0   33.333333333333336
-350.0   120.0   16.666666666666668
-400.0   120.0   33.333333333333336
-350.0   150.0   33.333333333333336
-350.0   120.0   16.666666666666668
-400.0   150.0   16.666666666666668
-400.0   120.0   33.333333333333336
-350.0   120.0   33.333333333333336
-400.0   150.0   33.333333333333336
-400.0   120.0   50.0
-350.0   120.0   33.333333333333336
-350.0   150.0   33.333333333333336
-400.0   150.0   33.333333333333336
-350.0   150.0   50.0
-400.0   120.0   50.0
-400.0   150.0   50.0
-350.0   150.0   50.0
-400.0   150.0   33.333333333333336
-400.0   120.0   50.0
-350.0   150.0   50.0
-350.0   120.0   50.0
-350.0   120.0   33.333333333333336
-400.0   120.0   50.0
-350.0   150.0   50.0
-350.0   120.0   33.333333333333336
-400.0   150.0   33.333333333333336
-350.0   0.0   0.0
-300.0   0.0   0.0
-350.0   30.0   0.0
-350.0   0.0   16.666666666666668
-300.0   0.0   0.0
-300.0   30.0   0.0
-350.0   30.0   0.0
-300.0   30.0   16.666666666666668
-350.0   0.0   16.666666666666668
-350.0   30.0   16.666666666666668
-300.0   30.0   16.666666666666668
-350.0   30.0   0.0
-350.0   0.0   16.666666666666668
-300.0   30.0   16.666666666666668
-300.0   0.0   16.666666666666668
-300.0   0.0   0.0
-350.0   0.0   16.666666666666668
-300.0   30.0   16.666666666666668
-300.0   0.0   0.0
-350.0   30.0   0.0
-350.0   0.0   16.666666666666668
-300.0   0.0   16.666666666666668
-350.0   30.0   16.666666666666668
-350.0   0.0   33.333333333333336
-300.0   0.0   16.666666666666668
-300.0   30.0   16.666666666666668
-350.0   30.0   16.666666666666668
-300.0   30.0   33.333333333333336
-350.0   0.0   33.333333333333336
-350.0   30.0   33.333333333333336
-300.0   30.0   33.333333333333336
-350.0   30.0   16.666666666666668
-350.0   0.0   33.333333333333336
-300.0   30.0   33.333333333333336
-300.0   0.0   33.333333333333336
-300.0   0.0   16.666666666666668
-350.0   0.0   33.333333333333336
-300.0   30.0   33.333333333333336
-300.0   0.0   16.666666666666668
-350.0   30.0   16.666666666666668
-350.0   0.0   33.333333333333336
-300.0   0.0   33.333333333333336
-350.0   30.0   33.333333333333336
-350.0   0.0   50.0
-300.0   0.0   33.333333333333336
-300.0   30.0   33.333333333333336
-350.0   30.0   33.333333333333336
-300.0   30.0   50.0
-350.0   0.0   50.0
-350.0   30.0   50.0
-300.0   30.0   50.0
-350.0   30.0   33.333333333333336
-350.0   0.0   50.0
-300.0   30.0   50.0
-300.0   0.0   50.0
-300.0   0.0   33.333333333333336
-350.0   0.0   50.0
-300.0   30.0   50.0
-300.0   0.0   33.333333333333336
-350.0   30.0   33.333333333333336
-350.0   30.0   0.0
-300.0   30.0   0.0
-350.0   60.0   0.0
-350.0   30.0   16.666666666666668
-300.0   30.0   0.0
-300.0   60.0   0.0
-350.0   60.0   0.0
-300.0   60.0   16.666666666666668
-350.0   30.0   16.666666666666668
-350.0   60.0   16.666666666666668
-300.0   60.0   16.666666666666668
-350.0   60.0   0.0
-350.0   30.0   16.666666666666668
-300.0   60.0   16.666666666666668
-300.0   30.0   16.666666666666668
-300.0   30.0   0.0
-350.0   30.0   16.666666666666668
-300.0   60.0   16.666666666666668
-300.0   30.0   0.0
-350.0   60.0   0.0
-350.0   30.0   16.666666666666668
-300.0   30.0   16.666666666666668
-350.0   60.0   16.666666666666668
-350.0   30.0   33.333333333333336
-300.0   30.0   16.666666666666668
-300.0   60.0   16.666666666666668
-350.0   60.0   16.666666666666668
-300.0   60.0   33.333333333333336
-350.0   30.0   33.333333333333336
-350.0   60.0   33.333333333333336
-300.0   60.0   33.333333333333336
-350.0   60.0   16.666666666666668
-350.0   30.0   33.333333333333336
-300.0   60.0   33.333333333333336
-300.0   30.0   33.333333333333336
-300.0   30.0   16.666666666666668
-350.0   30.0   33.333333333333336
-300.0   60.0   33.333333333333336
-300.0   30.0   16.666666666666668
-350.0   60.0   16.666666666666668
-350.0   30.0   33.333333333333336
-300.0   30.0   33.333333333333336
-350.0   60.0   33.333333333333336
-350.0   30.0   50.0
-300.0   30.0   33.333333333333336
-300.0   60.0   33.333333333333336
-350.0   60.0   33.333333333333336
-300.0   60.0   50.0
-350.0   30.0   50.0
-350.0   60.0   50.0
-300.0   60.0   50.0
-350.0   60.0   33.333333333333336
-350.0   30.0   50.0
-300.0   60.0   50.0
-300.0   30.0   50.0
-300.0   30.0   33.333333333333336
-350.0   30.0   50.0
-300.0   60.0   50.0
-300.0   30.0   33.333333333333336
-350.0   60.0   33.333333333333336
-350.0   60.0   0.0
-300.0   60.0   0.0
-350.0   90.0   0.0
-350.0   60.0   16.666666666666668
-300.0   60.0   0.0
-300.0   90.0   0.0
-350.0   90.0   0.0
-300.0   90.0   16.666666666666668
-350.0   60.0   16.666666666666668
-350.0   90.0   16.666666666666668
-300.0   90.0   16.666666666666668
-350.0   90.0   0.0
-350.0   60.0   16.666666666666668
-300.0   90.0   16.666666666666668
-300.0   60.0   16.666666666666668
-300.0   60.0   0.0
-350.0   60.0   16.666666666666668
-300.0   90.0   16.666666666666668
-300.0   60.0   0.0
-350.0   90.0   0.0
-350.0   60.0   16.666666666666668
-300.0   60.0   16.666666666666668
-350.0   90.0   16.666666666666668
-350.0   60.0   33.333333333333336
-300.0   60.0   16.666666666666668
-300.0   90.0   16.666666666666668
-350.0   90.0   16.666666666666668
-300.0   90.0   33.333333333333336
-350.0   60.0   33.333333333333336
-350.0   90.0   33.333333333333336
-300.0   90.0   33.333333333333336
-350.0   90.0   16.666666666666668
-350.0   60.0   33.333333333333336
-300.0   90.0   33.333333333333336
-300.0   60.0   33.333333333333336
-300.0   60.0   16.666666666666668
-350.0   60.0   33.333333333333336
-300.0   90.0   33.333333333333336
-300.0   60.0   16.666666666666668
-350.0   90.0   16.666666666666668
-350.0   60.0   33.333333333333336
-300.0   60.0   33.333333333333336
-350.0   90.0   33.333333333333336
-350.0   60.0   50.0
-300.0   60.0   33.333333333333336
-300.0   90.0   33.333333333333336
-350.0   90.0   33.333333333333336
-300.0   90.0   50.0
-350.0   60.0   50.0
-350.0   90.0   50.0
-300.0   90.0   50.0
-350.0   90.0   33.333333333333336
-350.0   60.0   50.0
-300.0   90.0   50.0
-300.0   60.0   50.0
-300.0   60.0   33.333333333333336
-350.0   60.0   50.0
-300.0   90.0   50.0
-300.0   60.0   33.333333333333336
-350.0   90.0   33.333333333333336
-350.0   90.0   0.0
-300.0   90.0   0.0
-350.0   120.0   0.0
-350.0   90.0   16.666666666666668
-300.0   90.0   0.0
-300.0   120.0   0.0
-350.0   120.0   0.0
-300.0   120.0   16.666666666666668
-350.0   90.0   16.666666666666668
-350.0   120.0   16.666666666666668
-300.0   120.0   16.666666666666668
-350.0   120.0   0.0
-350.0   90.0   16.666666666666668
-300.0   120.0   16.666666666666668
-300.0   90.0   16.666666666666668
-300.0   90.0   0.0
-350.0   90.0   16.666666666666668
-300.0   120.0   16.666666666666668
-300.0   90.0   0.0
-350.0   120.0   0.0
-350.0   90.0   16.666666666666668
-300.0   90.0   16.666666666666668
-350.0   120.0   16.666666666666668
-350.0   90.0   33.333333333333336
-300.0   90.0   16.666666666666668
-300.0   120.0   16.666666666666668
-350.0   120.0   16.666666666666668
-300.0   120.0   33.333333333333336
-350.0   90.0   33.333333333333336
-350.0   120.0   33.333333333333336
-300.0   120.0   33.333333333333336
-350.0   120.0   16.666666666666668
-350.0   90.0   33.333333333333336
-300.0   120.0   33.333333333333336
-300.0   90.0   33.333333333333336
-300.0   90.0   16.666666666666668
-350.0   90.0   33.333333333333336
-300.0   120.0   33.333333333333336
-300.0   90.0   16.666666666666668
-350.0   120.0   16.666666666666668
-350.0   90.0   33.333333333333336
-300.0   90.0   33.333333333333336
-350.0   120.0   33.333333333333336
-350.0   90.0   50.0
-300.0   90.0   33.333333333333336
-300.0   120.0   33.333333333333336
-350.0   120.0   33.333333333333336
-300.0   120.0   50.0
-350.0   90.0   50.0
-350.0   120.0   50.0
-300.0   120.0   50.0
-350.0   120.0   33.333333333333336
-350.0   90.0   50.0
-300.0   120.0   50.0
-300.0   90.0   50.0
-300.0   90.0   33.333333333333336
-350.0   90.0   50.0
-300.0   120.0   50.0
-300.0   90.0   33.333333333333336
-350.0   120.0   33.333333333333336
-350.0   120.0   0.0
-300.0   120.0   0.0
-350.0   150.0   0.0
-350.0   120.0   16.666666666666668
-300.0   120.0   0.0
-300.0   150.0   0.0
-350.0   150.0   0.0
-300.0   150.0   16.666666666666668
-350.0   120.0   16.666666666666668
-350.0   150.0   16.666666666666668
-300.0   150.0   16.666666666666668
-350.0   150.0   0.0
-350.0   120.0   16.666666666666668
-300.0   150.0   16.666666666666668
-300.0   120.0   16.666666666666668
-300.0   120.0   0.0
-350.0   120.0   16.666666666666668
-300.0   150.0   16.666666666666668
-300.0   120.0   0.0
-350.0   150.0   0.0
-350.0   120.0   16.666666666666668
-300.0   120.0   16.666666666666668
-350.0   150.0   16.666666666666668
-350.0   120.0   33.333333333333336
-300.0   120.0   16.666666666666668
-300.0   150.0   16.666666666666668
-350.0   150.0   16.666666666666668
-300.0   150.0   33.333333333333336
-350.0   120.0   33.333333333333336
-350.0   150.0   33.333333333333336
-300.0   150.0   33.333333333333336
-350.0   150.0   16.666666666666668
-350.0   120.0   33.333333333333336
-300.0   150.0   33.333333333333336
-300.0   120.0   33.333333333333336
-300.0   120.0   16.666666666666668
-350.0   120.0   33.333333333333336
-300.0   150.0   33.333333333333336
-300.0   120.0   16.666666666666668
-350.0   150.0   16.666666666666668
-350.0   120.0   33.333333333333336
-300.0   120.0   33.333333333333336
-350.0   150.0   33.333333333333336
-350.0   120.0   50.0
-300.0   120.0   33.333333333333336
-300.0   150.0   33.333333333333336
-350.0   150.0   33.333333333333336
-300.0   150.0   50.0
-350.0   120.0   50.0
-350.0   150.0   50.0
-300.0   150.0   50.0
-350.0   150.0   33.333333333333336
-350.0   120.0   50.0
-300.0   150.0   50.0
-300.0   120.0   50.0
-300.0   120.0   33.333333333333336
-350.0   120.0   50.0
-300.0   150.0   50.0
-300.0   120.0   33.333333333333336
-350.0   150.0   33.333333333333336
-300.0   0.0   0.0
-250.0   0.0   0.0
-300.0   30.0   0.0
-300.0   0.0   16.666666666666668
-250.0   0.0   0.0
-250.0   30.0   0.0
-300.0   30.0   0.0
-250.0   30.0   16.666666666666668
-300.0   0.0   16.666666666666668
-300.0   30.0   16.666666666666668
-250.0   30.0   16.666666666666668
-300.0   30.0   0.0
-300.0   0.0   16.666666666666668
-250.0   30.0   16.666666666666668
-250.0   0.0   16.666666666666668
-250.0   0.0   0.0
-300.0   0.0   16.666666666666668
-250.0   30.0   16.666666666666668
-250.0   0.0   0.0
-300.0   30.0   0.0
-300.0   0.0   16.666666666666668
-250.0   0.0   16.666666666666668
-300.0   30.0   16.666666666666668
-300.0   0.0   33.333333333333336
-250.0   0.0   16.666666666666668
-250.0   30.0   16.666666666666668
-300.0   30.0   16.666666666666668
-250.0   30.0   33.333333333333336
-300.0   0.0   33.333333333333336
-300.0   30.0   33.333333333333336
-250.0   30.0   33.333333333333336
-300.0   30.0   16.666666666666668
-300.0   0.0   33.333333333333336
-250.0   30.0   33.333333333333336
-250.0   0.0   33.333333333333336
-250.0   0.0   16.666666666666668
-300.0   0.0   33.333333333333336
-250.0   30.0   33.333333333333336
-250.0   0.0   16.666666666666668
-300.0   30.0   16.666666666666668
-300.0   0.0   33.333333333333336
-250.0   0.0   33.333333333333336
-300.0   30.0   33.333333333333336
-300.0   0.0   50.0
-250.0   0.0   33.333333333333336
-250.0   30.0   33.333333333333336
-300.0   30.0   33.333333333333336
-250.0   30.0   50.0
-300.0   0.0   50.0
-300.0   30.0   50.0
-250.0   30.0   50.0
-300.0   30.0   33.333333333333336
-300.0   0.0   50.0
-250.0   30.0   50.0
-250.0   0.0   50.0
-250.0   0.0   33.333333333333336
-300.0   0.0   50.0
-250.0   30.0   50.0
-250.0   0.0   33.333333333333336
-300.0   30.0   33.333333333333336
-300.0   30.0   0.0
-250.0   30.0   0.0
-300.0   60.0   0.0
-300.0   30.0   16.666666666666668
-250.0   30.0   0.0
-250.0   60.0   0.0
-300.0   60.0   0.0
-250.0   60.0   16.666666666666668
-300.0   30.0   16.666666666666668
-300.0   60.0   16.666666666666668
-250.0   60.0   16.666666666666668
-300.0   60.0   0.0
-300.0   30.0   16.666666666666668
-250.0   60.0   16.666666666666668
-250.0   30.0   16.666666666666668
-250.0   30.0   0.0
-300.0   30.0   16.666666666666668
-250.0   60.0   16.666666666666668
-250.0   30.0   0.0
-300.0   60.0   0.0
-300.0   30.0   16.666666666666668
-250.0   30.0   16.666666666666668
-300.0   60.0   16.666666666666668
-300.0   30.0   33.333333333333336
-250.0   30.0   16.666666666666668
-250.0   60.0   16.666666666666668
-300.0   60.0   16.666666666666668
-250.0   60.0   33.333333333333336
-300.0   30.0   33.333333333333336
-300.0   60.0   33.333333333333336
-250.0   60.0   33.333333333333336
-300.0   60.0   16.666666666666668
-300.0   30.0   33.333333333333336
-250.0   60.0   33.333333333333336
-250.0   30.0   33.333333333333336
-250.0   30.0   16.666666666666668
-300.0   30.0   33.333333333333336
-250.0   60.0   33.333333333333336
-250.0   30.0   16.666666666666668
-300.0   60.0   16.666666666666668
-300.0   30.0   33.333333333333336
-250.0   30.0   33.333333333333336
-300.0   60.0   33.333333333333336
-300.0   30.0   50.0
-250.0   30.0   33.333333333333336
-250.0   60.0   33.333333333333336
-300.0   60.0   33.333333333333336
-250.0   60.0   50.0
-300.0   30.0   50.0
-300.0   60.0   50.0
-250.0   60.0   50.0
-300.0   60.0   33.333333333333336
-300.0   30.0   50.0
-250.0   60.0   50.0
-250.0   30.0   50.0
-250.0   30.0   33.333333333333336
-300.0   30.0   50.0
-250.0   60.0   50.0
-250.0   30.0   33.333333333333336
-300.0   60.0   33.333333333333336
-300.0   60.0   0.0
-250.0   60.0   0.0
-300.0   90.0   0.0
-300.0   60.0   16.666666666666668
-250.0   60.0   0.0
-250.0   90.0   0.0
-300.0   90.0   0.0
-250.0   90.0   16.666666666666668
-300.0   60.0   16.666666666666668
-300.0   90.0   16.666666666666668
-250.0   90.0   16.666666666666668
-300.0   90.0   0.0
-300.0   60.0   16.666666666666668
-250.0   90.0   16.666666666666668
-250.0   60.0   16.666666666666668
-250.0   60.0   0.0
-300.0   60.0   16.666666666666668
-250.0   90.0   16.666666666666668
-250.0   60.0   0.0
-300.0   90.0   0.0
-300.0   60.0   16.666666666666668
-250.0   60.0   16.666666666666668
-300.0   90.0   16.666666666666668
-300.0   60.0   33.333333333333336
-250.0   60.0   16.666666666666668
-250.0   90.0   16.666666666666668
-300.0   90.0   16.666666666666668
-250.0   90.0   33.333333333333336
-300.0   60.0   33.333333333333336
-300.0   90.0   33.333333333333336
-250.0   90.0   33.333333333333336
-300.0   90.0   16.666666666666668
-300.0   60.0   33.333333333333336
-250.0   90.0   33.333333333333336
-250.0   60.0   33.333333333333336
-250.0   60.0   16.666666666666668
-300.0   60.0   33.333333333333336
-250.0   90.0   33.333333333333336
-250.0   60.0   16.666666666666668
-300.0   90.0   16.666666666666668
-300.0   60.0   33.333333333333336
-250.0   60.0   33.333333333333336
-300.0   90.0   33.333333333333336
-300.0   60.0   50.0
-250.0   60.0   33.333333333333336
-250.0   90.0   33.333333333333336
-300.0   90.0   33.333333333333336
-250.0   90.0   50.0
-300.0   60.0   50.0
-300.0   90.0   50.0
-250.0   90.0   50.0
-300.0   90.0   33.333333333333336
-300.0   60.0   50.0
-250.0   90.0   50.0
-250.0   60.0   50.0
-250.0   60.0   33.333333333333336
-300.0   60.0   50.0
-250.0   90.0   50.0
-250.0   60.0   33.333333333333336
-300.0   90.0   33.333333333333336
-300.0   90.0   0.0
-250.0   90.0   0.0
-300.0   120.0   0.0
-300.0   90.0   16.666666666666668
-250.0   90.0   0.0
-250.0   120.0   0.0
-300.0   120.0   0.0
-250.0   120.0   16.666666666666668
-300.0   90.0   16.666666666666668
-300.0   120.0   16.666666666666668
-250.0   120.0   16.666666666666668
-300.0   120.0   0.0
-300.0   90.0   16.666666666666668
-250.0   120.0   16.666666666666668
-250.0   90.0   16.666666666666668
-250.0   90.0   0.0
-300.0   90.0   16.666666666666668
-250.0   120.0   16.666666666666668
-250.0   90.0   0.0
-300.0   120.0   0.0
-300.0   90.0   16.666666666666668
-250.0   90.0   16.666666666666668
-300.0   120.0   16.666666666666668
-300.0   90.0   33.333333333333336
-250.0   90.0   16.666666666666668
-250.0   120.0   16.666666666666668
-300.0   120.0   16.666666666666668
-250.0   120.0   33.333333333333336
-300.0   90.0   33.333333333333336
-300.0   120.0   33.333333333333336
-250.0   120.0   33.333333333333336
-300.0   120.0   16.666666666666668
-300.0   90.0   33.333333333333336
-250.0   120.0   33.333333333333336
-250.0   90.0   33.333333333333336
-250.0   90.0   16.666666666666668
-300.0   90.0   33.333333333333336
-250.0   120.0   33.333333333333336
-250.0   90.0   16.666666666666668
-300.0   120.0   16.666666666666668
-300.0   90.0   33.333333333333336
-250.0   90.0   33.333333333333336
-300.0   120.0   33.333333333333336
-300.0   90.0   50.0
-250.0   90.0   33.333333333333336
-250.0   120.0   33.333333333333336
-300.0   120.0   33.333333333333336
-250.0   120.0   50.0
-300.0   90.0   50.0
-300.0   120.0   50.0
-250.0   120.0   50.0
-300.0   120.0   33.333333333333336
-300.0   90.0   50.0
-250.0   120.0   50.0
-250.0   90.0   50.0
-250.0   90.0   33.333333333333336
-300.0   90.0   50.0
-250.0   120.0   50.0
-250.0   90.0   33.333333333333336
-300.0   120.0   33.333333333333336
-300.0   120.0   0.0
-250.0   120.0   0.0
-300.0   150.0   0.0
-300.0   120.0   16.666666666666668
-250.0   120.0   0.0
-250.0   150.0   0.0
-300.0   150.0   0.0
-250.0   150.0   16.666666666666668
-300.0   120.0   16.666666666666668
-300.0   150.0   16.666666666666668
-250.0   150.0   16.666666666666668
-300.0   150.0   0.0
-300.0   120.0   16.666666666666668
-250.0   150.0   16.666666666666668
-250.0   120.0   16.666666666666668
-250.0   120.0   0.0
-300.0   120.0   16.666666666666668
-250.0   150.0   16.666666666666668
-250.0   120.0   0.0
-300.0   150.0   0.0
-300.0   120.0   16.666666666666668
-250.0   120.0   16.666666666666668
-300.0   150.0   16.666666666666668
-300.0   120.0   33.333333333333336
-250.0   120.0   16.666666666666668
-250.0   150.0   16.666666666666668
-300.0   150.0   16.666666666666668
-250.0   150.0   33.333333333333336
-300.0   120.0   33.333333333333336
-300.0   150.0   33.333333333333336
-250.0   150.0   33.333333333333336
-300.0   150.0   16.666666666666668
-300.0   120.0   33.333333333333336
-250.0   150.0   33.333333333333336
-250.0   120.0   33.333333333333336
-250.0   120.0   16.666666666666668
-300.0   120.0   33.333333333333336
-250.0   150.0   33.333333333333336
-250.0   120.0   16.666666666666668
-300.0   150.0   16.666666666666668
-300.0   120.0   33.333333333333336
-250.0   120.0   33.333333333333336
-300.0   150.0   33.333333333333336
-300.0   120.0   50.0
-250.0   120.0   33.333333333333336
-250.0   150.0   33.333333333333336
-300.0   150.0   33.333333333333336
-250.0   150.0   50.0
-300.0   120.0   50.0
-300.0   150.0   50.0
-250.0   150.0   50.0
-300.0   150.0   33.333333333333336
-300.0   120.0   50.0
-250.0   150.0   50.0
-250.0   120.0   50.0
-250.0   120.0   33.333333333333336
-300.0   120.0   50.0
-250.0   150.0   50.0
-250.0   120.0   33.333333333333336
-300.0   150.0   33.333333333333336
-250.0   0.0   0.0
-200.0   0.0   0.0
-250.0   30.0   0.0
-250.0   0.0   16.666666666666668
-200.0   0.0   0.0
-200.0   30.0   0.0
-250.0   30.0   0.0
-200.0   30.0   16.666666666666668
-250.0   0.0   16.666666666666668
-250.0   30.0   16.666666666666668
-200.0   30.0   16.666666666666668
-250.0   30.0   0.0
-250.0   0.0   16.666666666666668
-200.0   30.0   16.666666666666668
-200.0   0.0   16.666666666666668
-200.0   0.0   0.0
-250.0   0.0   16.666666666666668
-200.0   30.0   16.666666666666668
-200.0   0.0   0.0
-250.0   30.0   0.0
-250.0   0.0   16.666666666666668
-200.0   0.0   16.666666666666668
-250.0   30.0   16.666666666666668
-250.0   0.0   33.333333333333336
-200.0   0.0   16.666666666666668
-200.0   30.0   16.666666666666668
-250.0   30.0   16.666666666666668
-200.0   30.0   33.333333333333336
-250.0   0.0   33.333333333333336
-250.0   30.0   33.333333333333336
-200.0   30.0   33.333333333333336
-250.0   30.0   16.666666666666668
-250.0   0.0   33.333333333333336
-200.0   30.0   33.333333333333336
-200.0   0.0   33.333333333333336
-200.0   0.0   16.666666666666668
-250.0   0.0   33.333333333333336
-200.0   30.0   33.333333333333336
-200.0   0.0   16.666666666666668
-250.0   30.0   16.666666666666668
-250.0   0.0   33.333333333333336
-200.0   0.0   33.333333333333336
-250.0   30.0   33.333333333333336
-250.0   0.0   50.0
-200.0   0.0   33.333333333333336
-200.0   30.0   33.333333333333336
-250.0   30.0   33.333333333333336
-200.0   30.0   50.0
-250.0   0.0   50.0
-250.0   30.0   50.0
-200.0   30.0   50.0
-250.0   30.0   33.333333333333336
-250.0   0.0   50.0
-200.0   30.0   50.0
-200.0   0.0   50.0
-200.0   0.0   33.333333333333336
-250.0   0.0   50.0
-200.0   30.0   50.0
-200.0   0.0   33.333333333333336
-250.0   30.0   33.333333333333336
-250.0   30.0   0.0
-200.0   30.0   0.0
-250.0   60.0   0.0
-250.0   30.0   16.666666666666668
-200.0   30.0   0.0
-200.0   60.0   0.0
-250.0   60.0   0.0
-200.0   60.0   16.666666666666668
-250.0   30.0   16.666666666666668
-250.0   60.0   16.666666666666668
-200.0   60.0   16.666666666666668
-250.0   60.0   0.0
-250.0   30.0   16.666666666666668
-200.0   60.0   16.666666666666668
-200.0   30.0   16.666666666666668
-200.0   30.0   0.0
-250.0   30.0   16.666666666666668
-200.0   60.0   16.666666666666668
-200.0   30.0   0.0
-250.0   60.0   0.0
-250.0   30.0   16.666666666666668
-200.0   30.0   16.666666666666668
-250.0   60.0   16.666666666666668
-250.0   30.0   33.333333333333336
-200.0   30.0   16.666666666666668
-200.0   60.0   16.666666666666668
-250.0   60.0   16.666666666666668
-200.0   60.0   33.333333333333336
-250.0   30.0   33.333333333333336
-250.0   60.0   33.333333333333336
-200.0   60.0   33.333333333333336
-250.0   60.0   16.666666666666668
-250.0   30.0   33.333333333333336
-200.0   60.0   33.333333333333336
-200.0   30.0   33.333333333333336
-200.0   30.0   16.666666666666668
-250.0   30.0   33.333333333333336
-200.0   60.0   33.333333333333336
-200.0   30.0   16.666666666666668
-250.0   60.0   16.666666666666668
-250.0   30.0   33.333333333333336
-200.0   30.0   33.333333333333336
-250.0   60.0   33.333333333333336
-250.0   30.0   50.0
-200.0   30.0   33.333333333333336
-200.0   60.0   33.333333333333336
-250.0   60.0   33.333333333333336
-200.0   60.0   50.0
-250.0   30.0   50.0
-250.0   60.0   50.0
-200.0   60.0   50.0
-250.0   60.0   33.333333333333336
-250.0   30.0   50.0
-200.0   60.0   50.0
-200.0   30.0   50.0
-200.0   30.0   33.333333333333336
-250.0   30.0   50.0
-200.0   60.0   50.0
-200.0   30.0   33.333333333333336
-250.0   60.0   33.333333333333336
-250.0   60.0   0.0
-200.0   60.0   0.0
-250.0   90.0   0.0
-250.0   60.0   16.666666666666668
-200.0   60.0   0.0
-200.0   90.0   0.0
-250.0   90.0   0.0
-200.0   90.0   16.666666666666668
-250.0   60.0   16.666666666666668
-250.0   90.0   16.666666666666668
-200.0   90.0   16.666666666666668
-250.0   90.0   0.0
-250.0   60.0   16.666666666666668
-200.0   90.0   16.666666666666668
-200.0   60.0   16.666666666666668
-200.0   60.0   0.0
-250.0   60.0   16.666666666666668
-200.0   90.0   16.666666666666668
-200.0   60.0   0.0
-250.0   90.0   0.0
-250.0   60.0   16.666666666666668
-200.0   60.0   16.666666666666668
-250.0   90.0   16.666666666666668
-250.0   60.0   33.333333333333336
-200.0   60.0   16.666666666666668
-200.0   90.0   16.666666666666668
-250.0   90.0   16.666666666666668
-200.0   90.0   33.333333333333336
-250.0   60.0   33.333333333333336
-250.0   90.0   33.333333333333336
-200.0   90.0   33.333333333333336
-250.0   90.0   16.666666666666668
-250.0   60.0   33.333333333333336
-200.0   90.0   33.333333333333336
-200.0   60.0   33.333333333333336
-200.0   60.0   16.666666666666668
-250.0   60.0   33.333333333333336
-200.0   90.0   33.333333333333336
-200.0   60.0   16.666666666666668
-250.0   90.0   16.666666666666668
-250.0   60.0   33.333333333333336
-200.0   60.0   33.333333333333336
-250.0   90.0   33.333333333333336
-250.0   60.0   50.0
-200.0   60.0   33.333333333333336
-200.0   90.0   33.333333333333336
-250.0   90.0   33.333333333333336
-200.0   90.0   50.0
-250.0   60.0   50.0
-250.0   90.0   50.0
-200.0   90.0   50.0
-250.0   90.0   33.333333333333336
-250.0   60.0   50.0
-200.0   90.0   50.0
-200.0   60.0   50.0
-200.0   60.0   33.333333333333336
-250.0   60.0   50.0
-200.0   90.0   50.0
-200.0   60.0   33.333333333333336
-250.0   90.0   33.333333333333336
-250.0   90.0   0.0
-200.0   90.0   0.0
-250.0   120.0   0.0
-250.0   90.0   16.666666666666668
-200.0   90.0   0.0
-200.0   120.0   0.0
-250.0   120.0   0.0
-200.0   120.0   16.666666666666668
-250.0   90.0   16.666666666666668
-250.0   120.0   16.666666666666668
-200.0   120.0   16.666666666666668
-250.0   120.0   0.0
-250.0   90.0   16.666666666666668
-200.0   120.0   16.666666666666668
-200.0   90.0   16.666666666666668
-200.0   90.0   0.0
-250.0   90.0   16.666666666666668
-200.0   120.0   16.666666666666668
-200.0   90.0   0.0
-250.0   120.0   0.0
-250.0   90.0   16.666666666666668
-200.0   90.0   16.666666666666668
-250.0   120.0   16.666666666666668
-250.0   90.0   33.333333333333336
-200.0   90.0   16.666666666666668
-200.0   120.0   16.666666666666668
-250.0   120.0   16.666666666666668
-200.0   120.0   33.333333333333336
-250.0   90.0   33.333333333333336
-250.0   120.0   33.333333333333336
-200.0   120.0   33.333333333333336
-250.0   120.0   16.666666666666668
-250.0   90.0   33.333333333333336
-200.0   120.0   33.333333333333336
-200.0   90.0   33.333333333333336
-200.0   90.0   16.666666666666668
-250.0   90.0   33.333333333333336
-200.0   120.0   33.333333333333336
-200.0   90.0   16.666666666666668
-250.0   120.0   16.666666666666668
-250.0   90.0   33.333333333333336
-200.0   90.0   33.333333333333336
-250.0   120.0   33.333333333333336
-250.0   90.0   50.0
-200.0   90.0   33.333333333333336
-200.0   120.0   33.333333333333336
-250.0   120.0   33.333333333333336
-200.0   120.0   50.0
-250.0   90.0   50.0
-250.0   120.0   50.0
-200.0   120.0   50.0
-250.0   120.0   33.333333333333336
-250.0   90.0   50.0
-200.0   120.0   50.0
-200.0   90.0   50.0
-200.0   90.0   33.333333333333336
-250.0   90.0   50.0
-200.0   120.0   50.0
-200.0   90.0   33.333333333333336
-250.0   120.0   33.333333333333336
-250.0   120.0   0.0
-200.0   120.0   0.0
-250.0   150.0   0.0
-250.0   120.0   16.666666666666668
-200.0   120.0   0.0
-200.0   150.0   0.0
-250.0   150.0   0.0
-200.0   150.0   16.666666666666668
-250.0   120.0   16.666666666666668
-250.0   150.0   16.666666666666668
-200.0   150.0   16.666666666666668
-250.0   150.0   0.0
-250.0   120.0   16.666666666666668
-200.0   150.0   16.666666666666668
-200.0   120.0   16.666666666666668
-200.0   120.0   0.0
-250.0   120.0   16.666666666666668
-200.0   150.0   16.666666666666668
-200.0   120.0   0.0
-250.0   150.0   0.0
-250.0   120.0   16.666666666666668
-200.0   120.0   16.666666666666668
-250.0   150.0   16.666666666666668
-250.0   120.0   33.333333333333336
-200.0   120.0   16.666666666666668
-200.0   150.0   16.666666666666668
-250.0   150.0   16.666666666666668
-200.0   150.0   33.333333333333336
-250.0   120.0   33.333333333333336
-250.0   150.0   33.333333333333336
-200.0   150.0   33.333333333333336
-250.0   150.0   16.666666666666668
-250.0   120.0   33.333333333333336
-200.0   150.0   33.333333333333336
-200.0   120.0   33.333333333333336
-200.0   120.0   16.666666666666668
-250.0   120.0   33.333333333333336
-200.0   150.0   33.333333333333336
-200.0   120.0   16.666666666666668
-250.0   150.0   16.666666666666668
-250.0   120.0   33.333333333333336
-200.0   120.0   33.333333333333336
-250.0   150.0   33.333333333333336
-250.0   120.0   50.0
-200.0   120.0   33.333333333333336
-200.0   150.0   33.333333333333336
-250.0   150.0   33.333333333333336
-200.0   150.0   50.0
-250.0   120.0   50.0
-250.0   150.0   50.0
-200.0   150.0   50.0
-250.0   150.0   33.333333333333336
-250.0   120.0   50.0
-200.0   150.0   50.0
-200.0   120.0   50.0
-200.0   120.0   33.333333333333336
-250.0   120.0   50.0
-200.0   150.0   50.0
-200.0   120.0   33.333333333333336
-250.0   150.0   33.333333333333336
-200.0   0.0   0.0
-150.0   0.0   0.0
-200.0   30.0   0.0
-200.0   0.0   16.666666666666668
-150.0   0.0   0.0
-150.0   30.0   0.0
-200.0   30.0   0.0
-150.0   30.0   16.666666666666668
-200.0   0.0   16.666666666666668
-200.0   30.0   16.666666666666668
-150.0   30.0   16.666666666666668
-200.0   30.0   0.0
-200.0   0.0   16.666666666666668
-150.0   30.0   16.666666666666668
-150.0   0.0   16.666666666666668
-150.0   0.0   0.0
-200.0   0.0   16.666666666666668
-150.0   30.0   16.666666666666668
-150.0   0.0   0.0
-200.0   30.0   0.0
-200.0   0.0   16.666666666666668
-150.0   0.0   16.666666666666668
-200.0   30.0   16.666666666666668
-200.0   0.0   33.333333333333336
-150.0   0.0   16.666666666666668
-150.0   30.0   16.666666666666668
-200.0   30.0   16.666666666666668
-150.0   30.0   33.333333333333336
-200.0   0.0   33.333333333333336
-200.0   30.0   33.333333333333336
-150.0   30.0   33.333333333333336
-200.0   30.0   16.666666666666668
-200.0   0.0   33.333333333333336
-150.0   30.0   33.333333333333336
-150.0   0.0   33.333333333333336
-150.0   0.0   16.666666666666668
-200.0   0.0   33.333333333333336
-150.0   30.0   33.333333333333336
-150.0   0.0   16.666666666666668
-200.0   30.0   16.666666666666668
-200.0   0.0   33.333333333333336
-150.0   0.0   33.333333333333336
-200.0   30.0   33.333333333333336
-200.0   0.0   50.0
-150.0   0.0   33.333333333333336
-150.0   30.0   33.333333333333336
-200.0   30.0   33.333333333333336
-150.0   30.0   50.0
-200.0   0.0   50.0
-200.0   30.0   50.0
-150.0   30.0   50.0
-200.0   30.0   33.333333333333336
-200.0   0.0   50.0
-150.0   30.0   50.0
-150.0   0.0   50.0
-150.0   0.0   33.333333333333336
-200.0   0.0   50.0
-150.0   30.0   50.0
-150.0   0.0   33.333333333333336
-200.0   30.0   33.333333333333336
-200.0   30.0   0.0
-150.0   30.0   0.0
-200.0   60.0   0.0
-200.0   30.0   16.666666666666668
-150.0   30.0   0.0
-150.0   60.0   0.0
-200.0   60.0   0.0
-150.0   60.0   16.666666666666668
-200.0   30.0   16.666666666666668
-200.0   60.0   16.666666666666668
-150.0   60.0   16.666666666666668
-200.0   60.0   0.0
-200.0   30.0   16.666666666666668
-150.0   60.0   16.666666666666668
-150.0   30.0   16.666666666666668
-150.0   30.0   0.0
-200.0   30.0   16.666666666666668
-150.0   60.0   16.666666666666668
-150.0   30.0   0.0
-200.0   60.0   0.0
-200.0   30.0   16.666666666666668
-150.0   30.0   16.666666666666668
-200.0   60.0   16.666666666666668
-200.0   30.0   33.333333333333336
-150.0   30.0   16.666666666666668
-150.0   60.0   16.666666666666668
-200.0   60.0   16.666666666666668
-150.0   60.0   33.333333333333336
-200.0   30.0   33.333333333333336
-200.0   60.0   33.333333333333336
-150.0   60.0   33.333333333333336
-200.0   60.0   16.666666666666668
-200.0   30.0   33.333333333333336
-150.0   60.0   33.333333333333336
-150.0   30.0   33.333333333333336
-150.0   30.0   16.666666666666668
-200.0   30.0   33.333333333333336
-150.0   60.0   33.333333333333336
-150.0   30.0   16.666666666666668
-200.0   60.0   16.666666666666668
-200.0   30.0   33.333333333333336
-150.0   30.0   33.333333333333336
-200.0   60.0   33.333333333333336
-200.0   30.0   50.0
-150.0   30.0   33.333333333333336
-150.0   60.0   33.333333333333336
-200.0   60.0   33.333333333333336
-150.0   60.0   50.0
-200.0   30.0   50.0
-200.0   60.0   50.0
-150.0   60.0   50.0
-200.0   60.0   33.333333333333336
-200.0   30.0   50.0
-150.0   60.0   50.0
-150.0   30.0   50.0
-150.0   30.0   33.333333333333336
-200.0   30.0   50.0
-150.0   60.0   50.0
-150.0   30.0   33.333333333333336
-200.0   60.0   33.333333333333336
-200.0   60.0   0.0
-150.0   60.0   0.0
-200.0   90.0   0.0
-200.0   60.0   16.666666666666668
-150.0   60.0   0.0
-150.0   90.0   0.0
-200.0   90.0   0.0
-150.0   90.0   16.666666666666668
-200.0   60.0   16.666666666666668
-200.0   90.0   16.666666666666668
-150.0   90.0   16.666666666666668
-200.0   90.0   0.0
-200.0   60.0   16.666666666666668
-150.0   90.0   16.666666666666668
-150.0   60.0   16.666666666666668
-150.0   60.0   0.0
-200.0   60.0   16.666666666666668
-150.0   90.0   16.666666666666668
-150.0   60.0   0.0
-200.0   90.0   0.0
-200.0   60.0   16.666666666666668
-150.0   60.0   16.666666666666668
-200.0   90.0   16.666666666666668
-200.0   60.0   33.333333333333336
-150.0   60.0   16.666666666666668
-150.0   90.0   16.666666666666668
-200.0   90.0   16.666666666666668
-150.0   90.0   33.333333333333336
-200.0   60.0   33.333333333333336
-200.0   90.0   33.333333333333336
-150.0   90.0   33.333333333333336
-200.0   90.0   16.666666666666668
-200.0   60.0   33.333333333333336
-150.0   90.0   33.333333333333336
-150.0   60.0   33.333333333333336
-150.0   60.0   16.666666666666668
-200.0   60.0   33.333333333333336
-150.0   90.0   33.333333333333336
-150.0   60.0   16.666666666666668
-200.0   90.0   16.666666666666668
-200.0   60.0   33.333333333333336
-150.0   60.0   33.333333333333336
-200.0   90.0   33.333333333333336
-200.0   60.0   50.0
-150.0   60.0   33.333333333333336
-150.0   90.0   33.333333333333336
-200.0   90.0   33.333333333333336
-150.0   90.0   50.0
-200.0   60.0   50.0
-200.0   90.0   50.0
-150.0   90.0   50.0
-200.0   90.0   33.333333333333336
-200.0   60.0   50.0
-150.0   90.0   50.0
-150.0   60.0   50.0
-150.0   60.0   33.333333333333336
-200.0   60.0   50.0
-150.0   90.0   50.0
-150.0   60.0   33.333333333333336
-200.0   90.0   33.333333333333336
-200.0   90.0   0.0
-150.0   90.0   0.0
-200.0   120.0   0.0
-200.0   90.0   16.666666666666668
-150.0   90.0   0.0
-150.0   120.0   0.0
-200.0   120.0   0.0
-150.0   120.0   16.666666666666668
-200.0   90.0   16.666666666666668
-200.0   120.0   16.666666666666668
-150.0   120.0   16.666666666666668
-200.0   120.0   0.0
-200.0   90.0   16.666666666666668
-150.0   120.0   16.666666666666668
-150.0   90.0   16.666666666666668
-150.0   90.0   0.0
-200.0   90.0   16.666666666666668
-150.0   120.0   16.666666666666668
-150.0   90.0   0.0
-200.0   120.0   0.0
-200.0   90.0   16.666666666666668
-150.0   90.0   16.666666666666668
-200.0   120.0   16.666666666666668
-200.0   90.0   33.333333333333336
-150.0   90.0   16.666666666666668
-150.0   120.0   16.666666666666668
-200.0   120.0   16.666666666666668
-150.0   120.0   33.333333333333336
-200.0   90.0   33.333333333333336
-200.0   120.0   33.333333333333336
-150.0   120.0   33.333333333333336
-200.0   120.0   16.666666666666668
-200.0   90.0   33.333333333333336
-150.0   120.0   33.333333333333336
-150.0   90.0   33.333333333333336
-150.0   90.0   16.666666666666668
-200.0   90.0   33.333333333333336
-150.0   120.0   33.333333333333336
-150.0   90.0   16.666666666666668
-200.0   120.0   16.666666666666668
-200.0   90.0   33.333333333333336
-150.0   90.0   33.333333333333336
-200.0   120.0   33.333333333333336
-200.0   90.0   50.0
-150.0   90.0   33.333333333333336
-150.0   120.0   33.333333333333336
-200.0   120.0   33.333333333333336
-150.0   120.0   50.0
-200.0   90.0   50.0
-200.0   120.0   50.0
-150.0   120.0   50.0
-200.0   120.0   33.333333333333336
-200.0   90.0   50.0
-150.0   120.0   50.0
-150.0   90.0   50.0
-150.0   90.0   33.333333333333336
-200.0   90.0   50.0
-150.0   120.0   50.0
-150.0   90.0   33.333333333333336
-200.0   120.0   33.333333333333336
-200.0   120.0   0.0
-150.0   120.0   0.0
-200.0   150.0   0.0
-200.0   120.0   16.666666666666668
-150.0   120.0   0.0
-150.0   150.0   0.0
-200.0   150.0   0.0
-150.0   150.0   16.666666666666668
-200.0   120.0   16.666666666666668
-200.0   150.0   16.666666666666668
-150.0   150.0   16.666666666666668
-200.0   150.0   0.0
-200.0   120.0   16.666666666666668
-150.0   150.0   16.666666666666668
-150.0   120.0   16.666666666666668
-150.0   120.0   0.0
-200.0   120.0   16.666666666666668
-150.0   150.0   16.666666666666668
-150.0   120.0   0.0
-200.0   150.0   0.0
-200.0   120.0   16.666666666666668
-150.0   120.0   16.666666666666668
-200.0   150.0   16.666666666666668
-200.0   120.0   33.333333333333336
-150.0   120.0   16.666666666666668
-150.0   150.0   16.666666666666668
-200.0   150.0   16.666666666666668
-150.0   150.0   33.333333333333336
-200.0   120.0   33.333333333333336
-200.0   150.0   33.333333333333336
-150.0   150.0   33.333333333333336
-200.0   150.0   16.666666666666668
-200.0   120.0   33.333333333333336
-150.0   150.0   33.333333333333336
-150.0   120.0   33.333333333333336
-150.0   120.0   16.666666666666668
-200.0   120.0   33.333333333333336
-150.0   150.0   33.333333333333336
-150.0   120.0   16.666666666666668
-200.0   150.0   16.666666666666668
-200.0   120.0   33.333333333333336
-150.0   120.0   33.333333333333336
-200.0   150.0   33.333333333333336
-200.0   120.0   50.0
-150.0   120.0   33.333333333333336
-150.0   150.0   33.333333333333336
-200.0   150.0   33.333333333333336
-150.0   150.0   50.0
-200.0   120.0   50.0
-200.0   150.0   50.0
-150.0   150.0   50.0
-200.0   150.0   33.333333333333336
-200.0   120.0   50.0
-150.0   150.0   50.0
-150.0   120.0   50.0
-150.0   120.0   33.333333333333336
-200.0   120.0   50.0
-150.0   150.0   50.0
-150.0   120.0   33.333333333333336
-200.0   150.0   33.333333333333336
-150.0   0.0   0.0
-100.0   0.0   0.0
-150.0   30.0   0.0
-150.0   0.0   16.666666666666668
-100.0   0.0   0.0
-100.0   30.0   0.0
-150.0   30.0   0.0
-100.0   30.0   16.666666666666668
-150.0   0.0   16.666666666666668
-150.0   30.0   16.666666666666668
-100.0   30.0   16.666666666666668
-150.0   30.0   0.0
-150.0   0.0   16.666666666666668
-100.0   30.0   16.666666666666668
-100.0   0.0   16.666666666666668
-100.0   0.0   0.0
-150.0   0.0   16.666666666666668
-100.0   30.0   16.666666666666668
-100.0   0.0   0.0
-150.0   30.0   0.0
-150.0   0.0   16.666666666666668
-100.0   0.0   16.666666666666668
-150.0   30.0   16.666666666666668
-150.0   0.0   33.333333333333336
-100.0   0.0   16.666666666666668
-100.0   30.0   16.666666666666668
-150.0   30.0   16.666666666666668
-100.0   30.0   33.333333333333336
-150.0   0.0   33.333333333333336
-150.0   30.0   33.333333333333336
-100.0   30.0   33.333333333333336
-150.0   30.0   16.666666666666668
-150.0   0.0   33.333333333333336
-100.0   30.0   33.333333333333336
-100.0   0.0   33.333333333333336
-100.0   0.0   16.666666666666668
-150.0   0.0   33.333333333333336
-100.0   30.0   33.333333333333336
-100.0   0.0   16.666666666666668
-150.0   30.0   16.666666666666668
-150.0   0.0   33.333333333333336
-100.0   0.0   33.333333333333336
-150.0   30.0   33.333333333333336
-150.0   0.0   50.0
-100.0   0.0   33.333333333333336
-100.0   30.0   33.333333333333336
-150.0   30.0   33.333333333333336
-100.0   30.0   50.0
-150.0   0.0   50.0
-150.0   30.0   50.0
-100.0   30.0   50.0
-150.0   30.0   33.333333333333336
-150.0   0.0   50.0
-100.0   30.0   50.0
-100.0   0.0   50.0
-100.0   0.0   33.333333333333336
-150.0   0.0   50.0
-100.0   30.0   50.0
-100.0   0.0   33.333333333333336
-150.0   30.0   33.333333333333336
-150.0   30.0   0.0
-100.0   30.0   0.0
-150.0   60.0   0.0
-150.0   30.0   16.666666666666668
-100.0   30.0   0.0
-100.0   60.0   0.0
-150.0   60.0   0.0
-100.0   60.0   16.666666666666668
-150.0   30.0   16.666666666666668
-150.0   60.0   16.666666666666668
-100.0   60.0   16.666666666666668
-150.0   60.0   0.0
-150.0   30.0   16.666666666666668
-100.0   60.0   16.666666666666668
-100.0   30.0   16.666666666666668
-100.0   30.0   0.0
-150.0   30.0   16.666666666666668
-100.0   60.0   16.666666666666668
-100.0   30.0   0.0
-150.0   60.0   0.0
-150.0   30.0   16.666666666666668
-100.0   30.0   16.666666666666668
-150.0   60.0   16.666666666666668
-150.0   30.0   33.333333333333336
-100.0   30.0   16.666666666666668
-100.0   60.0   16.666666666666668
-150.0   60.0   16.666666666666668
-100.0   60.0   33.333333333333336
-150.0   30.0   33.333333333333336
-150.0   60.0   33.333333333333336
-100.0   60.0   33.333333333333336
-150.0   60.0   16.666666666666668
-150.0   30.0   33.333333333333336
-100.0   60.0   33.333333333333336
-100.0   30.0   33.333333333333336
-100.0   30.0   16.666666666666668
-150.0   30.0   33.333333333333336
-100.0   60.0   33.333333333333336
-100.0   30.0   16.666666666666668
-150.0   60.0   16.666666666666668
-150.0   30.0   33.333333333333336
-100.0   30.0   33.333333333333336
-150.0   60.0   33.333333333333336
-150.0   30.0   50.0
-100.0   30.0   33.333333333333336
-100.0   60.0   33.333333333333336
-150.0   60.0   33.333333333333336
-100.0   60.0   50.0
-150.0   30.0   50.0
-150.0   60.0   50.0
-100.0   60.0   50.0
-150.0   60.0   33.333333333333336
-150.0   30.0   50.0
-100.0   60.0   50.0
-100.0   30.0   50.0
-100.0   30.0   33.333333333333336
-150.0   30.0   50.0
-100.0   60.0   50.0
-100.0   30.0   33.333333333333336
-150.0   60.0   33.333333333333336
-150.0   60.0   0.0
-100.0   60.0   0.0
-150.0   90.0   0.0
-150.0   60.0   16.666666666666668
-100.0   60.0   0.0
-100.0   90.0   0.0
-150.0   90.0   0.0
-100.0   90.0   16.666666666666668
-150.0   60.0   16.666666666666668
-150.0   90.0   16.666666666666668
-100.0   90.0   16.666666666666668
-150.0   90.0   0.0
-150.0   60.0   16.666666666666668
-100.0   90.0   16.666666666666668
-100.0   60.0   16.666666666666668
-100.0   60.0   0.0
-150.0   60.0   16.666666666666668
-100.0   90.0   16.666666666666668
-100.0   60.0   0.0
-150.0   90.0   0.0
-150.0   60.0   16.666666666666668
-100.0   60.0   16.666666666666668
-150.0   90.0   16.666666666666668
-150.0   60.0   33.333333333333336
-100.0   60.0   16.666666666666668
-100.0   90.0   16.666666666666668
-150.0   90.0   16.666666666666668
-100.0   90.0   33.333333333333336
-150.0   60.0   33.333333333333336
-150.0   90.0   33.333333333333336
-100.0   90.0   33.333333333333336
-150.0   90.0   16.666666666666668
-150.0   60.0   33.333333333333336
-100.0   90.0   33.333333333333336
-100.0   60.0   33.333333333333336
-100.0   60.0   16.666666666666668
-150.0   60.0   33.333333333333336
-100.0   90.0   33.333333333333336
-100.0   60.0   16.666666666666668
-150.0   90.0   16.666666666666668
-150.0   60.0   33.333333333333336
-100.0   60.0   33.333333333333336
-150.0   90.0   33.333333333333336
-150.0   60.0   50.0
-100.0   60.0   33.333333333333336
-100.0   90.0   33.333333333333336
-150.0   90.0   33.333333333333336
-100.0   90.0   50.0
-150.0   60.0   50.0
-150.0   90.0   50.0
-100.0   90.0   50.0
-150.0   90.0   33.333333333333336
-150.0   60.0   50.0
-100.0   90.0   50.0
-100.0   60.0   50.0
-100.0   60.0   33.333333333333336
-150.0   60.0   50.0
-100.0   90.0   50.0
-100.0   60.0   33.333333333333336
-150.0   90.0   33.333333333333336
-150.0   90.0   0.0
-100.0   90.0   0.0
-150.0   120.0   0.0
-150.0   90.0   16.666666666666668
-100.0   90.0   0.0
-100.0   120.0   0.0
-150.0   120.0   0.0
-100.0   120.0   16.666666666666668
-150.0   90.0   16.666666666666668
-150.0   120.0   16.666666666666668
-100.0   120.0   16.666666666666668
-150.0   120.0   0.0
-150.0   90.0   16.666666666666668
-100.0   120.0   16.666666666666668
-100.0   90.0   16.666666666666668
-100.0   90.0   0.0
-150.0   90.0   16.666666666666668
-100.0   120.0   16.666666666666668
-100.0   90.0   0.0
-150.0   120.0   0.0
-150.0   90.0   16.666666666666668
-100.0   90.0   16.666666666666668
-150.0   120.0   16.666666666666668
-150.0   90.0   33.333333333333336
-100.0   90.0   16.666666666666668
-100.0   120.0   16.666666666666668
-150.0   120.0   16.666666666666668
-100.0   120.0   33.333333333333336
-150.0   90.0   33.333333333333336
-150.0   120.0   33.333333333333336
-100.0   120.0   33.333333333333336
-150.0   120.0   16.666666666666668
-150.0   90.0   33.333333333333336
-100.0   120.0   33.333333333333336
-100.0   90.0   33.333333333333336
-100.0   90.0   16.666666666666668
-150.0   90.0   33.333333333333336
-100.0   120.0   33.333333333333336
-100.0   90.0   16.666666666666668
-150.0   120.0   16.666666666666668
-150.0   90.0   33.333333333333336
-100.0   90.0   33.333333333333336
-150.0   120.0   33.333333333333336
-150.0   90.0   50.0
-100.0   90.0   33.333333333333336
-100.0   120.0   33.333333333333336
-150.0   120.0   33.333333333333336
-100.0   120.0   50.0
-150.0   90.0   50.0
-150.0   120.0   50.0
-100.0   120.0   50.0
-150.0   120.0   33.333333333333336
-150.0   90.0   50.0
-100.0   120.0   50.0
-100.0   90.0   50.0
-100.0   90.0   33.333333333333336
-150.0   90.0   50.0
-100.0   120.0   50.0
-100.0   90.0   33.333333333333336
-150.0   120.0   33.333333333333336
-150.0   120.0   0.0
-100.0   120.0   0.0
-150.0   150.0   0.0
-150.0   120.0   16.666666666666668
-100.0   120.0   0.0
-100.0   150.0   0.0
-150.0   150.0   0.0
-100.0   150.0   16.666666666666668
-150.0   120.0   16.666666666666668
-150.0   150.0   16.666666666666668
-100.0   150.0   16.666666666666668
-150.0   150.0   0.0
-150.0   120.0   16.666666666666668
-100.0   150.0   16.666666666666668
-100.0   120.0   16.666666666666668
-100.0   120.0   0.0
-150.0   120.0   16.666666666666668
-100.0   150.0   16.666666666666668
-100.0   120.0   0.0
-150.0   150.0   0.0
-150.0   120.0   16.666666666666668
-100.0   120.0   16.666666666666668
-150.0   150.0   16.666666666666668
-150.0   120.0   33.333333333333336
-100.0   120.0   16.666666666666668
-100.0   150.0   16.666666666666668
-150.0   150.0   16.666666666666668
-100.0   150.0   33.333333333333336
-150.0   120.0   33.333333333333336
-150.0   150.0   33.333333333333336
-100.0   150.0   33.333333333333336
-150.0   150.0   16.666666666666668
-150.0   120.0   33.333333333333336
-100.0   150.0   33.333333333333336
-100.0   120.0   33.333333333333336
-100.0   120.0   16.666666666666668
-150.0   120.0   33.333333333333336
-100.0   150.0   33.333333333333336
-100.0   120.0   16.666666666666668
-150.0   150.0   16.666666666666668
-150.0   120.0   33.333333333333336
-100.0   120.0   33.333333333333336
-150.0   150.0   33.333333333333336
-150.0   120.0   50.0
-100.0   120.0   33.333333333333336
-100.0   150.0   33.333333333333336
-150.0   150.0   33.333333333333336
-100.0   150.0   50.0
-150.0   120.0   50.0
-150.0   150.0   50.0
-100.0   150.0   50.0
-150.0   150.0   33.333333333333336
-150.0   120.0   50.0
-100.0   150.0   50.0
-100.0   120.0   50.0
-100.0   120.0   33.333333333333336
-150.0   120.0   50.0
-100.0   150.0   50.0
-100.0   120.0   33.333333333333336
-150.0   150.0   33.333333333333336
-100.0   0.0   0.0
-50.0   0.0   0.0
-100.0   30.0   0.0
-100.0   0.0   16.666666666666668
-50.0   0.0   0.0
-50.0   30.0   0.0
-100.0   30.0   0.0
-50.0   30.0   16.666666666666668
-100.0   0.0   16.666666666666668
-100.0   30.0   16.666666666666668
-50.0   30.0   16.666666666666668
-100.0   30.0   0.0
-100.0   0.0   16.666666666666668
-50.0   30.0   16.666666666666668
-50.0   0.0   16.666666666666668
-50.0   0.0   0.0
-100.0   0.0   16.666666666666668
-50.0   30.0   16.666666666666668
-50.0   0.0   0.0
-100.0   30.0   0.0
-100.0   0.0   16.666666666666668
-50.0   0.0   16.666666666666668
-100.0   30.0   16.666666666666668
-100.0   0.0   33.333333333333336
-50.0   0.0   16.666666666666668
-50.0   30.0   16.666666666666668
-100.0   30.0   16.666666666666668
-50.0   30.0   33.333333333333336
-100.0   0.0   33.333333333333336
-100.0   30.0   33.333333333333336
-50.0   30.0   33.333333333333336
-100.0   30.0   16.666666666666668
-100.0   0.0   33.333333333333336
-50.0   30.0   33.333333333333336
-50.0   0.0   33.333333333333336
-50.0   0.0   16.666666666666668
-100.0   0.0   33.333333333333336
-50.0   30.0   33.333333333333336
-50.0   0.0   16.666666666666668
-100.0   30.0   16.666666666666668
-100.0   0.0   33.333333333333336
-50.0   0.0   33.333333333333336
-100.0   30.0   33.333333333333336
-100.0   0.0   50.0
-50.0   0.0   33.333333333333336
-50.0   30.0   33.333333333333336
-100.0   30.0   33.333333333333336
-50.0   30.0   50.0
-100.0   0.0   50.0
-100.0   30.0   50.0
-50.0   30.0   50.0
-100.0   30.0   33.333333333333336
-100.0   0.0   50.0
-50.0   30.0   50.0
-50.0   0.0   50.0
-50.0   0.0   33.333333333333336
-100.0   0.0   50.0
-50.0   30.0   50.0
-50.0   0.0   33.333333333333336
-100.0   30.0   33.333333333333336
-100.0   30.0   0.0
-50.0   30.0   0.0
-100.0   60.0   0.0
-100.0   30.0   16.666666666666668
-50.0   30.0   0.0
-50.0   60.0   0.0
-100.0   60.0   0.0
-50.0   60.0   16.666666666666668
-100.0   30.0   16.666666666666668
-100.0   60.0   16.666666666666668
-50.0   60.0   16.666666666666668
-100.0   60.0   0.0
-100.0   30.0   16.666666666666668
-50.0   60.0   16.666666666666668
-50.0   30.0   16.666666666666668
-50.0   30.0   0.0
-100.0   30.0   16.666666666666668
-50.0   60.0   16.666666666666668
-50.0   30.0   0.0
-100.0   60.0   0.0
-100.0   30.0   16.666666666666668
-50.0   30.0   16.666666666666668
-100.0   60.0   16.666666666666668
-100.0   30.0   33.333333333333336
-50.0   30.0   16.666666666666668
-50.0   60.0   16.666666666666668
-100.0   60.0   16.666666666666668
-50.0   60.0   33.333333333333336
-100.0   30.0   33.333333333333336
-100.0   60.0   33.333333333333336
-50.0   60.0   33.333333333333336
-100.0   60.0   16.666666666666668
-100.0   30.0   33.333333333333336
-50.0   60.0   33.333333333333336
-50.0   30.0   33.333333333333336
-50.0   30.0   16.666666666666668
-100.0   30.0   33.333333333333336
-50.0   60.0   33.333333333333336
-50.0   30.0   16.666666666666668
-100.0   60.0   16.666666666666668
-100.0   30.0   33.333333333333336
-50.0   30.0   33.333333333333336
-100.0   60.0   33.333333333333336
-100.0   30.0   50.0
-50.0   30.0   33.333333333333336
-50.0   60.0   33.333333333333336
-100.0   60.0   33.333333333333336
-50.0   60.0   50.0
-100.0   30.0   50.0
-100.0   60.0   50.0
-50.0   60.0   50.0
-100.0   60.0   33.333333333333336
-100.0   30.0   50.0
-50.0   60.0   50.0
-50.0   30.0   50.0
-50.0   30.0   33.333333333333336
-100.0   30.0   50.0
-50.0   60.0   50.0
-50.0   30.0   33.333333333333336
-100.0   60.0   33.333333333333336
-100.0   60.0   0.0
-50.0   60.0   0.0
-100.0   90.0   0.0
-100.0   60.0   16.666666666666668
-50.0   60.0   0.0
-50.0   90.0   0.0
-100.0   90.0   0.0
-50.0   90.0   16.666666666666668
-100.0   60.0   16.666666666666668
-100.0   90.0   16.666666666666668
-50.0   90.0   16.666666666666668
-100.0   90.0   0.0
-100.0   60.0   16.666666666666668
-50.0   90.0   16.666666666666668
-50.0   60.0   16.666666666666668
-50.0   60.0   0.0
-100.0   60.0   16.666666666666668
-50.0   90.0   16.666666666666668
-50.0   60.0   0.0
-100.0   90.0   0.0
-100.0   60.0   16.666666666666668
-50.0   60.0   16.666666666666668
-100.0   90.0   16.666666666666668
-100.0   60.0   33.333333333333336
-50.0   60.0   16.666666666666668
-50.0   90.0   16.666666666666668
-100.0   90.0   16.666666666666668
-50.0   90.0   33.333333333333336
-100.0   60.0   33.333333333333336
-100.0   90.0   33.333333333333336
-50.0   90.0   33.333333333333336
-100.0   90.0   16.666666666666668
-100.0   60.0   33.333333333333336
-50.0   90.0   33.333333333333336
-50.0   60.0   33.333333333333336
-50.0   60.0   16.666666666666668
-100.0   60.0   33.333333333333336
-50.0   90.0   33.333333333333336
-50.0   60.0   16.666666666666668
-100.0   90.0   16.666666666666668
-100.0   60.0   33.333333333333336
-50.0   60.0   33.333333333333336
-100.0   90.0   33.333333333333336
-100.0   60.0   50.0
-50.0   60.0   33.333333333333336
-50.0   90.0   33.333333333333336
-100.0   90.0   33.333333333333336
-50.0   90.0   50.0
-100.0   60.0   50.0
-100.0   90.0   50.0
-50.0   90.0   50.0
-100.0   90.0   33.333333333333336
-100.0   60.0   50.0
-50.0   90.0   50.0
-50.0   60.0   50.0
-50.0   60.0   33.333333333333336
-100.0   60.0   50.0
-50.0   90.0   50.0
-50.0   60.0   33.333333333333336
-100.0   90.0   33.333333333333336
-100.0   90.0   0.0
-50.0   90.0   0.0
-100.0   120.0   0.0
-100.0   90.0   16.666666666666668
-50.0   90.0   0.0
-50.0   120.0   0.0
-100.0   120.0   0.0
-50.0   120.0   16.666666666666668
-100.0   90.0   16.666666666666668
-100.0   120.0   16.666666666666668
-50.0   120.0   16.666666666666668
-100.0   120.0   0.0
-100.0   90.0   16.666666666666668
-50.0   120.0   16.666666666666668
-50.0   90.0   16.666666666666668
-50.0   90.0   0.0
-100.0   90.0   16.666666666666668
-50.0   120.0   16.666666666666668
-50.0   90.0   0.0
-100.0   120.0   0.0
-100.0   90.0   16.666666666666668
-50.0   90.0   16.666666666666668
-100.0   120.0   16.666666666666668
-100.0   90.0   33.333333333333336
-50.0   90.0   16.666666666666668
-50.0   120.0   16.666666666666668
-100.0   120.0   16.666666666666668
-50.0   120.0   33.333333333333336
-100.0   90.0   33.333333333333336
-100.0   120.0   33.333333333333336
-50.0   120.0   33.333333333333336
-100.0   120.0   16.666666666666668
-100.0   90.0   33.333333333333336
-50.0   120.0   33.333333333333336
-50.0   90.0   33.333333333333336
-50.0   90.0   16.666666666666668
-100.0   90.0   33.333333333333336
-50.0   120.0   33.333333333333336
-50.0   90.0   16.666666666666668
-100.0   120.0   16.666666666666668
-100.0   90.0   33.333333333333336
-50.0   90.0   33.333333333333336
-100.0   120.0   33.333333333333336
-100.0   90.0   50.0
-50.0   90.0   33.333333333333336
-50.0   120.0   33.333333333333336
-100.0   120.0   33.333333333333336
-50.0   120.0   50.0
-100.0   90.0   50.0
-100.0   120.0   50.0
-50.0   120.0   50.0
-100.0   120.0   33.333333333333336
-100.0   90.0   50.0
-50.0   120.0   50.0
-50.0   90.0   50.0
-50.0   90.0   33.333333333333336
-100.0   90.0   50.0
-50.0   120.0   50.0
-50.0   90.0   33.333333333333336
-100.0   120.0   33.333333333333336
-100.0   120.0   0.0
-50.0   120.0   0.0
-100.0   150.0   0.0
-100.0   120.0   16.666666666666668
-50.0   120.0   0.0
-50.0   150.0   0.0
-100.0   150.0   0.0
-50.0   150.0   16.666666666666668
-100.0   120.0   16.666666666666668
-100.0   150.0   16.666666666666668
-50.0   150.0   16.666666666666668
-100.0   150.0   0.0
-100.0   120.0   16.666666666666668
-50.0   150.0   16.666666666666668
-50.0   120.0   16.666666666666668
-50.0   120.0   0.0
-100.0   120.0   16.666666666666668
-50.0   150.0   16.666666666666668
-50.0   120.0   0.0
-100.0   150.0   0.0
-100.0   120.0   16.666666666666668
-50.0   120.0   16.666666666666668
-100.0   150.0   16.666666666666668
-100.0   120.0   33.333333333333336
-50.0   120.0   16.666666666666668
-50.0   150.0   16.666666666666668
-100.0   150.0   16.666666666666668
-50.0   150.0   33.333333333333336
-100.0   120.0   33.333333333333336
-100.0   150.0   33.333333333333336
-50.0   150.0   33.333333333333336
-100.0   150.0   16.666666666666668
-100.0   120.0   33.333333333333336
-50.0   150.0   33.333333333333336
-50.0   120.0   33.333333333333336
-50.0   120.0   16.666666666666668
-100.0   120.0   33.333333333333336
-50.0   150.0   33.333333333333336
-50.0   120.0   16.666666666666668
-100.0   150.0   16.666666666666668
-100.0   120.0   33.333333333333336
-50.0   120.0   33.333333333333336
-100.0   150.0   33.333333333333336
-100.0   120.0   50.0
-50.0   120.0   33.333333333333336
-50.0   150.0   33.333333333333336
-100.0   150.0   33.333333333333336
-50.0   150.0   50.0
-100.0   120.0   50.0
-100.0   150.0   50.0
-50.0   150.0   50.0
-100.0   150.0   33.333333333333336
-100.0   120.0   50.0
-50.0   150.0   50.0
-50.0   120.0   50.0
-50.0   120.0   33.333333333333336
-100.0   120.0   50.0
-50.0   150.0   50.0
-50.0   120.0   33.333333333333336
-100.0   150.0   33.333333333333336
-50.0   0.0   0.0
0.0   0.0   0.0
-50.0   30.0   0.0
-50.0   0.0   16.666666666666668
0.0   0.0   0.0
0.0   30.0   0.0
-50.0   30.0   0.0
0.0   30.0   16.666666666666668
-50.0   0.0   16.666666666666668
-50.0   30.0   16.666666666666668
0.0   30.0   16.666666666666668
-50.0   30.0   0.0
-50.0   0.0   16.666666666666668
0.0   30.0   16.666666666666668
0.0   0.0   16.666666666666668
0.0   0.0   0.0
-50.0   0.0   16.666666666666668
0.0   30.0   16.666666666666668
0.0   0.0   0.0
-50.0   30.0   0.0
-50.0   0.0   16.666666666666668
0.0   0.0   16.666666666666668
-50.0   30.0   16.666666666666668
-50.0   0.0   33.333333333333336
0.0   0.0   16.666666666666668
0.0   30.0   16.666666666666668
-50.0   30.0   16.666666666666668
0.0   30.0   33.333333333333336
-50.0   0.0   33.333333333333336
-50.0   30.0   33.333333333333336
0.0   30.0   33.333333333333336
-50.0   30.0   16.666666666666668
-50.0   0.0   33.333333333333336
0.0   30.0   33.333333333333336
0.0   0.0   33.333333333333336
0.0   0.0   16.666666666666668
-50.0   0.0   33.333333333333336
0.0   30.0   33.333333333333336
0.0   0.0   16.666666666666668
-50.0   30.0   16.666666666666668
-50.0   0.0   33.333333333333336
0.0   0.0   33.333333333333336
-50.0   30.0   33.333333333333336
-50.0   0.0   50.0
0.0   0.0   33.333333333333336
0.0   30.0   33.333333333333336
-50.0   30.0   33.333333333333336
0.0   30.0   50.0
-50.0   0.0   50.0
-50.0   30.0   50.0
0.0   30.0   50.0
-50.0   30.0   33.333333333333336
-50.0   0.0   50.0
0.0   30.0   50.0
0.0   0.0   50.0
0.0   0.0   33.333333333333336
-50.0   0.0   50.0
0.0   30.0   50.0
0.0   0.0   33.333333333333336
-50.0   30.0   33.333333333333336
-50.0   30.0   0.0
0.0   30.0   0.0
-50.0   60.0   0.0
-50.0   30.0   16.666666666666668
0.0   30.0   0.0
0.0   60.0   0.0
-50.0   60.0   0.0
0.0   60.0   16.666666666666668
-50.0   30.0   16.666666666666668
-50.0   60.0   16.666666666666668
0.0   60.0   16.666666666666668
-50.0   60.0   0.0
-50.0   30.0   16.666666666666668
0.0   60.0   16.666666666666668
0.0   30.0   16.666666666666668
0.0   30.0   0.0
-50.0   30.0   16.666666666666668
0.0   60.0   16.666666666666668
0.0   30.0   0.0
-50.0   60.0   0.0
-50.0   30.0   16.666666666666668
0.0   30.0   16.666666666666668
-50.0   60.0   16.666666666666668
-50.0   30.0   33.333333333333336
0.0   30.0   16.666666666666668
0.0   60.0   16.666666666666668
-50.0   60.0   16.666666666666668
0.0   60.0   33.333333333333336
-50.0   30.0   33.333333333333336
-50.0   60.0   33.333333333333336
0.0   60.0   33.333333333333336
-50.0   60.0   16.666666666666668
-50.0   30.0   33.333333333333336
0.0   60.0   33.333333333333336
0.0   30.0   33.333333333333336
0.0   30.0   16.666666666666668
-50.0   30.0   33.333333333333336
0.0   60.0   33.333333333333336
0.0   30.0   16.666666666666668
-50.0   60.0   16.666666666666668
-50.0   30.0   33.333333333333336
0.0   30.0   33.333333333333336
-50.0   60.0   33.333333333333336
-50.0   30.0   50.0
0.0   30.0   33.333333333333336
0.0   60.0   33.333333333333336
-50.0   60.0   33.333333333333336
0.0   60.0   50.0
-50.0   30.0   50.0
-50.0   60.0   50.0
0.0   60.0   50.0
-50.0   60.0   33.333333333333336
-50.0   30.0   50.0
0.0   60.0   50.0
0.0   30.0   50.0
0.0   30.0   33.333333333333336
-50.0   30.0   50.0
0.0   60.0   50.0
0.0   30.0   33.333333333333336
-50.0   60.0   33.333333333333336
-50.0   60.0   0.0
0.0   60.0   0.0
-50.0   90.0   0.0
-50.0   60.0   16.666666666666668
0.0   60.0   0.0
0.0   90.0   0.0
-50.0   90.0   0.0
0.0   90.0   16.666666666666668
-50.0   60.0   16.666666666666668
-50.0   90.0   16.666666666666668
0.0   90.0   16.666666666666668
-50.0   90.0   0.0
-50.0   60.0   16.666666666666668
0.0   90.0   16.666666666666668
0.0   60.0   16.666666666666668
0.0   60.0   0.0
-50.0   60.0   16.666666666666668
0.0   90.0   16.666666666666668
0.0   60.0   0.0
-50.0   90.0   0.0
-50.0   60.0   16.666666666666668
0.0   60.0   16.666666666666668
-50.0   90.0   16.666666666666668
-50.0   60.0   33.333333333333336
0.0   60.0   16.666666666666668
0.0   90.0   16.666666666666668
-50.0   90.0   16.666666666666668
0.0   90.0   33.333333333333336
-50.0   60.0   33.333333333333336
-50.0   90.0   33.333333333333336
0.0   90.0   33.333333333333336
-50.0   90.0   16.666666666666668
-50.0   60.0   33.333333333333336
0.0   90.0   33.333333333333336
0.0   60.0   33.333333333333336
0.0   60.0   16.666666666666668
-50.0   60.0   33.333333333333336
0.0   90.0   33.333333333333336
0.0   60.0   16.666666666666668
-50.0   90.0   16.666666666666668
-50.0   60.0   33.333333333333336
0.0   60.0   33.333333333333336
-50.0   90.0   33.333333333333336
-50.0   60.0   50.0
0.0   60.0   33.333333333333336
0.0   90.0   33.333333333333336
-50.0   90.0   33.333333333333336
0.0   90.0   50.0
-50.0   60.0   50.0
-50.0   90.0   50.0
0.0   90.0   50.0
-50.0   90.0   33.333333333333336
-50.0   60.0   50.0
0.0   90.0   50.0
0.0   60.0   50.0
0.0   60.0   33.333333333333336
-50.0   60.0   50.0
0.0   90.0   50.0
0.0   60.0   33.333333333333336
-50.0   90.0   33.333333333333336
-50.0   90.0   0.0
0.0   90.0   0.0
-50.0   120.0   0.0
-50.0   90.0   16.666666666666668
0.0   90.0   0.0
0.0   120.0   0.0
-50.0   120.0   0.0
0.0   120.0   16.666666666666668
-50.0   90.0   16.666666666666668
-50.0   120.0   16.666666666666668
0.0   120.0   16.666666666666668
-50.0   120.0   0.0
-50.0   90.0   16.666666666666668
0.0   120.0   16.666666666666668
0.0   90.0   16.666666666666668
0.0   90.0   0.0
-50.0   90.0   16.666666666666668
0.0   120.0   16.666666666666668
0.0   90.0   0.0
-50.0   120.0   0.0
-50.0   90.0   16.666666666666668
0.0   90.0   16.666666666666668
-50.0   120.0   16.666666666666668
-50.0   90.0   33.333333333333336
0.0   90.0   16.666666666666668
0.0   120.0   16.666666666666668
-50.0   120.0   16.666666666666668
0.0   120.0   33.333333333333336
-50.0   90.0   33.333333333333336
-50.0   120.0   33.333333333333336
0.0   120.0   33.333333333333336
-50.0   120.0   16.666666666666668
-50.0   90.0   33.333333333333336
0.0   120.0   33.333333333333336
0.0   90.0   33.333333333333336
0.0   90.0   16.666666666666668
-50.0   90.0   33.333333333333336
0.0   120.0   33.333333333333336
0.0   90.0   16.666666666666668
-50.0   120.0   16.666666666666668
-50.0   90.0   33.333333333333336
0.0   90.0   33.333333333333336
-50.0   120.0   33.333333333333336
-50.0   90.0   50.0
0.0   90.0   33.333333333333336
0.0   120.0   33.333333333333336
-50.0   120.0   33.333333333333336
0.0   120.0   50.0
-50.0   90.0   50.0
-50.0   120.0   50.0
0.0   120.0   50.0
-50.0   120.0   33.333333333333336
-50.0   90.0   50.0
0.0   120.0   50.0
0.0   90.0   50.0
0.0   90.0   33.333333333333336
-50.0   90.0   50.0
0.0   120.0   50.0
0.0   90.0   33.333333333333336
-50.0   120.0   33.333333333333336
-50.0   120.0   0.0
0.0   120.0   0.0
-50.0   150.0   0.0
-50.0   120.0   16.666666666666668
0.0   120.0   0.0
0.0   150.0   0.0
-50.0   150.0   0.0
0.0   150.0   16.666666666666668
-50.0   120.0   16.666666666666668
-50.0   150.0   16.666666666666668
0.0   150.0   16.666666666666668
-50.0   150.0   0.0
-50.0   120.0   16.666666666666668
0.0   150.0   16.666666666666668
0.0   120.0   16.666666666666668
0.0   120.0   0.0
-50.0   120.0   16.666666666666668
0.0   150.0   16.666666666666668
0.0   120.0   0.0
-50.0   150.0   0.0
-50.0   120.0   16.666666666666668
0.0   120.0   16.666666666666668
-50.0   150.0   16.666666666666668
-50.0   120.0   33.333333333333336
0.0   120.0   16.666666666666668
0.0   150.0   16.666666666666668
-50.0   150.0   16.666666666666668
0.0   150.0   33.333333333333336
-50.0   120.0   33.333333333333336
-50.0   150.0   33.333333333333336
0.0   150.0   33.333333333333336
-50.0   150.0   16.666666666666668
-50.0   120.0   33.333333333333336
0.0   150.0   33.333333333333336
0.0   120.0   33.333333333333336
0.0   120.0   16.666666666666668
-50.0   120.0   33.333333333333336
0.0   150.0   33.333333333333336
0.0   120.0   16.666666666666668
-50.0   150.0   16.666666666666668
-50.0   120.0   33.333333333333336
0.0   120.0   33.333333333333336
-50.0   150.0   33.333333333333336
-50.0   120.0   50.0
0.0   120.0   33.333333333333336
0.0   150.0   33.333333333333336
-50.0   150.0   33.333333333333336
0.0   150.0   50.0
-50.0   120.0   50.0
-50.0   150.0   50.0
0.0   150.0   50.0
-50.0   150.0   33.333333333333336
-50.0   120.0   50.0
0.0   150.0   50.0
0.0   120.0   50.0
0.0   120.0   33.333333333333336
-50.0   120.0   50.0
0.0   150.0   50.0
0.0   120.0   33.333333333333336
-50.0   150.0   33.333333333333336
0.0   0.0   0.0
50.0   0.0   0.0
0.0   30.0   0.0
0.0   0.0   16.666666666666668
50.0   0.0   0.0
50.0   30.0   0.0
0.0   30.0   0.0
50.0   30.0   16.666666666666668
0.0   0.0   16.666666666666668
0.0   30.0   16.666666666666668
50.0   30.0   16.666666666666668
0.0   30.0   0.0
0.0   0.0   16.666666666666668
50.0   30.0   16.666666666666668
50.0   0.0   16.666666666666668
50.0   0.0   0.0
0.0   0.0   16.666666666666668
50.0   30.0   16.666666666666668
50.0   0.0   0.0
0.0   30.0   0.0
0.0   0.0   16.666666666666668
50.0   0.0   16.666666666666668
0.0   30.0   16.666666666666668
0.0   0.0   33.333333333333336
50.0   0.0   16.666666666666668
50.0   30.0   16.666666666666668
0.0   30.0   16.666666666666668
50.0   30.0   33.333333333333336
0.0   0.0   33.333333333333336
0.0   30.0   33.333333333333336
50.0   30.0   33.333333333333336
0.0   30.0   16.666666666666668
0.0   0.0   33.333333333333336
50.0   30.0   33.333333333333336
50.0   0.0   33.333333333333336
50.0   0.0   16.666666666666668
0.0   0.0   33.333333333333336
50.0   30.0   33.333333333333336
50.0   0.0   16.666666666666668
0.0   30.0   16.666666666666668
0.0   0.0   33.333333333333336
50.0   0.0   33.333333333333336
0.0   30.0   33.333333333333336
0.0   0.0   50.0
50.0   0.0   33.333333333333336
50.0   30.0   33.333333333333336
0.0   30.0   33.333333333333336
50.0   30.0   50.0
0.0   0.0   50.0
0.0   30.0   50.0
50.0   30.0   50.0
0.0   30.0   33.333333333333336
0.0   0.0   50.0
50.0   30.0   50.0
50.0   0.0   50.0
50.0   0.0   33.333333333333336
0.0   0.0   50.0
50.0   30.0   50.0
50.0   0.0   33.333333333333336
0.0   30.0   33.333333333333336
0.0   30.0   0.0
50.0   30.0   0.0
0.0   60.0   0.0
0.0   30.0   16.666666666666668
50.0   30.0   0.0
50.0   60.0   0.0
0.0   60.0   0.0
50.0   60.0   16.666666666666668
0.0   30.0   16.666666666666668
0.0   60.0   16.666666666666668
50.0   60.0   16.666666666666668
0.0   60.0   0.0
0.0   30.0   16.666666666666668
50.0   60.0   16.666666666666668
50.0   30.0   16.666666666666668
50.0   30.0   0.0
0.0   30.0   16.666666666666668
50.0   60.0   16.666666666666668
50.0   30.0   0.0
0.0   60.0   0.0
0.0   30.0   16.666666666666668
50.0   30.0   16.666666666666668
0.0   60.0   16.666666666666668
0.0   30.0   33.333333333333336
50.0   30.0   16.666666666666668
50.0   60.0   16.666666666666668
0.0   60.0   16.666666666666668
50.0   60.0   33.333333333333336
0.0   30.0   33.333333333333336
0.0   60.0   33.333333333333336
50.0   60.0   33.333333333333336
0.0   60.0   16.666666666666668
0.0   30.0   33.333333333333336
50.0   60.0   33.333333333333336
50.0   30.0   33.333333333333336
50.0   30.0   16.666666666666668
0.0   30.0   33.333333333333336
50.0   60.0   33.333333333333336
50.0   30.0   16.666666666666668
0.0   60.0   16.666666666666668
0.0   30.0   33.333333333333336
50.0   30.0   33.333333333333336
0.0   60.0   33.333333333333336
0.0   30.0   50.0
50.0   30.0   33.333333333333336
50.0   60.0   33.333333333333336
0.0   60.0   33.333333333333336
50.0   60.0   50.0
0.0   30.0   50.0
0.0   60.0   50.0
50.0   60.0   50.0
0.0   60.0   33.333333333333336
0.0   30.0   50.0
50.0   60.0   50.0
50.0   30.0   50.0
50.0   30.0   33.333333333333336
0.0   30.0   50.0
50.0   60.0   50.0
50.0   30.0   33.333333333333336
0.0   60.0   33.333333333333336
0.0   60.0   0.0
50.0   60.0   0.0
0.0   90.0   0.0
0.0   60.0   16.666666666666668
50.0   60.0   0.0
50.0   90.0   0.0
0.0   90.0   0.0
50.0   90.0   16.666666666666668
0.0   60.0   16.666666666666668
0.0   90.0   16.666666666666668
50.0   90.0   16.666666666666668
0.0   90.0   0.0
0.0   60.0   16.666666666666668
50.0   90.0   16.666666666666668
50.0   60.0   16.666666666666668
50.0   60.0   0.0
0.0   60.0   16.666666666666668
50.0   90.0   16.666666666666668
50.0   60.0   0.0
0.0   90.0   0.0
0.0   60.0   16.666666666666668
50.0   60.0   16.666666666666668
0.0   90.0   16.666666666666668
0.0   60.0   33.333333333333336
50.0   60.0   16.666666666666668
50.0   90.0   16.666666666666668
0.0   90.0   16.666666666666668
50.0   90.0   33.333333333333336
0.0   60.0   33.333333333333336
0.0   90.0   33.333333333333336
50.0   90.0   33.333333333333336
0.0   90.0   16.666666666666668
0.0   60.0   33.333333333333336
50.0   90.0   33.333333333333336
50.0   60.0   33.333333333333336
50.0   60.0   16.666666666666668
0.0   60.0   33.333333333333336
50.0   90.0   33.333333333333336
50.0   60.0   16.666666666666668
0.0   90.0   16.666666666666668
0.0   60.0   33.333333333333336
50.0   60.0   33.333333333333336
0.0   90.0   33.333333333333336
0.0   60.0   50.0
50.0   60.0   33.333333333333336
50.0   90.0   33.333333333333336
0.0   90.0   33.333333333333336
50.0   90.0   50.0
0.0   60.0   50.0
0.0   90.0   50.0
50.0   90.0   50.0
0.0   90.0   33.333333333333336
0.0   60.0   50.0
50.0   90.0   50.0
50.0   60.0   50.0
50.0   60.0   33.333333333333336
0.0   60.0   50.0
50.0   90.0   50.0
50.0   60.0   33.333333333333336
0.0   90.0   33.333333333333336
0.0   90.0   0.0
50.0   90.0   0.0
0.0   120.0   0.0
0.0   90.0   16.666666666666668
50.0   90.0   0.0
50.0   120.0   0.0
0.0   120.0   0.0
50.0   120.0   16.666666666666668
0.0   90.0   16.666666666666668
0.0   120.0   16.666666666666668
50.0   120.0   16.666666666666668
0.0   120.0   0.0
0.0   90.0   16.666666666666668
50.0   120.0   16.666666666666668
50.0   90.0   16.666666666666668
50.0   90.0   0.0
0.0   90.0   16.666666666666668
50.0   120.0   16.666666666666668
50.0   90.0   0.0
0.0   120.0   0.0
0.0   90.0   16.666666666666668
50.0   90.0   16.666666666666668
0.0   120.0   16.666666666666668
0.0   90.0   33.333333333333336
50.0   90.0   16.666666666666668
50.0   120.0   16.666666666666668
0.0   120.0   16.666666666666668
50.0   120.0   33.333333333333336
0.0   90.0   33.333333333333336
0.0   120.0   33.333333333333336
50.0   120.0   33.333333333333336
0.0   120.0   16.666666666666668
0.0   90.0   33.333333333333336
50.0   120.0   33.333333333333336
50.0   90.0   33.333333333333336
50.0   90.0   16.666666666666668
0.0   90.0   33.333333333333336
50.0   120.0   33.333333333333336
50.0   90.0   16.666666666666668
0.0   120.0   16.666666666666668
0.0   90.0   33.333333333333336
50.0   90.0   33.333333333333336
0.0   120.0   33.333333333333336
0.0   90.0   50.0
50.0   90.0   33.333333333333336
50.0   120.0   33.333333333333336
0.0   120.0   33.333333333333336
50.0   120.0   50.0
0.0   90.0   50.0
0.0   120.0   50.0
50.0   120.0   50.0
0.0   120.0   33.333333333333336
0.0   90.0   50.0
50.0   120.0   50.0
50.0   90.0   50.0
50.0   90.0   33.333333333333336
0.0   90.0   50.0
50.0   120.0   50.0
50.0   90.0   33.333333333333336
0.0   120.0   33.333333333333336
0.0   120.0   0.0
50.0   120.0   0.0
0.0   150.0   0.0
0.0   120.0   16.666666666666668
50.0   120.0   0.0
50.0   150.0   0.0
0.0   150.0   0.0
50.0   150.0   16.666666666666668
0.0   120.0   16.666666666666668
0.0   150.0   16.666666666666668
50.0   150.0   16.666666666666668
0.0   150.0   0.0
0.0   120.0   16.666666666666668
50.0   150.0   16.666666666666668
50.0   120.0   16.666666666666668
50.0   120.0   0.0
0.0   120.0   16.666666666666668
50.0   150.0   16.666666666666668
50.0   120.0   0.0
0.0   150.0   0.0
0.0   120.0   16.666666666666668
50.0   120.0   16.666666666666668
0.0   150.0   16.666666666666668
0.0   120.0   33.333333333333336
50.0   120.0   16.666666666666668
50.0   150.0   16.666666666666668
0.0   150.0   16.666666666666668
50.0   150.0   33.333333333333336
0.0   120.0   33.333333333333336
0.0   150.0   33.333333333333336
50.0   150.0   33.333333333333336
0.0   150.0   16.666666666666668
0.0   120.0   33.333333333333336
50.0   150.0   33.333333333333336
50.0   120.0   33.333333333333336
50.0   120.0   16.666666666666668
0.0   120.0   33.333333333333336
50.0   150.0   33.333333333333336
50.0   120.0   16.666666666666668
0.0   150.0   16.666666666666668
0.0   120.0   33.333333333333336
50.0   120.0   33.333333333333336
0.0   150.0   33.333333333333336
0.0   120.0   50.0
50.0   120.0   33.333333333333336
50.0   150.0   33.333333333333336
0.0   150.0   33.333333333333336
50.0   150.0   50.0
0.0   120.0   50.0
0.0   150.0   50.0
50.0   150.0   50.0
0.0   150.0   33.333333333333336
0.0   120.0   50.0
50.0   150.0   50.0
50.0   120.0   50.0
50.0   120.0   33.333333333333336
0.0   120.0   50.0
50.0   150.0   50.0
50.0   120.0   33.333333333333336
0.0   150.0   33.333333333333336
50.0   0.0   0.0
100.0   0.0   0.0
50.0   30.0   0.0
50.0   0.0   16.666666666666668
100.0   0.0   0.0
100.0   30.0   0.0
50.0   30.0   0.0
100.0   30.0   16.666666666666668
50.0   0.0   16.666666666666668
50.0   30.0   16.666666666666668
100.0   30.0   16.666666666666668
50.0   30.0   0.0
50.0   0.0   16.666666666666668
100.0   30.0   16.666666666666668
100.0   0.0   16.666666666666668
100.0   0.0   0.0
50.0   0.0   16.666666666666668
100.0   30.0   16.666666666666668
100.0   0.0   0.0
50.0   30.0   0.0
50.0   0.0   16.666666666666668
100.0   0.0   16.666666666666668
50.0   30.0   16.666666666666668
50.0   0.0   33.333333333333336
100.0   0.0   16.666666666666668
100.0   30.0   16.666666666666668
50.0   30.0   16.666666666666668
100.0   30.0   33.333333333333336
50.0   0.0   33.333333333333336
50.0   30.0   33.333333333333336
100.0   30.0   33.333333333333336
50.0   30.0   16.666666666666668
50.0   0.0   33.333333333333336
100.0   30.0   33.333333333333336
100.0   0.0   33.333333333333336
100.0   0.0   16.666666666666668
50.0   0.0   33.333333333333336
100.0   30.0   33.333333333333336
100.0   0.0   16.666666666666668
50.0   30.0   16.666666666666668
50.0   0.0   33.333333333333336
100.0   0.0   33.333333333333336
50.0   30.0   33.333333333333336
50.0   0.0   50.0
100.0   0.0   33.333333333333336
100.0   30.0   33.333333333333336
50.0   30.0   33.333333333333336
100.0   30.0   50.0
50.0   0.0   50.0
50.0   30.0   50.0
100.0   30.0   50.0
50.0   30.0   33.333333333333336
50.0   0.0   50.0
100.0   30.0   50.0
100.0   0.0   50.0
100.0   0.0   33.333333333333336
50.0   0.0   50.0
100.0   30.0   50.0
100.0   0.0   33.333333333333336
50.0   30.0   33.333333333333336
50.0   30.0   0.0
100.0   30.0   0.0
50.0   60.0   0.0
50.0   30.0   16.666666666666668
100.0   30.0   0.0
100.0   60.0   0.0
50.0   60.0   0.0
100.0   60.0   16.666666666666668
50.0   30.0   16.666666666666668
50.0   60.0   16.666666666666668
100.0   60.0   16.666666666666668
50.0   60.0   0.0
50.0   30.0   16.666666666666668
100.0   60.0   16.666666666666668
100.0   30.0   16.666666666666668
100.0   30.0   0.0
50.0   30.0   16.666666666666668
100.0   60.0   16.666666666666668
100.0   30.0   0.0
50.0   60.0   0.0
50.0   30.0   16.666666666666668
100.0   30.0   16.666666666666668
50.0   60.0   16.666666666666668
50.0   30.0   33.333333333333336
100.0   30.0   16.666666666666668
100.0   60.0   16.666666666666668
50.0   60.0   16.666666666666668
100.0   60.0   33.333333333333336
50.0   30.0   33.333333333333336
50.0   60.0   33.333333333333336
100.0   60.0   33.333333333333336
50.0   60.0   16.666666666666668
50.0   30.0   33.333333333333336
100.0   60.0   33.333333333333336
100.0   30.0   33.333333333333336
100.0   30.0   16.666666666666668
50.0   30.0   33.333333333333336
100.0   60.0   33.333333333333336
100.0   30.0   16.666666666666668
50.0   60.0   16.666666666666668
50.0   30.0   33.333333333333336
100.0   30.0   33.333333333333336
50.0   60.0   33.333333333333336
50.0   30.0   50.0
100.0   30.0   33.333333333333336
100.0   60.0   33.333333333333336
50.0   60.0   33.333333333333336
100.0   60.0   50.0
50.0   30.0   50.0
50.0   60.0   50.0
100.0   60.0   50.0
50.0   60.0   33.333333333333336
50.0   30.0   50.0
100.0   60.0   50.0
100.0   30.0   50.0
100.0   30.0   33.333333333333336
50.0   30.0   50.0
100.0   60.0   50.0
100.0   30.0   33.333333333333336
50.0   60.0   33.333333333333336
50.0   60.0   0.0
100.0   60.0   0.0
50.0   90.0   0.0
50.0   60.0   16.666666666666668
100.0   60.0   0.0
100.0   90.0   0.0
50.0   90.0   0.0
100.0   90.0   16.666666666666668
50.0   60.0   16.666666666666668
50.0   90.0   16.666666666666668
100.0   90.0   16.666666666666668
50.0   90.0   0.0
50.0   60.0   16.666666666666668
100.0   90.0   16.666666666666668
100.0   60.0   16.666666666666668
100.0   60.0   0.0
50.0   60.0   16.666666666666668
100.0   90.0   16.666666666666668
100.0   60.0   0.0
50.0   90.0   0.0
50.0   60.0   16.666666666666668
100.0   60.0   16.666666666666668
50.0   90.0   16.666666666666668
50.0   60.0   33.333333333333336
100.0   60.0   16.666666666666668
100.0   90.0   16.666666666666668
50.0   90.0   16.666666666666668
100.0   90.0   33.333333333333336
50.0   60.0   33.333333333333336
50.0   90.0   33.333333333333336
100.0   90.0   33.333333333333336
50.0   90.0   16.666666666666668
50.0   60.0   33.333333333333336
100.0   90.0   33.333333333333336
100.0   60.0   33.333333333333336
100.0   60.0   16.666666666666668
50.0   60.0   33.333333333333336
100.0   90.0   33.333333333333336
100.0   60.0   16.666666666666668
50.0   90.0   16.666666666666668
50.0   60.0   33.333333333333336
100.0   60.0   33.333333333333336
50.0   90.0   33.333333333333336
50.0   60.0   50.0
100.0   60.0   33.333333333333336
100.0   90.0   33.333333333333336
50.0   90.0   33.333333333333336
100.0   90.0   50.0
50.0   60.0   50.0
50.0   90.0   50.0
100.0   90.0   50.0
50.0   90.0   33.333333333333336
50.0   60.0   50.0
100.0   90.0   50.0
100.0   60.0   50.0
100.0   60.0   33.333333333333336
50.0   60.0   50.0
100.0   90.0   50.0
100.0   60.0   33.333333333333336
50.0   90.0   33.333333333333336
50.0   90.0   0.0
100.0   90.0   0.0
50.0   120.0   0.0
50.0   90.0   16.666666666666668
100.0   90.0   0.0
100.0   120.0   0.0
50.0   120.0   0.0
100.0   120.0   16.666666666666668
50.0   90.0   16.666666666666668
50.0   120.0   16.666666666666668
100.0   120.0   16.666666666666668
50.0   120.0   0.0
50.0   90.0   16.666666666666668
100.0   120.0   16.666666666666668
100.0   90.0   16.666666666666668
100.0   90.0   0.0
50.0   90.0   16.666666666666668
100.0   120.0   16.666666666666668
100.0   90.0   0.0
50.0   120.0   0.0
50.0   90.0   16.666666666666668
100.0   90.0   16.666666666666668
50.0   120.0   16.666666666666668
50.0   90.0   33.333333333333336
100.0   90.0   16.666666666666668
100.0   120.0   16.666666666666668
50.0   120.0   16.666666666666668
100.0   120.0   33.333333333333336
50.0   90.0   33.333333333333336
50.0   120.0   33.333333333333336
100.0   120.0   33.333333333333336
50.0   120.0   16.666666666666668
50.0   90.0   33.333333333333336
100.0   120.0   33.333333333333336
100.0   90.0   33.333333333333336
100.0   90.0   16.666666666666668
50.0   90.0   33.333333333333336
100.0   120.0   33.333333333333336
100.0   90.0   16.666666666666668
50.0   120.0   16.666666666666668
50.0   90.0   33.333333333333336
100.0   90.0   33.333333333333336
50.0   120.0   33.333333333333336
50.0   90.0   50.0
100.0   90.0   33.333333333333336
100.0   120.0   33.333333333333336
50.0   120.0   33.333333333333336
100.0   120.0   50.0
50.0   90.0   50.0
50.0   120.0   50.0
100.0   120.0   50.0
50.0   120.0   33.333333333333336
50.0   90.0   50.0
100.0   120.0   50.0
100.0   90.0   50.0
100.0   90.0   33.333333333333336
50.0   90.0   50.0
100.0   120.0   50.0
100.0   90.0   33.333333333333336
50.0   120.0   33.333333333333336
50.0   120.0   0.0
100.0   120.0   0.0
50.0   150.0   0.0
50.0   120.0   16.666666666666668
100.0   120.0   0.0
100.0   150.0   0.0
50.0   150.0   0.0
100.0   150.0   16.666666666666668
50.0   120.0   16.666666666666668
50.0   150.0   16.666666666666668
100.0   150.0   16.666666666666668
50.0   150.0   0.0
50.0   120.0   16.666666666666668
100.0   150.0   16.666666666666668
100.0   120.0   16.666666666666668
100.0   120.0   0.0
50.0   120.0   16.666666666666668
100.0   150.0   16.666666666666668
100.0   120.0   0.0
50.0   150.0   0.0
50.0   120.0   16.666666666666668
100.0   120.0   16.666666666666668
50.0   150.0   16.666666666666668
50.0   120.0   33.333333333333336
100.0   120.0   16.666666666666668
100.0   150.0   16.666666666666668
50.0   150.0   16.666666666666668
100.0   150.0   33.333333333333336
50.0   120.0   33.333333333333336
50.0   150.0   33.333333333333336
100.0   150.0   33.333333333333336
50.0   150.0   16.666666666666668
50.0   120.0   33.333333333333336
100.0   150.0   33.333333333333336
100.0   120.0   33.333333333333336
100.0   120.0   16.666666666666668
50.0   120.0   33.333333333333336
100.0   150.0   33.333333333333336
100.0   120.0   16.666666666666668
50.0   150.0   16.666666666666668
50.0   120.0   33.333333333333336
100.0   120.0   33.333333333333336
50.0   150.0   33.333333333333336
50.0   120.0   50.0
100.0   120.0   33.333333333333336
100.0   150.0   33.333333333333336
50.0   150.0   33.333333333333336
100.0   150.0   50.0
50.0   120.0   50.0
50.0   150.0   50.0
100.0   150.0   50.0
50.0   150.0   33.333333333333336
50.0   120.0   50.0
100.0   150.0   50.0
100.0   120.0   50.0
100.0   120.0   33.333333333333336
50.0   120.0   50.0
100.0   150.0   50.0
100.0   120.0   33.333333333333336
50.0   150.0   33.333333333333336
100.0   0.0   0.0
150.0   0.0   0.0
100.0   30.0   0.0
100.0   0.0   16.666666666666668
150.0   0.0   0.0
150.0   30.0   0.0
100.0   30.0   0.0
150.0   30.0   16.666666666666668
100.0   0.0   16.666666666666668
100.0   30.0   16.666666666666668
150.0   30.0   16.666666666666668
100.0   30.0   0.0
100.0   0.0   16.666666666666668
150.0   30.0   16.666666666666668
150.0   0.0   16.666666666666668
150.0   0.0   0.0
100.0   0.0   16.666666666666668
150.0   30.0   16.666666666666668
150.0   0.0   0.0
100.0   30.0   0.0
100.0   0.0   16.666666666666668
150.0   0.0   16.666666666666668
100.0   30.0   16.666666666666668
100.0   0.0   33.333333333333336
150.0   0.0   16.666666666666668
150.0   30.0   16.666666666666668
100.0   30.0   16.666666666666668
150.0   30.0   33.333333333333336
100.0   0.0   33.333333333333336
100.0   30.0   33.333333333333336
150.0   30.0   33.333333333333336
100.0   30.0   16.666666666666668
100.0   0.0   33.333333333333336
150.0   30.0   33.333333333333336
150.0   0.0   33.333333333333336
150.0   0.0   16.666666666666668
100.0   0.0   33.333333333333336
150.0   30.0   33.333333333333336
150.0   0.0   16.666666666666668
100.0   30.0   16.666666666666668
100.0   0.0   33.333333333333336
150.0   0.0   33.333333333333336
100.0   30.0   33.333333333333336
100.0   0.0   50.0
150.0   0.0   33.333333333333336
150.0   30.0   33.333333333333336
100.0   30.0   33.333333333333336
150.0   30.0   50.0
100.0   0.0   50.0
100.0   30.0   50.0
150.0   30.0   50.0
100.0   30.0   33.333333333333336
100.0   0.0   50.0
150.0   30.0   50.0
150.0   0.0   50.0
150.0   0.0   33.333333333333336
100.0   0.0   50.0
150.0   30.0   50.0
150.0   0.0   33.333333333333336
100.0   30.0   33.333333333333336
100.0   30.0   0.0
150.0   30.0   0.0
100.0   60.0   0.0
100.0   30.0   16.666666666666668
150.0   30.0   0.0
150.0   60.0   0.0
100.0   60.0   0.0
150.0   60.0   16.666666666666668
100.0   30.0   16.666666666666668
100.0   60.0   16.666666666666668
150.0   60.0   16.666666666666668
100.0   60.0   0.0
100.0   30.0   16.666666666666668
150.0   60.0   16.666666666666668
150.0   30.0   16.666666666666668
150.0   30.0   0.0
100.0   30.0   16.666666666666668
150.0   60.0   16.666666666666668
150.0   30.0   0.0
100.0   60.0   0.0
100.0   30.0   16.666666666666668
150.0   30.0   16.666666666666668
100.0   60.0   16.666666666666668
100.0   30.0   33.333333333333336
150.0   30.0   16.666666666666668
150.0   60.0   16.666666666666668
100.0   60.0   16.666666666666668
150.0   60.0   33.333333333333336
100.0   30.0   33.333333333333336
100.0   60.0   33.333333333333336
150.0   60.0   33.333333333333336
100.0   60.0   16.666666666666668
100.0   30.0   33.333333333333336
150.0   60.0   33.333333333333336
150.0   30.0   33.333333333333336
150.0   30.0   16.666666666666668
100.0   30.0   33.333333333333336
150.0   60.0   33.333333333333336
150.0   30.0   16.666666666666668
100.0   60.0   16.666666666666668
100.0   30.0   33.333333333333336
150.0   30.0   33.333333333333336
100.0   60.0   33.333333333333336
100.0   30.0   50.0
150.0   30.0   33.333333333333336
150.0   60.0   33.333333333333336
100.0   60.0   33.333333333333336
150.0   60.0   50.0
100.0   30.0   50.0
100.0   60.0   50.0
150.0   60.0   50.0
100.0   60.0   33.333333333333336
100.0   30.0   50.0
150.0   60.0   50.0
150.0   30.0   50.0
150.0   30.0   33.333333333333336
100.0   30.0   50.0
150.0   60.0   50.0
150.0   30.0   33.333333333333336
100.0   60.0   33.333333333333336
100.0   60.0   0.0
150.0   60.0   0.0
100.0   90.0   0.0
100.0   60.0   16.666666666666668
150.0   60.0   0.0
150.0   90.0   0.0
100.0   90.0   0.0
150.0   90.0   16.666666666666668
100.0   60.0   16.666666666666668
100.0   90.0   16.666666666666668
150.0   90.0   16.666666666666668
100.0   90.0   0.0
100.0   60.0   16.666666666666668
150.0   90.0   16.666666666666668
150.0   60.0   16.666666666666668
150.0   60.0   0.0
100.0   60.0   16.666666666666668
150.0   90.0   16.666666666666668
150.0   60.0   0.0
100.0   90.0   0.0
100.0   60.0   16.666666666666668
150.0   60.0   16.666666666666668
100.0   90.0   16.666666666666668
100.0   60.0   33.333333333333336
150.0   60.0   16.666666666666668
150.0   90.0   16.666666666666668
100.0   90.0   16.666666666666668
150.0   90.0   33.333333333333336
100.0   60.0   33.333333333333336
100.0   90.0   33.333333333333336
150.0   90.0   33.333333333333336
100.0   90.0   16.666666666666668
100.0   60.0   33.333333333333336
150.0   90.0   33.333333333333336
150.0   60.0   33.333333333333336
150.0   60.0   16.666666666666668
100.0   60.0   33.333333333333336
150.0   90.0   33.333333333333336
150.0   60.0   16.666666666666668
100.0   90.0   16.666666666666668
100.0   60.0   33.333333333333336
150.0   60.0   33.333333333333336
100.0   90.0   33.333333333333336
100.0   60.0   50.0
150.0   60.0   33.333333333333336
150.0   90.0   33.333333333333336
100.0   90.0   33.333333333333336
150.0   90.0   50.0
100.0   60.0   50.0
100.0   90.0   50.0
150.0   90.0   50.0
100.0   90.0   33.333333333333336
100.0   60.0   50.0
150.0   90.0   50.0
150.0   60.0   50.0
150.0   60.0   33.333333333333336
100.0   60.0   50.0
150.0   90.0   50.0
150.0   60.0   33.333333333333336
100.0   90.0   33.333333333333336
100.0   90.0   0.0
150.0   90.0   0.0
100.0   120.0   0.0
100.0   90.0   16.666666666666668
150.0   90.0   0.0
150.0   120.0   0.0
100.0   120.0   0.0
150.0   120.0   16.666666666666668
100.0   90.0   16.666666666666668
100.0   120.0   16.666666666666668
150.0   120.0   16.666666666666668
100.0   120.0   0.0
100.0   90.0   16.666666666666668
150.0   120.0   16.666666666666668
150.0   90.0   16.666666666666668
150.0   90.0   0.0
100.0   90.0   16.666666666666668
150.0   120.0   16.666666666666668
150.0   90.0   0.0
100.0   120.0   0.0
100.0   90.0   16.666666666666668
150.0   90.0   16.666666666666668
100.0   120.0   16.666666666666668
100.0   90.0   33.333333333333336
150.0   90.0   16.666666666666668
150.0   120.0   16.666666666666668
100.0   120.0   16.666666666666668
150.0   120.0   33.333333333333336
100.0   90.0   33.333333333333336
100.0   120.0   33.333333333333336
150.0   120.0   33.333333333333336
100.0   120.0   16.666666666666668
100.0   90.0   33.333333333333336
150.0   120.0   33.333333333333336
150.0   90.0   33.333333333333336
150.0   90.0   16.666666666666668
100.0   90.0   33.333333333333336
150.0   120.0   33.333333333333336
150.0   90.0   16.666666666666668
100.0   120.0   16.666666666666668
100.0   90.0   33.333333333333336
150.0   90.0   33.333333333333336
100.0   120.0   33.333333333333336
100.0   90.0   50.0
150.0   90.0   33.333333333333336
150.0   120.0   33.333333333333336
100.0   120.0   33.333333333333336
150.0   120.0   50.0
100.0   90.0   50.0
100.0   120.0   50.0
150.0   120.0   50.0
100.0   120.0   33.333333333333336
100.0   90.0   50.0
150.0   120.0   50.0
150.0   90.0   50.0
150.0   90.0   33.333333333333336
100.0   90.0   50.0
150.0   120.0   50.0
150.0   90.0   33.333333333333336
100.0   120.0   33.333333333333336
100.0   120.0   0.0
150.0   120.0   0.0
100.0   150.0   0.0
100.0   120.0   16.666666666666668
150.0   120.0   0.0
150.0   150.0   0.0
100.0   150.0   0.0
150.0   150.0   16.666666666666668
100.0   120.0   16.666666666666668
100.0   150.0   16.666666666666668
150.0   150.0   16.666666666666668
100.0   150.0   0.0
100.0   120.0   16.666666666666668
150.0   150.0   16.666666666666668
150.0   120.0   16.666666666666668
150.0   120.0   0.0
100.0   120.0   16.666666666666668
150.0   150.0   16.666666666666668
150.0   120.0   0.0
100.0   150.0   0.0
100.0   120.0   16.666666666666668
150.0   120.0   16.666666666666668
100.0   150.0   16.666666666666668
100.0   120.0   33.333333333333336
150.0   120.0   16.666666666666668
150.0   150.0   16.666666666666668
100.0   150.0   16.666666666666668
150.0   150.0   33.333333333333336
100.0   120.0   33.333333333333336
100.0   150.0   33.333333333333336
150.0   150.0   33.333333333333336
100.0   150.0   16.666666666666668
100.0   120.0   33.333333333333336
150.0   150.0   33.333333333333336
150.0   120.0   33.333333333333336
150.0   120.0   16.666666666666668
100.0   120.0   33.333333333333336
150.0   150.0   33.333333333333336
150.0   120.0   16.666666666666668
100.0   150.0   16.666666666666668
100.0   120.0   33.333333333333336
150.0   120.0   33.333333333333336
100.0   150.0   33.333333333333336
100.0   120.0   50.0
150.0   120.0   33.333333333333336
150.0   150.0   33.333333333333336
100.0   150.0   33.333333333333336
150.0   150.0   50.0
100.0   120.0   50.0
100.0   150.0   50.0
150.0   150.0   50.0
100.0   150.0   33.333333333333336
100.0   120.0   50.0
150.0   150.0   50.0
150.0   120.0   50.0
150.0   120.0   33.333333333333336
100.0   120.0   50.0
150.0   150.0   50.0
150.0   120.0   33.333333333333336
100.0   150.0   33.333333333333336
150.0   0.0   0.0
200.0   0.0   0.0
150.0   30.0   0.0
150.0   0.0   16.666666666666668
200.0   0.0   0.0
200.0   30.0   0.0
150.0   30.0   0.0
200.0   30.0   16.666666666666668
150.0   0.0   16.666666666666668
150.0   30.0   16.666666666666668
200.0   30.0   16.666666666666668
150.0   30.0   0.0
150.0   0.0   16.666666666666668
200.0   30.0   16.666666666666668
200.0   0.0   16.666666666666668
200.0   0.0   0.0
150.0   0.0   16.666666666666668
200.0   30.0   16.666666666666668
200.0   0.0   0.0
150.0   30.0   0.0
150.0   0.0   16.666666666666668
200.0   0.0   16.666666666666668
150.0   30.0   16.666666666666668
150.0   0.0   33.333333333333336
200.0   0.0   16.666666666666668
200.0   30.0   16.666666666666668
150.0   30.0   16.666666666666668
200.0   30.0   33.333333333333336
150.0   0.0   33.333333333333336
150.0   30.0   33.333333333333336
200.0   30.0   33.333333333333336
150.0   30.0   16.666666666666668
150.0   0.0   33.333333333333336
200.0   30.0   33.333333333333336
200.0   0.0   33.333333333333336
200.0   0.0   16.666666666666668
150.0   0.0   33.333333333333336
200.0   30.0   33.333333333333336
200.0   0.0   16.666666666666668
150.0   30.0   16.666666666666668
150.0   0.0   33.333333333333336
200.0   0.0   33.333333333333336
150.0   30.0   33.333333333333336
150.0   0.0   50.0
200.0   0.0   33.333333333333336
200.0   30.0   33.333333333333336
150.0   30.0   33.333333333333336
200.0   30.0   50.0
150.0   0.0   50.0
150.0   30.0   50.0
200.0   30.0   50.0
150.0   30.0   33.333333333333336
150.0   0.0   50.0
200.0   30.0   50.0
200.0   0.0   50.0
200.0   0.0   33.333333333333336
150.0   0.0   50.0
200.0   30.0   50.0
200.0   0.0   33.333333333333336
150.0   30.0   33.333333333333336
150.0   30.0   0.0
200.0   30.0   0.0
150.0   60.0   0.0
150.0   30.0   16.666666666666668
200.0   30.0   0.0
200.0   60.0   0.0
150.0   60.0   0.0
200.0   60.0   16.666666666666668
150.0   30.0   16.666666666666668
150.0   60.0   16.666666666666668
200.0   60.0   16.666666666666668
150.0   60.0   0.0
150.0   30.0   16.666666666666668
200.0   60.0   16.666666666666668
200.0   30.0   16.666666666666668
200.0   30.0   0.0
150.0   30.0   16.666666666666668
200.0   60.0   16.666666666666668
200.0   30.0   0.0
150.0   60.0   0.0
150.0   30.0   16.666666666666668
200.0   30.0   16.666666666666668
150.0   60.0   16.666666666666668
150.0   30.0   33.333333333333336
200.0   30.0   16.666666666666668
200.0   60.0   16.666666666666668
150.0   60.0   16.666666666666668
200.0   60.0   33.333333333333336
150.0   30.0   33.333333333333336
150.0   60.0   33.333333333333336
200.0   60.0   33.333333333333336
150.0   60.0   16.666666666666668
150.0   30.0   33.333333333333336
200.0   60.0   33.333333333333336
200.0   30.0   33.333333333333336
200.0   30.0   16.666666666666668
150.0   30.0   33.333333333333336
200.0   60.0   33.333333333333336
200.0   30.0   16.666666666666668
150.0   60.0   16.666666666666668
150.0   30.0   33.333333333333336
200.0   30.0   33.333333333333336
150.0   60.0   33.333333333333336
150.0   30.0   50.0
200.0   30.0   33.333333333333336
200.0   60.0   33.333333333333336
150.0   60.0   33.333333333333336
200.0   60.0   50.0
150.0   30.0   50.0
150.0   60.0   50.0
200.0   60.0   50.0
150.0   60.0   33.333333333333336
150.0   30.0   50.0
200.0   60.0   50.0
200.0   30.0   50.0
200.0   30.0   33.333333333333336
150.0   30.0   50.0
200.0   60.0   50.0
200.0   30.0   33.333333333333336
150.0   60.0   33.333333333333336
150.0   60.0   0.0
200.0   60.0   0.0
150.0   90.0   0.0
150.0   60.0   16.666666666666668
200.0   60.0   0.0
200.0   90.0   0.0
150.0   90.0   0.0
200.0   90.0   16.666666666666668
150.0   60.0   16.666666666666668
150.0   90.0   16.666666666666668
200.0   90.0   16.666666666666668
150.0   90.0   0.0
150.0   60.0   16.666666666666668
200.0   90.0   16.666666666666668
200.0   60.0   16.666666666666668
200.0   60.0   0.0
150.0   60.0   16.666666666666668
200.0   90.0   16.666666666666668
200.0   60.0   0.0
150.0   90.0   0.0
150.0   60.0   16.666666666666668
200.0   60.0   16.666666666666668
150.0   90.0   16.666666666666668
150.0   60.0   33.333333333333336
200.0   60.0   16.666666666666668
200.0   90.0   16.666666666666668
150.0   90.0   16.666666666666668
200.0   90.0   33.333333333333336
150.0   60.0   33.333333333333336
150.0   90.0   33.333333333333336
200.0   90.0   33.333333333333336
150.0   90.0   16.666666666666668
150.0   60.0   33.333333333333336
200.0   90.0   33.333333333333336
200.0   60.0   33.333333333333336
200.0   60.0   16.666666666666668
150.0   60.0   33.333333333333336
200.0   90.0   33.333333333333336
200.0   60.0   16.666666666666668
150.0   90.0   16.666666666666668
150.0   60.0   33.333333333333336
200.0   60.0   33.333333333333336
150.0   90.0   33.333333333333336
150.0   60.0   50.0
200.0   60.0   33.333333333333336
200.0   90.0   33.333333333333336
150.0   90.0   33.333333333333336
200.0   90.0   50.0
150.0   60.0   50.0
150.0   90.0   50.0
200.0   90.0   50.0
150.0   90.0   33.333333333333336
150.0   60.0   50.0
200.0   90.0   50.0
200.0   60.0   50.0
200.0   60.0   33.333333333333336
150.0   60.0   50.0
200.0   90.0   50.0
200.0   60.0   33.333333333333336
150.0   90.0   33.333333333333336
150.0   90.0   0.0
200.0   90.0   0.0
150.0   120.0   0.0
150.0   90.0   16.666666666666668
200.0   90.0   0.0
200.0   120.0   0.0
150.0   120.0   0.0
200.0   120.0   16.666666666666668
150.0   90.0   16.666666666666668
150.0   120.0   16.666666666666668
200.0   120.0   16.666666666666668
150.0   120.0   0.0
150.0   90.0   16.666666666666668
200.0   120.0   16.666666666666668
200.0   90.0   16.666666666666668
200.0   90.0   0.0
150.0   90.0   16.666666666666668
200.0   120.0   16.666666666666668
200.0   90.0   0.0
150.0   120.0   0.0
150.0   90.0   16.666666666666668
200.0   90.0   16.666666666666668
150.0   120.0   16.666666666666668
150.0   90.0   33.333333333333336
200.0   90.0   16.666666666666668
200.0   120.0   16.666666666666668
150.0   120.0   16.666666666666668
200.0   120.0   33.333333333333336
150.0   90.0   33.333333333333336
150.0   120.0   33.333333333333336
200.0   120.0   33.333333333333336
150.0   120.0   16.666666666666668
150.0   90.0   33.333333333333336
200.0   120.0   33.333333333333336
200.0   90.0   33.333333333333336
200.0   90.0   16.666666666666668
150.0   90.0   33.333333333333336
200.0   120.0   33.333333333333336
200.0   90.0   16.666666666666668
150.0   120.0   16.666666666666668
150.0   90.0   33.333333333333336
200.0   90.0   33.333333333333336
150.0   120.0   33.333333333333336
150.0   90.0   50.0
200.0   90.0   33.333333333333336
200.0   120.0   33.333333333333336
150.0   120.0   33.333333333333336
200.0   120.0   50.0
150.0   90.0   50.0
150.0   120.0   50.0
200.0   120.0   50.0
150.0   120.0   33.333333333333336
150.0   90.0   50.0
200.0   120.0   50.0
200.0   90.0   50.0
200.0   90.0   33.333333333333336
150.0   90.0   50.0
200.0   120.0   50.0
200.0   90.0   33.333333333333336
150.0   120.0   33.333333333333336
150.0   120.0   0.0
200.0   120.0   0.0
150.0   150.0   0.0
150.0   120.0   16.666666666666668
200.0   120.0   0.0
200.0   150.0   0.0
150.0   150.0   0.0
200.0   150.0   16.666666666666668
150.0   120.0   16.666666666666668
150.0   150.0   16.666666666666668
200.0   150.0   16.666666666666668
150.0   150.0   0.0
150.0   120.0   16.666666666666668
200.0   150.0   16.666666666666668
200.0   120.0   16.666666666666668
200.0   120.0   0.0
150.0   120.0   16.666666666666668
200.0   150.0   16.666666666666668
200.0   120.0   0.0
150.0   150.0   0.0
150.0   120.0   16.666666666666668
200.0   120.0   16.666666666666668
150.0   150.0   16.666666666666668
150.0   120.0   33.333333333333336
200.0   120.0   16.666666666666668
200.0   150.0   16.666666666666668
150.0   150.0   16.666666666666668
200.0   150.0   33.333333333333336
150.0   120.0   33.333333333333336
150.0   150.0   33.333333333333336
200.0   150.0   33.333333333333336
150.0   150.0   16.666666666666668
150.0   120.0   33.333333333333336
200.0   150.0   33.333333333333336
200.0   120.0   33.333333333333336
200.0   120.0   16.666666666666668
150.0   120.0   33.333333333333336
200.0   150.0   33.333333333333336
200.0   120.0   16.666666666666668
150.0   150.0   16.666666666666668
150.0   120.0   33.333333333333336
200.0   120.0   33.333333333333336
150.0   150.0   33.333333333333336
150.0   120.0   50.0
200.0   120.0   33.333333333333336
200.0   150.0   33.333333333333336
150.0   150.0   33.333333333333336
200.0   150.0   50.0
150.0   120.0   50.0
150.0   150.0   50.0
200.0   150.0   50.0
150.0   150.0   33.333333333333336
150.0   120.0   50.0
200.0   150.0   50.0
200.0   120.0   50.0
200.0   120.0   33.333333333333336
150.0   120.0   50.0
200.0   150.0   50.0
200.0   120.0   33.333333333333336
150.0   150.0   33.333333333333336
200.0   0.0   0.0
250.0   0.0   0.0
200.0   30.0   0.0
200.0   0.0   16.666666666666668
250.0   0.0   0.0
250.0   30.0   0.0
200.0   30.0   0.0
250.0   30.0   16.666666666666668
200.0   0.0   16.666666666666668
200.0   30.0   16.666666666666668
250.0   30.0   16.666666666666668
200.0   30.0   0.0
200.0   0.0   16.666666666666668
250.0   30.0   16.666666666666668
250.0   0.0   16.666666666666668
250.0   0.0   0.0
200.0   0.0   16.666666666666668
250.0   30.0   16.666666666666668
250.0   0.0   0.0
200.0   30.0   0.0
200.0   0.0   16.666666666666668
250.0   0.0   16.666666666666668
200.0   30.0   16.666666666666668
200.0   0.0   33.333333333333336
250.0   0.0   16.666666666666668
250.0   30.0   16.666666666666668
200.0   30.0   16.666666666666668
250.0   30.0   33.333333333333336
200.0   0.0   33.333333333333336
200.0   30.0   33.333333333333336
250.0   30.0   33.333333333333336
200.0   30.0   16.666666666666668
200.0   0.0   33.333333333333336
250.0   30.0   33.333333333333336
250.0   0.0   33.333333333333336
250.0   0.0   16.666666666666668
200.0   0.0   33.333333333333336
250.0   30.0   33.333333333333336
250.0   0.0   16.666666666666668
200.0   30.0   16.666666666666668
200.0   0.0   33.333333333333336
250.0   0.0   33.333333333333336
200.0   30.0   33.333333333333336
200.0   0.0   50.0
250.0   0.0   33.333333333333336
250.0   30.0   33.333333333333336
200.0   30.0   33.333333333333336
250.0   30.0   50.0
200.0   0.0   50.0
200.0   30.0   50.0
250.0   30.0   50.0
200.0   30.0   33.333333333333336
200.0   0.0   50.0
250.0   30.0   50.0
250.0   0.0   50.0
250.0   0.0   33.333333333333336
200.0   0.0   50.0
250.0   30.0   50.0
250.0   0.0   33.333333333333336
200.0   30.0   33.333333333333336
200.0   30.0   0.0
250.0   30.0   0.0
200.0   60.0   0.0
200.0   30.0   16.666666666666668
250.0   30.0   0.0
250.0   60.0   0.0
200.0   60.0   0.0
250.0   60.0   16.666666666666668
200.0   30.0   16.666666666666668
200.0   60.0   16.666666666666668
250.0   60.0   16.666666666666668
200.0   60.0   0.0
200.0   30.0   16.666666666666668
250.0   60.0   16.666666666666668
250.0   30.0   16.666666666666668
250.0   30.0   0.0
200.0   30.0   16.666666666666668
250.0   60.0   16.666666666666668
250.0   30.0   0.0
200.0   60.0   0.0
200.0   30.0   16.666666666666668
250.0   30.0   16.666666666666668
200.0   60.0   16.666666666666668
200.0   30.0   33.333333333333336
250.0   30.0   16.666666666666668
250.0   60.0   16.666666666666668
200.0   60.0   16.666666666666668
250.0   60.0   33.333333333333336
200.0   30.0   33.333333333333336
200.0   60.0   33.333333333333336
250.0   60.0   33.333333333333336
200.0   60.0   16.666666666666668
200.0   30.0   33.333333333333336
250.0   60.0   33.333333333333336
250.0   30.0   33.333333333333336
250.0   30.0   16.666666666666668
200.0   30.0   33.333333333333336
250.0   60.0   33.333333333333336
250.0   30.0   16.666666666666668
200.0   60.0   16.666666666666668
200.0   30.0   33.333333333333336
250.0   30.0   33.333333333333336
200.0   60.0   33.333333333333336
200.0   30.0   50.0
250.0   30.0   33.333333333333336
250.0   60.0   33.333333333333336
200.0   60.0   33.333333333333336
250.0   60.0   50.0
200.0   30.0   50.0
200.0   60.0   50.0
250.0   60.0   50.0
200.0   60.0   33.333333333333336
200.0   30.0   50.0
250.0   60.0   50.0
250.0   30.0   50.0
250.0   30.0   33.333333333333336
200.0   30.0   50.0
250.0   60.0   50.0
250.0   30.0   33.333333333333336
200.0   60.0   33.333333333333336
200.0   60.0   0.0
250.0   60.0   0.0
200.0   90.0   0.0
200.0   60.0   16.666666666666668
250.0   60.0   0.0
250.0   90.0   0.0
200.0   90.0   0.0
250.0   90.0   16.666666666666668
200.0   60.0   16.666666666666668
200.0   90.0   16.666666666666668
250.0   90.0   16.666666666666668
200.0   90.0   0.0
200.0   60.0   16.666666666666668
250.0   90.0   16.666666666666668
250.0   60.0   16.666666666666668
250.0   60.0   0.0
200.0   60.0   16.666666666666668
250.0   90.0   16.666666666666668
250.0   60.0   0.0
200.0   90.0   0.0
200.0   60.0   16.666666666666668
250.0   60.0   16.666666666666668
200.0   90.0   16.666666666666668
200.0   60.0   33.333333333333336
250.0   60.0   16.666666666666668
250.0   90.0   16.666666666666668
200.0   90.0   16.666666666666668
250.0   90.0   33.333333333333336
200.0   60.0   33.333333333333336
200.0   90.0   33.333333333333336
250.0   90.0   33.333333333333336
200.0   90.0   16.666666666666668
200.0   60.0   33.333333333333336
250.0   90.0   33.333333333333336
250.0   60.0   33.333333333333336
250.0   60.0   16.666666666666668
200.0   60.0   33.333333333333336
250.0   90.0   33.333333333333336
250.0   60.0   16.666666666666668
200.0   90.0   16.666666666666668
200.0   60.0   33.333333333333336
250.0   60.0   33.333333333333336
200.0   90.0   33.333333333333336
200.0   60.0   50.0
250.0   60.0   33.333333333333336
250.0   90.0   33.333333333333336
200.0   90.0   33.333333333333336
250.0   90.0   50.0
200.0   60.0   50.0
200.0   90.0   50.0
250.0   90.0   50.0
200.0   90.0   33.333333333333336
200.0   60.0   50.0
250.0   90.0   50.0
250.0   60.0   50.0
250.0   60.0   33.333333333333336
200.0   60.0   50.0
250.0   90.0   50.0
250.0   60.0   33.333333333333336
200.0   90.0   33.333333333333336
200.0   90.0   0.0
250.0   90.0   0.0
200.0   120.0   0.0
200.0   90.0   16.666666666666668
250.0   90.0   0.0
250.0   120.0   0.0
200.0   120.0   0.0
250.0   120.0   16.666666666666668
200.0   90.0   16.666666666666668
200.0   120.0   16.666666666666668
250.0   120.0   16.666666666666668
200.0   120.0   0.0
200.0   90.0   16.666666666666668
250.0   120.0   16.666666666666668
250.0   90.0   16.666666666666668
250.0   90.0   0.0
200.0   90.0   16.666666666666668
250.0   120.0   16.666666666666668
250.0   90.0   0.0
200.0   120.0   0.0
200.0   90.0   16.666666666666668
250.0   90.0   16.666666666666668
200.0   120.0   16.666666666666668
200.0   90.0   33.333333333333336
250.0   90.0   16.666666666666668
250.0   120.0   16.666666666666668
200.0   120.0   16.666666666666668
250.0   120.0   33.333333333333336
200.0   90.0   33.333333333333336
200.0   120.0   33.333333333333336
250.0   120.0   33.333333333333336
200.0   120.0   16.666666666666668
200.0   90.0   33.333333333333336
250.0   120.0   33.333333333333336
250.0   90.0   33.333333333333336
250.0   90.0   16.666666666666668
200.0   90.0   33.333333333333336
250.0   120.0   33.333333333333336
250.0   90.0   16.666666666666668
200.0   120.0   16.666666666666668
200.0   90.0   33.333333333333336
250.0   90.0   33.333333333333336
200.0   120.0   33.333333333333336
200.0   90.0   50.0
250.0   90.0   33.333333333333336
250.0   120.0   33.333333333333336
200.0   120.0   33.333333333333336
250.0   120.0   50.0
200.0   90.0   50.0
200.0   120.0   50.0
250.0   120.0   50.0
200.0   120.0   33.333333333333336
200.0   90.0   50.0
250.0   120.0   50.0
250.0   90.0   50.0
250.0   90.0   33.333333333333336
200.0   90.0   50.0
250.0   120.0   50.0
250.0   90.0   33.333333333333336
200.0   120.0   33.333333333333336
200.0   120.0   0.0
250.0   120.0   0.0
200.0   150.0   0.0
200.0   120.0   16.666666666666668
250.0   120.0   0.0
250.0   150.0   0.0
200.0   150.0   0.0
250.0   150.0   16.666666666666668
200.0   120.0   16.666666666666668
200.0   150.0   16.666666666666668
250.0   150.0   16.666666666666668
200.0   150.0   0.0
200.0   120.0   16.666666666666668
250.0   150.0   16.666666666666668
250.0   120.0   16.666666666666668
250.0   120.0   0.0
200.0   120.0   16.666666666666668
250.0   150.0   16.666666666666668
250.0   120.0   0.0
200.0   150.0   0.0
200.0   120.0   16.666666666666668
250.0   120.0   16.666666666666668
200.0   150.0   16.666666666666668
200.0   120.0   33.333333333333336
250.0   120.0   16.666666666666668
250.0   150.0   16.666666666666668
200.0   150.0   16.666666666666668
250.0   150.0   33.333333333333336
200.0   120.0   33.333333333333336
200.0   150.0   33.333333333333336
250.0   150.0   33.333333333333336
200.0   150.0   16.666666666666668
200.0   120.0   33.333333333333336
250.0   150.0   33.333333333333336
250.0   120.0   33.333333333333336
250.0   120.0   16.666666666666668
200.0   120.0   33.333333333333336
250.0   150.0   33.333333333333336
250.0   120.0   16.666666666666668
200.0   150.0   16.666666666666668
200.0   120.0   33.333333333333336
250.0   120.0   33.333333333333336
200.0   150.0   33.333333333333336
200.0   120.0   50.0
250.0   120.0   33.333333333333336
250.0   150.0   33.333333333333336
200.0   150.0   33.333333333333336
250.0   150.0   50.0
200.0   120.0   50.0
200.0   150.0   50.0
250.0   150.0   50.0
200.0   150.0   33.333333333333336
200.0   120.0   50.0
250.0   150.0   50.0
250.0   120.0   50.0
250.0   120.0   33.333333333333336
200.0   120.0   50.0
250.0   150.0   50.0
250.0   120.0   33.333333333333336
200.0   150.0   33.333333333333336
250.0   0.0   0.0
300.0   0.0   0.0
250.0   30.0   0.0
250.0   0.0   16.666666666666668
300.0   0.0   0.0
300.0   30.0   0.0
250.0   30.0   0.0
300.0   30.0   16.666666666666668
250.0   0.0   16.666666666666668
250.0   30.0   16.666666666666668
300.0   30.0   16.666666666666668
250.0   30.0   0.0
250.0   0.0   16.666666666666668
300.0   30.0   16.666666666666668
300.0   0.0   16.666666666666668
300.0   0.0   0.0
250.0   0.0   16.666666666666668
300.0   30.0   16.666666666666668
300.0   0.0   0.0
250.0   30.0   0.0
250.0   0.0   16.666666666666668
300.0   0.0   16.666666666666668
250.0   30.0   16.666666666666668
250.0   0.0   33.333333333333336
300.0   0.0   16.666666666666668
300.0   30.0   16.666666666666668
250.0   30.0   16.666666666666668
300.0   30.0   33.333333333333336
250.0   0.0   33.333333333333336
250.0   30.0   33.333333333333336
300.0   30.0   33.333333333333336
250.0   30.0   16.666666666666668
250.0   0.0   33.333333333333336
300.0   30.0   33.333333333333336
300.0   0.0   33.333333333333336
300.0   0.0   16.666666666666668
250.0   0.0   33.333333333333336
300.0   30.0   33.333333333333336
300.0   0.0   16.666666666666668
250.0   30.0   16.666666666666668
250.0   0.0   33.333333333333336
300.0   0.0   33.333333333333336
250.0   30.0   33.333333333333336
250.0   0.0   50.0
300.0   0.0   33.333333333333336
300.0   30.0   33.333333333333336
250.0   30.0   33.333333333333336
300.0   30.0   50.0
250.0   0.0   50.0
250.0   30.0   50.0
300.0   30.0   50.0
250.0   30.0   33.333333333333336
250.0   0.0   50.0
300.0   30.0   50.0
300.0   0.0   50.0
300.0   0.0   33.333333333333336
250.0   0.0   50.0
300.0   30.0   50.0
300.0   0.0   33.333333333333336
250.0   30.0   33.333333333333336
250.0   30.0   0.0
300.0   30.0   0.0
250.0   60.0   0.0
250.0   30.0   16.666666666666668
300.0   30.0   0.0
300.0   60.0   0.0
250.0   60.0   0.0
300.0   60.0   16.666666666666668
250.0   30.0   16.666666666666668
250.0   60.0   16.666666666666668
300.0   60.0   16.666666666666668
250.0   60.0   0.0
250.0   30.0   16.666666666666668
300.0   60.0   16.666666666666668
300.0   30.0   16.666666666666668
300.0   30.0   0.0
250.0   30.0   16.666666666666668
300.0   60.0   16.666666666666668
300.0   30.0   0.0
250.0   60.0   0.0
250.0   30.0   16.666666666666668
300.0   30.0   16.666666666666668
250.0   60.0   16.666666666666668
250.0   30.0   33.333333333333336
300.0   30.0   16.666666666666668
300.0   60.0   16.666666666666668
250.0   60.0   16.666666666666668
300.0   60.0   33.333333333333336
250.0   30.0   33.333333333333336
250.0   60.0   33.333333333333336
300.0   60.0   33.333333333333336
250.0   60.0   16.666666666666668
250.0   30.0   33.333333333333336
300.0   60.0   33.333333333333336
300.0   30.0   33.333333333333336
300.0   30.0   16.666666666666668
250.0   30.0   33.333333333333336
300.0   60.0   33.333333333333336
300.0   30.0   16.666666666666668
250.0   60.0   16.666666666666668
250.0   30.0   33.333333333333336
300.0   30.0   33.333333333333336
250.0   60.0   33.333333333333336
250.0   30.0   50.0
300.0   30.0   33.333333333333336
300.0   60.0   33.333333333333336
250.0   60.0   33.333333333333336
300.0   60.0   50.0
250.0   30.0   50.0
250.0   60.0   50.0
300.0   60.0   50.0
250.0   60.0   33.333333333333336
250.0   30.0   50.0
300.0   60.0   50.0
300.0   30.0   50.0
300.0   30.0   33.333333333333336
250.0   30.0   50.0
300.0   60.0   50.0
300.0   30.0   33.333333333333336
250.0   60.0   33.333333333333336
250.0   60.0   0.0
300.0   60.0   0.0
250.0   90.0   0.0
250.0   60.0   16.666666666666668
300.0   60.0   0.0
300.0   90.0   0.0
250.0   90.0   0.0
300.0   90.0   16.666666666666668
250.0   60.0   16.666666666666668
250.0   90.0   16.666666666666668
300.0   90.0   16.666666666666668
250.0   90.0   0.0
250.0   60.0   16.666666666666668
300.0   90.0   16.666666666666668
300.0   60.0   16.666666666666668
300.0   60.0   0.0
250.0   60.0   16.666666666666668
300.0   90.0   16.666666666666668
300.0   60.0   0.0
250.0   90.0   0.0
250.0   60.0   16.666666666666668
300.0   60.0   16.666666666666668
250.0   90.0   16.666666666666668
250.0   60.0   33.333333333333336
300.0   60.0   16.666666666666668
300.0   90.0   16.666666666666668
250.0   90.0   16.666666666666668
300.0   90.0   33.333333333333336
250.0   60.0   33.333333333333336
250.0   90.0   33.333333333333336
300.0   90.0   33.333333333333336
250.0   90.0   16.666666666666668
250.0   60.0   33.333333333333336
300.0   90.0   33.333333333333336
300.0   60.0   33.333333333333336
300.0   60.0   16.666666666666668
250.0   60.0   33.333333333333336
300.0   90.0   33.333333333333336
300.0   60.0   16.666666666666668
250.0   90.0   16.666666666666668
250.0   60.0   33.333333333333336
300.0   60.0   33.333333333333336
250.0   90.0   33.333333333333336
250.0   60.0   50.0
300.0   60.0   33.333333333333336
300.0   90.0   33.333333333333336
250.0   90.0   33.333333333333336
300.0   90.0   50.0
250.0   60.0   50.0
250.0   90.0   50.0
300.0   90.0   50.0
250.0   90.0   33.333333333333336
250.0   60.0   50.0
300.0   90.0   50.0
300.0   60.0   50.0
300.0   60.0   33.333333333333336
250.0   60.0   50.0
300.0   90.0   50.0
300.0   60.0   33.333333333333336
250.0   90.0   33.333333333333336
250.0   90.0   0.0
300.0   90.0   0.0
250.0   120.0   0.0
250.0   90.0   16.666666666666668
300.0   90.0   0.0
300.0   120.0   0.0
250.0   120.0   0.0
300.0   120.0   16.666666666666668
250.0   90.0   16.666666666666668
250.0   120.0   16.666666666666668
300.0   120.0   16.666666666666668
250.0   120.0   0.0
250.0   90.0   16.666666666666668
300.0   120.0   16.666666666666668
300.0   90.0   16.666666666666668
300.0   90.0   0.0
250.0   90.0   16.666666666666668
300.0   120.0   16.666666666666668
300.0   90.0   0.0
250.0   120.0   0.0
250.0   90.0   16.666666666666668
300.0   90.0   16.666666666666668
250.0   120.0   16.666666666666668
250.0   90.0   33.333333333333336
300.0   90.0   16.666666666666668
300.0   120.0   16.666666666666668
250.0   120.0   16.666666666666668
300.0   120.0   33.333333333333336
250.0   90.0   33.333333333333336
250.0   120.0   33.333333333333336
300.0   120.0   33.333333333333336
250.0   120.0   16.666666666666668
250.0   90.0   33.333333333333336
300.0   120.0   33.333333333333336
300.0   90.0   33.333333333333336
300.0   90.0   16.666666666666668
250.0   90.0   33.333333333333336
300.0   120.0   33.333333333333336
300.0   90.0   16.666666666666668
250.0   120.0   16.666666666666668
250.0   90.0   33.333333333333336
300.0   90.0   33.333333333333336
250.0   120.0   33.333333333333336
250.0   90.0   50.0
300.0   90.0   33.333333333333336
300.0   120.0   33.333333333333336
250.0   120.0   33.333333333333336
300.0   120.0   50.0
250.0   90.0   50.0
250.0   120.0   50.0
300.0   120.0   50.0
250.0   120.0   33.333333333333336
250.0   90.0   50.0
300.0   120.0   50.0
300.0   90.0   50.0
300.0   90.0   33.333333333333336
250.0   90.0   50.0
300.0   120.0   50.0
300.0   90.0   33.333333333333336
250.0   120.0   33.333333333333336
250.0   120.0   0.0
300.0   120.0   0.0
250.0   150.0   0.0
250.0   120.0   16.666666666666668
300.0   120.0   0.0
300.0   150.0   0.0
250.0   150.0   0.0
300.0   150.0   16.666666666666668
250.0   120.0   16.666666666666668
250.0   150.0   16.666666666666668
300.0   150.0   16.666666666666668
250.0   150.0   0.0
250.0   120.0   16.666666666666668
300.0   150.0   16.666666666666668
300.0   120.0   16.666666666666668
300.0   120.0   0.0
250.0   120.0   16.666666666666668
300.0   150.0   16.666666666666668
300.0   120.0   0.0
250.0   150.0   0.0
250.0   120.0   16.666666666666668
300.0   120.0   16.666666666666668
250.0   150.0   16.666666666666668
250.0   120.0   33.333333333333336
300.0   120.0   16.666666666666668
300.0   150.0   16.666666666666668
250.0   150.0   16.666666666666668
300.0   150.0   33.333333333333336
250.0   120.0   33.333333333333336
250.0   150.0   33.333333333333336
300.0   150.0   33.333333333333336
250.0   150.0   16.666666666666668
250.0   120.0   33.333333333333336
300.0   150.0   33.333333333333336
300.0   120.0   33.333333333333336
300.0   120.0   16.666666666666668
250.0   120.0   33.333333333333336
300.0   150.0   33.333333333333336
300.0   120.0   16.666666666666668
250.0   150.0   16.666666666666668
250.0   120.0   33.333333333333336
300.0   120.0   33.333333333333336
250.0   150.0   33.333333333333336
250.0   120.0   50.0
300.0   120.0   33.333333333333336
300.0   150.0   33.333333333333336
250.0   150.0   33.333333333333336
300.0   150.0   50.0
250.0   120.0   50.0
250.0   150.0   50.0
300.0   150.0   50.0
250.0   150.0   33.333333333333336
250.0   120.0   50.0
300.0   150.0   50.0
300.0   120.0   50.0
300.0   120.0   33.333333333333336
250.0   120.0   50.0
300.0   150.0   50.0
300.0   120.0   33.333333333333336
250.0   150.0   33.333333333333336
300.0   0.0   0.0
350.0   0.0   0.0
300.0   30.0   0.0
300.0   0.0   16.666666666666668
350.0   0.0   0.0
350.0   30.0   0.0
300.0   30.0   0.0
350.0   30.0   16.666666666666668
300.0   0.0   16.666666666666668
300.0   30.0   16.666666666666668
350.0   30.0   16.666666666666668
300.0   30.0   0.0
300.0   0.0   16.666666666666668
350.0   30.0   16.666666666666668
350.0   0.0   16.666666666666668
350.0   0.0   0.0
300.0   0.0   16.666666666666668
350.0   30.0   16.666666666666668
350.0   0.0   0.0
300.0   30.0   0.0
300.0   0.0   16.666666666666668
350.0   0.0   16.666666666666668
300.0   30.0   16.666666666666668
300.0   0.0   33.333333333333336
350.0   0.0   16.666666666666668
350.0   30.0   16.666666666666668
300.0   30.0   16.666666666666668
350.0   30.0   33.333333333333336
300.0   0.0   33.333333333333336
300.0   30.0   33.333333333333336
350.0   30.0   33.333333333333336
300.0   30.0   16.666666666666668
300.0   0.0   33.333333333333336
350.0   30.0   33.333333333333336
350.0   0.0   33.333333333333336
350.0   0.0   16.666666666666668
300.0   0.0   33.333333333333336
350.0   30.0   33.333333333333336
350.0   0.0   16.666666666666668
300.0   30.0   16.666666666666668
300.0   0.0   33.333333333333336
350.0   0.0   33.333333333333336
300.0   30.0   33.333333333333336
300.0   0.0   50.0
350.0   0.0   33.333333333333336
350.0   30.0   33.333333333333336
300.0   30.0   33.333333333333336
350.0   30.0   50.0
300.0   0.0   50.0
300.0   30.0   50.0
350.0   30.0   50.0
300.0   30.0   33.333333333333336
300.0   0.0   50.0
350.0   30.0   50.0
350.0   0.0   50.0
350.0   0.0   33.333333333333336
300.0   0.0   50.0
350.0   30.0   50.0
350.0   0.0   33.333333333333336
300.0   30.0   33.333333333333336
300.0   30.0   0.0
350.0   30.0   0.0
300.0   60.0   0.0
300.0   30.0   16.666666666666668
350.0   30.0   0.0
350.0   60.0   0.0
300.0   60.0   0.0
350.0   60.0   16.666666666666668
300.0   30.0   16.666666666666668
300.0   60.0   16.666666666666668
350.0   60.0   16.666666666666668
300.0   60.0   0.0
300.0   30.0   16.666666666666668
350.0   60.0   16.666666666666668
350.0   30.0   16.666666666666668
350.0   30.0   0.0
300.0   30.0   16.666666666666668
350.0   60.0   16.666666666666668
350.0   30.0   0.0
300.0   60.0   0.0
300.0   30.0   16.666666666666668
350.0   30.0   16.666666666666668
300.0   60.0   16.666666666666668
300.0   30.0   33.333333333333336
350.0   30.0   16.666666666666668
350.0   60.0   16.666666666666668
300.0   60.0   16.666666666666668
350.0   60.0   33.333333333333336
300.0   30.0   33.333333333333336
300.0   60.0   33.333333333333336
350.0   60.0   33.333333333333336
300.0   60.0   16.666666666666668
300.0   30.0   33.333333333333336
350.0   60.0   33.333333333333336
350.0   30.0   33.333333333333336
350.0   30.0   16.666666666666668
300.0   30.0   33.333333333333336
350.0   60.0   33.333333333333336
350.0   30.0   16.666666666666668
300.0   60.0   16.666666666666668
300.0   30.0   33.333333333333336
350.0   30.0   33.333333333333336
300.0   60.0   33.333333333333336
300.0   30.0   50.0
350.0   30.0   33.333333333333336
350.0   60.0   33.333333333333336
300.0   60.0   33.333333333333336
350.0   60.0   50.0
300.0   30.0   50.0
300.0   60.0   50.0
350.0   60.0   50.0
300.0   60.0   33.333333333333336
300.0   30.0   50.0
350.0   60.0   50.0
350.0   30.0   50.0
350.0   30.0   33.333333333333336
300.0   30.0   50.0
350.0   60.0   50.0
350.0   30.0   33.333333333333336
300.0   60.0   33.333333333333336
300.0   60.0   0.0
350.0   60.0   0.0
300.0   90.0   0.0
300.0   60.0   16.666666666666668
350.0   60.0   0.0
350.0   90.0   0.0
300.0   90.0   0.0
350.0   90.0   16.666666666666668
300.0   60.0   16.666666666666668
300.0   90.0   16.666666666666668
350.0   90.0   16.666666666666668
300.0   90.0   0.0
300.0   60.0   16.666666666666668
350.0   90.0   16.666666666666668
350.0   60.0   16.666666666666668
350.0   60.0   0.0
300.0   60.0   16.666666666666668
350.0   90.0   16.666666666666668
350.0   60.0   0.0
300.0   90.0   0.0
300.0   60.0   16.666666666666668
350.0   60.0   16.666666666666668
300.0   90.0   16.666666666666668
300.0   60.0   33.333333333333336
350.0   60.0   16.666666666666668
350.0   90.0   16.666666666666668
300.0   90.0   16.666666666666668
350.0   90.0   33.333333333333336
300.0   60.0   33.333333333333336
300.0   90.0   33.333333333333336
350.0   90.0   33.333333333333336
300.0   90.0   16.666666666666668
300.0   60.0   33.333333333333336
350.0   90.0   33.333333333333336
350.0   60.0   33.333333333333336
350.0   60.0   16.666666666666668
300.0   60.0   33.333333333333336
350.0   90.0   33.333333333333336
350.0   60.0   16.666666666666668
300.0   90.0   16.666666666666668
300.0   60.0   33.333333333333336
350.0   60.0   33.333333333333336
300.0   90.0   33.333333333333336
300.0   60.0   50.0
350.0   60.0   33.333333333333336
350.0   90.0   33.333333333333336
300.0   90.0   33.333333333333336
350.0   90.0   50.0
300.0   60.0   50.0
300.0   90.0   50.0
350.0   90.0   50.0
300.0   90.0   33.333333333333336
300.0   60.0   50.0
350.0   90.0   50.0
350.0   60.0   50.0
350.0   60.0   33.333333333333336
300.0   60.0   50.0
350.0   90.0   50.0
350.0   60.0   33.333333333333336
300.0   90.0   33.333333333333336
300.0   90.0   0.0
350.0   90.0   0.0
300.0   120.0   0.0
300.0   90.0   16.666666666666668
350.0   90.0   0.0
350.0   120.0   0.0
300.0   120.0   0.0
350.0   120.0   16.666666666666668
300.0   90.0   16.666666666666668
300.0   120.0   16.666666666666668
350.0   120.0   16.666666666666668
300.0   120.0   0.0
300.0   90.0   16.666666666666668
350.0   120.0   16.666666666666668
350.0   90.0   16.666666666666668
350.0   90.0   0.0
300.0   90.0   16.666666666666668
350.0   120.0   16.666666666666668
350.0   90.0   0.0
300.0   120.0   0.0
300.0   90.0   16.666666666666668
350.0   90.0   16.666666666666668
300.0   120.0   16.666666666666668
300.0   90.0   33.333333333333336
350.0   90.0   16.666666666666668
350.0   120.0   16.666666666666668
300.0   120.0   16.666666666666668
350.0   120.0   33.333333333333336
300.0   90.0   33.333333333333336
300.0   120.0   33.333333333333336
350.0   120.0   33.333333333333336
300.0   120.0   16.666666666666668
300.0   90.0   33.333333333333336
350.0   120.0   33.333333333333336
350.0   90.0   33.333333333333336
350.0   90.0   16.666666666666668
300.0   90.0   33.333333333333336
350.0   120.0   33.333333333333336
350.0   90.0   16.666666666666668
300.0   120.0   16.666666666666668
300.0   90.0   33.333333333333336
350.0   90.0   33.333333333333336
300.0   120.0   33.333333333333336
300.0   90.0   50.0
350.0   90.0   33.333333333333336
350.0   120.0   33.333333333333336
300.0   120.0   33.333333333333336
350.0   120.0   50.0
300.0   90.0   50.0
300.0   120.0   50.0
350.0   120.0   50.0
300.0   120.0   33.333333333333336
300.0   90.0   50.0
350.0   120.0   50.0
350.0   90.0   50.0
350.0   90.0   33.333333333333336
300.0   90.0   50.0
350.0   120.0   50.0
350.0   90.0   33.333333333333336
300.0   120.0   33.333333333333336
300.0   120.0   0.0
350.0   120.0   0.0
300.0   150.0   0.0
300.0   120.0   16.666666666666668
350.0   120.0   0.0
350.0   150.0   0.0
300.0   150.0   0.0
350.0   150.0   16.666666666666668
300.0   120.0   16.666666666666668
300.0   150.0   16.666666666666668
350.0   150.0   16.666666666666668
300.0   150.0   0.0
300.0   120.0   16.666666666666668
350.0   150.0   16.666666666666668
350.0   120.0   16.666666666666668
350.0   120.0   0.0
300.0   120.0   16.666666666666668
350.0   150.0   16.666666666666668
350.0   120.0   0.0
300.0   150.0   0.0
300.0   120.0   16.666666666666668
350.0   120.0   16.666666666666668
300.0   150.0   16.666666666666668
300.0   120.0   33.333333333333336
350.0   120.0   16.666666666666668
350.0   150.0   16.666666666666668
300.0   150.0   16.666666666666668
350.0   150.0   33.333333333333336
300.0   120.0   33.333333333333336
300.0   150.0   33.333333333333336
350.0   150.0   33.333333333333336
300.0   150.0   16.666666666666668
300.0   120.0   33.333333333333336
350.0   150.0   33.333333333333336
350.0   120.0   33.333333333333336
350.0   120.0   16.666666666666668
300.0   120.0   33.333333333333336
350.0   150.0   33.333333333333336
350.0   120.0   16.666666666666668
300.0   150.0   16.666666666666668
300.0   120.0   33.333333333333336
350.0   120.0   33.333333333333336
300.0   150.0   33.333333333333336
300.0   120.0   50.0
350.0   120.0   33.333333333333336
350.0   150.0   33.333333333333336
300.0   150.0   33.333333333333336
350.0   150.0   50.0
300.0   120.0   50.0
300.0   150.0   50.0
350.0   150.0   50.0
300.0   150.0   33.333333333333336
300.0   120.0   50.0
350.0   150.0   50.0
350.0   120.0   50.0
350.0   120.0   33.333333333333336
300.0   120.0   50.0
350.0   150.0   50.0
350.0   120.0   33.333333333333336
300.0   150.0   33.333333333333336
350.0   0.0   0.0
400.0   0.0   0.0
350.0   30.0   0.0
350.0   0.0   16.666666666666668
400.0   0.0   0.0
400.0   30.0   0.0
350.0   30.0   0.0
400.0   30.0   16.666666666666668
350.0   0.0   16.666666666666668
350.0   30.0   16.666666666666668
400.0   30.0   16.666666666666668
350.0   30.0   0.0
350.0   0.0   16.666666666666668
400.0   30.0   16.666666666666668
400.0   0.0   16.666666666666668
400.0   0.0   0.0
350.0   0.0   16.666666666666668
400.0   30.0   16.666666666666668
400.0   0.0   0.0
350.0   30.0   0.0
350.0   0.0   16.666666666666668
400.0   0.0   16.666666666666668
350.0   30.0   16.666666666666668
350.0   0.0   33.333333333333336
400.0   0.0   16.666666666666668
400.0   30.0   16.666666666666668
350.0   30.0   16.666666666666668
400.0   30.0   33.333333333333336
350.0   0.0   33.333333333333336
350.0   30.0   33.333333333333336
400.0   30.0   33.333333333333336
350.0   30.0   16.666666666666668
350.0   0.0   33.333333333333336
400.0   30.0   33.333333333333336
400.0   0.0   33.333333333333336
400.0   0.0   16.666666666666668
350.0   0.0   33.333333333333336
400.0   30.0   33.333333333333336
400.0   0.0   16.666666666666668
350.0   30.0   16.666666666666668
350.0   0.0   33.333333333333336
400.0   0.0   33.333333333333336
350.0   30.0   33.333333333333336
350.0   0.0   50.0
400.0   0.0   33.333333333333336
400.0   30.0   33.333333333333336
350.0   30.0   33.333333333333336
400.0   30.0   50.0
350.0   0.0   50.0
350.0   30.0   50.0
400.0   30.0   50.0
350.0   30.0   33.333333333333336
350.0   0.0   50.0
400.0   30.0   50.0
400.0   0.0   50.0
400.0   0.0   33.333333333333336
350.0   0.0   50.0
400.0   30.0   50.0
400.0   0.0   33.333333333333336
350.0   30.0   33.333333333333336
350.0   30.0   0.0
400.0   30.0   0.0
350.0   60.0   0.0
350.0   30.0   16.666666666666668
400.0   30.0   0.0
400.0   60.0   0.0
350.0   60.0   0.0
400.0   60.0   16.666666666666668
350.0   30.0   16.666666666666668
350.0   60.0   16.666666666666668
400.0   60.0   16.666666666666668
350.0   60.0   0.0
350.0   30.0   16.666666666666668
400.0   60.0   16.666666666666668
400.0   30.0   16.666666666666668
400.0   30.0   0.0
350.0   30.0   16.666666666666668
400.0   60.0   16.666666666666668
400.0   30.0   0.0
350.0   60.0   0.0
350.0   30.0   16.666666666666668
400.0   30.0   16.666666666666668
350.0   60.0   16.666666666666668
350.0   30.0   33.333333333333336
400.0   30.0   16.666666666666668
400.0   60.0   16.666666666666668
350.0   60.0   16.666666666666668
400.0   60.0   33.333333333333336
350.0   30.0   33.333333333333336
350.0   60.0   33.333333333333336
400.0   60.0   33.333333333333336
350.0   60.0   16.666666666666668
350.0   30.0   33.333333333333336
400.0   60.0   33.333333333333336
400.0   30.0   33.333333333333336
400.0   30.0   16.666666666666668
350.0   30.0   33.333333333333336
400.0   60.0   33.333333333333336
400.0   30.0   16.666666666666668
350.0   60.0   16.666666666666668
350.0   30.0   33.333333333333336
400.0   30.0   33.333333333333336
350.0   60.0   33.333333333333336
350.0   30.0   50.0
400.0   30.0   33.333333333333336
400.0   60.0   33.333333333333336
350.0   60.0   33.333333333333336
400.0   60.0   50.0
350.0   30.0   50.0
350.0   60.0   50.0
400.0   60.0   50.0
350.0   60.0   33.333333333333336
350.0   30.0   50.0
400.0   60.0   50.0
400.0   30.0   50.0
400.0   30.0   33.333333333333336
350.0   30.0   50.0
400.0   60.0   50.0
400.0   30.0   33.333333333333336
350.0   60.0   33.333333333333336
350.0   60.0   0.0
400.0   60.0   0.0
350.0   90.0   0.0
350.0   60.0   16.666666666666668
400.0   60.0   0.0
400.0   90.0   0.0
350.0   90.0   0.0
400.0   90.0   16.666666666666668
350.0   60.0   16.666666666666668
350.0   90.0   16.666666666666668
400.0   90.0   16.666666666666668
350.0   90.0   0.0
350.0   60.0   16.666666666666668
400.0   90.0   16.666666666666668
400.0   60.0   16.666666666666668
400.0   60.0   0.0
350.0   60.0   16.666666666666668
400.0   90.0   16.666666666666668
400.0   60.0   0.0
350.0   90.0   0.0
350.0   60.0   16.666666666666668
400.0   60.0   16.666666666666668
350.0   90.0   16.666666666666668
350.0   60.0   33.333333333333336
400.0   60.0   16.666666666666668
400.0   90.0   16.666666666666668
350.0   90.0   16.666666666666668
400.0   90.0   33.333333333333336
350.0   60.0   33.333333333333336
350.0   90.0   33.333333333333336
400.0   90.0   33.333333333333336
350.0   90.0   16.666666666666668
350.0   60.0   33.333333333333336
400.0   90.0   33.333333333333336
400.0   60.0   33.333333333333336
400.0   60.0   16.666666666666668
350.0   60.0   33.333333333333336
400.0   90.0   33.333333333333336
400.0   60.0   16.666666666666668
350.0   90.0   16.666666666666668
350.0   60.0   33.333333333333336
400.0   60.0   33.333333333333336
350.0   90.0   33.333333333333336
350.0   60.0   50.0
400.0   60.0   33.333333333333336
400.0   90.0   33.333333333333336
350.0   90.0   33.333333333333336
400.0   90.0   50.0
350.0   60.0   50.0
350.0   90.0   50.0
400.0   90.0   50.0
350.0   90.0   33.333333333333336
350.0   60.0   50.0
400.0   90.0   50.0
400.0   60.0   50.0
400.0   60.0   33.333333333333336
350.0   60.0   50.0
400.0   90.0   50.0
400.0   60.0   33.333333333333336
350.0   90.0   33.333333333333336
350.0   90.0   0.0
400.0   90.0   0.0
350.0   120.0   0.0
350.0   90.0   16.666666666666668
400.0   90.0   0.0
400.0   120.0   0.0
350.0   120.0   0.0
400.0   120.0   16.666666666666668
350.0   90.0   16.666666666666668
350.0   120.0   16.666666666666668
400.0   120.0   16.666666666666668
350.0   120.0   0.0
350.0   90.0   16.666666666666668
400.0   120.0   16.666666666666668
400.0   90.0   16.666666666666668
400.0   90.0   0.0
350.0   90.0   16.666666666666668
400.0   120.0   16.666666666666668
400.0   90.0   0.0
350.0   120.0   0.0
350.0   90.0   16.666666666666668
400.0   90.0   16.666666666666668
350.0   120.0   16.666666666666668
350.0   90.0   33.333333333333336
400.0   90.0   16.666666666666668
400.0   120.0   16.666666666666668
350.0   120.0   16.666666666666668
400.0   120.0   33.333333333333336
350.0   90.0   33.333333333333336
350.0   120.0   33.333333333333336
400.0   120.0   33.333333333333336
350.0   120.0   16.666666666666668
350.0   90.0   33.333333333333336
400.0   120.0   33.333333333333336
400.0   90.0   33.333333333333336
400.0   90.0   16.666666666666668
350.0   90.0   33.333333333333336
400.0   120.0   33.333333333333336
400.0   90.0   16.666666666666668
350.0   120.0   16.666666666666668
350.0   90.0   33.333333333333336
400.0   90.0   33.333333333333336
350.0   120.0   33.333333333333336
350.0   90.0   50.0
400.0   90.0   33.333333333333336
400.0   120.0   33.333333333333336
350.0   120.0   33.333333333333336
400.0   120.0   50.0
350.0   90.0   50.0
350.0   120.0   50.0
400.0   120.0   50.0
350.0   120.0   33.333333333333336
350.0   90.0   50.0
400.0   120.0   50.0
400.0   90.0   50.0
400.0   90.0   33.333333333333336
350.0   90.0   50.0
400.0   120.0   50.0
400.0   90.0   33.333333333333336
350.0   120.0   33.333333333333336
350.0   120.0   0.0
400.0   120.0   0.0
350.0   150.0   0.0
350.0   120.0   16.666666666666668
400.0   120.0   0.0
400.0   150.0   0.0
350.0   150.0   0.0
400.0   150.0   16.666666666666668
350.0   120.0   16.666666666666668
350.0   150.0   16.666666666666668
400.0   150.0   16.666666666666668
350.0   150.0   0.0
350.0   120.0   16.666666666666668
400.0   150.0   16.666666666666668
400.0   120.0   16.666666666666668
400.0   120.0   0.0
350.0   120.0   16.666666666666668
400.0   150.0   16.666666666666668
400.0   120.0   0.0
350.0   150.0   0.0
350.0   120.0   16.666666666666668
400.0   120.0   16.666666666666668
350.0   150.0   16.666666666666668
350.0   120.0   33.333333333333336
400.0   120.0   16.666666666666668
400.0   150.0   16.666666666666668
350.0   150.0   16.666666666666668
400.0   150.0   33.333333333333336
350.0   120.0   33.333333333333336
350.0   150.0   33.333333333333336
400.0   150.0   33.333333333333336
350.0   150.0   16.666666666666668
350.0   120.0   33.333333333333336
400.0   150.0   33.333333333333336
400.0   120.0   33.333333333333336
400.0   120.0   16.666666666666668
350.0   120.0   33.333333333333336
400.0   150.0   33.333333333333336
400.0   120.0   16.666666666666668
350.0   150.0   16.666666666666668
350.0   120.0   33.333333333333336
400.0   120.0   33.333333333333336
350.0   150.0   33.333333333333336
350.0   120.0   50.0
400.0   120.0   33.333333333333336
400.0   150.0   33.333333333333336
350.0   150.0   33.333333333333336
400.0   150.0   50.0
350.0   120.0   50.0
350.0   150.0   50.0
400.0   150.0   50.0
350.0   150.0   33.333333333333336
350.0   120.0   50.0
400.0   150.0   50.0
400.0   120.0   50.0
400.0   120.0   33.333333333333336
350.0   120.0   50.0
400.0   150.0   50.0
400.0   120.0   33.333333333333336
350.0   150.0   33.333333333333336
400.0   0.0   0.0
450.0   0.0   0.0
400.0   30.0   0.0
400.0   0.0   16.666666666666668
450.0   0.0   0.0
450.0   30.0   0.0
400.0   30.0   0.0
450.0   30.0   16.666666666666668
400.0   0.0   16.666666666666668
400.0   30.0   16.666666666666668
450.0   30.0   16.666666666666668
400.0   30.0   0.0
400.0   0.0   16.666666666666668
450.0   30.0   16.666666666666668
450.0   0.0   16.666666666666668
450.0   0.0   0.0
400.0   0.0   16.666666666666668
450.0   30.0   16.666666666666668
450.0   0.0   0.0
400.0   30.0   0.0
400.0   0.0   16.666666666666668
450.0   0.0   16.666666666666668
400.0   30.0   16.666666666666668
400.0   0.0   33.333333333333336
450.0   0.0   16.666666666666668
450.0   30.0   16.666666666666668
400.0   30.0   16.666666666666668
450.0   30.0   33.333333333333336
400.0   0.0   33.333333333333336
400.0   30.0   33.333333333333336
450.0   30.0   33.333333333333336
400.0   30.0   16.666666666666668
400.0   0.0   33.333333333333336
450.0   30.0   33.333333333333336
450.0   0.0   33.333333333333336
450.0   0.0   16.666666666666668
400.0   0.0   33.333333333333336
450.0   30.0   33.333333333333336
450.0   0.0   16.666666666666668
400.0   30.0   16.666666666666668
400.0   0.0   33.333333333333336
450.0   0.0   33.333333333333336
400.0   30.0   33.333333333333336
400.0   0.0   50.0
450.0   0.0   33.333333333333336
450.0   30.0   33.333333333333336
400.0   30.0   33.333333333333336
450.0   30.0   50.0
400.0   0.0   50.0
400.0   30.0   50.0
450.0   30.0   50.0
400.0   30.0   33.333333333333336
400.0   0.0   50.0
450.0   30.0   50.0
450.0   0.0   50.0
450.0   0.0   33.333333333333336
400.0   0.0   50.0
450.0   30.0   50.0
450.0   0.0   33.333333333333336
400.0   30.0   33.333333333333336
400.0   30.0   0.0
450.0   30.0   0.0
400.0   60.0   0.0
400.0   30.0   16.666666666666668
450.0   30.0   0.0
450.0   60.0   0.0
400.0   60.0   0.0
450.0   60.0   16.666666666666668
400.0   30.0   16.666666666666668
400.0   60.0   16.666666666666668
450.0   60.0   16.666666666666668
400.0   60.0   0.0
400.0   30.0   16.666666666666668
450.0   60.0   16.666666666666668
450.0   30.0   16.666666666666668
450.0   30.0   0.0
400.0   30.0   16.666666666666668
450.0   60.0   16.666666666666668
450.0   30.0   0.0
400.0   60.0   0.0
400.0   30.0   16.666666666666668
450.0   30.0   16.666666666666668
400.0   60.0   16.666666666666668
400.0   30.0   33.333333333333336
450.0   30.0   16.666666666666668
450.0   60.0   16.666666666666668
400.0   60.0   16.666666666666668
450.0   60.0   33.333333333333336
400.0   30.0   33.333333333333336
400.0   60.0   33.333333333333336
450.0   60.0   33.333333333333336
400.0   60.0   16.666666666666668
400.0   30.0   33.333333333333336
450.0   60.0   33.333333333333336
450.0   30.0   33.333333333333336
450.0   30.0   16.666666666666668
400.0   30.0   33.333333333333336
450.0   60.0   33.333333333333336
450.0   30.0   16.666666666666668
400.0   60.0   16.666666666666668
400.0   30.0   33.333333333333336
450.0   30.0   33.333333333333336
400.0   60.0   33.333333333333336
400.0   30.0   50.0
450.0   30.0   33.333333333333336
450.0   60.0   33.333333333333336
400.0   60.0   33.333333333333336
450.0   60.0   50.0
400.0   30.0   50.0
400.0   60.0   50.0
450.0   60.0   50.0
400.0   60.0   33.333333333333336
400.0   30.0   50.0
450.0   60.0   50.0
450.0   30.0   50.0
450.0   30.0   33.333333333333336
400.0   30.0   50.0
450.0   60.0   50.0
450.0   30.0   33.333333333333336
400.0   60.0   33.333333333333336
400.0   60.0   0.0
450.0   60.0   0.0
400.0   90.0   0.0
400.0   60.0   16.666666666666668
450.0   60.0   0.0
450.0   90.0   0.0
400.0   90.0   0.0
450.0   90.0   16.666666666666668
400.0   60.0   16.666666666666668
400.0   90.0   16.666666666666668
450.0   90.0   16.666666666666668
400.0   90.0   0.0
400.0   60.0   16.666666666666668
450.0   90.0   16.666666666666668
450.0   60.0   16.666666666666668
450.0   60.0   0.0
400.0   60.0   16.666666666666668
450.0   90.0   16.666666666666668
450.0   60.0   0.0
400.0   90.0   0.0
400.0   60.0   16.666666666666668
450.0   60.0   16.666666666666668
400.0   90.0   16.666666666666668
400.0   60.0   33.333333333333336
450.0   60.0   16.666666666666668
450.0   90.0   16.666666666666668
400.0   90.0   16.666666666666668
450.0   90.0   33.333333333333336
400.0   60.0   33.333333333333336
400.0   90.0   33.333333333333336
450.0   90.0   33.333333333333336
400.0   90.0   16.666666666666668
400.0   60.0   33.333333333333336
450.0   90.0   33.333333333333336
450.0   60.0   33.333333333333336
450.0   60.0   16.666666666666668
400.0   60.0   33.333333333333336
450.0   90.0   33.333333333333336
450.0   60.0   16.666666666666668
400.0   90.0   16.666666666666668
400.0   60.0   33.333333333333336
450.0   60.0   33.333333333333336
400.0   90.0   33.333333333333336
400.0   60.0   50.0
450.0   60.0   33.333333333333336
450.0   90.0   33.333333333333336
400.0   90.0   33.333333333333336
450.0   90.0   50.0
400.0   60.0   50.0
400.0   90.0   50.0
450.0   90.0   50.0
400.0   90.0   33.333333333333336
400.0   60.0   50.0
450.0   90.0   50.0
450.0   60.0   50.0
450.0   60.0   33.333333333333336
400.0   60.0   50.0
450.0   90.0   50.0
450.0   60.0   33.333333333333336
400.0   90.0   33.333333333333336
400.0   90.0   0.0
450.0   90.0   0.0
400.0   120.0   0.0
400.0   90.0   16.666666666666668
450.0   90.0   0.0
450.0   120.0   0.0
400.0   120.0   0.0
450.0   120.0   16.666666666666668
400.0   90.0   16.666666666666668
400.0   120.0   16.666666666666668
450.0   120.0   16.666666666666668
400.0   120.0   0.0
400.0   90.0   16.666666666666668
450.0   120.0   16.666666666666668
450.0   90.0   16.666666666666668
450.0   90.0   0.0
400.0   90.0   16.666666666666668
450.0   120.0   16.666666666666668
450.0   90.0   0.0
400.0   120.0   0.0
400.0   90.0   16.666666666666668
450.0   90.0   16.666666666666668
400.0   120.0   16.666666666666668
400.0   90.0   33.333333333333336
450.0   90.0   16.666666666666668
450.0   120.0   16.666666666666668
400.0   120.0   16.666666666666668
450.0   120.0   33.333333333333336
400.0   90.0   33.333333333333336
400.0   120.0   33.333333333333336
450.0   120.0   33.333333333333336
400.0   120.0   16.666666666666668
400.0   90.0   33.333333333333336
450.0   120.0   33.333333333333336
450.0   90.0   33.333333333333336
450.0   90.0   16.666666666666668
400.0   90.0   33.333333333333336
450.0   120.0   33.333333333333336
450.0   90.0   16.666666666666668
400.0   120.0   16.666666666666668
400.0   90.0   33.333333333333336
450.0   90.0   33.333333333333336
400.0   120.0   33.333333333333336
400.0   90.0   50.0
450.0   90.0   33.333333333333336
450.0   120.0   33.333333333333336
400.0   120.0   33.333333333333336
450.0   120.0   50.0
400.0   90.0   50.0
400.0   120.0   50.0
450.0   120.0   50.0
400.0   120.0   33.333333333333336
400.0   90.0   50.0
450.0   120.0   50.0
450.0   90.0   50.0
450.0   90.0   33.333333333333336
400.0   90.0   50.0
450.0   120.0   50.0
450.0   90.0   33.333333333333336
400.0   120.0   33.333333333333336
400.0   120.0   0.0
450.0   120.0   0.0
400.0   150.0   0.0
400.0   120.0   16.666666666666668
450.0   120.0   0.0
450.0   150.0   0.0
400.0   150.0   0.0
450.0   150.0   16.666666666666668
400.0   120.0   16.666666666666668
400.0   150.0   16.666666666666668
450.0   150.0   16.666666666666668
400.0   150.0   0.0
400.0   120.0   16.666666666666668
450.0   150.0   16.666666666666668
450.0   120.0   16.666666666666668
450.0   120.0   0.0
400.0   120.0   16.666666666666668
450.0   150.0   16.666666666666668
450.0   120.0   0.0
400.0   150.0   0.0
400.0   120.0   16.666666666666668
450.0   120.0   16.666666666666668
400.0   150.0   16.666666666666668
400.0   120.0   33.333333333333336
450.0   120.0   16.666666666666668
450.0   150.0   16.666666666666668
400.0   150.0   16.666666666666668
450.0   150.0   33.333333333333336
400.0   120.0   33.333333333333336
400.0   150.0   33.333333333333336
450.0   150.0   33.333333333333336
400.0   150.0   16.666666666666668
400.0   120.0   33.333333333333336
450.0   150.0   33.333333333333336
450.0   120.0   33.333333333333336
450.0   120.0   16.666666666666668
400.0   120.0   33.333333333333336
450.0   150.0   33.333333333333336
450.0   120.0   16.666666666666668
400.0   150.0   16.666666666666668
400.0   120.0   33.333333333333336
450.0   120.0   33.333333333333336
400.0   150.0   33.333333333333336
400.0   120.0   50.0
450.0   120.0   33.333333333333336
450.0   150.0   33.333333333333336
400.0   150.0   33.333333333333336
450.0   150.0   50.0
400.0   120.0   50.0
400.0   150.0   50.0
450.0   150.0   50.0
400.0   150.0   33.333333333333336
400.0   120.0   50.0
450.0   150.0   50.0
450.0   120.0   50.0
450.0   120.0   33.333333333333336
400.0   120.0   50.0
450.0   150.0   50.0
450.0   120.0   33.333333333333336
400.0   150.0   33.333333333333336
450.0   0.0   0.0
500.0   0.0   0.0
450.0   30.0   0.0
450.0   0.0   16.666666666666668
500.0   0.0   0.0
500.0   30.0   0.0
450.0   30.0   0.0
500.0   30.0   16.666666666666668
450.0   0.0   16.666666666666668
450.0   30.0   16.666666666666668
500.0   30.0   16.666666666666668
450.0   30.0   0.0
450.0   0.0   16.666666666666668
500.0   30.0   16.666666666666668
500.0   0.0   16.666666666666668
500.0   0.0   0.0
450.0   0.0   16.666666666666668
500.0   30.0   16.666666666666668
500.0   0.0   0.0
450.0   30.0   0.0
450.0   0.0   16.666666666666668
500.0   0.0   16.666666666666668
450.0   30.0   16.666666666666668
450.0   0.0   33.333333333333336
500.0   0.0   16.666666666666668
500.0   30.0   16.666666666666668
450.0   30.0   16.666666666666668
500.0   30.0   33.333333333333336
450.0   0.0   33.333333333333336
450.0   30.0   33.333333333333336
500.0   30.0   33.333333333333336
450.0   30.0   16.666666666666668
450.0   0.0   33.333333333333336
500.0   30.0   33.333333333333336
500.0   0.0   33.333333333333336
500.0   0.0   16.666666666666668
450.0   0.0   33.333333333333336
500.0   30.0   33.333333333333336
500.0   0.0   16.666666666666668
450.0   30.0   16.666666666666668
450.0   0.0   33.333333333333336
500.0   0.0   33.333333333333336
450.0   30.0   33.333333333333336
450.0   0.0   50.0
500.0   0.0   33.333333333333336
500.0   30.0   33.333333333333336
450.0   30.0   33.333333333333336
500.0   30.0   50.0
450.0   0.0   50.0
450.0   30.0   50.0
500.0   30.0   50.0
450.0   30.0   33.333333333333336
450.0   0.0   50.0
500.0   30.0   50.0
500.0   0.0   50.0
500.0   0.0   33.333333333333336
450.0   0.0   50.0
500.0   30.0   50.0
500.0   0.0   33.333333333333336
450.0   30.0   33.333333333333336
450.0   30.0   0.0
500.0   30.0   0.0
450.0   60.0   0.0
450.0   30.0   16.666666666666668
500.0   30.0   0.0
500.0   60.0   0.0
450.0   60.0   0.0
500.0   60.0   16.666666666666668
450.0   30.0   16.666666666666668
450.0   60.0   16.666666666666668
500.0   60.0   16.666666666666668
450.0   60.0   0.0
450.0   30.0   16.666666666666668
500.0   60.0   16.666666666666668
500.0   30.0   16.666666666666668
500.0   30.0   0.0
450.0   30.0   16.666666666666668
500.0   60.0   16.666666666666668
500.0   30.0   0.0
450.0   60.0   0.0
450.0   30.0   16.666666666666668
500.0   30.0   16.666666666666668
450.0   60.0   16.666666666666668
450.0   30.0   33.333333333333336
500.0   30.0   16.666666666666668
500.0   60.0   16.666666666666668
450.0   60.0   16.666666666666668
500.0   60.0   33.333333333333336
450.0   30.0   33.333333333333336
450.0   60.0   33.333333333333336
500.0   60.0   33.333333333333336
450.0   60.0   16.666666666666668
450.0   30.0   33.333333333333336
500.0   60.0   33.333333333333336
500.0   30.0   33.333333333333336
500.0   30.0   16.666666666666668
450.0   30.0   33.333333333333336
500.0   60.0   33.333333333333336
500.0   30.0   16.666666666666668
450.0   60.0   16.666666666666668
450.0   30.0   33.333333333333336
500.0   30.0   33.333333333333336
450.0   60.0   33.333333333333336
450.0   30.0   50.0
500.0   30.0   33.333333333333336
500.0   60.0   33.333333333333336
450.0   60.0   33.333333333333336
500.0   60.0   50.0
450.0   30.0   50.0
450.0   60.0   50.0
500.0   60.0   50.0
450.0   60.0   33.333333333333336
450.0   30.0   50.0
500.0   60.0   50.0
500.0   30.0   50.0
500.0   30.0   33.333333333333336
450.0   30.0   50.0
500.0   60.0   50.0
500.0   30.0   33.333333333333336
450.0   60.0   33.333333333333336
450.0   60.0   0.0
500.0   60.0   0.0
450.0   90.0   0.0
450.0   60.0   16.666666666666668
500.0   60.0   0.0
500.0   90.0   0.0
450.0   90.0   0.0
500.0   90.0   16.666666666666668
450.0   60.0   16.666666666666668
450.0   90.0   16.666666666666668
500.0   90.0   16.666666666666668
450.0   90.0   0.0
450.0   60.0   16.666666666666668
500.0   90.0   16.666666666666668
500.0   60.0   16.666666666666668
500.0   60.0   0.0
450.0   60.0   16.666666666666668
500.0   90.0   16.666666666666668
500.0   60.0   0.0
450.0   90.0   0.0
450.0   60.0   16.666666666666668
500.0   60.0   16.666666666666668
450.0   90.0   16.666666666666668
450.0   60.0   33.333333333333336
500.0   60.0   16.666666666666668
500.0   90.0   16.666666666666668
450.0   90.0   16.666666666666668
500.0   90.0   33.333333333333336
450.0   60.0   33.333333333333336
450.0   90.0   33.333333333333336
500.0   90.0   33.333333333333336
450.0   90.0   16.666666666666668
450.0   60.0   33.333333333333336
500.0   90.0   33.333333333333336
500.0   60.0   33.333333333333336
500.0   60.0   16.666666666666668
450.0   60.0   33.333333333333336
500.0   90.0   33.333333333333336
500.0   60.0   16.666666666666668
450.0   90.0   16.666666666666668
450.0   60.0   33.333333333333336
500.0   60.0   33.333333333333336
450.0   90.0   33.333333333333336
450.0   60.0   50.0
500.0   60.0   33.333333333333336
500.0   90.0   33.333333333333336
450.0   90.0   33.333333333333336
500.0   90.0   50.0
450.0   60.0   50.0
450.0   90.0   50.0
500.0   90.0   50.0
450.0   90.0   33.333333333333336
450.0   60.0   50.0
500.0   90.0   50.0
500.0   60.0   50.0
500.0   60.0   33.333333333333336
450.0   60.0   50.0
500.0   90.0   50.0
500.0   60.0   33.333333333333336
450.0   90.0   33.333333333333336
450.0   90.0   0.0
500.0   90.0   0.0
450.0   120.0   0.0
450.0   90.0   16.666666666666668
500.0   90.0   0.0
500.0   120.0   0.0
450.0   120.0   0.0
500.0   120.0   16.666666666666668
450.0   90.0   16.666666666666668
450.0   120.0   16.666666666666668
500.0   120.0   16.666666666666668
450.0   120.0   0.0
450.0   90.0   16.666666666666668
500.0   120.0   16.666666666666668
500.0   90.0   16.666666666666668
500.0   90.0   0.0
450.0   90.0   16.666666666666668
500.0   120.0   16.666666666666668
500.0   90.0   0.0
450.0   120.0   0.0
450.0   90.0   16.666666666666668
500.0   90.0   16.666666666666668
450.0   120.0   16.666666666666668
450.0   90.0   33.333333333333336
500.0   90.0   16.666666666666668
500.0   120.0   16.666666666666668
450.0   120.0   16.666666666666668
500.0   120.0   33.333333333333336
450.0   90.0   33.333333333333336
450.0   120.0   33.333333333333336
500.0   120.0   33.333333333333336
450.0   120.0   16.666666666666668
450.0   90.0   33.333333333333336
500.0   120.0   33.333333333333336
500.0   90.0   33.333333333333336
500.0   90.0   16.666666666666668
450.0   90.0   33.333333333333336
500.0   120.0   33.333333333333336
500.0   90.0   16.666666666666668
450.0   120.0   16.666666666666668
450.0   90.0   33.333333333333336
500.0   90.0   33.333333333333336
450.0   120.0   33.333333333333336
450.0   90.0   50.0
500.0   90.0   33.333333333333336
500.0   120.0   33.333333333333336
450.0   120.0   33.333333333333336
500.0   120.0   50.0
450.0   90.0   50.0
450.0   120.0   50.0
500.0   120.0   50.0
450.0   120.0   33.333333333333336
450.0   90.0   50.0
500.0   120.0   50.0
500.0   90.0   50.0
500.0   90.0   33.333333333333336
450.0   90.0   50.0
500.0   120.0   50.0
500.0   90.0   33.333333333333336
450.0   120.0   33.333333333333336
450.0   120.0   0.0
500.0   120.0   0.0
450.0   150.0   0.0
450.0   120.0   16.666666666666668
500.0   120.0   0.0
500.0   150.0   0.0
450.0   150.0   0.0
500.0   150.0   16.666666666666668
450.0   120.0   16.666666666666668
450.0   150.0   16.666666666666668
500.0   150.0   16.666666666666668
450.0   150.0   0.0
450.0   120.0   16.666666666666668
500.0   150.0   16.666666666666668
500.0   120.0   16.666666666666668
500.0   120.0   0.0
450.0   120.0   16.666666666666668
500.0   150.0   16.666666666666668
500.0   120.0   0.0
450.0   150.0   0.0
450.0   120.0   16.666666666666668
500.0   120.0   16.666666666666668
450.0   150.0   16.666666666666668
450.0   120.0   33.333333333333336
500.0   120.0   16.666666666666668
500.0   150.0   16.666666666666668
450.0   150.0   16.666666666666668
500.0   150.0   33.333333333333336
450.0   120.0   33.333333333333336
450.0   150.0   33.333333333333336
500.0   150.0   33.333333333333336
450.0   150.0   16.666666666666668
450.0   120.0   33.333333333333336
500.0   150.0   33.333333333333336
500.0   120.0   33.333333333333336
500.0   120.0   16.666666666666668
450.0   120.0   33.333333333333336
500.0   150.0   33.333333333333336
500.0   120.0   16.666666666666668
450.0   150.0   16.666666666666668
450.0   120.0   33.333333333333336
500.0   120.0   33.333333333333336
450.0   150.0   33.333333333333336
450.0   120.0   50.0
500.0   120.0   33.333333333333336
500.0   150.0   33.333333333333336
450.0   150.0   33.333333333333336
500.0   150.0   50.0
450.0   120.0   50.0
450.0   150.0   50.0
500.0   150.0   50.0
450.0   150.0   33.333333333333336
450.0   120.0   50.0
500.0   150.0   50.0
500.0   120.0   50.0
500.0   120.0   33.333333333333336
450.0   120.0   50.0
500.0   150.0   50.0
500.0   120.0   33.333333333333336
450.0   150.0   33.333333333333336
             </DataArray>   
          </Points>  
          <Cells>  
             <DataArray type="Int32" Name="connectivity" format="ascii">   
0   1   2   3
4   5   6   7
8   9   10   11
12   13   14   15
16   17   18   19
20   21   22   23
24   25   26   27
28   29   30   31
32   33   34   35
36   37   38   39
40   41   42   43
44   45   46   47
48   49   50   51
52   53   54   55
56   57   58   59
60   61   62   63
64   65   66   67
68   69   70   71
72   73   74   75
76   77   78   79
80   81   82   83
84   85   86   87
88   89   90   91
92   93   94   95
96   97   98   99
100   101   102   103
104   105   106   107
108   109   110   111
112   113   114   115
116   117   118   119
120   121   122   123
124   125   126   127
128   129   130   131
132   133   134   135
136   137   138   139
140   141   142   143
144   145   146   147
148   149   150   151
152   153   154   155
156   157   158   159
160   161   162   163
164   165   166   167
168   169   170   171
172   173   174   175
176   177   178   179
180   181   182   183
184   185   186   187
188   189   190   191
192   193   194   195
196   197   198   199
200   201   202   203
204   205   206   207
208   209   210   211
212   213   214   215
216   217   218   219
220   221   222   223
224   225   226   227
228   229   230   231
232   233   234   235
236   237   238   239
240   241   242   243
244   245   246   247
248   249   250   251
252   253   254   255
256   257   258   259
260   261   262   263
264   265   266   267
268   269   270   271
272   273   274   275
276   277   278   279
280   281   282   283
284   285   286   287
288   289   290   291
292   293   294   295
296   297   298   299
300   301   302   303
304   305   306   307
308   309   310   311
312   313   314   315
316   317   318   319
320   321   322   323
324   325   326   327
328   329   330   331
332   333   334   335
336   337   338   339
340   341   342   343
344   345   346   347
348   349   350   351
352   353   354   355
356   357   358   359
360   361   362   363
364   365   366   367
368   369   370   371
372   373   374   375
376   377   378   379
380   381   382   383
384   385   386   387
388   389   390   391
392   393   394   395
396   397   398   399
400   401   402   403
404   405   406   407
408   409   410   411
412   413   414   415
416   417   418   419
420   421   422   423
424   425   426   427
428   429   430   431
432   433   434   435
436   437   438   439
440   441   442   443
444   445   446   447
448   449   450   451
452   453   454   455
456   457   458   459
460   461   462   463
464   465   466   467
468   469   470   471
472   473   474   475
476   477   478   479
480   481   482   483
484   485   486   487
488   489   490   491
492   493   494   495
496   497   498   499
500   501   502   503
504   505   506   507
508   509   510   511
512   513   514   515
516   517   518   519
520   521   522   523
524   525   526   527
528   529   530   531
532   533   534   535
536   537   538   539
540   541   542   543
544   545   546   547
548   549   550   551
552   553   554   555
556   557   558   559
560   561   562   563
564   565   566   567
568   569   570   571
572   573   574   575
576   577   578   579
580   581   582   583
584   585   586   587
588   589   590   591
592   593   594   595
596   597   598   599
600   601   602   603
604   605   606   607
608   609   610   611
612   613   614   615
616   617   618   619
620   621   622   623
624   625   626   627
628   629   630   631
632   633   634   635
636   637   638   639
640   641   642   643
644   645   646   647
648   649   650   651
652   653   654   655
656   657   658   659
660   661   662   663
664   665   666   667
668   669   670   671
672   673   674   675
676   677   678   679
680   681   682   683
684   685   686   687
688   689   690   691
692   693   694   695
696   697   698   699
700   701   702   703
704   705   706   707
708   709   710   711
712   713   714   715
716   717   718   719
720   721   722   723
724   725   726   727
728   729   730   731
732   733   734   735
736   737   738   739
740   741   742   743
744   745   746   747
748   749   750   751
752   753   754   755
756   757   758   759
760   761   762   763
764   765   766   767
768   769   770   771
772   773   774   775
776   777   778   779
780   781   782   783
784   785   786   787
788   789   790   791
792   793   794   795
796   797   798   799
800   801   802   803
804   805   806   807
808   809   810   811
812   813   814   815
816   817   818   819
820   821   822   823
824   825   826   827
828   829   830   831
832   833   834   835
836   837   838   839
840   841   842   843
844   845   846   847
848   849   850   851
852   853   854   855
856   857   858   859
860   861   862   863
864   865   866   867
868   869   870   871
872   873   874   875
876   877   878   879
880   881   882   883
884   885   886   887
888   889   890   891
892   893   894   895
896   897   898   899
900   901   902   903
904   905   906   907
908   909   910   911
912   913   914   915
916   917   918   919
920   921   922   923
924   925   926   927
928   929   930   931
932   933   934   935
936   937   938   939
940   941   942   943
944   945   946   947
948   949   950   951
952   953   954   955
956   957   958   959
960   961   962   963
964   965   966   967
968   969   970   971
972   973   974   975
976   977   978   979
980   981   982   983
984   985   986   987
988   989   990   991
992   993   994   995
996   997   998   999
1000   1001   1002   1003
1004   1005   1006   1007
1008   1009   1010   1011
1012   1013   1014   1015
1016   1017   1018   1019
1020   1021   1022   1023
1024   1025   1026   1027
1028   1029   1030   1031
1032   1033   1034   1035
1036   1037   1038   1039
1040   1041   1042   1043
1044   1045   1046   1047
1048   1049   1050   1051
1052   1053   1054   1055
1056   1057   1058   1059
1060   1061   1062   1063
1064   1065   1066   1067
1068   1069   1070   1071
1072   1073   1074   1075
1076   1077   1078   1079
1080   1081   1082   1083
1084   1085   1086   1087
1088   1089   1090   1091
1092   1093   1094   1095
1096   1097   1098   1099
1100   1101   1102   1103
1104   1105   1106   1107
1108   1109   1110   1111
1112   1113   1114   1115
1116   1117   1118   1119
1120   1121   1122   1123
1124   1125   1126   1127
1128   1129   1130   1131
1132   1133   1134   1135
1136   1137   1138   1139
1140   1141   1142   1143
1144   1145   1146   1147
1148   1149   1150   1151
1152   1153   1154   1155
1156   1157   1158   1159
1160   1161   1162   1163
1164   1165   1166   1167
1168   1169   1170   1171
1172   1173   1174   1175
1176   1177   1178   1179
1180   1181   1182   1183
1184   1185   1186   1187
1188   1189   1190   1191
1192   1193   1194   1195
1196   1197   1198   1199
1200   1201   1202   1203
1204   1205   1206   1207
1208   1209   1210   1211
1212   1213   1214   1215
1216   1217   1218   1219
1220   1221   1222   1223
1224   1225   1226   1227
1228   1229   1230   1231
1232   1233   1234   1235
1236   1237   1238   1239
1240   1241   1242   1243
1244   1245   1246   1247
1248   1249   1250   1251
1252   1253   1254   1255
1256   1257   1258   1259
1260   1261   1262   1263
1264   1265   1266   1267
1268   1269   1270   1271
1272   1273   1274   1275
1276   1277   1278   1279
1280   1281   1282   1283
1284   1285   1286   1287
1288   1289   1290   1291
1292   1293   1294   1295
1296   1297   1298   1299
1300   1301   1302   1303
1304   1305   1306   1307
1308   1309   1310   1311
1312   1313   1314   1315
1316   1317   1318   1319
1320   1321   1322   1323
1324   1325   1326   1327
1328   1329   1330   1331
1332   1333   1334   1335
1336   1337   1338   1339
1340   1341   1342   1343
1344   1345   1346   1347
1348   1349   1350   1351
1352   1353   1354   1355
1356   1357   1358   1359
1360   1361   1362   1363
1364   1365   1366   1367
1368   1369   1370   1371
1372   1373   1374   1375
1376   1377   1378   1379
1380   1381   1382   1383
1384   1385   1386   1387
1388   1389   1390   1391
1392   1393   1394   1395
1396   1397   1398   1399
1400   1401   1402   1403
1404   1405   1406   1407
1408   1409   1410   1411
1412   1413   1414   1415
1416   1417   1418   1419
1420   1421   1422   1423
1424   1425   1426   1427
1428   1429   1430   1431
1432   1433   1434   1435
1436   1437   1438   1439
1440   1441   1442   1443
1444   1445   1446   1447
1448   1449   1450   1451
1452   1453   1454   1455
1456   1457   1458   1459
1460   1461   1462   1463
1464   1465   1466   1467
1468   1469   1470   1471
1472   1473   1474   1475
1476   1477   1478   1479
1480   1481   1482   1483
1484   1485   1486   1487
1488   1489   1490   1491
1492   1493   1494   1495
1496   1497   1498   1499
1500   1501   1502   1503
1504   1505   1506   1507
1508   1509   1510   1511
1512   1513   1514   1515
1516   1517   1518   1519
1520   1521   1522   1523
1524   1525   1526   1527
1528   1529   1530   1531
1532   1533   1534   1535
1536   1537   1538   1539
1540   1541   1542   1543
1544   1545   1546   1547
1548   1549   1550   1551
1552   1553   1554   1555
1556   1557   1558   1559
1560   1561   1562   1563
1564   1565   1566   1567
1568   1569   1570   1571
1572   1573   1574   1575
1576   1577   1578   1579
1580   1581   1582   1583
1584   1585   1586   1587
1588   1589   1590   1591
1592   1593   1594   1595
1596   1597   1598   1599
1600   1601   1602   1603
1604   1605   1606   1607
1608   1609   1610   1611
1612   1613   1614   1615
1616   1617   1618   1619
1620   1621   1622   1623
1624   1625   1626   1627
1628   1629   1630   1631
1632   1633   1634   1635
1636   1637   1638   1639
1640   1641   1642   1643
1644   1645   1646   1647
1648   1649   1650   1651
1652   1653   1654   1655
1656   1657   1658   1659
1660   1661   1662   1663
1664   1665   1666   1667
1668   1669   1670   1671
1672   1673   1674   1675
1676   1677   1678   1679
1680   1681   1682   1683
1684   1685   1686   1687
1688   1689   1690   1691
1692   1693   1694   1695
1696   1697   1698   1699
1700   1701   1702   1703
1704   1705   1706   1707
1708   1709   1710   1711
1712   1713   1714   1715
1716   1717   1718   1719
1720   1721   1722   1723
1724   1725   1726   1727
1728   1729   1730   1731
1732   1733   1734   1735
1736   1737   1738   1739
1740   1741   1742   1743
1744   1745   1746   1747
1748   1749   1750   1751
1752   1753   1754   1755
1756   1757   1758   1759
1760   1761   1762   1763
1764   1765   1766   1767
1768   1769   1770   1771
1772   1773   1774   1775
1776   1777   1778   1779
1780   1781   1782   1783
1784   1785   1786   1787
1788   1789   1790   1791
1792   1793   1794   1795
1796   1797   1798   1799
1800   1801   1802   1803
1804   1805   1806   1807
1808   1809   1810   1811
1812   1813   1814   1815
1816   1817   1818   1819
1820   1821   1822   1823
1824   1825   1826   1827
1828   1829   1830   1831
1832   1833   1834   1835
1836   1837   1838   1839
1840   1841   1842   1843
1844   1845   1846   1847
1848   1849   1850   1851
1852   1853   1854   1855
1856   1857   1858   1859
1860   1861   1862   1863
1864   1865   1866   1867
1868   1869   1870   1871
1872   1873   1874   1875
1876   1877   1878   1879
1880   1881   1882   1883
1884   1885   1886   1887
1888   1889   1890   1891
1892   1893   1894   1895
1896   1897   1898   1899
1900   1901   1902   1903
1904   1905   1906   1907
1908   1909   1910   1911
1912   1913   1914   1915
1916   1917   1918   1919
1920   1921   1922   1923
1924   1925   1926   1927
1928   1929   1930   1931
1932   1933   1934   1935
1936   1937   1938   1939
1940   1941   1942   1943
1944   1945   1946   1947
1948   1949   1950   1951
1952   1953   1954   1955
1956   1957   1958   1959
1960   1961   1962   1963
1964   1965   1966   1967
1968   1969   1970   1971
1972   1973   1974   1975
1976   1977   1978   1979
1980   1981   1982   1983
1984   1985   1986   1987
1988   1989   1990   1991
1992   1993   1994   1995
1996   1997   1998   1999
2000   2001   2002   2003
2004   2005   2006   2007
2008   2009   2010   2011
2012   2013   2014   2015
2016   2017   2018   2019
2020   2021   2022   2023
2024   2025   2026   2027
2028   2029   2030   2031
2032   2033   2034   2035
2036   2037   2038   2039
2040   2041   2042   2043
2044   2045   2046   2047
2048   2049   2050   2051
2052   2053   2054   2055
2056   2057   2058   2059
2060   2061   2062   2063
2064   2065   2066   2067
2068   2069   2070   2071
2072   2073   2074   2075
2076   2077   2078   2079
2080   2081   2082   2083
2084   2085   2086   2087
2088   2089   2090   2091
2092   2093   2094   2095
2096   2097   2098   2099
2100   2101   2102   2103
2104   2105   2106   2107
2108   2109   2110   2111
2112   2113   2114   2115
2116   2117   2118   2119
2120   2121   2122   2123
2124   2125   2126   2127
2128   2129   2130   2131
2132   2133   2134   2135
2136   2137   2138   2139
2140   2141   2142   2143
2144   2145   2146   2147
2148   2149   2150   2151
2152   2153   2154   2155
2156   2157   2158   2159
2160   2161   2162   2163
2164   2165   2166   2167
2168   2169   2170   2171
2172   2173   2174   2175
2176   2177   2178   2179
2180   2181   2182   2183
2184   2185   2186   2187
2188   2189   2190   2191
2192   2193   2194   2195
2196   2197   2198   2199
2200   2201   2202   2203
2204   2205   2206   2207
2208   2209   2210   2211
2212   2213   2214   2215
2216   2217   2218   2219
2220   2221   2222   2223
2224   2225   2226   2227
2228   2229   2230   2231
2232   2233   2234   2235
2236   2237   2238   2239
2240   2241   2242   2243
2244   2245   2246   2247
2248   2249   2250   2251
2252   2253   2254   2255
2256   2257   2258   2259
2260   2261   2262   2263
2264   2265   2266   2267
2268   2269   2270   2271
2272   2273   2274   2275
2276   2277   2278   2279
2280   2281   2282   2283
2284   2285   2286   2287
2288   2289   2290   2291
2292   2293   2294   2295
2296   2297   2298   2299
2300   2301   2302   2303
2304   2305   2306   2307
2308   2309   2310   2311
2312   2313   2314   2315
2316   2317   2318   2319
2320   2321   2322   2323
2324   2325   2326   2327
2328   2329   2330   2331
2332   2333   2334   2335
2336   2337   2338   2339
2340   2341   2342   2343
2344   2345   2346   2347
2348   2349   2350   2351
2352   2353   2354   2355
2356   2357   2358   2359
2360   2361   2362   2363
2364   2365   2366   2367
2368   2369   2370   2371
2372   2373   2374   2375
2376   2377   2378   2379
2380   2381   2382   2383
2384   2385   2386   2387
2388   2389   2390   2391
2392   2393   2394   2395
2396   2397   2398   2399
2400   2401   2402   2403
2404   2405   2406   2407
2408   2409   2410   2411
2412   2413   2414   2415
2416   2417   2418   2419
2420   2421   2422   2423
2424   2425   2426   2427
2428   2429   2430   2431
2432   2433   2434   2435
2436   2437   2438   2439
2440   2441   2442   2443
2444   2445   2446   2447
2448   2449   2450   2451
2452   2453   2454   2455
2456   2457   2458   2459
2460   2461   2462   2463
2464   2465   2466   2467
2468   2469   2470   2471
2472   2473   2474   2475
2476   2477   2478   2479
2480   2481   2482   2483
2484   2485   2486   2487
2488   2489   2490   2491
2492   2493   2494   2495
2496   2497   2498   2499
2500   2501   2502   2503
2504   2505   2506   2507
2508   2509   2510   2511
2512   2513   2514   2515
2516   2517   2518   2519
2520   2521   2522   2523
2524   2525   2526   2527
2528   2529   2530   2531
2532   2533   2534   2535
2536   2537   2538   2539
2540   2541   2542   2543
2544   2545   2546   2547
2548   2549   2550   2551
2552   2553   2554   2555
2556   2557   2558   2559
2560   2561   2562   2563
2564   2565   2566   2567
2568   2569   2570   2571
2572   2573   2574   2575
2576   2577   2578   2579
2580   2581   2582   2583
2584   2585   2586   2587
2588   2589   2590   2591
2592   2593   2594   2595
2596   2597   2598   2599
2600   2601   2602   2603
2604   2605   2606   2607
2608   2609   2610   2611
2612   2613   2614   2615
2616   2617   2618   2619
2620   2621   2622   2623
2624   2625   2626   2627
2628   2629   2630   2631
2632   2633   2634   2635
2636   2637   2638   2639
2640   2641   2642   2643
2644   2645   2646   2647
2648   2649   2650   2651
2652   2653   2654   2655
2656   2657   2658   2659
2660   2661   2662   2663
2664   2665   2666   2667
2668   2669   2670   2671
2672   2673   2674   2675
2676   2677   2678   2679
2680   2681   2682   2683
2684   2685   2686   2687
2688   2689   2690   2691
2692   2693   2694   2695
2696   2697   2698   2699
2700   2701   2702   2703
2704   2705   2706   2707
2708   2709   2710   2711
2712   2713   2714   2715
2716   2717   2718   2719
2720   2721   2722   2723
2724   2725   2726   2727
2728   2729   2730   2731
2732   2733   2734   2735
2736   2737   2738   2739
2740   2741   2742   2743
2744   2745   2746   2747
2748   2749   2750   2751
2752   2753   2754   2755
2756   2757   2758   2759
2760   2761   2762   2763
2764   2765   2766   2767
2768   2769   2770   2771
2772   2773   2774   2775
2776   2777   2778   2779
2780   2781   2782   2783
2784   2785   2786   2787
2788   2789   2790   2791
2792   2793   2794   2795
2796   2797   2798   2799
2800   2801   2802   2803
2804   2805   2806   2807
2808   2809   2810   2811
2812   2813   2814   2815
2816   2817   2818   2819
2820   2821   2822   2823
2824   2825   2826   2827
2828   2829   2830   2831
2832   2833   2834   2835
2836   2837   2838   2839
2840   2841   2842   2843
2844   2845   2846   2847
2848   2849   2850   2851
2852   2853   2854   2855
2856   2857   2858   2859
2860   2861   2862   2863
2864   2865   2866   2867
2868   2869   2870   2871
2872   2873   2874   2875
2876   2877   2878   2879
2880   2881   2882   2883
2884   2885   2886   2887
2888   2889   2890   2891
2892   2893   2894   2895
2896   2897   2898   2899
2900   2901   2902   2903
2904   2905   2906   2907
2908   2909   2910   2911
2912   2913   2914   2915
2916   2917   2918   2919
2920   2921   2922   2923
2924   2925   2926   2927
2928   2929   2930   2931
2932   2933   2934   2935
2936   2937   2938   2939
2940   2941   2942   2943
2944   2945   2946   2947
2948   2949   2950   2951
2952   2953   2954   2955
2956   2957   2958   2959
2960   2961   2962   2963
2964   2965   2966   2967
2968   2969   2970   2971
2972   2973   2974   2975
2976   2977   2978   2979
2980   2981   2982   2983
2984   2985   2986   2987
2988   2989   2990   2991
2992   2993   2994   2995
2996   2997   2998   2999
3000   3001   3002   3003
3004   3005   3006   3007
3008   3009   3010   3011
3012   3013   3014   3015
3016   3017   3018   3019
3020   3021   3022   3023
3024   3025   3026   3027
3028   3029   3030   3031
3032   3033   3034   3035
3036   3037   3038   3039
3040   3041   3042   3043
3044   3045   3046   3047
3048   3049   3050   3051
3052   3053   3054   3055
3056   3057   3058   3059
3060   3061   3062   3063
3064   3065   3066   3067
3068   3069   3070   3071
3072   3073   3074   3075
3076   3077   3078   3079
3080   3081   3082   3083
3084   3085   3086   3087
3088   3089   3090   3091
3092   3093   3094   3095
3096   3097   3098   3099
3100   3101   3102   3103
3104   3105   3106   3107
3108   3109   3110   3111
3112   3113   3114   3115
3116   3117   3118   3119
3120   3121   3122   3123
3124   3125   3126   3127
3128   3129   3130   3131
3132   3133   3134   3135
3136   3137   3138   3139
3140   3141   3142   3143
3144   3145   3146   3147
3148   3149   3150   3151
3152   3153   3154   3155
3156   3157   3158   3159
3160   3161   3162   3163
3164   3165   3166   3167
3168   3169   3170   3171
3172   3173   3174   3175
3176   3177   3178   3179
3180   3181   3182   3183
3184   3185   3186   3187
3188   3189   3190   3191
3192   3193   3194   3195
3196   3197   3198   3199
3200   3201   3202   3203
3204   3205   3206   3207
3208   3209   3210   3211
3212   3213   3214   3215
3216   3217   3218   3219
3220   3221   3222   3223
3224   3225   3226   3227
3228   3229   3230   3231
3232   3233   3234   3235
3236   3237   3238   3239
3240   3241   3242   3243
3244   3245   3246   3247
3248   3249   3250   3251
3252   3253   3254   3255
3256   3257   3258   3259
3260   3261   3262   3263
3264   3265   3266   3267
3268   3269   3270   3271
3272   3273   3274   3275
3276   3277   3278   3279
3280   3281   3282   3283
3284   3285   3286   3287
3288   3289   3290   3291
3292   3293   3294   3295
3296   3297   3298   3299
3300   3301   3302   3303
3304   3305   3306   3307
3308   3309   3310   3311
3312   3313   3314   3315
3316   3317   3318   3319
3320   3321   3322   3323
3324   3325   3326   3327
3328   3329   3330   3331
3332   3333   3334   3335
3336   3337   3338   3339
3340   3341   3342   3343
3344   3345   3346   3347
3348   3349   3350   3351
3352   3353   3354   3355
3356   3357   3358   3359
3360   3361   3362   3363
3364   3365   3366   3367
3368   3369   3370   3371
3372   3373   3374   3375
3376   3377   3378   3379
3380   3381   3382   3383
3384   3385   3386   3387
3388   3389   3390   3391
3392   3393   3394   3395
3396   3397   3398   3399
3400   3401   3402   3403
3404   3405   3406   3407
3408   3409   3410   3411
3412   3413   3414   3415
3416   3417   3418   3419
3420   3421   3422   3423
3424   3425   3426   3427
3428   3429   3430   3431
3432   3433   3434   3435
3436   3437   3438   3439
3440   3441   3442   3443
3444   3445   3446   3447
3448   3449   3450   3451
3452   3453   3454   3455
3456   3457   3458   3459
3460   3461   3462   3463
3464   3465   3466   3467
3468   3469   3470   3471
3472   3473   3474   3475
3476   3477   3478   3479
3480   3481   3482   3483
3484   3485   3486   3487
3488   3489   3490   3491
3492   3493   3494   3495
3496   3497   3498   3499
3500   3501   3502   3503
3504   3505   3506   3507
3508   3509   3510   3511
3512   3513   3514   3515
3516   3517   3518   3519
3520   3521   3522   3523
3524   3525   3526   3527
3528   3529   3530   3531
3532   3533   3534   3535
3536   3537   3538   3539
3540   3541   3542   3543
3544   3545   3546   3547
3548   3549   3550   3551
3552   3553   3554   3555
3556   3557   3558   3559
3560   3561   3562   3563
3564   3565   3566   3567
3568   3569   3570   3571
3572   3573   3574   3575
3576   3577   3578   3579
3580   3581   3582   3583
3584   3585   3586   3587
3588   3589   3590   3591
3592   3593   3594   3595
3596   3597   3598   3599
3600   3601   3602   3603
3604   3605   3606   3607
3608   3609   3610   3611
3612   3613   3614   3615
3616   3617   3618   3619
3620   3621   3622   3623
3624   3625   3626   3627
3628   3629   3630   3631
3632   3633   3634   3635
3636   3637   3638   3639
3640   3641   3642   3643
3644   3645   3646   3647
3648   3649   3650   3651
3652   3653   3654   3655
3656   3657   3658   3659
3660   3661   3662   3663
3664   3665   3666   3667
3668   3669   3670   3671
3672   3673   3674   3675
3676   3677   3678   3679
3680   3681   3682   3683
3684   3685   3686   3687
3688   3689   3690   3691
3692   3693   3694   3695
3696   3697   3698   3699
3700   3701   3702   3703
3704   3705   3706   3707
3708   3709   3710   3711
3712   3713   3714   3715
3716   3717   3718   3719
3720   3721   3722   3723
3724   3725   3726   3727
3728   3729   3730   3731
3732   3733   3734   3735
3736   3737   3738   3739
3740   3741   3742   3743
3744   3745   3746   3747
3748   3749   3750   3751
3752   3753   3754   3755
3756   3757   3758   3759
3760   3761   3762   3763
3764   3765   3766   3767
3768   3769   3770   3771
3772   3773   3774   3775
3776   3777   3778   3779
3780   3781   3782   3783
3784   3785   3786   3787
3788   3789   3790   3791
3792   3793   3794   3795
3796   3797   3798   3799
3800   3801   3802   3803
3804   3805   3806   3807
3808   3809   3810   3811
3812   3813   3814   3815
3816   3817   3818   3819
3820   3821   3822   3823
3824   3825   3826   3827
3828   3829   3830   3831
3832   3833   3834   3835
3836   3837   3838   3839
3840   3841   3842   3843
3844   3845   3846   3847
3848   3849   3850   3851
3852   3853   3854   3855
3856   3857   3858   3859
3860   3861   3862   3863
3864   3865   3866   3867
3868   3869   3870   3871
3872   3873   3874   3875
3876   3877   3878   3879
3880   3881   3882   3883
3884   3885   3886   3887
3888   3889   3890   3891
3892   3893   3894   3895
3896   3897   3898   3899
3900   3901   3902   3903
3904   3905   3906   3907
3908   3909   3910   3911
3912   3913   3914   3915
3916   3917   3918   3919
3920   3921   3922   3923
3924   3925   3926   3927
3928   3929   3930   3931
3932   3933   3934   3935
3936   3937   3938   3939
3940   3941   3942   3943
3944   3945   3946   3947
3948   3949   3950   3951
3952   3953   3954   3955
3956   3957   3958   3959
3960   3961   3962   3963
3964   3965   3966   3967
3968   3969   3970   3971
3972   3973   3974   3975
3976   3977   3978   3979
3980   3981   3982   3983
3984   3985   3986   3987
3988   3989   3990   3991
3992   3993   3994   3995
3996   3997   3998   3999
4000   4001   4002   4003
4004   4005   4006   4007
4008   4009   4010   4011
4012   4013   4014   4015
4016   4017   4018   4019
4020   4021   4022   4023
4024   4025   4026   4027
4028   4029   4030   4031
4032   4033   4034   4035
4036   4037   4038   4039
4040   4041   4042   4043
4044   4045   4046   4047
4048   4049   4050   4051
4052   4053   4054   4055
4056   4057   4058   4059
4060   4061   4062   4063
4064   4065   4066   4067
4068   4069   4070   4071
4072   4073   4074   4075
4076   4077   4078   4079
4080   4081   4082   4083
4084   4085   4086   4087
4088   4089   4090   4091
4092   4093   4094   4095
4096   4097   4098   4099
4100   4101   4102   4103
4104   4105   4106   4107
4108   4109   4110   4111
4112   4113   4114   4115
4116   4117   4118   4119
4120   4121   4122   4123
4124   4125   4126   4127
4128   4129   4130   4131
4132   4133   4134   4135
4136   4137   4138   4139
4140   4141   4142   4143
4144   4145   4146   4147
4148   4149   4150   4151
4152   4153   4154   4155
4156   4157   4158   4159
4160   4161   4162   4163
4164   4165   4166   4167
4168   4169   4170   4171
4172   4173   4174   4175
4176   4177   4178   4179
4180   4181   4182   4183
4184   4185   4186   4187
4188   4189   4190   4191
4192   4193   4194   4195
4196   4197   4198   4199
4200   4201   4202   4203
4204   4205   4206   4207
4208   4209   4210   4211
4212   4213   4214   4215
4216   4217   4218   4219
4220   4221   4222   4223
4224   4225   4226   4227
4228   4229   4230   4231
4232   4233   4234   4235
4236   4237   4238   4239
4240   4241   4242   4243
4244   4245   4246   4247
4248   4249   4250   4251
4252   4253   4254   4255
4256   4257   4258   4259
4260   4261   4262   4263
4264   4265   4266   4267
4268   4269   4270   4271
4272   4273   4274   4275
4276   4277   4278   4279
4280   4281   4282   4283
4284   4285   4286   4287
4288   4289   4290   4291
4292   4293   4294   4295
4296   4297   4298   4299
4300   4301   4302   4303
4304   4305   4306   4307
4308   4309   4310   4311
4312   4313   4314   4315
4316   4317   4318   4319
4320   4321   4322   4323
4324   4325   4326   4327
4328   4329   4330   4331
4332   4333   4334   4335
4336   4337   4338   4339
4340   4341   4342   4343
4344   4345   4346   4347
4348   4349   4350   4351
4352   4353   4354   4355
4356   4357   4358   4359
4360   4361   4362   4363
4364   4365   4366   4367
4368   4369   4370   4371
4372   4373   4374   4375
4376   4377   4378   4379
4380   4381   4382   4383
4384   4385   4386   4387
4388   4389   4390   4391
4392   4393   4394   4395
4396   4397   4398   4399
4400   4401   4402   4403
4404   4405   4406   4407
4408   4409   4410   4411
4412   4413   4414   4415
4416   4417   4418   4419
4420   4421   4422   4423
4424   4425   4426   4427
4428   4429   4430   4431
4432   4433   4434   4435
4436   4437   4438   4439
4440   4441   4442   4443
4444   4445   4446   4447
4448   4449   4450   4451
4452   4453   4454   4455
4456   4457   4458   4459
4460   4461   4462   4463
4464   4465   4466   4467
4468   4469   4470   4471
4472   4473   4474   4475
4476   4477   4478   4479
4480   4481   4482   4483
4484   4485   4486   4487
4488   4489   4490   4491
4492   4493   4494   4495
4496   4497   4498   4499
4500   4501   4502   4503
4504   4505   4506   4507
4508   4509   4510   4511
4512   4513   4514   4515
4516   4517   4518   4519
4520   4521   4522   4523
4524   4525   4526   4527
4528   4529   4530   4531
4532   4533   4534   4535
4536   4537   4538   4539
4540   4541   4542   4543
4544   4545   4546   4547
4548   4549   4550   4551
4552   4553   4554   4555
4556   4557   4558   4559
4560   4561   4562   4563
4564   4565   4566   4567
4568   4569   4570   4571
4572   4573   4574   4575
4576   4577   4578   4579
4580   4581   4582   4583
4584   4585   4586   4587
4588   4589   4590   4591
4592   4593   4594   4595
4596   4597   4598   4599
4600   4601   4602   4603
4604   4605   4606   4607
4608   4609   4610   4611
4612   4613   4614   4615
4616   4617   4618   4619
4620   4621   4622   4623
4624   4625   4626   4627
4628   4629   4630   4631
4632   4633   4634   4635
4636   4637   4638   4639
4640   4641   4642   4643
4644   4645   4646   4647
4648   4649   4650   4651
4652   4653   4654   4655
4656   4657   4658   4659
4660   4661   4662   4663
4664   4665   4666   4667
4668   4669   4670   4671
4672   4673   4674   4675
4676   4677   4678   4679
4680   4681   4682   4683
4684   4685   4686   4687
4688   4689   4690   4691
4692   4693   4694   4695
4696   4697   4698   4699
4700   4701   4702   4703
4704   4705   4706   4707
4708   4709   4710   4711
4712   4713   4714   4715
4716   4717   4718   4719
4720   4721   4722   4723
4724   4725   4726   4727
4728   4729   4730   4731
4732   4733   4734   4735
4736   4737   4738   4739
4740   4741   4742   4743
4744   4745   4746   4747
4748   4749   4750   4751
4752   4753   4754   4755
4756   4757   4758   4759
4760   4761   4762   4763
4764   4765   4766   4767
4768   4769   4770   4771
4772   4773   4774   4775
4776   4777   4778   4779
4780   4781   4782   4783
4784   4785   4786   4787
4788   4789   4790   4791
4792   4793   4794   4795
4796   4797   4798   4799
4800   4801   4802   4803
4804   4805   4806   4807
4808   4809   4810   4811
4812   4813   4814   4815
4816   4817   4818   4819
4820   4821   4822   4823
4824   4825   4826   4827
4828   4829   4830   4831
4832   4833   4834   4835
4836   4837   4838   4839
4840   4841   4842   4843
4844   4845   4846   4847
4848   4849   4850   4851
4852   4853   4854   4855
4856   4857   4858   4859
4860   4861   4862   4863
4864   4865   4866   4867
4868   4869   4870   4871
4872   4873   4874   4875
4876   4877   4878   4879
4880   4881   4882   4883
4884   4885   4886   4887
4888   4889   4890   4891
4892   4893   4894   4895
4896   4897   4898   4899
4900   4901   4902   4903
4904   4905   4906   4907
4908   4909   4910   4911
4912   4913   4914   4915
4916   4917   4918   4919
4920   4921   4922   4923
4924   4925   4926   4927
4928   4929   4930   4931
4932   4933   4934   4935
4936   4937   4938   4939
4940   4941   4942   4943
4944   4945   4946   4947
4948   4949   4950   4951
4952   4953   4954   4955
4956   4957   4958   4959
4960   4961   4962   4963
4964   4965   4966   4967
4968   4969   4970   4971
4972   4973   4974   4975
4976   4977   4978   4979
4980   4981   4982   4983
4984   4985   4986   4987
4988   4989   4990   4991
4992   4993   4994   4995
4996   4997   4998   4999
5000   5001   5002   5003
5004   5005   5006   5007
5008   5009   5010   5011
5012   5013   5014   5015
5016   5017   5018   5019
5020   5021   5022   5023
5024   5025   5026   5027
5028   5029   5030   5031
5032   5033   5034   5035
5036   5037   5038   5039
5040   5041   5042   5043
5044   5045   5046   5047
5048   5049   5050   5051
5052   5053   5054   5055
5056   5057   5058   5059
5060   5061   5062   5063
5064   5065   5066   5067
5068   5069   5070   5071
5072   5073   5074   5075
5076   5077   5078   5079
5080   5081   5082   5083
5084   5085   5086   5087
5088   5089   5090   5091
5092   5093   5094   5095
5096   5097   5098   5099
5100   5101   5102   5103
5104   5105   5106   5107
5108   5109   5110   5111
5112   5113   5114   5115
5116   5117   5118   5119
5120   5121   5122   5123
5124   5125   5126   5127
5128   5129   5130   5131
5132   5133   5134   5135
5136   5137   5138   5139
5140   5141   5142   5143
5144   5145   5146   5147
5148   5149   5150   5151
5152   5153   5154   5155
5156   5157   5158   5159
5160   5161   5162   5163
5164   5165   5166   5167
5168   5169   5170   5171
5172   5173   5174   5175
5176   5177   5178   5179
5180   5181   5182   5183
5184   5185   5186   5187
5188   5189   5190   5191
5192   5193   5194   5195
5196   5197   5198   5199
5200   5201   5202   5203
5204   5205   5206   5207
5208   5209   5210   5211
5212   5213   5214   5215
5216   5217   5218   5219
5220   5221   5222   5223
5224   5225   5226   5227
5228   5229   5230   5231
5232   5233   5234   5235
5236   5237   5238   5239
5240   5241   5242   5243
5244   5245   5246   5247
5248   5249   5250   5251
5252   5253   5254   5255
5256   5257   5258   5259
5260   5261   5262   5263
5264   5265   5266   5267
5268   5269   5270   5271
5272   5273   5274   5275
5276   5277   5278   5279
5280   5281   5282   5283
5284   5285   5286   5287
5288   5289   5290   5291
5292   5293   5294   5295
5296   5297   5298   5299
5300   5301   5302   5303
5304   5305   5306   5307
5308   5309   5310   5311
5312   5313   5314   5315
5316   5317   5318   5319
5320   5321   5322   5323
5324   5325   5326   5327
5328   5329   5330   5331
5332   5333   5334   5335
5336   5337   5338   5339
5340   5341   5342   5343
5344   5345   5346   5347
5348   5349   5350   5351
5352   5353   5354   5355
5356   5357   5358   5359
5360   5361   5362   5363
5364   5365   5366   5367
5368   5369   5370   5371
5372   5373   5374   5375
5376   5377   5378   5379
5380   5381   5382   5383
5384   5385   5386   5387
5388   5389   5390   5391
5392   5393   5394   5395
5396   5397   5398   5399
5400   5401   5402   5403
5404   5405   5406   5407
5408   5409   5410   5411
5412   5413   5414   5415
5416   5417   5418   5419
5420   5421   5422   5423
5424   5425   5426   5427
5428   5429   5430   5431
5432   5433   5434   5435
5436   5437   5438   5439
5440   5441   5442   5443
5444   5445   5446   5447
5448   5449   5450   5451
5452   5453   5454   5455
5456   5457   5458   5459
5460   5461   5462   5463
5464   5465   5466   5467
5468   5469   5470   5471
5472   5473   5474   5475
5476   5477   5478   5479
5480   5481   5482   5483
5484   5485   5486   5487
5488   5489   5490   5491
5492   5493   5494   5495
5496   5497   5498   5499
5500   5501   5502   5503
5504   5505   5506   5507
5508   5509   5510   5511
5512   5513   5514   5515
5516   5517   5518   5519
5520   5521   5522   5523
5524   5525   5526   5527
5528   5529   5530   5531
5532   5533   5534   5535
5536   5537   5538   5539
5540   5541   5542   5543
5544   5545   5546   5547
5548   5549   5550   5551
5552   5553   5554   5555
5556   5557   5558   5559
5560   5561   5562   5563
5564   5565   5566   5567
5568   5569   5570   5571
5572   5573   5574   5575
5576   5577   5578   5579
5580   5581   5582   5583
5584   5585   5586   5587
5588   5589   5590   5591
5592   5593   5594   5595
5596   5597   5598   5599
5600   5601   5602   5603
5604   5605   5606   5607
5608   5609   5610   5611
5612   5613   5614   5615
5616   5617   5618   5619
5620   5621   5622   5623
5624   5625   5626   5627
5628   5629   5630   5631
5632   5633   5634   5635
5636   5637   5638   5639
5640   5641   5642   5643
5644   5645   5646   5647
5648   5649   5650   5651
5652   5653   5654   5655
5656   5657   5658   5659
5660   5661   5662   5663
5664   5665   5666   5667
5668   5669   5670   5671
5672   5673   5674   5675
5676   5677   5678   5679
5680   5681   5682   5683
5684   5685   5686   5687
5688   5689   5690   5691
5692   5693   5694   5695
5696   5697   5698   5699
5700   5701   5702   5703
5704   5705   5706   5707
5708   5709   5710   5711
5712   5713   5714   5715
5716   5717   5718   5719
5720   5721   5722   5723
5724   5725   5726   5727
5728   5729   5730   5731
5732   5733   5734   5735
5736   5737   5738   5739
5740   5741   5742   5743
5744   5745   5746   5747
5748   5749   5750   5751
5752   5753   5754   5755
5756   5757   5758   5759
5760   5761   5762   5763
5764   5765   5766   5767
5768   5769   5770   5771
5772   5773   5774   5775
5776   5777   5778   5779
5780   5781   5782   5783
5784   5785   5786   5787
5788   5789   5790   5791
5792   5793   5794   5795
5796   5797   5798   5799
5800   5801   5802   5803
5804   5805   5806   5807
5808   5809   5810   5811
5812   5813   5814   5815
5816   5817   5818   5819
5820   5821   5822   5823
5824   5825   5826   5827
5828   5829   5830   5831
5832   5833   5834   5835
5836   5837   5838   5839
5840   5841   5842   5843
5844   5845   5846   5847
5848   5849   5850   5851
5852   5853   5854   5855
5856   5857   5858   5859
5860   5861   5862   5863
5864   5865   5866   5867
5868   5869   5870   5871
5872   5873   5874   5875
5876   5877   5878   5879
5880   5881   5882   5883
5884   5885   5886   5887
5888   5889   5890   5891
5892   5893   5894   5895
5896   5897   5898   5899
5900   5901   5902   5903
5904   5905   5906   5907
5908   5909   5910   5911
5912   5913   5914   5915
5916   5917   5918   5919
5920   5921   5922   5923
5924   5925   5926   5927
5928   5929   5930   5931
5932   5933   5934   5935
5936   5937   5938   5939
5940   5941   5942   5943
5944   5945   5946   5947
5948   5949   5950   5951
5952   5953   5954   5955
5956   5957   5958   5959
5960   5961   5962   5963
5964   5965   5966   5967
5968   5969   5970   5971
5972   5973   5974   5975
5976   5977   5978   5979
5980   5981   5982   5983
5984   5985   5986   5987
5988   5989   5990   5991
5992   5993   5994   5995
5996   5997   5998   5999
              </DataArray>   
              <DataArray type="Int32" Name="offsets" format="ascii">   
4
8
12
16
20
24
28
32
36
40
44
48
52
56
60
64
68
72
76
80
84
88
92
96
100
104
108
112
116
120
124
128
132
136
140
144
148
152
156
160
164
168
172
176
180
184
188
192
196
200
204
208
212
216
220
224
228
232
236
240
244
248
252
256
260
264
268
272
276
280
284
288
292
296
300
304
308
312
316
320
324
328
332
336
340
344
348
352
356
360
364
368
372
376
380
384
388
392
396
400
404
408
412
416
420
424
428
432
436
440
444
448
452
456
460
464
468
472
476
480
484
488
492
496
500
504
508
512
516
520
524
528
532
536
540
544
548
552
556
560
564
568
572
576
580
584
588
592
596
600
604
608
612
616
620
624
628
632
636
640
644
648
652
656
660
664
668
672
676
680
684
688
692
696
700
704
708
712
716
720
724
728
732
736
740
744
748
752
756
760
764
768
772
776
780
784
788
792
796
800
804
808
812
816
820
824
828
832
836
840
844
848
852
856
860
864
868
872
876
880
884
888
892
896
900
904
908
912
916
920
924
928
932
936
940
944
948
952
956
960
964
968
972
976
980
984
988
992
996
1000
1004
1008
1012
1016
1020
1024
1028
1032
1036
1040
1044
1048
1052
1056
1060
1064
1068
1072
1076
1080
1084
1088
1092
1096
1100
1104
1108
1112
1116
1120
1124
1128
1132
1136
1140
1144
1148
1152
1156
1160
1164
1168
1172
1176
1180
1184
1188
1192
1196
1200
1204
1208
1212
1216
1220
1224
1228
1232
1236
1240
1244
1248
1252
1256
1260
1264
1268
1272
1276
1280
1284
1288
1292
1296
1300
1304
1308
1312
1316
1320
1324
1328
1332
1336
1340
1344
1348
1352
1356
1360
1364
1368
1372
1376
1380
1384
1388
1392
1396
1400
1404
1408
1412
1416
1420
1424
1428
1432
1436
1440
1444
1448
1452
1456
1460
1464
1468
1472
1476
1480
1484
1488
1492
1496
1500
1504
1508
1512
1516
1520
1524
1528
1532
1536
1540
1544
1548
1552
1556
1560
1564
1568
1572
1576
1580
1584
1588
1592
1596
1600
1604
1608
1612
1616
1620
1624
1628
1632
1636
1640
1644
1648
1652
1656
1660
1664
1668
1672
1676
1680
1684
1688
1692
1696
1700
1704
1708
1712
1716
1720
1724
1728
1732
1736
1740
1744
1748
1752
1756
1760
1764
1768
1772
1776
1780
1784
1788
1792
1796
1800
1804
1808
1812
1816
1820
1824
1828
1832
1836
1840
1844
1848
1852
1856
1860
1864
1868
1872
1876
1880
1884
1888
1892
1896
1900
1904
1908
1912
1916
1920
1924
1928
1932
1936
1940
1944
1948
1952
1956
1960
1964
1968
1972
1976
1980
1984
1988
1992
1996
2000
2004
2008
2012
2016
2020
2024
2028
2032
2036
2040
2044
2048
2052
2056
2060
2064
2068
2072
2076
2080
2084
2088
2092
2096
2100
2104
2108
2112
2116
2120
2124
2128
2132
2136
2140
2144
2148
2152
2156
2160
2164
2168
2172
2176
2180
2184
2188
2192
2196
2200
2204
2208
2212
2216
2220
2224
2228
2232
2236
2240
2244
2248
2252
2256
2260
2264
2268
2272
2276
2280
2284
2288
2292
2296
2300
2304
2308
2312
2316
2320
2324
2328
2332
2336
2340
2344
2348
2352
2356
2360
2364
2368
2372
2376
2380
2384
2388
2392
2396
2400
2404
2408
2412
2416
2420
2424
2428
2432
2436
2440
2444
2448
2452
2456
2460
2464
2468
2472
2476
2480
2484
2488
2492
2496
2500
2504
2508
2512
2516
2520
2524
2528
2532
2536
2540
2544
2548
2552
2556
2560
2564
2568
2572
2576
2580
2584
2588
2592
2596
2600
2604
2608
2612
2616
2620
2624
2628
2632
2636
2640
2644
2648
2652
2656
2660
2664
2668
2672
2676
2680
2684
2688
2692
2696
2700
2704
2708
2712
2716
2720
2724
2728
2732
2736
2740
2744
2748
2752
2756
2760
2764
2768
2772
2776
2780
2784
2788
2792
2796
2800
2804
2808
2812
2816
2820
2824
2828
2832
2836
2840
2844
2848
2852
2856
2860
2864
2868
2872
2876
2880
2884
2888
2892
2896
2900
2904
2908
2912
2916
2920
2924
2928
2932
2936
2940
2944
2948
2952
2956
2960
2964
2968
2972
2976
2980
2984
2988
2992
2996
3000
3004
3008
3012
3016
3020
3024
3028
3032
3036
3040
3044
3048
3052
3056
3060
3064
3068
3072
3076
3080
3084
3088
3092
3096
3100
3104
3108
3112
3116
3120
3124
3128
3132
3136
3140
3144
3148
3152
3156
3160
3164
3168
3172
3176
3180
3184
3188
3192
3196
3200
3204
3208
3212
3216
3220
3224
3228
3232
3236
3240
3244
3248
3252
3256
3260
3264
3268
3272
3276
3280
3284
3288
3292
3296
3300
3304
3308
3312
3316
3320
3324
3328
3332
3336
3340
3344
3348
3352
3356
3360
3364
3368
3372
3376
3380
3384
3388
3392
3396
3400
3404
3408
3412
3416
3420
3424
3428
3432
3436
3440
3444
3448
3452
3456
3460
3464
3468
3472
3476
3480
3484
3488
3492
3496
3500
3504
3508
3512
3516
3520
3524
3528
3532
3536
3540
3544
3548
3552
3556
3560
3564
3568
3572
3576
3580
3584
3588
3592
3596
3600
3604
3608
3612
3616
3620
3624
3628
3632
3636
3640
3644
3648
3652
3656
3660
3664
3668
3672
3676
3680
3684
3688
3692
3696
3700
3704
3708
3712
3716
3720
3724
3728
3732
3736
3740
3744
3748
3752
3756
3760
3764
3768
3772
3776
3780
3784
3788
3792
3796
3800
3804
3808
3812
3816
3820
3824
3828
3832
3836
3840
3844
3848
3852
3856
3860
3864
3868
3872
3876
3880
3884
3888
3892
3896
3900
3904
3908
3912
3916
3920
3924
3928
3932
3936
3940
3944
3948
3952
3956
3960
3964
3968
3972
3976
3980
3984
3988
3992
3996
4000
4004
4008
4012
4016
4020
4024
4028
4032
4036
4040
4044
4048
4052
4056
4060
4064
4068
4072
4076
4080
4084
4088
4092
4096
4100
4104
4108
4112
4116
4120
4124
4128
4132
4136
4140
4144
4148
4152
4156
4160
4164
4168
4172
4176
4180
4184
4188
4192
4196
4200
4204
4208
4212
4216
4220
4224
4228
4232
4236
4240
4244
4248
4252
4256
4260
4264
4268
4272
4276
4280
4284
4288
4292
4296
4300
4304
4308
4312
4316
4320
4324
4328
4332
4336
4340
4344
4348
4352
4356
4360
4364
4368
4372
4376
4380
4384
4388
4392
4396
4400
4404
4408
4412
4416
4420
4424
4428
4432
4436
4440
4444
4448
4452
4456
4460
4464
4468
4472
4476
4480
4484
4488
4492
4496
4500
4504
4508
4512
4516
4520
4524
4528
4532
4536
4540
4544
4548
4552
4556
4560
4564
4568
4572
4576
4580
4584
4588
4592
4596
4600
4604
4608
4612
4616
4620
4624
4628
4632
4636
4640
4644
4648
4652
4656
4660
4664
4668
4672
4676
4680
4684
4688
4692
4696
4700
4704
4708
4712
4716
4720
4724
4728
4732
4736
4740
4744
4748
4752
4756
4760
4764
4768
4772
4776
4780
4784
4788
4792
4796
4800
4804
4808
4812
4816
4820
4824
4828
4832
4836
4840
4844
4848
4852
4856
4860
4864
4868
4872
4876
4880
4884
4888
4892
4896
4900
4904
4908
4912
4916
4920
4924
4928
4932
4936
4940
4944
4948
4952
4956
4960
4964
4968
4972
4976
4980
4984
4988
4992
4996
5000
5004
5008
5012
5016
5020
5024
5028
5032
5036
5040
5044
5048
5052
5056
5060
5064
5068
5072
5076
5080
5084
5088
5092
5096
5100
5104
5108
5112
5116
5120
5124
5128
5132
5136
5140
5144
5148
5152
5156
5160
5164
5168
5172
5176
5180
5184
5188
5192
5196
5200
5204
5208
5212
5216
5220
5224
5228
5232
5236
5240
5244
5248
5252
5256
5260
5264
5268
5272
5276
5280
5284
5288
5292
5296
5300
5304
5308
5312
5316
5320
5324
5328
5332
5336
5340
5344
5348
5352
5356
5360
5364
5368
5372
5376
5380
5384
5388
5392
5396
5400
5404
5408
5412
5416
5420
5424
5428
5432
5436
5440
5444
5448
5452
5456
5460
5464
5468
5472
5476
5480
5484
5488
5492
5496
5500
5504
5508
5512
5516
5520
5524
5528
5532
5536
5540
5544
5548
5552
5556
5560
5564
5568
5572
5576
5580
5584
5588
5592
5596
5600
5604
5608
5612
5616
5620
5624
5628
5632
5636
5640
5644
5648
5652
5656
5660
5664
5668
5672
5676
5680
5684
5688
5692
5696
5700
5704
5708
5712
5716
5720
5724
5728
5732
5736
5740
5744
5748
5752
5756
5760
5764
5768
5772
5776
5780
5784
5788
5792
5796
5800
5804
5808
5812
5816
5820
5824
5828
5832
5836
5840
5844
5848
5852
5856
5860
5864
5868
5872
5876
5880
5884
5888
5892
5896
5900
5904
5908
5912
5916
5920
5924
5928
5932
5936
5940
5944
5948
5952
5956
5960
5964
5968
5972
5976
5980
5984
5988
5992
5996
6000
              </DataArray>   
              <DataArray type="UInt8" Name="types" format="ascii">   
10
10
10
10
10
10
10
10
10
10
10
10
10
10
10
10
10
10
10
10
10
10
10
10
10
10
10
10
10
10
10
10
10
10
10
10
10
10
10
10
10
10
10
10
10
10
10
10
10
10
10
10
10
10
10
10
10
10
10
10
10
10
10
10
10
10
10
10
10
10
10
10
10
10
10
10
10
10
10
10
10
10
10
10
10
10
10
10
10
10
10
10
10
10
10
10
10
10
10
10
10
10
10
10
10
10
10
10
10
10
10
10
10
10
10
10
10
10
10
10
10
10
10
10
10
10
10
10
10
10
10
10
10
10
10
10
10
10
10
10
10
10
10
10
10
10
10
10
10
10
10
10
10
10
10
10
10
10
10
10
10
10
10
10
10
10
10
10
10
10
10
10
10
10
10
10
10
10
10
10
10
10
10
10
10
10
10
10
10
10
10
10
10
10
10
10
10
10
10
10
10
10
10
10
10
10
10
10
10
10
10
10
10
10
10
10
10
10
10
10
10
10
10
10
10
10
10
10
10
10
10
10
10
10
10
10
10
10
10
10
10
10
10
10
10
10
10
10
10
10
10
10
10
10
10
10
10
10
10
10
10
10
10
10
10
10
10
10
10
10
10
10
10
10
10
10
10
10
10
10
10
10
10
10
10
10
10
10
10
10
10
10
10
10
10
10
10
10
10
10
10
10
10
10
10
10
10
10
10
10
10
10
10
10
10
10
10
10
10
10
10
10
10
10
10
10
10
10
10
10
10
10
10
10
10
10
10
10
10
10
10
10
10
10
10
10
10
10
10
10
10
10
10
10
10
10
10
10
10
10
10
10
10
10
10
10
10
10
10
10
10
10
10
10
10
10
10
10
10
10
10
10
10
10
10
10
10
10
10
10
10
10
10
10
10
10
10
10
10
10
10
10
10
10
10
10
10
10
10
10
10
10
10
10
10
10
10
10
10
10
10
10
10
10
10
10
10
10
10
10
10
10
10
10
10
10
10
10
10
10
10
10
10
10
10
10
10
10
10
10
10
10
10
10
10
10
10
10
10
10
10
10
10
10
10
10
10
10
10
10
10
10
10
10
10
10
10
10
10
10
10
10
10
10
10
10
10
10
10
10
10
10
10
10
10
10
10
10
10
10
10
10
10
10
10
10
10
10
10
10
10
10
10
10
10
10
10
10
10
10
10
10
10
10
10
10
10
10
10
10
10
10
10
10
10
10
10
10
10
10
10
10
10
10
10
10
10
10
10
10
10
10
10
10
10
10
10
10
10
10
10
10
10
10
10
10
10
10
10
10
10
10
10
10
10
10
10
10
10
10
10
10
10
10
10
10
10
10
10
10
10
10
10
10
10
10
10
10
10
10
10
10
10
10
10
10
10
10
10
10
10
10
10
10
10
10
10
10
10
10
10
10
10
10
10
10
10
10
10
10
10
10
10
10
10
10
10
10
10
10
10
10
10
10
10
10
10
10
10
10
10
10
10
10
10
10
10
10
10
10
10
10
10
10
10
10
10
10
10
10
10
10
10
10
10
10
10
10
10
10
10
10
10
10
10
10
10
10
10
10
10
10
10
10
10
10
10
10
10
10
10
10
10
10
10
10
10
10
10
10
10
10
10
10
10
10
10
10
10
10
10
10
10
10
10
10
10
10
10
10
10
10
10
10
10
10
10
10
10
10
10
10
10
10
10
10
10
10
10
10
10
10
10
10
10
10
10
10
10
10
10
10
10
10
10
10
10
10
10
10
10
10
10
10
10
10
10
10
10
10
10
10
10
10
10
10
10
10
10
10
10
10
10
10
10
10
10
10
10
10
10
10
10
10
10
10
10
10
10
10
10
10
10
10
10
10
10
10
10
10
10
10
10
10
10
10
10
10
10
10
10
10
10
10
10
10
10
10
10
10
10
10
10
10
10
10
10
10
10
10
10
10
10
10
10
10
10
10
10
10
10
10
10
10
10
10
10
10
10
10
10
10
10
10
10
10
10
10
10
10
10
10
10
10
10
10
10
10
10
10
10
10
10
10
10
10
10
10
10
10
10
10
10
10
10
10
10
10
10
10
10
10
10
10
10
10
10
10
10
10
10
10
10
10
10
10
10
10
10
10
10
10
10
10
10
10
10
10
10
10
10
10
10
10
10
10
10
10
10
10
10
10
10
10
10
10
10
10
10
10
10
10
10
10
10
10
10
10
10
10
10
10
10
10
10
10
10
10
10
10
10
10
10
10
10
10
10
10
10
10
10
10
10
10
10
10
10
10
10
10
10
10
10
10
10
10
10
10
10
10
10
10
10
10
10
10
10
10
10
10
10
10
10
10
10
10
10
10
10
10
10
10
10
10
10
10
10
10
10
10
10
10
10
10
10
10
10
10
10
10
10
10
10
10
10
10
10
10
10
10
10
10
10
10
10
10
10
10
10
10
10
10
10
10
10
10
10
10
10
10
10
10
10
10
10
10
10
10
10
10
10
10
10
10
10
10
10
10
10
10
10
10
10
10
10
10
10
10
10
10
10
10
10
10
10
10
10
10
10
10
10
10
10
10
10
10
10
10
10
10
10
10
10
10
10
10
10
10
10
10
10
10
10
10
10
10
10
10
10
10
10
10
10
10
10
10
10
10
10
10
10
10
10
10
10
10
10
10
10
10
10
10
10
10
10
10
10
10
10
10
10
10
10
10
10
10
10
10
10
10
10
10
10
10
10
10
10
10
10
10
10
10
10
10
10
10
10
10
10
10
10
10
10
10
10
10
10
10
10
10
10
10
10
10
10
10
10
10
10
10
10
10
10
10
10
10
10
10
10
10
10
10
10
10
10
10
10
10
10
10
10
10
10
10
10
10
10
10
10
10
10
10
10
10
10
10
10
10
10
10
10
10
10
10
10
10
10
10
10
10
10
10
10
10
10
10
10
10
10
10
10
10
10
10
10
10
10
10
10
10
10
10
10
10
10
10
10
10
10
10
10
10
10
10
10
10
10
10
10
10
10
10
10
10
10
10
10
10
10
10
10
10
10
10
10
10
10
10
10
10
10
10
10
10
10
10
10
10
10
10
10
10
10
10
10
10
10
10
10
10
10
10
10
10
10
10
10
10
10
10
10
10
10
10
10
10
10
10
10
10
10
10
10
10
10
10
10
10
10
10
10
10
10
10
10
10
10
10
10
10
10
10
10
10
10
10
10
10
10
10
10
10
10
10
10
10
10
10
10
10
10
10
10
10
10
10
10
10
10
10
10
10
10
10
10
10
10
10
10
10
10
10
10
10
10
10
10
10
10
10
10
10
10
10
10
10
10
10
10
10
10
10
10
10
10
10
10
10
10
10
10
10
10
10
10
10
10
10
10
10
10
10
10
10
10
10
10
10
10
10
10
10
10
10
10
10
10
10
10
10
              </DataArray>   
          </Cells>  
          <PointData>  
             <DataArray type="Float64" NumberOfComponents="3" Name="Strains" format="ascii">   
-0.00011314908742652768   0.0   -7.420835994025676e-05
-0.00011314908742652768   0.0   -7.420835994025676e-05
-0.00011314908742652768   0.0   -7.420835994025676e-05
-0.00011314908742652768   0.0   -7.420835994025676e-05
-7.20040595025534e-05   1.2541594093521178e-05   1.8916430558129304e-06
-7.20040595025534e-05   1.2541594093521178e-05   1.8916430558129304e-06
-7.20040595025534e-05   1.2541594093521178e-05   1.8916430558129304e-06
-7.20040595025534e-05   1.2541594093521178e-05   1.8916430558129304e-06
-7.058378904986639e-05   0.0   -7.00312578678054e-05
-7.058378904986639e-05   0.0   -7.00312578678054e-05
-7.058378904986639e-05   0.0   -7.00312578678054e-05
-7.058378904986639e-05   0.0   -7.00312578678054e-05
-0.00011842049591123555   1.5047285845797017e-05   6.682153936653072e-07
-0.00011842049591123555   1.5047285845797017e-05   6.682153936653072e-07
-0.00011842049591123555   1.5047285845797017e-05   6.682153936653072e-07
-0.00011842049591123555   1.5047285845797017e-05   6.682153936653072e-07
-9.186643823819688e-05   3.480918393709457e-06   -3.6648726923479925e-05
-9.186643823819688e-05   3.480918393709457e-06   -3.6648726923479925e-05
-9.186643823819688e-05   3.480918393709457e-06   -3.6648726923479925e-05
-9.186643823819688e-05   3.480918393709457e-06   -3.6648726923479925e-05
-0.00011842049591123575   0.0   -7.905962937528364e-05
-0.00011842049591123575   0.0   -7.905962937528364e-05
-0.00011842049591123575   0.0   -7.905962937528364e-05
-0.00011842049591123575   0.0   -7.905962937528364e-05
-7.058378904986639e-05   1.5047285845797045e-05   9.696586901143512e-06
-7.058378904986639e-05   1.5047285845797045e-05   9.696586901143512e-06
-7.058378904986639e-05   1.5047285845797045e-05   9.696586901143512e-06
-7.058378904986639e-05   1.5047285845797045e-05   9.696586901143512e-06
-7.078688856273776e-05   0.0   -7.174646460614033e-05
-7.078688856273776e-05   0.0   -7.174646460614033e-05
-7.078688856273776e-05   0.0   -7.174646460614033e-05
-7.078688856273776e-05   0.0   -7.174646460614033e-05
-0.0001221244094616717   1.6120008729441e-05   4.144064987751921e-06
-0.0001221244094616717   1.6120008729441e-05   4.144064987751921e-06
-0.0001221244094616717   1.6120008729441e-05   4.144064987751921e-06
-0.0001221244094616717   1.6120008729441e-05   4.144064987751921e-06
-9.460369223698659e-05   6.094303974286083e-06   -3.5708374200296906e-05
-9.460369223698659e-05   6.094303974286083e-06   -3.5708374200296906e-05
-9.460369223698659e-05   6.094303974286083e-06   -3.5708374200296906e-05
-9.460369223698659e-05   6.094303974286083e-06   -3.5708374200296906e-05
-0.00012212440946167188   0.0   -8.141846984380496e-05
-0.00012212440946167188   0.0   -8.141846984380496e-05
-0.00012212440946167188   0.0   -8.141846984380496e-05
-0.00012212440946167188   0.0   -8.141846984380496e-05
-7.078688856273776e-05   1.6120008729441054e-05   1.381607022541651e-05
-7.078688856273776e-05   1.6120008729441054e-05   1.381607022541651e-05
-7.078688856273776e-05   1.6120008729441054e-05   1.381607022541651e-05
-7.078688856273776e-05   1.6120008729441054e-05   1.381607022541651e-05
-7.075423645049001e-05   0.0   -7.218656714888413e-05
-7.075423645049001e-05   0.0   -7.218656714888413e-05
-7.075423645049001e-05   0.0   -7.218656714888413e-05
-7.075423645049001e-05   0.0   -7.218656714888413e-05
-0.0001300996496597838   1.8361214076088395e-05   1.5705726420952795e-05
-0.0001300996496597838   1.8361214076088395e-05   1.5705726420952795e-05
-0.0001300996496597838   1.8361214076088395e-05   1.5705726420952795e-05
-0.0001300996496597838   1.8361214076088395e-05   1.5705726420952795e-05
-9.643932295608079e-05   7.693252245767353e-06   -3.3994040987026205e-05
-9.643932295608079e-05   7.693252245767353e-06   -3.3994040987026205e-05
-9.643932295608079e-05   7.693252245767353e-06   -3.3994040987026205e-05
-9.643932295608079e-05   7.693252245767353e-06   -3.3994040987026205e-05
-7.200405950255352e-05   0.0   -6.668340348414404e-05
-7.200405950255352e-05   0.0   -6.668340348414404e-05
-7.200405950255352e-05   0.0   -6.668340348414404e-05
-7.200405950255352e-05   0.0   -6.668340348414404e-05
-3.278636524706816e-05   4.601084256259256e-06   1.4400708287537099e-06
-3.278636524706816e-05   4.601084256259256e-06   1.4400708287537099e-06
-3.278636524706816e-05   4.601084256259256e-06   1.4400708287537099e-06
-3.278636524706816e-05   4.601084256259256e-06   1.4400708287537099e-06
-3.1537400515516e-05   0.0   -6.610229958983074e-05
-3.1537400515516e-05   0.0   -6.610229958983074e-05
-3.1537400515516e-05   0.0   -6.610229958983074e-05
-3.1537400515516e-05   0.0   -6.610229958983074e-05
-7.058378904986639e-05   6.548263796624456e-06   -4.9539436438881184e-06
-7.058378904986639e-05   6.548263796624456e-06   -4.9539436438881184e-06
-7.058378904986639e-05   6.548263796624456e-06   -4.9539436438881184e-06
-7.058378904986639e-05   6.548263796624456e-06   -4.9539436438881184e-06
-5.177073000903467e-05   4.842532452610965e-07   -3.267063571445605e-05
-5.177073000903467e-05   4.842532452610965e-07   -3.267063571445605e-05
-5.177073000903467e-05   4.842532452610965e-07   -3.267063571445605e-05
-5.177073000903467e-05   4.842532452610965e-07   -3.267063571445605e-05
-7.058378904986632e-05   0.0   -7.003125786780535e-05
-7.058378904986632e-05   0.0   -7.003125786780535e-05
-7.058378904986632e-05   0.0   -7.003125786780535e-05
-7.058378904986632e-05   0.0   -7.003125786780535e-05
-3.1537400515516e-05   6.548263796624456e-06   -1.024985365913446e-06
-3.1537400515516e-05   6.548263796624456e-06   -1.024985365913446e-06
-3.1537400515516e-05   6.548263796624456e-06   -1.024985365913446e-06
-3.1537400515516e-05   6.548263796624456e-06   -1.024985365913446e-06
-3.0837595218996164e-05   0.0   -6.693289741484082e-05
-3.0837595218996164e-05   0.0   -6.693289741484082e-05
-3.0837595218996164e-05   0.0   -6.693289741484082e-05
-3.0837595218996164e-05   0.0   -6.693289741484082e-05
-7.078688856273776e-05   8.022611985499195e-06   -5.1643090332376595e-06
-7.078688856273776e-05   8.022611985499195e-06   -5.1643090332376595e-06
-7.078688856273776e-05   8.022611985499195e-06   -5.1643090332376595e-06
-7.078688856273776e-05   8.022611985499195e-06   -5.1643090332376595e-06
-5.0710692134431176e-05   2.5819670441371654e-06   -3.536024944893115e-05
-5.0710692134431176e-05   2.5819670441371654e-06   -3.536024944893115e-05
-5.0710692134431176e-05   2.5819670441371654e-06   -3.536024944893115e-05
-5.0710692134431176e-05   2.5819670441371654e-06   -3.536024944893115e-05
-7.078688856273776e-05   0.0   -7.174646460614033e-05
-7.078688856273776e-05   0.0   -7.174646460614033e-05
-7.078688856273776e-05   0.0   -7.174646460614033e-05
-7.078688856273776e-05   0.0   -7.174646460614033e-05
-3.0837595218996164e-05   8.022611985499195e-06   -3.507418419381478e-07
-3.0837595218996164e-05   8.022611985499195e-06   -3.507418419381478e-07
-3.0837595218996164e-05   8.022611985499195e-06   -3.507418419381478e-07
-3.0837595218996164e-05   8.022611985499195e-06   -3.507418419381478e-07
-3.0201035189151717e-05   0.0   -6.658599500318212e-05
-3.0201035189151717e-05   0.0   -6.658599500318212e-05
-3.0201035189151717e-05   0.0   -6.658599500318212e-05
-3.0201035189151717e-05   0.0   -6.658599500318212e-05
-7.075423645048982e-05   9.334286909503251e-06   -4.597898379986976e-06
-7.075423645048982e-05   9.334286909503251e-06   -4.597898379986976e-06
-7.075423645048982e-05   9.334286909503251e-06   -4.597898379986976e-06
-7.075423645048982e-05   9.334286909503251e-06   -4.597898379986976e-06
-5.0493961875944724e-05   4.3003913357984725e-06   -3.534468532667284e-05
-5.0493961875944724e-05   4.3003913357984725e-06   -3.534468532667284e-05
-5.0493961875944724e-05   4.3003913357984725e-06   -3.534468532667284e-05
-5.0493961875944724e-05   4.3003913357984725e-06   -3.534468532667284e-05
-3.2786365247068214e-05   0.0   -6.39227529303885e-05
-3.2786365247068214e-05   0.0   -6.39227529303885e-05
-3.2786365247068214e-05   0.0   -6.39227529303885e-05
-3.2786365247068214e-05   0.0   -6.39227529303885e-05
4.270441906776698e-06   -5.884724769177941e-07   -2.5144911601309186e-06
4.270441906776698e-06   -5.884724769177941e-07   -2.5144911601309186e-06
4.270441906776698e-06   -5.884724769177941e-07   -2.5144911601309186e-06
4.270441906776698e-06   -5.884724769177941e-07   -2.5144911601309186e-06
5.0657809274141405e-06   0.0   -6.540601310508978e-05
5.0657809274141405e-06   0.0   -6.540601310508978e-05
5.0657809274141405e-06   0.0   -6.540601310508978e-05
5.0657809274141405e-06   0.0   -6.540601310508978e-05
-3.1537400515516e-05   1.1604774745678818e-06   -5.096997184947151e-06
-3.1537400515516e-05   1.1604774745678818e-06   -5.096997184947151e-06
-3.1537400515516e-05   1.1604774745678818e-06   -5.096997184947151e-06
-3.1537400515516e-05   1.1604774745678818e-06   -5.096997184947151e-06
-1.3860292159827006e-05   -1.2360501455845974e-06   -3.31209278723372e-05
-1.3860292159827006e-05   -1.2360501455845974e-06   -3.31209278723372e-05
-1.3860292159827006e-05   -1.2360501455845974e-06   -3.31209278723372e-05
-1.3860292159827006e-05   -1.2360501455845974e-06   -3.31209278723372e-05
-3.1537400515516e-05   0.0   -6.610229958983074e-05
-3.1537400515516e-05   0.0   -6.610229958983074e-05
-3.1537400515516e-05   0.0   -6.610229958983074e-05
-3.1537400515516e-05   0.0   -6.610229958983074e-05
5.065780927414149e-06   1.1604774745678818e-06   -4.400710700206409e-06
5.065780927414149e-06   1.1604774745678818e-06   -4.400710700206409e-06
5.065780927414149e-06   1.1604774745678818e-06   -4.400710700206409e-06
5.065780927414149e-06   1.1604774745678818e-06   -4.400710700206409e-06
5.692978815544545e-06   0.0   -6.531275023970885e-05
5.692978815544545e-06   0.0   -6.531275023970885e-05
5.692978815544545e-06   0.0   -6.531275023970885e-05
5.692978815544545e-06   0.0   -6.531275023970885e-05
-3.083759521899611e-05   2.70024529188641e-06   -6.0486073572729414e-06
-3.083759521899611e-05   2.70024529188641e-06   -6.0486073572729414e-06
-3.083759521899611e-05   2.70024529188641e-06   -6.0486073572729414e-06
-3.083759521899611e-05   2.70024529188641e-06   -6.0486073572729414e-06
-1.2922210849985723e-05   6.57957791768149e-07   -3.4682208805552693e-05
-1.2922210849985723e-05   6.57957791768149e-07   -3.4682208805552693e-05
-1.2922210849985723e-05   6.57957791768149e-07   -3.4682208805552693e-05
-1.2922210849985723e-05   6.57957791768149e-07   -3.4682208805552693e-05
-3.0837595218996164e-05   0.0   -6.693289741484082e-05
-3.0837595218996164e-05   0.0   -6.693289741484082e-05
-3.0837595218996164e-05   0.0   -6.693289741484082e-05
-3.0837595218996164e-05   0.0   -6.693289741484082e-05
5.692978815544555e-06   2.7002452918864234e-06   -4.4284601821411e-06
5.692978815544555e-06   2.7002452918864234e-06   -4.4284601821411e-06
5.692978815544555e-06   2.7002452918864234e-06   -4.4284601821411e-06
5.692978815544555e-06   2.7002452918864234e-06   -4.4284601821411e-06
6.53821791813197e-06   0.0   -6.38956375440225e-05
6.53821791813197e-06   0.0   -6.38956375440225e-05
6.53821791813197e-06   0.0   -6.38956375440225e-05
6.53821791813197e-06   0.0   -6.38956375440225e-05
-3.020103518915169e-05   4.483929098599276e-06   -5.353906491042631e-06
-3.020103518915169e-05   4.483929098599276e-06   -5.353906491042631e-06
-3.020103518915169e-05   4.483929098599276e-06   -5.353906491042631e-06
-3.020103518915169e-05   4.483929098599276e-06   -5.353906491042631e-06
-1.214968865043207e-05   2.531049892348499e-06   -3.426775653182483e-05
-1.214968865043207e-05   2.531049892348499e-06   -3.426775653182483e-05
-1.214968865043207e-05   2.531049892348499e-06   -3.426775653182483e-05
-1.214968865043207e-05   2.531049892348499e-06   -3.426775653182483e-05
4.270441906776705e-06   0.0   -6.427583641653917e-05
4.270441906776705e-06   0.0   -6.427583641653917e-05
4.270441906776705e-06   0.0   -6.427583641653917e-05
4.270441906776705e-06   0.0   -6.427583641653917e-05
4.4491607614358226e-05   -5.218389841634536e-06   -3.7159414221731826e-07
4.4491607614358226e-05   -5.218389841634536e-06   -3.7159414221731826e-07
4.4491607614358226e-05   -5.218389841634536e-06   -3.7159414221731826e-07
4.4491607614358226e-05   -5.218389841634536e-06   -3.7159414221731826e-07
4.456496529891569e-05   0.0   -6.776708171273605e-05
4.456496529891569e-05   0.0   -6.776708171273605e-05
4.456496529891569e-05   0.0   -6.776708171273605e-05
4.456496529891569e-05   0.0   -6.776708171273605e-05
5.065780927414157e-06   -3.935114346076751e-06   4.2596084741253955e-07
5.065780927414157e-06   -3.935114346076751e-06   4.2596084741253955e-07
5.065780927414157e-06   -3.935114346076751e-06   4.2596084741253955e-07
5.065780927414157e-06   -3.935114346076751e-06   4.2596084741253955e-07
2.44177036028462e-05   -2.909371080164076e-06   -3.244268957118844e-05
2.44177036028462e-05   -2.909371080164076e-06   -3.244268957118844e-05
2.44177036028462e-05   -2.909371080164076e-06   -3.244268957118844e-05
2.44177036028462e-05   -2.909371080164076e-06   -3.244268957118844e-05
5.065780927414157e-06   0.0   -6.540601310509001e-05
5.065780927414157e-06   0.0   -6.540601310509001e-05
5.065780927414157e-06   0.0   -6.540601310509001e-05
5.065780927414157e-06   0.0   -6.540601310509001e-05
4.456496529891569e-05   -3.935114346076751e-06   -1.935107760233504e-06
4.456496529891569e-05   -3.935114346076751e-06   -1.935107760233504e-06
4.456496529891569e-05   -3.935114346076751e-06   -1.935107760233504e-06
4.456496529891569e-05   -3.935114346076751e-06   -1.935107760233504e-06
4.436913970831553e-05   0.0   -6.679935213655795e-05
4.436913970831553e-05   0.0   -6.679935213655795e-05
4.436913970831553e-05   0.0   -6.679935213655795e-05
4.436913970831553e-05   0.0   -6.679935213655795e-05
5.692978815544555e-06   -2.4776698280816424e-06   -8.524820850906732e-07
5.692978815544555e-06   -2.4776698280816424e-06   -8.524820850906732e-07
5.692978815544555e-06   -2.4776698280816424e-06   -8.524820850906732e-07
5.692978815544555e-06   -2.4776698280816424e-06   -8.524820850906732e-07
2.4717460317864844e-05   -1.1611158595566063e-06   -3.3349883636739485e-05
2.4717460317864844e-05   -1.1611158595566063e-06   -3.3349883636739485e-05
2.4717460317864844e-05   -1.1611158595566063e-06   -3.3349883636739485e-05
2.4717460317864844e-05   -1.1611158595566063e-06   -3.3349883636739485e-05
5.69297881554455e-06   0.0   -6.53127502397089e-05
5.69297881554455e-06   0.0   -6.53127502397089e-05
5.69297881554455e-06   0.0   -6.53127502397089e-05
5.69297881554455e-06   0.0   -6.53127502397089e-05
4.436913970831553e-05   -2.4776698280816424e-06   -2.339083981939654e-06
4.436913970831553e-05   -2.4776698280816424e-06   -2.339083981939654e-06
4.436913970831553e-05   -2.4776698280816424e-06   -2.339083981939654e-06
4.436913970831553e-05   -2.4776698280816424e-06   -2.339083981939654e-06
4.522367023923656e-05   0.0   -6.42069700695984e-05
4.522367023923656e-05   0.0   -6.42069700695984e-05
4.522367023923656e-05   0.0   -6.42069700695984e-05
4.522367023923656e-05   0.0   -6.42069700695984e-05
6.538217918131982e-06   -5.188875426263183e-07   5.801163244850154e-07
6.538217918131982e-06   -5.188875426263183e-07   5.801163244850154e-07
6.538217918131982e-06   -5.188875426263183e-07   5.801163244850154e-07
6.538217918131982e-06   -5.188875426263183e-07   5.801163244850154e-07
2.545832452739054e-05   9.21483475092135e-07   -3.181761730157695e-05
2.545832452739054e-05   9.21483475092135e-07   -3.181761730157695e-05
2.545832452739054e-05   9.21483475092135e-07   -3.181761730157695e-05
2.545832452739054e-05   9.21483475092135e-07   -3.181761730157695e-05
4.4491607614358226e-05   0.0   -6.740687032151989e-05
4.4491607614358226e-05   0.0   -6.740687032151989e-05
4.4491607614358226e-05   0.0   -6.740687032151989e-05
4.4491607614358226e-05   0.0   -6.740687032151989e-05
0.00010041572391739067   -1.3224721959967511e-05   1.786515700755425e-05
0.00010041572391739067   -1.3224721959967511e-05   1.786515700755425e-05
0.00010041572391739067   -1.3224721959967511e-05   1.786515700755425e-05
0.00010041572391739067   -1.3224721959967511e-05   1.786515700755425e-05
9.429909323384764e-05   0.0   -7.452018616348905e-05
9.429909323384764e-05   0.0   -7.452018616348905e-05
9.429909323384764e-05   0.0   -7.452018616348905e-05
9.429909323384764e-05   0.0   -7.452018616348905e-05
4.456496529891569e-05   -1.1255174084588324e-05   1.5123131512150532e-05
4.456496529891569e-05   -1.1255174084588324e-05   1.5123131512150532e-05
4.456496529891569e-05   -1.1255174084588324e-05   1.5123131512150532e-05
4.456496529891569e-05   -1.1255174084588324e-05   1.5123131512150532e-05
6.939535042410294e-05   -5.927763201640977e-06   -2.9457290226263262e-05
6.939535042410294e-05   -5.927763201640977e-06   -2.9457290226263262e-05
6.939535042410294e-05   -5.927763201640977e-06   -2.9457290226263262e-05
6.939535042410294e-05   -5.927763201640977e-06   -2.9457290226263262e-05
4.456496529891565e-05   0.0   -6.7767081712736e-05
4.456496529891565e-05   0.0   -6.7767081712736e-05
4.456496529891565e-05   0.0   -6.7767081712736e-05
4.456496529891565e-05   0.0   -6.7767081712736e-05
9.429909323384732e-05   -1.1255174084588297e-05   8.370027061397505e-06
9.429909323384732e-05   -1.1255174084588297e-05   8.370027061397505e-06
9.429909323384732e-05   -1.1255174084588297e-05   8.370027061397505e-06
9.429909323384732e-05   -1.1255174084588297e-05   8.370027061397505e-06
9.147622973433555e-05   0.0   -7.297081633630445e-05
9.147622973433555e-05   0.0   -7.297081633630445e-05
9.147622973433555e-05   0.0   -7.297081633630445e-05
9.147622973433555e-05   0.0   -7.297081633630445e-05
4.436913970831553e-05   -1.0285773666244161e-05   1.1712464573475405e-05
4.436913970831553e-05   -1.0285773666244161e-05   1.1712464573475405e-05
4.436913970831553e-05   -1.0285773666244161e-05   1.1712464573475405e-05
4.436913970831553e-05   -1.0285773666244161e-05   1.1712464573475405e-05
6.802059751662558e-05   -4.336445519640325e-06   -3.127622866167031e-05
6.802059751662558e-05   -4.336445519640325e-06   -3.127622866167031e-05
6.802059751662558e-05   -4.336445519640325e-06   -3.127622866167031e-05
6.802059751662558e-05   -4.336445519640325e-06   -3.127622866167031e-05
4.436913970831553e-05   0.0   -6.679935213655795e-05
4.436913970831553e-05   0.0   -6.679935213655795e-05
4.436913970831553e-05   0.0   -6.679935213655795e-05
4.436913970831553e-05   0.0   -6.679935213655795e-05
9.147622973433522e-05   -1.0285773666244134e-05   5.541000373728873e-06
9.147622973433522e-05   -1.0285773666244134e-05   5.541000373728873e-06
9.147622973433522e-05   -1.0285773666244134e-05   5.541000373728873e-06
9.147622973433522e-05   -1.0285773666244134e-05   5.541000373728873e-06
8.727724697417597e-05   0.0   -6.900572477574277e-05
8.727724697417597e-05   0.0   -6.900572477574277e-05
8.727724697417597e-05   0.0   -6.900572477574277e-05
8.727724697417597e-05   0.0   -6.900572477574277e-05
4.522367023923656e-05   -7.997924510240822e-06   5.882324488634214e-06
4.522367023923656e-05   -7.997924510240822e-06   5.882324488634214e-06
4.522367023923656e-05   -7.997924510240822e-06   5.882324488634214e-06
4.522367023923656e-05   -7.997924510240822e-06   5.882324488634214e-06
6.582319334124583e-05   -1.8386438659874615e-06   -3.214578240126657e-05
6.582319334124583e-05   -1.8386438659874615e-06   -3.214578240126657e-05
6.582319334124583e-05   -1.8386438659874615e-06   -3.214578240126657e-05
6.582319334124583e-05   -1.8386438659874615e-06   -3.214578240126657e-05
-9.821110394649383e-05   1.254159409352115e-05   -6.44048640249499e-05
-9.821110394649383e-05   1.254159409352115e-05   -6.44048640249499e-05
-9.821110394649383e-05   1.254159409352115e-05   -6.44048640249499e-05
-9.821110394649383e-05   1.254159409352115e-05   -6.44048640249499e-05
-6.289997666028229e-05   1.1280752619664521e-05   -6.309490098911294e-06
-6.289997666028229e-05   1.1280752619664521e-05   -6.309490098911294e-06
-6.289997666028229e-05   1.1280752619664521e-05   -6.309490098911294e-06
-6.289997666028229e-05   1.1280752619664521e-05   -6.309490098911294e-06
-6.448498037412603e-05   1.5047285845797004e-05   -5.408648522265319e-05
-6.448498037412603e-05   1.5047285845797004e-05   -5.408648522265319e-05
-6.448498037412603e-05   1.5047285845797004e-05   -5.408648522265319e-05
-6.448498037412603e-05   1.5047285845797004e-05   -5.408648522265319e-05
-9.9279304422576e-05   1.3537363517160048e-05   4.810008255279059e-06
-9.9279304422576e-05   1.3537363517160048e-05   4.810008255279059e-06
-9.9279304422576e-05   1.3537363517160048e-05   4.810008255279059e-06
-9.9279304422576e-05   1.3537363517160048e-05   4.810008255279059e-06
-7.800220269161247e-05   1.3099090447412992e-05   -3.0388864121145686e-05
-7.800220269161247e-05   1.3099090447412992e-05   -3.0388864121145686e-05
-7.800220269161247e-05   1.3099090447412992e-05   -3.0388864121145686e-05
-7.800220269161247e-05   1.3099090447412992e-05   -3.0388864121145686e-05
-9.9279304422576e-05   1.5047285845797004e-05   -5.318053182547106e-05
-9.9279304422576e-05   1.5047285845797004e-05   -5.318053182547106e-05
-9.9279304422576e-05   1.5047285845797004e-05   -5.318053182547106e-05
-9.9279304422576e-05   1.5047285845797004e-05   -5.318053182547106e-05
-6.448498037412624e-05   1.3537363517160156e-05   3.9040548580969285e-06
-6.448498037412624e-05   1.3537363517160156e-05   3.9040548580969285e-06
-6.448498037412624e-05   1.3537363517160156e-05   3.9040548580969285e-06
-6.448498037412624e-05   1.3537363517160156e-05   3.9040548580969285e-06
-6.48195900186333e-05   1.6120008729440986e-05   -4.86244833067729e-05
-6.48195900186333e-05   1.6120008729440986e-05   -4.86244833067729e-05
-6.48195900186333e-05   1.6120008729440986e-05   -4.86244833067729e-05
-6.48195900186333e-05   1.6120008729440986e-05   -4.86244833067729e-05
-9.998236125267502e-05   1.4555752544896867e-05   1.0918689127356097e-05
-9.998236125267502e-05   1.4555752544896867e-05   1.0918689127356097e-05
-9.998236125267502e-05   1.4555752544896867e-05   1.0918689127356097e-05
-9.998236125267502e-05   1.4555752544896867e-05   1.0918689127356097e-05
-8.02990402018224e-05   1.451811266769436e-05   -2.186426203107641e-05
-8.02990402018224e-05   1.451811266769436e-05   -2.186426203107641e-05
-8.02990402018224e-05   1.451811266769436e-05   -2.186426203107641e-05
-8.02990402018224e-05   1.451811266769436e-05   -2.186426203107641e-05
-9.998236125267486e-05   1.6120008729440986e-05   -4.768592959604642e-05
-9.998236125267486e-05   1.6120008729440986e-05   -4.768592959604642e-05
-9.998236125267486e-05   1.6120008729440986e-05   -4.768592959604642e-05
-9.998236125267486e-05   1.6120008729440986e-05   -4.768592959604642e-05
-6.481959001863343e-05   1.4555752544896867e-05   9.98013541662966e-06
-6.481959001863343e-05   1.4555752544896867e-05   9.98013541662966e-06
-6.481959001863343e-05   1.4555752544896867e-05   9.98013541662966e-06
-6.481959001863343e-05   1.4555752544896867e-05   9.98013541662966e-06
-6.445420210939266e-05   1.8361214076088368e-05   -3.5920572732249805e-05
-6.445420210939266e-05   1.8361214076088368e-05   -3.5920572732249805e-05
-6.445420210939266e-05   1.8361214076088368e-05   -3.5920572732249805e-05
-6.445420210939266e-05   1.8361214076088368e-05   -3.5920572732249805e-05
-9.721622990067395e-05   1.5364416988321067e-05   2.0480885172545797e-05
-9.721622990067395e-05   1.5364416988321067e-05   2.0480885172545797e-05
-9.721622990067395e-05   1.5364416988321067e-05   2.0480885172545797e-05
-9.721622990067395e-05   1.5364416988321067e-05   2.0480885172545797e-05
-7.821433552585397e-05   1.5923002802651005e-05   -1.1524090274085387e-05
-7.821433552585397e-05   1.5923002802651005e-05   -1.1524090274085387e-05
-7.821433552585397e-05   1.5923002802651005e-05   -1.1524090274085387e-05
-7.821433552585397e-05   1.5923002802651005e-05   -1.1524090274085387e-05
-6.289997666028229e-05   4.601084256259229e-06   -6.837359169007864e-05
-6.289997666028229e-05   4.601084256259229e-06   -6.837359169007864e-05
-6.289997666028229e-05   4.601084256259229e-06   -6.837359169007864e-05
-6.289997666028229e-05   4.601084256259229e-06   -6.837359169007864e-05
-2.9799446833380366e-05   5.2490353838432384e-06   -1.2817271302024963e-05
-2.9799446833380366e-05   5.2490353838432384e-06   -1.2817271302024963e-05
-2.9799446833380366e-05   5.2490353838432384e-06   -1.2817271302024963e-05
-2.9799446833380366e-05   5.2490353838432384e-06   -1.2817271302024963e-05
-3.0513983573262296e-05   6.548263796624443e-06   -6.827146295422136e-05
-3.0513983573262296e-05   6.548263796624443e-06   -6.827146295422136e-05
-3.0513983573262296e-05   6.548263796624443e-06   -6.827146295422136e-05
-3.0513983573262296e-05   6.548263796624443e-06   -6.827146295422136e-05
-6.448498037412603e-05   7.3241851523969e-06   -1.2118687766245087e-05
-6.448498037412603e-05   7.3241851523969e-06   -1.2118687766245087e-05
-6.448498037412603e-05   7.3241851523969e-06   -1.2118687766245087e-05
-6.448498037412603e-05   7.3241851523969e-06   -1.2118687766245087e-05
-4.679263297733982e-05   5.8977059190103e-06   -4.075004588752383e-05
-4.679263297733982e-05   5.8977059190103e-06   -4.075004588752383e-05
-4.679263297733982e-05   5.8977059190103e-06   -4.075004588752383e-05
-4.679263297733982e-05   5.8977059190103e-06   -4.075004588752383e-05
-6.448498037412598e-05   6.548263796624443e-06   -6.873701576768467e-05
-6.448498037412598e-05   6.548263796624443e-06   -6.873701576768467e-05
-6.448498037412598e-05   6.548263796624443e-06   -6.873701576768467e-05
-6.448498037412598e-05   6.548263796624443e-06   -6.873701576768467e-05
-3.051398357326235e-05   7.3241851523969e-06   -1.1653134952781672e-05
-3.051398357326235e-05   7.3241851523969e-06   -1.1653134952781672e-05
-3.051398357326235e-05   7.3241851523969e-06   -1.1653134952781672e-05
-3.051398357326235e-05   7.3241851523969e-06   -1.1653134952781672e-05
-3.0740821250404955e-05   8.022611985499182e-06   -6.699347834016381e-05
-3.0740821250404955e-05   8.022611985499182e-06   -6.699347834016381e-05
-3.0740821250404955e-05   8.022611985499182e-06   -6.699347834016381e-05
-3.0740821250404955e-05   8.022611985499182e-06   -6.699347834016381e-05
-6.48195900186333e-05   9.041585694271237e-06   -1.0806914618379816e-05
-6.48195900186333e-05   9.041585694271237e-06   -1.0806914618379816e-05
-6.48195900186333e-05   9.041585694271237e-06   -1.0806914618379816e-05
-6.48195900186333e-05   9.041585694271237e-06   -1.0806914618379816e-05
-4.716144840756994e-05   7.484351289841574e-06   -3.930280999416085e-05
-4.716144840756994e-05   7.484351289841574e-06   -3.930280999416085e-05
-4.716144840756994e-05   7.484351289841574e-06   -3.930280999416085e-05
-4.716144840756994e-05   7.484351289841574e-06   -3.930280999416085e-05
-6.48195900186333e-05   8.022611985499182e-06   -6.760486256542706e-05
-6.48195900186333e-05   8.022611985499182e-06   -6.760486256542706e-05
-6.48195900186333e-05   8.022611985499182e-06   -6.760486256542706e-05
-6.48195900186333e-05   8.022611985499182e-06   -6.760486256542706e-05
-3.074082125040505e-05   9.041585694271237e-06   -1.019553039311667e-05
-3.074082125040505e-05   9.041585694271237e-06   -1.019553039311667e-05
-3.074082125040505e-05   9.041585694271237e-06   -1.019553039311667e-05
-3.074082125040505e-05   9.041585694271237e-06   -1.019553039311667e-05
-3.066899662256558e-05   9.334286909503238e-06   -6.63079717277702e-05
-3.066899662256558e-05   9.334286909503238e-06   -6.63079717277702e-05
-3.066899662256558e-05   9.334286909503238e-06   -6.63079717277702e-05
-3.066899662256558e-05   9.334286909503238e-06   -6.63079717277702e-05
-6.445420210939261e-05   1.0889210661290316e-05   -1.0932250167464174e-05
-6.445420210939261e-05   1.0889210661290316e-05   -1.0932250167464174e-05
-6.445420210939261e-05   1.0889210661290316e-05   -1.0932250167464174e-05
-6.445420210939261e-05   1.0889210661290316e-05   -1.0932250167464174e-05
-4.744233936180116e-05   8.920430815553143e-06   -3.810408683934107e-05
-4.744233936180116e-05   8.920430815553143e-06   -3.810408683934107e-05
-4.744233936180116e-05   8.920430815553143e-06   -3.810408683934107e-05
-4.744233936180116e-05   8.920430815553143e-06   -3.810408683934107e-05
-2.9799446833380318e-05   -5.884724769177806e-07   -7.158629951626223e-05
-2.9799446833380318e-05   -5.884724769177806e-07   -7.158629951626223e-05
-2.9799446833380318e-05   -5.884724769177806e-07   -7.158629951626223e-05
-2.9799446833380318e-05   -5.884724769177806e-07   -7.158629951626223e-05
2.8839835524893812e-06   -1.5573183398599104e-07   -1.685427115405365e-05
2.8839835524893812e-06   -1.5573183398599104e-07   -1.685427115405365e-05
2.8839835524893812e-06   -1.5573183398599104e-07   -1.685427115405365e-05
2.8839835524893812e-06   -1.5573183398599104e-07   -1.685427115405365e-05
2.7464917010683057e-06   1.1604774745678682e-06   -7.198610194094822e-05
2.7464917010683057e-06   1.1604774745678682e-06   -7.198610194094822e-05
2.7464917010683057e-06   1.1604774745678682e-06   -7.198610194094822e-05
2.7464917010683057e-06   1.1604774745678682e-06   -7.198610194094822e-05
-3.0513983573262296e-05   1.7560988617461022e-06   -1.6909349316037207e-05
-3.0513983573262296e-05   1.7560988617461022e-06   -1.6909349316037207e-05
-3.0513983573262296e-05   1.7560988617461022e-06   -1.6909349316037207e-05
-3.0513983573262296e-05   1.7560988617461022e-06   -1.6909349316037207e-05
-1.3753290421613386e-05   5.828695211905661e-07   -4.413990029778561e-05
-1.3753290421613386e-05   5.828695211905661e-07   -4.413990029778561e-05
-1.3753290421613386e-05   5.828695211905661e-07   -4.413990029778561e-05
-1.3753290421613386e-05   5.828695211905661e-07   -4.413990029778561e-05
-3.0513983573262296e-05   1.1604774745678682e-06   -7.234347477325503e-05
-3.0513983573262296e-05   1.1604774745678682e-06   -7.234347477325503e-05
-3.0513983573262296e-05   1.1604774745678682e-06   -7.234347477325503e-05
-3.0513983573262296e-05   1.1604774745678682e-06   -7.234347477325503e-05
2.7464917010683057e-06   1.756098861746048e-06   -1.6551976483730326e-05
2.7464917010683057e-06   1.756098861746048e-06   -1.6551976483730326e-05
2.7464917010683057e-06   1.756098861746048e-06   -1.6551976483730326e-05
2.7464917010683057e-06   1.756098861746048e-06   -1.6551976483730326e-05
2.5601755222346802e-06   2.7002452918864234e-06   -7.213708275452845e-05
2.5601755222346802e-06   2.7002452918864234e-06   -7.213708275452845e-05
2.5601755222346802e-06   2.7002452918864234e-06   -7.213708275452845e-05
2.5601755222346802e-06   2.7002452918864234e-06   -7.213708275452845e-05
-3.0740821250404955e-05   3.624013793503372e-06   -1.718968256776598e-05
-3.0740821250404955e-05   3.624013793503372e-06   -1.718968256776598e-05
-3.0740821250404955e-05   3.624013793503372e-06   -1.718968256776598e-05
-3.0740821250404955e-05   3.624013793503372e-06   -1.718968256776598e-05
-1.4013207729708529e-05   2.203198354929208e-06   -4.421654917244866e-05
-1.4013207729708529e-05   2.203198354929208e-06   -4.421654917244866e-05
-1.4013207729708529e-05   2.203198354929208e-06   -4.421654917244866e-05
-1.4013207729708529e-05   2.203198354929208e-06   -4.421654917244866e-05
-3.0740821250404955e-05   2.7002452918864234e-06   -7.269134385549861e-05
-3.0740821250404955e-05   2.7002452918864234e-06   -7.269134385549861e-05
-3.0740821250404955e-05   2.7002452918864234e-06   -7.269134385549861e-05
-3.0740821250404955e-05   2.7002452918864234e-06   -7.269134385549861e-05
2.560175522234686e-06   3.624013793503372e-06   -1.6635421466795823e-05
2.560175522234686e-06   3.624013793503372e-06   -1.6635421466795823e-05
2.560175522234686e-06   3.624013793503372e-06   -1.6635421466795823e-05
2.560175522234686e-06   3.624013793503372e-06   -1.6635421466795823e-05
2.1883482536882756e-06   4.483929098599262e-06   -7.201272912972491e-05
2.1883482536882756e-06   4.483929098599262e-06   -7.201272912972491e-05
2.1883482536882756e-06   4.483929098599262e-06   -7.201272912972491e-05
2.1883482536882756e-06   4.483929098599262e-06   -7.201272912972491e-05
-3.066899662256561e-05   5.570300523270917e-06   -1.7902310524104808e-05
-3.066899662256561e-05   5.570300523270917e-06   -1.7902310524104808e-05
-3.066899662256561e-05   5.570300523270917e-06   -1.7902310524104808e-05
-3.066899662256561e-05   5.570300523270917e-06   -1.7902310524104808e-05
-1.4171896961986836e-05   3.867767421244562e-06   -4.437595676385356e-05
-1.4171896961986836e-05   3.867767421244562e-06   -4.437595676385356e-05
-1.4171896961986836e-05   3.867767421244562e-06   -4.437595676385356e-05
-1.4171896961986836e-05   3.867767421244562e-06   -4.437595676385356e-05
2.8839835524893812e-06   -5.218389841634522e-06   -6.605272420760886e-05
2.8839835524893812e-06   -5.218389841634522e-06   -6.605272420760886e-05
2.8839835524893812e-06   -5.218389841634522e-06   -6.605272420760886e-05
2.8839835524893812e-06   -5.218389841634522e-06   -6.605272420760886e-05
3.6564881962247644e-05   -5.365230071808244e-06   -1.0005997662782597e-05
3.6564881962247644e-05   -5.365230071808244e-06   -1.0005997662782597e-05
3.6564881962247644e-05   -5.365230071808244e-06   -1.0005997662782597e-05
3.6564881962247644e-05   -5.365230071808244e-06   -1.0005997662782597e-05
3.686095669203283e-05   -3.935114346076724e-06   -6.697548471165464e-05
3.686095669203283e-05   -3.935114346076724e-06   -6.697548471165464e-05
3.686095669203283e-05   -3.935114346076724e-06   -6.697548471165464e-05
3.686095669203283e-05   -3.935114346076724e-06   -6.697548471165464e-05
2.7464917010683057e-06   -3.62853820995272e-06   -1.0301988741721401e-05
2.7464917010683057e-06   -3.62853820995272e-06   -1.0301988741721401e-05
2.7464917010683057e-06   -3.62853820995272e-06   -1.0301988741721401e-05
2.7464917010683057e-06   -3.62853820995272e-06   -1.0301988741721401e-05
1.951147945422114e-05   -4.3429673248939664e-06   -3.78149775280115e-05
1.951147945422114e-05   -4.3429673248939664e-06   -3.78149775280115e-05
1.951147945422114e-05   -4.3429673248939664e-06   -3.78149775280115e-05
1.951147945422114e-05   -4.3429673248939664e-06   -3.78149775280115e-05
2.7464917010683007e-06   -3.935114346076724e-06   -6.715943039332916e-05
2.7464917010683007e-06   -3.935114346076724e-06   -6.715943039332916e-05
2.7464917010683007e-06   -3.935114346076724e-06   -6.715943039332916e-05
2.7464917010683007e-06   -3.935114346076724e-06   -6.715943039332916e-05
3.686095669203288e-05   -3.62853820995272e-06   -1.0118043060046943e-05
3.686095669203288e-05   -3.62853820995272e-06   -1.0118043060046943e-05
3.686095669203288e-05   -3.62853820995272e-06   -1.0118043060046943e-05
3.686095669203288e-05   -3.62853820995272e-06   -1.0118043060046943e-05
3.667491104478475e-05   -2.477669828081629e-06   -6.823077209066022e-05
3.667491104478475e-05   -2.477669828081629e-06   -6.823077209066022e-05
3.667491104478475e-05   -2.477669828081629e-06   -6.823077209066022e-05
3.667491104478475e-05   -2.477669828081629e-06   -6.823077209066022e-05
2.5601755222346802e-06   -1.927115550052149e-06   -1.1703212119894545e-05
2.5601755222346802e-06   -1.927115550052149e-06   -1.1703212119894545e-05
2.5601755222346802e-06   -1.927115550052149e-06   -1.1703212119894545e-05
2.5601755222346802e-06   -1.927115550052149e-06   -1.1703212119894545e-05
1.9299189633561284e-05   -2.9560886699515117e-06   -3.89841851001658e-05
1.9299189633561284e-05   -2.9560886699515117e-06   -3.89841851001658e-05
1.9299189633561284e-05   -2.9560886699515117e-06   -3.89841851001658e-05
1.9299189633561284e-05   -2.9560886699515117e-06   -3.89841851001658e-05
2.5601755222346785e-06   -2.477669828081629e-06   -6.856110465747794e-05
2.5601755222346785e-06   -2.477669828081629e-06   -6.856110465747794e-05
2.5601755222346785e-06   -2.477669828081629e-06   -6.856110465747794e-05
2.5601755222346785e-06   -2.477669828081629e-06   -6.856110465747794e-05
3.667491104478488e-05   -1.9271155500520947e-06   -1.1372879553076855e-05
3.667491104478488e-05   -1.9271155500520947e-06   -1.1372879553076855e-05
3.667491104478488e-05   -1.9271155500520947e-06   -1.1372879553076855e-05
3.667491104478488e-05   -1.9271155500520947e-06   -1.1372879553076855e-05
3.559951217200634e-05   -5.188875426263183e-07   -6.8351145169666e-05
3.559951217200634e-05   -5.188875426263183e-07   -6.8351145169666e-05
3.559951217200634e-05   -5.188875426263183e-07   -6.8351145169666e-05
3.559951217200634e-05   -5.188875426263183e-07   -6.8351145169666e-05
2.1883482536882756e-06   1.776434635248898e-07   -1.3083790576159992e-05
2.1883482536882756e-06   1.776434635248898e-07   -1.3083790576159992e-05
2.1883482536882756e-06   1.776434635248898e-07   -1.3083790576159992e-05
2.1883482536882756e-06   1.776434635248898e-07   -1.3083790576159992e-05
1.9084489561287338e-05   -1.3362172070851652e-06   -4.0335709686459026e-05
1.9084489561287338e-05   -1.3362172070851652e-06   -4.0335709686459026e-05
1.9084489561287338e-05   -1.3362172070851652e-06   -4.0335709686459026e-05
1.9084489561287338e-05   -1.3362172070851652e-06   -4.0335709686459026e-05
3.6564881962247644e-05   -1.3224721959967511e-05   -3.9969244019961026e-05
3.6564881962247644e-05   -1.3224721959967511e-05   -3.9969244019961026e-05
3.6564881962247644e-05   -1.3224721959967511e-05   -3.9969244019961026e-05
3.6564881962247644e-05   -1.3224721959967511e-05   -3.9969244019961026e-05
6.9812231534294e-05   -9.974276473019767e-06   1.7393272558951524e-05
6.9812231534294e-05   -9.974276473019767e-06   1.7393272558951524e-05
6.9812231534294e-05   -9.974276473019767e-06   1.7393272558951524e-05
6.9812231534294e-05   -9.974276473019767e-06   1.7393272558951524e-05
7.245770783221708e-05   -1.125517408458831e-05   -4.859460940178889e-05
7.245770783221708e-05   -1.125517408458831e-05   -4.859460940178889e-05
7.245770783221708e-05   -1.125517408458831e-05   -4.859460940178889e-05
7.245770783221708e-05   -1.125517408458831e-05   -4.859460940178889e-05
3.6860956692032956e-05   -9.050780688785078e-06   9.410673127702835e-06
3.6860956692032956e-05   -9.050780688785078e-06   9.410673127702835e-06
3.6860956692032956e-05   -9.050780688785078e-06   9.410673127702835e-06
3.6860956692032956e-05   -9.050780688785078e-06   9.410673127702835e-06
5.141630071318197e-05   -1.083054644032775e-05   -1.3780374123286652e-05
5.141630071318197e-05   -1.083054644032775e-05   -1.3780374123286652e-05
5.141630071318197e-05   -1.083054644032775e-05   -1.3780374123286652e-05
5.141630071318197e-05   -1.083054644032775e-05   -1.3780374123286652e-05
3.6860956692032855e-05   -1.125517408458831e-05   -4.991724543927068e-05
3.6860956692032855e-05   -1.125517408458831e-05   -4.991724543927068e-05
3.6860956692032855e-05   -1.125517408458831e-05   -4.991724543927068e-05
3.6860956692032855e-05   -1.125517408458831e-05   -4.991724543927068e-05
7.245770783221708e-05   -9.050780688785078e-06   1.0733309165184793e-05
7.245770783221708e-05   -9.050780688785078e-06   1.0733309165184793e-05
7.245770783221708e-05   -9.050780688785078e-06   1.0733309165184793e-05
7.245770783221708e-05   -9.050780688785078e-06   1.0733309165184793e-05
7.217913781400798e-05   -1.0285773666244161e-05   -5.285071753779914e-05
7.217913781400798e-05   -1.0285773666244161e-05   -5.285071753779914e-05
7.217913781400798e-05   -1.0285773666244161e-05   -5.285071753779914e-05
7.217913781400798e-05   -1.0285773666244161e-05   -5.285071753779914e-05
3.667491104478488e-05   -8.07159700383375e-06   4.994487746793041e-06
3.667491104478488e-05   -8.07159700383375e-06   4.994487746793041e-06
3.667491104478488e-05   -8.07159700383375e-06   4.994487746793041e-06
3.667491104478488e-05   -8.07159700383375e-06   4.994487746793041e-06
5.320652829856442e-05   -9.566370195145314e-06   -2.1661343761385888e-05
5.320652829856442e-05   -9.566370195145314e-06   -2.1661343761385888e-05
5.320652829856442e-05   -9.566370195145314e-06   -2.1661343761385888e-05
5.320652829856442e-05   -9.566370195145314e-06   -2.1661343761385888e-05
3.667491104478482e-05   -1.0285773666244148e-05   -5.4179223535245284e-05
3.667491104478482e-05   -1.0285773666244148e-05   -5.4179223535245284e-05
3.667491104478482e-05   -1.0285773666244148e-05   -5.4179223535245284e-05
3.667491104478482e-05   -1.0285773666244148e-05   -5.4179223535245284e-05
7.217913781400798e-05   -8.07159700383375e-06   6.322993744239307e-06
7.217913781400798e-05   -8.07159700383375e-06   6.322993744239307e-06
7.217913781400798e-05   -8.07159700383375e-06   6.322993744239307e-06
7.217913781400798e-05   -8.07159700383375e-06   6.322993744239307e-06
7.173410554685785e-05   -7.997924510240808e-06   -6.151739202049082e-05
7.173410554685785e-05   -7.997924510240808e-06   -6.151739202049082e-05
7.173410554685785e-05   -7.997924510240808e-06   -6.151739202049082e-05
7.173410554685785e-05   -7.997924510240808e-06   -6.151739202049082e-05
3.559951217200647e-05   -5.964237077823423e-06   -2.5132821885223266e-06
3.559951217200647e-05   -5.964237077823423e-06   -2.5132821885223266e-06
3.559951217200647e-05   -5.964237077823423e-06   -2.5132821885223266e-06
3.559951217200647e-05   -5.964237077823423e-06   -2.5132821885223266e-06
5.167775165028115e-05   -8.238221032779737e-06   -2.7945957612672973e-05
5.167775165028115e-05   -8.238221032779737e-06   -2.7945957612672973e-05
5.167775165028115e-05   -8.238221032779737e-06   -2.7945957612672973e-05
5.167775165028115e-05   -8.238221032779737e-06   -2.7945957612672973e-05
-7.826545518211782e-05   1.1280752619664575e-05   -5.399812953074123e-05
-7.826545518211782e-05   1.1280752619664575e-05   -5.399812953074123e-05
-7.826545518211782e-05   1.1280752619664575e-05   -5.399812953074123e-05
-7.826545518211782e-05   1.1280752619664575e-05   -5.399812953074123e-05
-5.1302570787197134e-05   8.62234428888626e-06   -1.0655033871007059e-05
-5.1302570787197134e-05   8.62234428888626e-06   -1.0655033871007059e-05
-5.1302570787197134e-05   8.62234428888626e-06   -1.0655033871007059e-05
-5.1302570787197134e-05   8.62234428888626e-06   -1.0655033871007059e-05
-5.155226225479466e-05   1.3537363517160048e-05   -4.4833378072945546e-05
-5.155226225479466e-05   1.3537363517160048e-05   -4.4833378072945546e-05
-5.155226225479466e-05   1.3537363517160048e-05   -4.4833378072945546e-05
-5.155226225479466e-05   1.3537363517160048e-05   -4.4833378072945546e-05
-7.708443034389688e-05   1.0429097408658238e-05   -4.148049260074794e-07
-7.708443034389688e-05   1.0429097408658238e-05   -4.148049260074794e-07
-7.708443034389688e-05   1.0429097408658238e-05   -4.148049260074794e-07
-7.708443034389688e-05   1.0429097408658238e-05   -4.148049260074794e-07
-6.182142086863956e-05   1.1470134700417565e-05   -2.6477776426492175e-05
-6.182142086863956e-05   1.1470134700417565e-05   -2.6477776426492175e-05
-6.182142086863956e-05   1.1470134700417565e-05   -2.6477776426492175e-05
-6.182142086863956e-05   1.1470134700417565e-05   -2.6477776426492175e-05
-7.708443034389688e-05   1.3537363517160048e-05   -4.296841840784445e-05
-7.708443034389688e-05   1.3537363517160048e-05   -4.296841840784445e-05
-7.708443034389688e-05   1.3537363517160048e-05   -4.296841840784445e-05
-7.708443034389688e-05   1.3537363517160048e-05   -4.296841840784445e-05
-5.155226225479466e-05   1.0429097408658238e-05   -2.2797645911084267e-06
-5.155226225479466e-05   1.0429097408658238e-05   -2.2797645911084267e-06
-5.155226225479466e-05   1.0429097408658238e-05   -2.2797645911084267e-06
-5.155226225479466e-05   1.0429097408658238e-05   -2.2797645911084267e-06
-5.150182028868913e-05   1.4555752544896867e-05   -3.8354464944543145e-05
-5.150182028868913e-05   1.4555752544896867e-05   -3.8354464944543145e-05
-5.150182028868913e-05   1.4555752544896867e-05   -3.8354464944543145e-05
-5.150182028868913e-05   1.4555752544896867e-05   -3.8354464944543145e-05
-7.593231782996627e-05   1.1222658166198051e-05   4.3628875848046415e-06
-7.593231782996627e-05   1.1222658166198051e-05   4.3628875848046415e-06
-7.593231782996627e-05   1.1222658166198051e-05   4.3628875848046415e-06
-7.593231782996627e-05   1.1222658166198051e-05   4.3628875848046415e-06
-6.235849470471483e-05   1.2517545329396198e-05   -1.9037083255199353e-05
-6.235849470471483e-05   1.2517545329396198e-05   -1.9037083255199353e-05
-6.235849470471483e-05   1.2517545329396198e-05   -1.9037083255199353e-05
-6.235849470471483e-05   1.2517545329396198e-05   -1.9037083255199353e-05
-7.593231782996627e-05   1.4555752544896867e-05   -3.6354608317323785e-05
-7.593231782996627e-05   1.4555752544896867e-05   -3.6354608317323785e-05
-7.593231782996627e-05   1.4555752544896867e-05   -3.6354608317323785e-05
-7.593231782996627e-05   1.4555752544896867e-05   -3.6354608317323785e-05
-5.1501820288689235e-05   1.1222658166198051e-05   2.363030957585539e-06
-5.1501820288689235e-05   1.1222658166198051e-05   2.363030957585539e-06
-5.1501820288689235e-05   1.1222658166198051e-05   2.363030957585539e-06
-5.1501820288689235e-05   1.1222658166198051e-05   2.363030957585539e-06
-5.155562520219834e-05   1.5364416988321067e-05   -2.927979302959577e-05
-5.155562520219834e-05   1.5364416988321067e-05   -2.927979302959577e-05
-5.155562520219834e-05   1.5364416988321067e-05   -2.927979302959577e-05
-5.155562520219834e-05   1.5364416988321067e-05   -2.927979302959577e-05
-7.44265823993911e-05   1.2002940581801245e-05   1.085535480963701e-05
-7.44265823993911e-05   1.2002940581801245e-05   1.085535480963701e-05
-7.44265823993911e-05   1.2002940581801245e-05   1.085535480963701e-05
-7.44265823993911e-05   1.2002940581801245e-05   1.085535480963701e-05
-6.094039708228259e-05   1.3068057412494549e-05   -1.2260690817292308e-05
-6.094039708228259e-05   1.3068057412494549e-05   -1.2260690817292308e-05
-6.094039708228259e-05   1.3068057412494549e-05   -1.2260690817292308e-05
-6.094039708228259e-05   1.3068057412494549e-05   -1.2260690817292308e-05
-5.1302570787197134e-05   5.249035383843184e-06   -6.248972640887228e-05
-5.1302570787197134e-05   5.249035383843184e-06   -6.248972640887228e-05
-5.1302570787197134e-05   5.249035383843184e-06   -6.248972640887228e-05
-5.1302570787197134e-05   5.249035383843184e-06   -6.248972640887228e-05
-2.610292308328242e-05   4.298344588742433e-06   -2.106072804607484e-05
-2.610292308328242e-05   4.298344588742433e-06   -2.106072804607484e-05
-2.610292308328242e-05   4.298344588742433e-06   -2.106072804607484e-05
-2.610292308328242e-05   4.298344588742433e-06   -2.106072804607484e-05
-2.6421410372854984e-05   7.3241851523969e-06   -6.160559918237684e-05
-2.6421410372854984e-05   7.3241851523969e-06   -6.160559918237684e-05
-2.6421410372854984e-05   7.3241851523969e-06   -6.160559918237684e-05
-2.6421410372854984e-05   7.3241851523969e-06   -6.160559918237684e-05
-5.155226225479455e-05   6.0750543439148106e-06   -1.8971367560721448e-05
-5.155226225479455e-05   6.0750543439148106e-06   -1.8971367560721448e-05
-5.155226225479455e-05   6.0750543439148106e-06   -1.8971367560721448e-05
-5.155226225479455e-05   6.0750543439148106e-06   -1.8971367560721448e-05
-3.851240995361264e-05   6.052325661273436e-06   -4.0690817519773304e-05
-3.851240995361264e-05   6.052325661273436e-06   -4.0690817519773304e-05
-3.851240995361264e-05   6.052325661273436e-06   -4.0690817519773304e-05
-3.851240995361264e-05   6.052325661273436e-06   -4.0690817519773304e-05
-5.1552262254794606e-05   7.3241851523969e-06   -6.085612069728745e-05
-5.1552262254794606e-05   7.3241851523969e-06   -6.085612069728745e-05
-5.1552262254794606e-05   7.3241851523969e-06   -6.085612069728745e-05
-5.1552262254794606e-05   7.3241851523969e-06   -6.085612069728745e-05
-2.6421410372855038e-05   6.0750543439148106e-06   -1.972084604581068e-05
-2.6421410372855038e-05   6.0750543439148106e-06   -1.972084604581068e-05
-2.6421410372855038e-05   6.0750543439148106e-06   -1.972084604581068e-05
-2.6421410372855038e-05   6.0750543439148106e-06   -1.972084604581068e-05
-2.6628442382387602e-05   9.041585694271237e-06   -5.9974547157452124e-05
-2.6628442382387602e-05   9.041585694271237e-06   -5.9974547157452124e-05
-2.6628442382387602e-05   9.041585694271237e-06   -5.9974547157452124e-05
-2.6628442382387602e-05   9.041585694271237e-06   -5.9974547157452124e-05
-5.150182028868913e-05   7.653198731105183e-06   -1.768588513571703e-05
-5.150182028868913e-05   7.653198731105183e-06   -1.768588513571703e-05
-5.150182028868913e-05   7.653198731105183e-06   -1.768588513571703e-05
-5.150182028868913e-05   7.653198731105183e-06   -1.768588513571703e-05
-3.858501393021319e-05   7.513812294369579e-06   -3.913026387113481e-05
-3.858501393021319e-05   7.513812294369579e-06   -3.913026387113481e-05
-3.858501393021319e-05   7.513812294369579e-06   -3.913026387113481e-05
-3.858501393021319e-05   7.513812294369579e-06   -3.913026387113481e-05
-5.150182028868913e-05   9.041585694271237e-06   -5.914151497955265e-05
-5.150182028868913e-05   9.041585694271237e-06   -5.914151497955265e-05
-5.150182028868913e-05   9.041585694271237e-06   -5.914151497955265e-05
-5.150182028868913e-05   9.041585694271237e-06   -5.914151497955265e-05
-2.662844238238771e-05   7.653198731105183e-06   -1.8518917313616317e-05
-2.662844238238771e-05   7.653198731105183e-06   -1.8518917313616317e-05
-2.662844238238771e-05   7.653198731105183e-06   -1.8518917313616317e-05
-2.662844238238771e-05   7.653198731105183e-06   -1.8518917313616317e-05
-2.6895802229769728e-05   1.088921066129037e-05   -5.982940555352789e-05
-2.6895802229769728e-05   1.088921066129037e-05   -5.982940555352789e-05
-2.6895802229769728e-05   1.088921066129037e-05   -5.982940555352789e-05
-2.6895802229769728e-05   1.088921066129037e-05   -5.982940555352789e-05
-5.155562520219831e-05   9.331618266986228e-06   -1.7795145162897736e-05
-5.155562520219831e-05   9.331618266986228e-06   -1.7795145162897736e-05
-5.155562520219831e-05   9.331618266986228e-06   -1.7795145162897736e-05
-5.155562520219831e-05   9.331618266986228e-06   -1.7795145162897736e-05
-3.9043638941131685e-05   8.96112181586375e-06   -3.842615772733476e-05
-3.9043638941131685e-05   8.96112181586375e-06   -3.842615772733476e-05
-3.9043638941131685e-05   8.96112181586375e-06   -3.842615772733476e-05
-3.9043638941131685e-05   8.96112181586375e-06   -3.842615772733476e-05
-2.610292308328238e-05   -1.5573183398604525e-07   -6.735678512372048e-05
-2.610292308328238e-05   -1.5573183398604525e-07   -6.735678512372048e-05
-2.610292308328238e-05   -1.5573183398604525e-07   -6.735678512372048e-05
-2.610292308328238e-05   -1.5573183398604525e-07   -6.735678512372048e-05
-1.18673026234949e-06   2.286439395314836e-07   -2.5599171624721823e-05
-1.18673026234949e-06   2.286439395314836e-07   -2.5599171624721823e-05
-1.18673026234949e-06   2.286439395314836e-07   -2.5599171624721823e-05
-1.18673026234949e-06   2.286439395314836e-07   -2.5599171624721823e-05
-1.4424568989894415e-06   1.7560988617461022e-06   -6.672911045426712e-05
-1.4424568989894415e-06   1.7560988617461022e-06   -6.672911045426712e-05
-1.4424568989894415e-06   1.7560988617461022e-06   -6.672911045426712e-05
-1.4424568989894415e-06   1.7560988617461022e-06   -6.672911045426712e-05
-2.6421410372854984e-05   1.9772706806880534e-06   -2.5230224422523155e-05
-2.6421410372854984e-05   1.9772706806880534e-06   -2.5230224422523155e-05
-2.6421410372854984e-05   1.9772706806880534e-06   -2.5230224422523155e-05
-2.6421410372854984e-05   1.9772706806880534e-06   -2.5230224422523155e-05
-1.371098040236284e-05   1.1518302140548007e-06   -4.591901009336346e-05
-1.371098040236284e-05   1.1518302140548007e-06   -4.591901009336346e-05
-1.371098040236284e-05   1.1518302140548007e-06   -4.591901009336346e-05
-1.371098040236284e-05   1.1518302140548007e-06   -4.591901009336346e-05
-2.6421410372854984e-05   1.7560988617461022e-06   -6.686181354563243e-05
-2.6421410372854984e-05   1.7560988617461022e-06   -6.686181354563243e-05
-2.6421410372854984e-05   1.7560988617461022e-06   -6.686181354563243e-05
-2.6421410372854984e-05   1.7560988617461022e-06   -6.686181354563243e-05
-1.442456898989444e-06   1.9772706806880534e-06   -2.509752133115787e-05
-1.442456898989444e-06   1.9772706806880534e-06   -2.509752133115787e-05
-1.442456898989444e-06   1.9772706806880534e-06   -2.509752133115787e-05
-1.442456898989444e-06   1.9772706806880534e-06   -2.509752133115787e-05
-1.6277450060094847e-06   3.624013793503372e-06   -6.691071348125595e-05
-1.6277450060094847e-06   3.624013793503372e-06   -6.691071348125595e-05
-1.6277450060094847e-06   3.624013793503372e-06   -6.691071348125595e-05
-1.6277450060094847e-06   3.624013793503372e-06   -6.691071348125595e-05
-2.6628442382387656e-05   3.7206568782459414e-06   -2.530087037147142e-05
-2.6628442382387656e-05   3.7206568782459414e-06   -2.530087037147142e-05
-2.6628442382387656e-05   3.7206568782459414e-06   -2.530087037147142e-05
-2.6628442382387656e-05   3.7206568782459414e-06   -2.530087037147142e-05
-1.4040620644472438e-05   2.693870145272577e-06   -4.566450122821245e-05
-1.4040620644472438e-05   2.693870145272577e-06   -4.566450122821245e-05
-1.4040620644472438e-05   2.693870145272577e-06   -4.566450122821245e-05
-1.4040620644472438e-05   2.693870145272577e-06   -4.566450122821245e-05
-2.6628442382387656e-05   3.624013793503372e-06   -6.696869933210155e-05
-2.6628442382387656e-05   3.624013793503372e-06   -6.696869933210155e-05
-2.6628442382387656e-05   3.624013793503372e-06   -6.696869933210155e-05
-2.6628442382387656e-05   3.624013793503372e-06   -6.696869933210155e-05
-1.627745006009489e-06   3.7206568782459414e-06   -2.5242884520625635e-05
-1.627745006009489e-06   3.7206568782459414e-06   -2.5242884520625635e-05
-1.627745006009489e-06   3.7206568782459414e-06   -2.5242884520625635e-05
-1.627745006009489e-06   3.7206568782459414e-06   -2.5242884520625635e-05
-1.918044663609935e-06   5.570300523270917e-06   -6.777183888651114e-05
-1.918044663609935e-06   5.570300523270917e-06   -6.777183888651114e-05
-1.918044663609935e-06   5.570300523270917e-06   -6.777183888651114e-05
-1.918044663609935e-06   5.570300523270917e-06   -6.777183888651114e-05
-2.6895802229769714e-05   5.504602647820136e-06   -2.6102824217641337e-05
-2.6895802229769714e-05   5.504602647820136e-06   -2.6102824217641337e-05
-2.6895802229769714e-05   5.504602647820136e-06   -2.6102824217641337e-05
-2.6895802229769714e-05   5.504602647820136e-06   -2.6102824217641337e-05
-1.4390729934820174e-05   4.254225340327646e-06   -4.6194384991394706e-05
-1.4390729934820174e-05   4.254225340327646e-06   -4.6194384991394706e-05
-1.4390729934820174e-05   4.254225340327646e-06   -4.6194384991394706e-05
-1.4390729934820174e-05   4.254225340327646e-06   -4.6194384991394706e-05
-1.1867302623494916e-06   -5.365230071808244e-06   -6.0189782030234775e-05
-1.1867302623494916e-06   -5.365230071808244e-06   -6.0189782030234775e-05
-1.1867302623494916e-06   -5.365230071808244e-06   -6.0189782030234775e-05
-1.1867302623494916e-06   -5.365230071808244e-06   -6.0189782030234775e-05
2.360595249773451e-05   -3.5992325336585244e-06   -1.780904557387164e-05
2.360595249773451e-05   -3.5992325336585244e-06   -1.780904557387164e-05
2.360595249773451e-05   -3.5992325336585244e-06   -1.780904557387164e-05
2.360595249773451e-05   -3.5992325336585244e-06   -1.780904557387164e-05
2.358639939416001e-05   -3.62853820995272e-06   -5.9500071433186904e-05
2.358639939416001e-05   -3.62853820995272e-06   -5.9500071433186904e-05
2.358639939416001e-05   -3.62853820995272e-06   -5.9500071433186904e-05
2.358639939416001e-05   -3.62853820995272e-06   -5.9500071433186904e-05
-1.442456898989444e-06   -1.9967860781668458e-06   -1.8764362223675972e-05
-1.442456898989444e-06   -1.9967860781668458e-06   -1.8764362223675972e-05
-1.442456898989444e-06   -1.9967860781668458e-06   -1.8764362223675972e-05
-1.442456898989444e-06   -1.9967860781668458e-06   -1.8764362223675972e-05
1.1055627188468407e-05   -3.5215492615715913e-06   -3.8679644459396195e-05
1.1055627188468407e-05   -3.5215492615715913e-06   -3.8679644459396195e-05
1.1055627188468407e-05   -3.5215492615715913e-06   -3.8679644459396195e-05
1.1055627188468407e-05   -3.5215492615715913e-06   -3.8679644459396195e-05
-1.442456898989444e-06   -3.62853820995272e-06   -6.0479122712258325e-05
-1.442456898989444e-06   -3.62853820995272e-06   -6.0479122712258325e-05
-1.442456898989444e-06   -3.62853820995272e-06   -6.0479122712258325e-05
-1.442456898989444e-06   -3.62853820995272e-06   -6.0479122712258325e-05
2.358639939416001e-05   -1.9967860781668458e-06   -1.77853109446043e-05
2.358639939416001e-05   -1.9967860781668458e-06   -1.77853109446043e-05
2.358639939416001e-05   -1.9967860781668458e-06   -1.77853109446043e-05
2.358639939416001e-05   -1.9967860781668458e-06   -1.77853109446043e-05
2.369585691939087e-05   -1.9271155500520947e-06   -6.107534153360734e-05
2.369585691939087e-05   -1.9271155500520947e-06   -6.107534153360734e-05
2.369585691939087e-05   -1.9271155500520947e-06   -6.107534153360734e-05
2.369585691939087e-05   -1.9271155500520947e-06   -6.107534153360734e-05
-1.6277450060094907e-06   -4.2184454880622984e-07   -1.9772500925354487e-05
-1.6277450060094907e-06   -4.2184454880622984e-07   -1.9772500925354487e-05
-1.6277450060094907e-06   -4.2184454880622984e-07   -1.9772500925354487e-05
-1.6277450060094907e-06   -4.2184454880622984e-07   -1.9772500925354487e-05
1.0715323536628181e-05   -2.1319634712026105e-06   -3.931821047631245e-05
1.0715323536628181e-05   -2.1319634712026105e-06   -3.931821047631245e-05
1.0715323536628181e-05   -2.1319634712026105e-06   -3.931821047631245e-05
1.0715323536628181e-05   -2.1319634712026105e-06   -3.931821047631245e-05
-1.6277450060094873e-06   -1.9271155500520947e-06   -6.197850413435459e-05
-1.6277450060094873e-06   -1.9271155500520947e-06   -6.197850413435459e-05
-1.6277450060094873e-06   -1.9271155500520947e-06   -6.197850413435459e-05
-1.6277450060094873e-06   -1.9271155500520947e-06   -6.197850413435459e-05
2.369585691939087e-05   -4.2184454880622984e-07   -1.8869338324606637e-05
2.369585691939087e-05   -4.2184454880622984e-07   -1.8869338324606637e-05
2.369585691939087e-05   -4.2184454880622984e-07   -1.8869338324606637e-05
2.369585691939087e-05   -4.2184454880622984e-07   -1.8869338324606637e-05
2.3512291941241663e-05   1.776434635248356e-07   -6.285974727198725e-05
2.3512291941241663e-05   1.776434635248356e-07   -6.285974727198725e-05
2.3512291941241663e-05   1.776434635248356e-07   -6.285974727198725e-05
2.3512291941241663e-05   1.776434635248356e-07   -6.285974727198725e-05
-1.9180446636099383e-06   1.419967665828659e-06   -2.1221247451950307e-05
-1.9180446636099383e-06   1.419967665828659e-06   -2.1221247451950307e-05
-1.9180446636099383e-06   1.419967665828659e-06   -2.1221247451950307e-05
-1.9180446636099383e-06   1.419967665828659e-06   -2.1221247451950307e-05
1.0595133379666836e-05   -6.448273025425012e-07   -4.083766720972191e-05
1.0595133379666836e-05   -6.448273025425012e-07   -4.083766720972191e-05
1.0595133379666836e-05   -6.448273025425012e-07   -4.083766720972191e-05
1.0595133379666836e-05   -6.448273025425012e-07   -4.083766720972191e-05
2.3605952497734482e-05   -9.974276473019713e-06   -3.3681180577779514e-05
2.3605952497734482e-05   -9.974276473019713e-06   -3.3681180577779514e-05
2.3605952497734482e-05   -9.974276473019713e-06   -3.3681180577779514e-05
2.3605952497734482e-05   -9.974276473019713e-06   -3.3681180577779514e-05
4.6829685747989394e-05   -6.530256369499448e-06   7.09145356809094e-06
4.6829685747989394e-05   -6.530256369499448e-06   7.09145356809094e-06
4.6829685747989394e-05   -6.530256369499448e-06   7.09145356809094e-06
4.6829685747989394e-05   -6.530256369499448e-06   7.09145356809094e-06
4.840391808769555e-05   -9.050780688785024e-06   -3.7905347895002015e-05
4.840391808769555e-05   -9.050780688785024e-06   -3.7905347895002015e-05
4.840391808769555e-05   -9.050780688785024e-06   -3.7905347895002015e-05
4.840391808769555e-05   -9.050780688785024e-06   -3.7905347895002015e-05
2.3586399394159957e-05   -5.607435104726909e-06   1.3911759104557719e-06
2.3586399394159957e-05   -5.607435104726909e-06   1.3911759104557719e-06
2.3586399394159957e-05   -5.607435104726909e-06   1.3911759104557719e-06
2.3586399394159957e-05   -5.607435104726909e-06   1.3911759104557719e-06
3.40846418927335e-05   -7.698519678639199e-06   -1.485124417615271e-05
3.40846418927335e-05   -7.698519678639199e-06   -1.485124417615271e-05
3.40846418927335e-05   -7.698519678639199e-06   -1.485124417615271e-05
3.40846418927335e-05   -7.698519678639199e-06   -1.485124417615271e-05
2.3586399394159944e-05   -9.050780688785078e-06   -3.9971355245436855e-05
2.3586399394159944e-05   -9.050780688785078e-06   -3.9971355245436855e-05
2.3586399394159944e-05   -9.050780688785078e-06   -3.9971355245436855e-05
2.3586399394159944e-05   -9.050780688785078e-06   -3.9971355245436855e-05
4.840391808769555e-05   -5.6074351047268e-06   3.457183260890842e-06
4.840391808769555e-05   -5.6074351047268e-06   3.457183260890842e-06
4.840391808769555e-05   -5.6074351047268e-06   3.457183260890842e-06
4.840391808769555e-05   -5.6074351047268e-06   3.457183260890842e-06
4.961304675757329e-05   -8.07159700383375e-06   -4.275420049307087e-05
4.961304675757329e-05   -8.07159700383375e-06   -4.275420049307087e-05
4.961304675757329e-05   -8.07159700383375e-06   -4.275420049307087e-05
4.961304675757329e-05   -8.07159700383375e-06   -4.275420049307087e-05
2.3695856919390775e-05   -4.8153074360563495e-06   -1.512657836766785e-06
2.3695856919390775e-05   -4.8153074360563495e-06   -1.512657836766785e-06
2.3695856919390775e-05   -4.8153074360563495e-06   -1.512657836766785e-06
2.3695856919390775e-05   -4.8153074360563495e-06   -1.512657836766785e-06
3.523994193593005e-05   -7.1030567195138e-06   -1.9380149960924152e-05
3.523994193593005e-05   -7.1030567195138e-06   -1.9380149960924152e-05
3.523994193593005e-05   -7.1030567195138e-06   -1.9380149960924152e-05
3.523994193593005e-05   -7.1030567195138e-06   -1.9380149960924152e-05
2.3695856919390816e-05   -8.07159700383375e-06   -4.470797423373739e-05
2.3695856919390816e-05   -8.07159700383375e-06   -4.470797423373739e-05
2.3695856919390816e-05   -8.07159700383375e-06   -4.470797423373739e-05
2.3695856919390816e-05   -8.07159700383375e-06   -4.470797423373739e-05
4.961304675757321e-05   -4.815307436056241e-06   4.4111590389998064e-07
4.961304675757321e-05   -4.815307436056241e-06   4.4111590389998064e-07
4.961304675757321e-05   -4.815307436056241e-06   4.4111590389998064e-07
4.961304675757321e-05   -4.815307436056241e-06   4.4111590389998064e-07
5.090081748576275e-05   -5.964237077823423e-06   -5.1002212340718424e-05
5.090081748576275e-05   -5.964237077823423e-06   -5.1002212340718424e-05
5.090081748576275e-05   -5.964237077823423e-06   -5.1002212340718424e-05
5.090081748576275e-05   -5.964237077823423e-06   -5.1002212340718424e-05
2.3512291941241582e-05   -3.1226618322872587e-06   -7.05961491383845e-06
2.3512291941241582e-05   -3.1226618322872587e-06   -7.05961491383845e-06
2.3512291941241582e-05   -3.1226618322872587e-06   -7.05961491383845e-06
2.3512291941241582e-05   -3.1226618322872587e-06   -7.05961491383845e-06
3.50867638598507e-05   -6.1198561779623084e-06   -2.4552084837448405e-05
3.50867638598507e-05   -6.1198561779623084e-06   -2.4552084837448405e-05
3.50867638598507e-05   -6.1198561779623084e-06   -2.4552084837448405e-05
3.50867638598507e-05   -6.1198561779623084e-06   -2.4552084837448405e-05
-5.62677420920711e-05   8.62234428888626e-06   -4.279204856122085e-05
-5.62677420920711e-05   8.62234428888626e-06   -4.279204856122085e-05
-5.62677420920711e-05   8.62234428888626e-06   -4.279204856122085e-05
-5.62677420920711e-05   8.62234428888626e-06   -4.279204856122085e-05
-3.830313731954563e-05   5.487372105998775e-06   -1.4732023916744096e-05
-3.830313731954563e-05   5.487372105998775e-06   -1.4732023916744096e-05
-3.830313731954563e-05   5.487372105998775e-06   -1.4732023916744096e-05
-3.830313731954563e-05   5.487372105998775e-06   -1.4732023916744096e-05
-3.816389699205688e-05   1.0429097408658238e-05   -3.6353151043164774e-05
-3.816389699205688e-05   1.0429097408658238e-05   -3.6353151043164774e-05
-3.816389699205688e-05   1.0429097408658238e-05   -3.6353151043164774e-05
-3.816389699205688e-05   1.0429097408658238e-05   -3.6353151043164774e-05
-5.458702898199165e-05   6.983422728755982e-06   -6.913859585331943e-06
-5.458702898199165e-05   6.983422728755982e-06   -6.913859585331943e-06
-5.458702898199165e-05   6.983422728755982e-06   -6.913859585331943e-06
-5.458702898199165e-05   6.983422728755982e-06   -6.913859585331943e-06
-4.4843739845156416e-05   8.302358511298085e-06   -2.3944036282916043e-05
-4.4843739845156416e-05   8.302358511298085e-06   -2.3944036282916043e-05
-4.4843739845156416e-05   8.302358511298085e-06   -2.3944036282916043e-05
-4.4843739845156416e-05   8.302358511298085e-06   -2.3944036282916043e-05
-5.458702898199165e-05   1.0429097408658238e-05   -3.42857462352233e-05
-5.458702898199165e-05   1.0429097408658238e-05   -3.42857462352233e-05
-5.458702898199165e-05   1.0429097408658238e-05   -3.42857462352233e-05
-5.458702898199165e-05   1.0429097408658238e-05   -3.42857462352233e-05
-3.816389699205693e-05   6.983422728755765e-06   -8.981264393273508e-06
-3.816389699205693e-05   6.983422728755765e-06   -8.981264393273508e-06
-3.816389699205693e-05   6.983422728755765e-06   -8.981264393273508e-06
-3.816389699205693e-05   6.983422728755765e-06   -8.981264393273508e-06
-3.787459588771474e-05   1.1222658166198051e-05   -3.169963873971948e-05
-3.787459588771474e-05   1.1222658166198051e-05   -3.169963873971948e-05
-3.787459588771474e-05   1.1222658166198051e-05   -3.169963873971948e-05
-3.787459588771474e-05   1.1222658166198051e-05   -3.169963873971948e-05
-5.333026567549119e-05   7.680180609696396e-06   -3.814702559524542e-06
-5.333026567549119e-05   7.680180609696396e-06   -3.814702559524542e-06
-5.333026567549119e-05   7.680180609696396e-06   -3.814702559524542e-06
-5.333026567549119e-05   7.680180609696396e-06   -3.814702559524542e-06
-4.484701709718765e-05   9.13709142905453e-06   -1.8827596681645514e-05
-4.484701709718765e-05   9.13709142905453e-06   -1.8827596681645514e-05
-4.484701709718765e-05   9.13709142905453e-06   -1.8827596681645514e-05
-4.484701709718765e-05   9.13709142905453e-06   -1.8827596681645514e-05
-5.333026567549119e-05   1.1222658166198051e-05   -2.9574152205818626e-05
-5.333026567549119e-05   1.1222658166198051e-05   -2.9574152205818626e-05
-5.333026567549119e-05   1.1222658166198051e-05   -2.9574152205818626e-05
-5.333026567549119e-05   1.1222658166198051e-05   -2.9574152205818626e-05
-3.787459588771482e-05   7.680180609696613e-06   -5.9401890934253414e-06
-3.787459588771482e-05   7.680180609696613e-06   -5.9401890934253414e-06
-3.787459588771482e-05   7.680180609696613e-06   -5.9401890934253414e-06
-3.787459588771482e-05   7.680180609696613e-06   -5.9401890934253414e-06
-3.775853629821131e-05   1.2002940581801245e-05   -2.5256885592073717e-05
-3.775853629821131e-05   1.2002940581801245e-05   -2.5256885592073717e-05
-3.775853629821131e-05   1.2002940581801245e-05   -2.5256885592073717e-05
-3.775853629821131e-05   1.2002940581801245e-05   -2.5256885592073717e-05
-5.1685447646378994e-05   8.555894970977253e-06   2.2860688033560228e-08
-5.1685447646378994e-05   8.555894970977253e-06   2.2860688033560228e-08
-5.1685447646378994e-05   8.555894970977253e-06   2.2860688033560228e-08
-5.1685447646378994e-05   8.555894970977253e-06   2.2860688033560228e-08
-4.352059672509379e-05   9.588843047238509e-06   -1.4204993026531909e-05
-4.352059672509379e-05   9.588843047238509e-06   -1.4204993026531909e-05
-4.352059672509379e-05   9.588843047238509e-06   -1.4204993026531909e-05
-4.352059672509379e-05   9.588843047238509e-06   -1.4204993026531909e-05
-3.8303137319545575e-05   4.298344588742325e-06   -5.4508311568960506e-05
-3.8303137319545575e-05   4.298344588742325e-06   -5.4508311568960506e-05
-3.8303137319545575e-05   4.298344588742325e-06   -5.4508311568960506e-05
-3.8303137319545575e-05   4.298344588742325e-06   -5.4508311568960506e-05
-2.2022801603873517e-05   2.8354753369077158e-06   -2.8252140260607938e-05
-2.2022801603873517e-05   2.8354753369077158e-06   -2.8252140260607938e-05
-2.2022801603873517e-05   2.8354753369077158e-06   -2.8252140260607938e-05
-2.2022801603873517e-05   2.8354753369077158e-06   -2.8252140260607938e-05
-2.203340886511033e-05   6.0750543439148106e-06   -5.404096734760945e-05
-2.203340886511033e-05   6.0750543439148106e-06   -5.404096734760945e-05
-2.203340886511033e-05   6.0750543439148106e-06   -5.404096734760945e-05
-2.203340886511033e-05   6.0750543439148106e-06   -5.404096734760945e-05
-3.816389699205688e-05   4.414698785861967e-06   -2.6160607134533464e-05
-3.816389699205688e-05   4.414698785861967e-06   -2.6160607134533464e-05
-3.816389699205688e-05   4.414698785861967e-06   -2.6160607134533464e-05
-3.816389699205688e-05   4.414698785861967e-06   -2.6160607134533464e-05
-2.985309037690211e-05   4.700645441271562e-06   -4.0183519486370565e-05
-2.985309037690211e-05   4.700645441271562e-06   -4.0183519486370565e-05
-2.985309037690211e-05   4.700645441271562e-06   -4.0183519486370565e-05
-2.985309037690211e-05   4.700645441271562e-06   -4.0183519486370565e-05
-3.816389699205685e-05   6.0750543439148106e-06   -5.3044754012777483e-05
-3.816389699205685e-05   6.0750543439148106e-06   -5.3044754012777483e-05
-3.816389699205685e-05   6.0750543439148106e-06   -5.3044754012777483e-05
-3.816389699205685e-05   6.0750543439148106e-06   -5.3044754012777483e-05
-2.203340886511033e-05   4.414698785861967e-06   -2.7156820469365105e-05
-2.203340886511033e-05   4.414698785861967e-06   -2.7156820469365105e-05
-2.203340886511033e-05   4.414698785861967e-06   -2.7156820469365105e-05
-2.203340886511033e-05   4.414698785861967e-06   -2.7156820469365105e-05
-2.20169611302928e-05   7.653198731105183e-06   -5.282963666708126e-05
-2.20169611302928e-05   7.653198731105183e-06   -5.282963666708126e-05
-2.20169611302928e-05   7.653198731105183e-06   -5.282963666708126e-05
-2.20169611302928e-05   7.653198731105183e-06   -5.282963666708126e-05
-3.787459588771474e-05   5.851395674339507e-06   -2.531916357065197e-05
-3.787459588771474e-05   5.851395674339507e-06   -2.531916357065197e-05
-3.787459588771474e-05   5.851395674339507e-06   -2.531916357065197e-05
-3.787459588771474e-05   5.851395674339507e-06   -2.531916357065197e-05
-2.9713827660615965e-05   5.997275990704673e-06   -3.9007972138968745e-05
-2.9713827660615965e-05   5.997275990704673e-06   -3.9007972138968745e-05
-2.9713827660615965e-05   5.997275990704673e-06   -3.9007972138968745e-05
-2.9713827660615965e-05   5.997275990704673e-06   -3.9007972138968745e-05
-3.787459588771474e-05   7.653198731105183e-06   -5.174855483302187e-05
-3.787459588771474e-05   7.653198731105183e-06   -5.174855483302187e-05
-3.787459588771474e-05   7.653198731105183e-06   -5.174855483302187e-05
-3.787459588771474e-05   7.653198731105183e-06   -5.174855483302187e-05
-2.201696113029284e-05   5.851395674339507e-06   -2.6400245404711327e-05
-2.201696113029284e-05   5.851395674339507e-06   -2.6400245404711327e-05
-2.201696113029284e-05   5.851395674339507e-06   -2.6400245404711327e-05
-2.201696113029284e-05   5.851395674339507e-06   -2.6400245404711327e-05
-2.203434242106981e-05   9.331618266986228e-06   -5.304247495509478e-05
-2.203434242106981e-05   9.331618266986228e-06   -5.304247495509478e-05
-2.203434242106981e-05   9.331618266986228e-06   -5.304247495509478e-05
-2.203434242106981e-05   9.331618266986228e-06   -5.304247495509478e-05
-3.775853629821134e-05   7.411659542989153e-06   -2.5683509925460504e-05
-3.775853629821134e-05   7.411659542989153e-06   -2.5683509925460504e-05
-3.775853629821134e-05   7.411659542989153e-06   -2.5683509925460504e-05
-3.775853629821134e-05   7.411659542989153e-06   -2.5683509925460504e-05
-2.9906074303230948e-05   7.279711588537019e-06   -3.869177781108977e-05
-2.9906074303230948e-05   7.279711588537019e-06   -3.869177781108977e-05
-2.9906074303230948e-05   7.279711588537019e-06   -3.869177781108977e-05
-2.9906074303230948e-05   7.279711588537019e-06   -3.869177781108977e-05
-2.2022801603873476e-05   2.286439395314836e-07   -6.015510216281889e-05
-2.2022801603873476e-05   2.286439395314836e-07   -6.015510216281889e-05
-2.2022801603873476e-05   2.286439395314836e-07   -6.015510216281889e-05
-2.2022801603873476e-05   2.286439395314836e-07   -6.015510216281889e-05
-5.970072376459911e-06   4.872264107644558e-07   -3.324540396772326e-05
-5.970072376459911e-06   4.872264107644558e-07   -3.324540396772326e-05
-5.970072376459911e-06   4.872264107644558e-07   -3.324540396772326e-05
-5.970072376459911e-06   4.872264107644558e-07   -3.324540396772326e-05
-5.981253995779911e-06   1.9772706806880534e-06   -5.949187911849171e-05
-5.981253995779911e-06   1.9772706806880534e-06   -5.949187911849171e-05
-5.981253995779911e-06   1.9772706806880534e-06   -5.949187911849171e-05
-5.981253995779911e-06   1.9772706806880534e-06   -5.949187911849171e-05
-2.2033408865110304e-05   2.0747150237382644e-06   -3.279675427543774e-05
-2.2033408865110304e-05   2.0747150237382644e-06   -3.279675427543774e-05
-2.2033408865110304e-05   2.0747150237382644e-06   -3.279675427543774e-05
-2.2033408865110304e-05   2.0747150237382644e-06   -3.279675427543774e-05
-1.3908937884587296e-05   1.3970600824951725e-06   -4.593094627823035e-05
-1.3908937884587296e-05   1.3970600824951725e-06   -4.593094627823035e-05
-1.3908937884587296e-05   1.3970600824951725e-06   -4.593094627823035e-05
-1.3908937884587296e-05   1.3970600824951725e-06   -4.593094627823035e-05
-2.2033408865110304e-05   1.9772706806880534e-06   -5.9550345724321795e-05
-2.2033408865110304e-05   1.9772706806880534e-06   -5.9550345724321795e-05
-2.2033408865110304e-05   1.9772706806880534e-06   -5.9550345724321795e-05
-2.2033408865110304e-05   1.9772706806880534e-06   -5.9550345724321795e-05
-5.981253995779911e-06   2.0747150237382644e-06   -3.2738287669607736e-05
-5.981253995779911e-06   2.0747150237382644e-06   -3.2738287669607736e-05
-5.981253995779911e-06   2.0747150237382644e-06   -3.2738287669607736e-05
-5.981253995779911e-06   2.0747150237382644e-06   -3.2738287669607736e-05
-5.9600049599113545e-06   3.7206568782459414e-06   -5.964361955096832e-05
-5.9600049599113545e-06   3.7206568782459414e-06   -5.964361955096832e-05
-5.9600049599113545e-06   3.7206568782459414e-06   -5.964361955096832e-05
-5.9600049599113545e-06   3.7206568782459414e-06   -5.964361955096832e-05
-2.20169611302928e-05   3.667273834858818e-06   -3.284999610763374e-05
-2.20169611302928e-05   3.667273834858818e-06   -3.284999610763374e-05
-2.20169611302928e-05   3.667273834858818e-06   -3.284999610763374e-05
-2.20169611302928e-05   3.667273834858818e-06   -3.284999610763374e-05
-1.4001877916294722e-05   2.7855994899944787e-06   -4.567946352404534e-05
-1.4001877916294722e-05   2.7855994899944787e-06   -4.567946352404534e-05
-1.4001877916294722e-05   2.7855994899944787e-06   -4.567946352404534e-05
-1.4001877916294722e-05   2.7855994899944787e-06   -4.567946352404534e-05
-2.20169611302928e-05   3.7206568782459414e-06   -5.96115897249362e-05
-2.20169611302928e-05   3.7206568782459414e-06   -5.96115897249362e-05
-2.20169611302928e-05   3.7206568782459414e-06   -5.96115897249362e-05
-2.20169611302928e-05   3.7206568782459414e-06   -5.96115897249362e-05
-5.960004959911364e-06   3.6672738348590347e-06   -3.2882025933665834e-05
-5.960004959911364e-06   3.6672738348590347e-06   -3.2882025933665834e-05
-5.960004959911364e-06   3.6672738348590347e-06   -3.2882025933665834e-05
-5.960004959911364e-06   3.6672738348590347e-06   -3.2882025933665834e-05
-5.969300476006587e-06   5.504602647820136e-06   -6.054575388632019e-05
-5.969300476006587e-06   5.504602647820136e-06   -6.054575388632019e-05
-5.969300476006587e-06   5.504602647820136e-06   -6.054575388632019e-05
-5.969300476006587e-06   5.504602647820136e-06   -6.054575388632019e-05
-2.2034342421069783e-05   5.2876771260462925e-06   -3.364052866481712e-05
-2.2034342421069783e-05   5.2876771260462925e-06   -3.364052866481712e-05
-2.2034342421069783e-05   5.2876771260462925e-06   -3.364052866481712e-05
-2.2034342421069783e-05   5.2876771260462925e-06   -3.364052866481712e-05
-1.412208712008026e-05   4.192371620020214e-06   -4.6170437529517255e-05
-1.412208712008026e-05   4.192371620020214e-06   -4.6170437529517255e-05
-1.412208712008026e-05   4.192371620020214e-06   -4.6170437529517255e-05
-1.412208712008026e-05   4.192371620020214e-06   -4.6170437529517255e-05
-5.970072376459901e-06   -3.599232533658416e-06   -5.326942515211869e-05
-5.970072376459901e-06   -3.599232533658416e-06   -5.326942515211869e-05
-5.970072376459901e-06   -3.599232533658416e-06   -5.326942515211869e-05
-5.970072376459901e-06   -3.599232533658416e-06   -5.326942515211869e-05
9.85112383727336e-06   -1.6606173492100633e-06   -2.5737595685227667e-05
9.85112383727336e-06   -1.6606173492100633e-06   -2.5737595685227667e-05
9.85112383727336e-06   -1.6606173492100633e-06   -2.5737595685227667e-05
9.85112383727336e-06   -1.6606173492100633e-06   -2.5737595685227667e-05
9.98037786220818e-06   -1.9967860781668458e-06   -5.2060051131149756e-05
9.98037786220818e-06   -1.9967860781668458e-06   -5.2060051131149756e-05
9.98037786220818e-06   -1.9967860781668458e-06   -5.2060051131149756e-05
9.98037786220818e-06   -1.9967860781668458e-06   -5.2060051131149756e-05
-5.981253995779911e-06   -1.656712784005917e-07   -2.6556000247696186e-05
-5.981253995779911e-06   -1.656712784005917e-07   -2.6556000247696186e-05
-5.981253995779911e-06   -1.656712784005917e-07   -2.6556000247696186e-05
-5.981253995779911e-06   -1.656712784005917e-07   -2.6556000247696186e-05
1.9790321319700338e-06   -1.7176403692604775e-06   -3.889196233943011e-05
1.9790321319700338e-06   -1.7176403692604775e-06   -3.889196233943011e-05
1.9790321319700338e-06   -1.7176403692604775e-06   -3.889196233943011e-05
1.9790321319700338e-06   -1.7176403692604775e-06   -3.889196233943011e-05
-5.981253995779911e-06   -1.9967860781668458e-06   -5.315872001100967e-05
-5.981253995779911e-06   -1.9967860781668458e-06   -5.315872001100967e-05
-5.981253995779911e-06   -1.9967860781668458e-06   -5.315872001100967e-05
-5.981253995779911e-06   -1.9967860781668458e-06   -5.315872001100967e-05
9.980377862208207e-06   -1.6567127840037485e-07   -2.545733136783638e-05
9.980377862208207e-06   -1.6567127840037485e-07   -2.545733136783638e-05
9.980377862208207e-06   -1.6567127840037485e-07   -2.545733136783638e-05
9.980377862208207e-06   -1.6567127840037485e-07   -2.545733136783638e-05
1.0284494095122928e-05   -4.2184454880622984e-07   -5.315644563480819e-05
1.0284494095122928e-05   -4.2184454880622984e-07   -5.315644563480819e-05
1.0284494095122928e-05   -4.2184454880622984e-07   -5.315644563480819e-05
1.0284494095122928e-05   -4.2184454880622984e-07   -5.315644563480819e-05
-5.960004959911364e-06   1.2728059860082647e-06   -2.7099070863973045e-05
-5.960004959911364e-06   1.2728059860082647e-06   -2.7099070863973045e-05
-5.960004959911364e-06   1.2728059860082647e-06   -2.7099070863973045e-05
-5.960004959911364e-06   1.2728059860082647e-06   -2.7099070863973045e-05
1.8876163922244626e-06   -4.7407650707691467e-07   -3.9130310288348414e-05
1.8876163922244626e-06   -4.7407650707691467e-07   -3.9130310288348414e-05
1.8876163922244626e-06   -4.7407650707691467e-07   -3.9130310288348414e-05
1.8876163922244626e-06   -4.7407650707691467e-07   -3.9130310288348414e-05
-5.96000495991136e-06   -4.2184454880622984e-07   -5.417323595569674e-05
-5.96000495991136e-06   -4.2184454880622984e-07   -5.417323595569674e-05
-5.96000495991136e-06   -4.2184454880622984e-07   -5.417323595569674e-05
-5.96000495991136e-06   -4.2184454880622984e-07   -5.417323595569674e-05
1.0284494095122955e-05   1.2728059860082647e-06   -2.6082280543084286e-05
1.0284494095122955e-05   1.2728059860082647e-06   -2.6082280543084286e-05
1.0284494095122955e-05   1.2728059860082647e-06   -2.6082280543084286e-05
1.0284494095122955e-05   1.2728059860082647e-06   -2.6082280543084286e-05
1.0433203193334052e-05   1.419967665828659e-06   -5.4723645110189996e-05
1.0433203193334052e-05   1.419967665828659e-06   -5.4723645110189996e-05
1.0433203193334052e-05   1.419967665828659e-06   -5.4723645110189996e-05
1.0433203193334052e-05   1.419967665828659e-06   -5.4723645110189996e-05
-5.9693004760065766e-06   2.9218231411096574e-06   -2.8287252279790756e-05
-5.9693004760065766e-06   2.9218231411096574e-06   -2.8287252279790756e-05
-5.9693004760065766e-06   2.9218231411096574e-06   -2.8287252279790756e-05
-5.9693004760065766e-06   2.9218231411096574e-06   -2.8287252279790756e-05
1.942826368487724e-06   8.564226748324511e-07   -4.0234890074181535e-05
1.942826368487724e-06   8.564226748324511e-07   -4.0234890074181535e-05
1.942826368487724e-06   8.564226748324511e-07   -4.0234890074181535e-05
1.942826368487724e-06   8.564226748324511e-07   -4.0234890074181535e-05
9.851123837273346e-06   -6.530256369499448e-06   -2.9272168961599323e-05
9.851123837273346e-06   -6.530256369499448e-06   -2.9272168961599323e-05
9.851123837273346e-06   -6.530256369499448e-06   -2.9272168961599323e-05
9.851123837273346e-06   -6.530256369499448e-06   -2.9272168961599323e-05
2.3910227616119996e-05   -3.0532681911709172e-06   -3.754136423190905e-06
2.3910227616119996e-05   -3.0532681911709172e-06   -3.754136423190905e-06
2.3910227616119996e-05   -3.0532681911709172e-06   -3.754136423190905e-06
2.3910227616119996e-05   -3.0532681911709172e-06   -3.754136423190905e-06
2.5577386739205645e-05   -5.6074351047268e-06   -3.074376934051676e-05
2.5577386739205645e-05   -5.6074351047268e-06   -3.074376934051676e-05
2.5577386739205645e-05   -5.6074351047268e-06   -3.074376934051676e-05
2.5577386739205645e-05   -5.6074351047268e-06   -3.074376934051676e-05
9.980377862208194e-06   -2.0411102121052193e-06   -6.888549481093932e-06
9.980377862208194e-06   -2.0411102121052193e-06   -6.888549481093932e-06
9.980377862208194e-06   -2.0411102121052193e-06   -6.888549481093932e-06
9.980377862208194e-06   -2.0411102121052193e-06   -6.888549481093932e-06
1.6590854609898333e-05   -4.174621946374303e-06   -1.6625903686682652e-05
1.6590854609898333e-05   -4.174621946374303e-06   -1.6625903686682652e-05
1.6590854609898333e-05   -4.174621946374303e-06   -1.6625903686682652e-05
1.6590854609898333e-05   -4.174621946374303e-06   -1.6625903686682652e-05
9.98037786220818e-06   -5.607435104726909e-06   -3.2883564276089386e-05
9.98037786220818e-06   -5.607435104726909e-06   -3.2883564276089386e-05
9.98037786220818e-06   -5.607435104726909e-06   -3.2883564276089386e-05
9.98037786220818e-06   -5.607435104726909e-06   -3.2883564276089386e-05
2.5577386739205563e-05   -2.041110212105436e-06   -4.748754545521065e-06
2.5577386739205563e-05   -2.041110212105436e-06   -4.748754545521065e-06
2.5577386739205563e-05   -2.041110212105436e-06   -4.748754545521065e-06
2.5577386739205563e-05   -2.041110212105436e-06   -4.748754545521065e-06
2.6860322528829867e-05   -4.815307436056241e-06   -3.371577522908725e-05
2.6860322528829867e-05   -4.815307436056241e-06   -3.371577522908725e-05
2.6860322528829867e-05   -4.815307436056241e-06   -3.371577522908725e-05
2.6860322528829867e-05   -4.815307436056241e-06   -3.371577522908725e-05
1.0284494095122955e-05   -1.3419909062548085e-06   -8.173384424123303e-06
1.0284494095122955e-05   -1.3419909062548085e-06   -8.173384424123303e-06
1.0284494095122955e-05   -1.3419909062548085e-06   -8.173384424123303e-06
1.0284494095122955e-05   -1.3419909062548085e-06   -8.173384424123303e-06
1.761040462790583e-05   -3.6550315989644167e-06   -1.899541089646898e-05
1.761040462790583e-05   -3.6550315989644167e-06   -1.899541089646898e-05
1.761040462790583e-05   -3.6550315989644167e-06   -1.899541089646898e-05
1.761040462790583e-05   -3.6550315989644167e-06   -1.899541089646898e-05
1.0284494095122942e-05   -4.8153074360563495e-06   -3.5799765146968016e-05
1.0284494095122942e-05   -4.8153074360563495e-06   -3.5799765146968016e-05
1.0284494095122942e-05   -4.8153074360563495e-06   -3.5799765146968016e-05
1.0284494095122942e-05   -4.8153074360563495e-06   -3.5799765146968016e-05
2.6860322528829785e-05   -1.3419909062548085e-06   -6.089394506242265e-06
2.6860322528829785e-05   -1.3419909062548085e-06   -6.089394506242265e-06
2.6860322528829785e-05   -1.3419909062548085e-06   -6.089394506242265e-06
2.6860322528829785e-05   -1.3419909062548085e-06   -6.089394506242265e-06
2.8564846029194123e-05   -3.1226618322871503e-06   -3.941397927538943e-05
2.8564846029194123e-05   -3.1226618322871503e-06   -3.941397927538943e-05
2.8564846029194123e-05   -3.1226618322871503e-06   -3.941397927538943e-05
2.8564846029194123e-05   -3.1226618322871503e-06   -3.941397927538943e-05
1.043320319333408e-05   3.3051197831325194e-08   -1.1088002367026957e-05
1.043320319333408e-05   3.3051197831325194e-08   -1.1088002367026957e-05
1.043320319333408e-05   3.3051197831325194e-08   -1.1088002367026957e-05
1.043320319333408e-05   3.3051197831325194e-08   -1.1088002367026957e-05
1.794876457260179e-05   -2.8810922701984687e-06   -2.1865451918322027e-05
1.794876457260179e-05   -2.8810922701984687e-06   -2.1865451918322027e-05
1.794876457260179e-05   -2.8810922701984687e-06   -2.1865451918322027e-05
1.794876457260179e-05   -2.8810922701984687e-06   -2.1865451918322027e-05
-3.408053810814124e-05   5.487372105998775e-06   -3.192577584883356e-05
-3.408053810814124e-05   5.487372105998775e-06   -3.192577584883356e-05
-3.408053810814124e-05   5.487372105998775e-06   -3.192577584883356e-05
-3.408053810814124e-05   5.487372105998775e-06   -3.192577584883356e-05
-2.515423942970978e-05   2.2374268539920254e-06   -1.899857853598531e-05
-2.515423942970978e-05   2.2374268539920254e-06   -1.899857853598531e-05
-2.515423942970978e-05   2.2374268539920254e-06   -1.899857853598531e-05
-2.515423942970978e-05   2.2374268539920254e-06   -1.899857853598531e-05
-2.478371132577626e-05   6.983422728755765e-06   -2.8164239341216344e-05
-2.478371132577626e-05   6.983422728755765e-06   -2.8164239341216344e-05
-2.478371132577626e-05   6.983422728755765e-06   -2.8164239341216344e-05
-2.478371132577626e-05   6.983422728755765e-06   -2.8164239341216344e-05
-3.2229947662735224e-05   3.482657519529239e-06   -1.3653386320748367e-05
-3.2229947662735224e-05   3.482657519529239e-06   -1.3653386320748367e-05
-3.2229947662735224e-05   3.482657519529239e-06   -1.3653386320748367e-05
-3.2229947662735224e-05   3.482657519529239e-06   -1.3653386320748367e-05
-2.783078141134661e-05   4.921835324801695e-06   -2.184883675622755e-05
-2.783078141134661e-05   4.921835324801695e-06   -2.184883675622755e-05
-2.783078141134661e-05   4.921835324801695e-06   -2.184883675622755e-05
-2.783078141134661e-05   4.921835324801695e-06   -2.184883675622755e-05
-3.2229947662735224e-05   6.983422728755765e-06   -2.6063780215680363e-05
-3.2229947662735224e-05   6.983422728755765e-06   -2.6063780215680363e-05
-3.2229947662735224e-05   6.983422728755765e-06   -2.6063780215680363e-05
-3.2229947662735224e-05   6.983422728755765e-06   -2.6063780215680363e-05
-2.4783711325776313e-05   3.482657519529239e-06   -1.5753845446284456e-05
-2.4783711325776313e-05   3.482657519529239e-06   -1.5753845446284456e-05
-2.4783711325776313e-05   3.482657519529239e-06   -1.5753845446284456e-05
-2.4783711325776313e-05   3.482657519529239e-06   -1.5753845446284456e-05
-2.4255052840294224e-05   7.680180609696396e-06   -2.514937508837304e-05
-2.4255052840294224e-05   7.680180609696396e-06   -2.514937508837304e-05
-2.4255052840294224e-05   7.680180609696396e-06   -2.514937508837304e-05
-2.4255052840294224e-05   7.680180609696396e-06   -2.514937508837304e-05
-3.07532984036185e-05   4.111507952967233e-06   -1.2177762222128122e-05
-3.07532984036185e-05   4.111507952967233e-06   -1.2177762222128122e-05
-3.07532984036185e-05   4.111507952967233e-06   -1.2177762222128122e-05
-3.07532984036185e-05   4.111507952967233e-06   -1.2177762222128122e-05
-2.73424360149283e-05   5.593627507019788e-06   -1.8751804602376815e-05
-2.73424360149283e-05   5.593627507019788e-06   -1.8751804602376815e-05
-2.73424360149283e-05   5.593627507019788e-06   -1.8751804602376815e-05
-2.73424360149283e-05   5.593627507019788e-06   -1.8751804602376815e-05
-3.075329840361845e-05   7.680180609696396e-06   -2.300817149433526e-05
-3.075329840361845e-05   7.680180609696396e-06   -2.300817149433526e-05
-3.075329840361845e-05   7.680180609696396e-06   -2.300817149433526e-05
-3.075329840361845e-05   7.680180609696396e-06   -2.300817149433526e-05
-2.4255052840294278e-05   4.111507952967233e-06   -1.4318965816165685e-05
-2.4255052840294278e-05   4.111507952967233e-06   -1.4318965816165685e-05
-2.4255052840294278e-05   4.111507952967233e-06   -1.4318965816165685e-05
-2.4255052840294278e-05   4.111507952967233e-06   -1.4318965816165685e-05
-2.389443625441467e-05   8.555894970977253e-06   -2.1281055544543088e-05
-2.389443625441467e-05   8.555894970977253e-06   -2.1281055544543088e-05
-2.389443625441467e-05   8.555894970977253e-06   -2.1281055544543088e-05
-2.389443625441467e-05   8.555894970977253e-06   -2.1281055544543088e-05
-2.8872875600917717e-05   5.107486783713236e-06   -1.0914611721346101e-05
-2.8872875600917717e-05   5.107486783713236e-06   -1.0914611721346101e-05
-2.8872875600917717e-05   5.107486783713236e-06   -1.0914611721346101e-05
-2.8872875600917717e-05   5.107486783713236e-06   -1.0914611721346101e-05
-2.6064442287063527e-05   6.058898187515874e-06   -1.6166180753385316e-05
-2.6064442287063527e-05   6.058898187515874e-06   -1.6166180753385316e-05
-2.6064442287063527e-05   6.058898187515874e-06   -1.6166180753385316e-05
-2.6064442287063527e-05   6.058898187515874e-06   -1.6166180753385316e-05
-2.515423942970978e-05   2.8354753369077158e-06   -4.6518137792800666e-05
-2.515423942970978e-05   2.8354753369077158e-06   -4.6518137792800666e-05
-2.515423942970978e-05   2.8354753369077158e-06   -4.6518137792800666e-05
-2.515423942970978e-05   2.8354753369077158e-06   -4.6518137792800666e-05
-1.790271132615273e-05   1.2829117416652581e-06   -3.536379577735098e-05
-1.790271132615273e-05   1.2829117416652581e-06   -3.536379577735098e-05
-1.790271132615273e-05   1.2829117416652581e-06   -3.536379577735098e-05
-1.790271132615273e-05   1.2829117416652581e-06   -3.536379577735098e-05
-1.7659722865792806e-05   4.414698785862184e-06   -4.636604317197516e-05
-1.7659722865792806e-05   4.414698785862184e-06   -4.636604317197516e-05
-1.7659722865792806e-05   4.414698785862184e-06   -4.636604317197516e-05
-1.7659722865792806e-05   4.414698785862184e-06   -4.636604317197516e-05
-2.4783711325776367e-05   2.7105969700304353e-06   -3.3470267982503284e-05
-2.4783711325776367e-05   2.7105969700304353e-06   -3.3470267982503284e-05
-2.4783711325776367e-05   2.7105969700304353e-06   -3.3470267982503284e-05
-2.4783711325776367e-05   2.7105969700304353e-06   -3.3470267982503284e-05
-2.1166722226688204e-05   3.0844466868966587e-06   -3.972289297777095e-05
-2.1166722226688204e-05   3.0844466868966587e-06   -3.972289297777095e-05
-2.1166722226688204e-05   3.0844466868966587e-06   -3.972289297777095e-05
-2.1166722226688204e-05   3.0844466868966587e-06   -3.972289297777095e-05
-2.478371132577626e-05   4.414698785862184e-06   -4.534358208247585e-05
-2.478371132577626e-05   4.414698785862184e-06   -4.534358208247585e-05
-2.478371132577626e-05   4.414698785862184e-06   -4.534358208247585e-05
-2.478371132577626e-05   4.414698785862184e-06   -4.534358208247585e-05
-1.7659722865792806e-05   2.7105969700304353e-06   -3.4492729072002376e-05
-1.7659722865792806e-05   2.7105969700304353e-06   -3.4492729072002376e-05
-1.7659722865792806e-05   2.7105969700304353e-06   -3.4492729072002376e-05
-1.7659722865792806e-05   2.7105969700304353e-06   -3.4492729072002376e-05
-1.7391416264971057e-05   5.851395674339507e-06   -4.5616467587409064e-05
-1.7391416264971057e-05   5.851395674339507e-06   -4.5616467587409064e-05
-1.7391416264971057e-05   5.851395674339507e-06   -4.5616467587409064e-05
-1.7391416264971057e-05   5.851395674339507e-06   -4.5616467587409064e-05
-2.4255052840294305e-05   4.0378656379902456e-06   -3.308895527339399e-05
-2.4255052840294305e-05   4.0378656379902456e-06   -3.308895527339399e-05
-2.4255052840294305e-05   4.0378656379902456e-06   -3.308895527339399e-05
-2.4255052840294305e-05   4.0378656379902456e-06   -3.308895527339399e-05
-2.0847389079577136e-05   4.23849065433286e-06   -3.888876988439462e-05
-2.0847389079577136e-05   4.23849065433286e-06   -3.888876988439462e-05
-2.0847389079577136e-05   4.23849065433286e-06   -3.888876988439462e-05
-2.0847389079577136e-05   4.23849065433286e-06   -3.888876988439462e-05
-2.4255052840294224e-05   5.851395674339507e-06   -4.45283495655994e-05
-2.4255052840294224e-05   5.851395674339507e-06   -4.45283495655994e-05
-2.4255052840294224e-05   5.851395674339507e-06   -4.45283495655994e-05
-2.4255052840294224e-05   5.851395674339507e-06   -4.45283495655994e-05
-1.739141626497103e-05   4.0378656379902456e-06   -3.417707329520344e-05
-1.739141626497103e-05   4.0378656379902456e-06   -3.417707329520344e-05
-1.739141626497103e-05   4.0378656379902456e-06   -3.417707329520344e-05
-1.739141626497103e-05   4.0378656379902456e-06   -3.417707329520344e-05
-1.7152658525638724e-05   7.41165954298937e-06   -4.6058730326992104e-05
-1.7152658525638724e-05   7.41165954298937e-06   -4.6058730326992104e-05
-1.7152658525638724e-05   7.41165954298937e-06   -4.6058730326992104e-05
-1.7152658525638724e-05   7.41165954298937e-06   -4.6058730326992104e-05
-2.3894436254414726e-05   5.51244031724062e-06   -3.368290257691598e-05
-2.3894436254414726e-05   5.51244031724062e-06   -3.368290257691598e-05
-2.3894436254414726e-05   5.51244031724062e-06   -3.368290257691598e-05
-2.3894436254414726e-05   5.51244031724062e-06   -3.368290257691598e-05
-2.072218127194538e-05   5.407114721333803e-06   -3.890679885682109e-05
-2.072218127194538e-05   5.407114721333803e-06   -3.890679885682109e-05
-2.072218127194538e-05   5.407114721333803e-06   -3.890679885682109e-05
-2.072218127194538e-05   5.407114721333803e-06   -3.890679885682109e-05
-1.7902711326152676e-05   4.872264107644558e-07   -5.259808913980117e-05
-1.7902711326152676e-05   4.872264107644558e-07   -5.259808913980117e-05
-1.7902711326152676e-05   4.872264107644558e-07   -5.259808913980117e-05
-1.7902711326152676e-05   4.872264107644558e-07   -5.259808913980117e-05
-1.0837465119495141e-05   7.341805351639228e-07   -4.0674506320732286e-05
-1.0837465119495141e-05   7.341805351639228e-07   -4.0674506320732286e-05
-1.0837465119495141e-05   7.341805351639228e-07   -4.0674506320732286e-05
-1.0837465119495141e-05   7.341805351639228e-07   -4.0674506320732286e-05
-1.060056509499376e-05   2.0747150237382644e-06   -5.193799489907496e-05
-1.060056509499376e-05   2.0747150237382644e-06   -5.193799489907496e-05
-1.060056509499376e-05   2.0747150237382644e-06   -5.193799489907496e-05
-1.060056509499376e-05   2.0747150237382644e-06   -5.193799489907496e-05
-1.7659722865792806e-05   2.1880184886931883e-06   -4.02407140267158e-05
-1.7659722865792806e-05   2.1880184886931883e-06   -4.02407140267158e-05
-1.7659722865792806e-05   2.1880184886931883e-06   -4.02407140267158e-05
-1.7659722865792806e-05   2.1880184886931883e-06   -4.02407140267158e-05
-1.4158835474375438e-05   1.573263872861868e-06   -4.570667357624682e-05
-1.4158835474375438e-05   1.573263872861868e-06   -4.570667357624682e-05
-1.4158835474375438e-05   1.573263872861868e-06   -4.570667357624682e-05
-1.4158835474375438e-05   1.573263872861868e-06   -4.570667357624682e-05
-1.765972286579278e-05   2.0747150237380475e-06   -5.2005976978047766e-05
-1.765972286579278e-05   2.0747150237380475e-06   -5.2005976978047766e-05
-1.765972286579278e-05   2.0747150237380475e-06   -5.2005976978047766e-05
-1.765972286579278e-05   2.0747150237380475e-06   -5.2005976978047766e-05
-1.060056509499376e-05   2.1880184886931883e-06   -4.017273194774297e-05
-1.060056509499376e-05   2.1880184886931883e-06   -4.017273194774297e-05
-1.060056509499376e-05   2.1880184886931883e-06   -4.017273194774297e-05
-1.060056509499376e-05   2.1880184886931883e-06   -4.017273194774297e-05
-1.0334191190341993e-05   3.667273834858818e-06   -5.2073819106834146e-05
-1.0334191190341993e-05   3.667273834858818e-06   -5.2073819106834146e-05
-1.0334191190341993e-05   3.667273834858818e-06   -5.2073819106834146e-05
-1.0334191190341993e-05   3.667273834858818e-06   -5.2073819106834146e-05
-1.739141626497103e-05   3.654605807354005e-06   -4.0304176499282704e-05
-1.739141626497103e-05   3.654605807354005e-06   -4.0304176499282704e-05
-1.739141626497103e-05   3.654605807354005e-06   -4.0304176499282704e-05
-1.739141626497103e-05   3.654605807354005e-06   -4.0304176499282704e-05
-1.3999727381325766e-05   2.822154747694457e-06   -4.5457520669562365e-05
-1.3999727381325766e-05   2.822154747694457e-06   -4.5457520669562365e-05
-1.3999727381325766e-05   2.822154747694457e-06   -4.5457520669562365e-05
-1.3999727381325766e-05   2.822154747694457e-06   -4.5457520669562365e-05
-1.7391416264971003e-05   3.667273834858818e-06   -5.206621829033137e-05
-1.7391416264971003e-05   3.667273834858818e-06   -5.206621829033137e-05
-1.7391416264971003e-05   3.667273834858818e-06   -5.206621829033137e-05
-1.7391416264971003e-05   3.667273834858818e-06   -5.206621829033137e-05
-1.0334191190342012e-05   3.6546058073542217e-06   -4.0311777315785646e-05
-1.0334191190342012e-05   3.6546058073542217e-06   -4.0311777315785646e-05
-1.0334191190342012e-05   3.6546058073542217e-06   -4.0311777315785646e-05
-1.0334191190342012e-05   3.6546058073542217e-06   -4.0311777315785646e-05
-1.0094829468609192e-05   5.2876771260462925e-06   -5.2950393445786e-05
-1.0094829468609192e-05   5.2876771260462925e-06   -5.2950393445786e-05
-1.0094829468609192e-05   5.2876771260462925e-06   -5.2950393445786e-05
-1.0094829468609192e-05   5.2876771260462925e-06   -5.2950393445786e-05
-1.7152658525638738e-05   5.1433111029871095e-06   -4.110072540356745e-05
-1.7152658525638738e-05   5.1433111029871095e-06   -4.110072540356745e-05
-1.7152658525638738e-05   5.1433111029871095e-06   -4.110072540356745e-05
-1.7152658525638738e-05   5.1433111029871095e-06   -4.110072540356745e-05
-1.3868036296379788e-05   4.087644599767067e-06   -4.594169588373407e-05
-1.3868036296379788e-05   4.087644599767067e-06   -4.594169588373407e-05
-1.3868036296379788e-05   4.087644599767067e-06   -4.594169588373407e-05
-1.3868036296379788e-05   4.087644599767067e-06   -4.594169588373407e-05
-1.0837465119495102e-05   -1.6606173492100633e-06   -4.61052774933349e-05
-1.0837465119495102e-05   -1.6606173492100633e-06   -4.61052774933349e-05
-1.0837465119495102e-05   -1.6606173492100633e-06   -4.61052774933349e-05
-1.0837465119495102e-05   -1.6606173492100633e-06   -4.61052774933349e-05
-3.983614763658781e-06   3.118846637231547e-07   -3.349869235918124e-05
-3.983614763658781e-06   3.118846637231547e-07   -3.349869235918124e-05
-3.983614763658781e-06   3.118846637231547e-07   -3.349869235918124e-05
-3.983614763658781e-06   3.118846637231547e-07   -3.349869235918124e-05
-3.630026368355542e-06   -1.656712784005917e-07   -4.4624338600749705e-05
-3.630026368355542e-06   -1.656712784005917e-07   -4.4624338600749705e-05
-3.630026368355542e-06   -1.656712784005917e-07   -4.4624338600749705e-05
-3.630026368355542e-06   -1.656712784005917e-07   -4.4624338600749705e-05
-1.060056509499374e-05   1.719943515622038e-06   -3.4138142932765935e-05
-1.060056509499374e-05   1.719943515622038e-06   -3.4138142932765935e-05
-1.060056509499374e-05   1.719943515622038e-06   -3.4138142932765935e-05
-1.060056509499374e-05   1.719943515622038e-06   -3.4138142932765935e-05
-7.189648532702015e-06   1.9847917661665326e-07   -3.891012526651631e-05
-7.189648532702015e-06   1.9847917661665326e-07   -3.891012526651631e-05
-7.189648532702015e-06   1.9847917661665326e-07   -3.891012526651631e-05
-7.189648532702015e-06   1.9847917661665326e-07   -3.891012526651631e-05
-1.0600565094993723e-05   -1.6567127840037485e-07   -4.5755707477163196e-05
-1.0600565094993723e-05   -1.6567127840037485e-07   -4.5755707477163196e-05
-1.0600565094993723e-05   -1.6567127840037485e-07   -4.5755707477163196e-05
-1.0600565094993723e-05   -1.6567127840037485e-07   -4.5755707477163196e-05
-3.630026368355542e-06   1.719943515622038e-06   -3.300677405635268e-05
-3.630026368355542e-06   1.719943515622038e-06   -3.300677405635268e-05
-3.630026368355542e-06   1.719943515622038e-06   -3.300677405635268e-05
-3.630026368355542e-06   1.719943515622038e-06   -3.300677405635268e-05
-3.105653303468159e-06   1.2728059860082647e-06   -4.5226318551889176e-05
-3.105653303468159e-06   1.2728059860082647e-06   -4.5226318551889176e-05
-3.105653303468159e-06   1.2728059860082647e-06   -4.5226318551889176e-05
-3.105653303468159e-06   1.2728059860082647e-06   -4.5226318551889176e-05
-1.0334191190341993e-05   3.0470484614281753e-06   -3.4243300892351315e-05
-1.0334191190341993e-05   3.0470484614281753e-06   -3.4243300892351315e-05
-1.0334191190341993e-05   3.0470484614281753e-06   -3.4243300892351315e-05
-1.0334191190341993e-05   3.0470484614281753e-06   -3.4243300892351315e-05
-6.975679258154902e-06   1.335197177432029e-06   -3.88137100089323e-05
-6.975679258154902e-06   1.335197177432029e-06   -3.88137100089323e-05
-6.975679258154902e-06   1.335197177432029e-06   -3.88137100089323e-05
-6.975679258154902e-06   1.335197177432029e-06   -3.88137100089323e-05
-1.0334191190341966e-05   1.2728059860082647e-06   -4.629086403714082e-05
-1.0334191190341966e-05   1.2728059860082647e-06   -4.629086403714082e-05
-1.0334191190341966e-05   1.2728059860082647e-06   -4.629086403714082e-05
-1.0334191190341966e-05   1.2728059860082647e-06   -4.629086403714082e-05
-3.105653303468159e-06   3.0470484614281753e-06   -3.317875540709942e-05
-3.105653303468159e-06   3.0470484614281753e-06   -3.317875540709942e-05
-3.105653303468159e-06   3.0470484614281753e-06   -3.317875540709942e-05
-3.105653303468159e-06   3.0470484614281753e-06   -3.317875540709942e-05
-2.7394341822059646e-06   2.9218231411094406e-06   -4.649129600226725e-05
-2.7394341822059646e-06   2.9218231411094406e-06   -4.649129600226725e-05
-2.7394341822059646e-06   2.9218231411094406e-06   -4.649129600226725e-05
-2.7394341822059646e-06   2.9218231411094406e-06   -4.649129600226725e-05
-1.0094829468609192e-05   4.547932716822975e-06   -3.52079696036897e-05
-1.0094829468609192e-05   4.547932716822975e-06   -3.52079696036897e-05
-1.0094829468609192e-05   4.547932716822975e-06   -3.52079696036897e-05
-1.0094829468609192e-05   4.547932716822975e-06   -3.52079696036897e-05
-6.751583127344438e-06   2.5268724844823218e-06   -3.956741069972673e-05
-6.751583127344438e-06   2.5268724844823218e-06   -3.956741069972673e-05
-6.751583127344438e-06   2.5268724844823218e-06   -3.956741069972673e-05
-6.751583127344438e-06   2.5268724844823218e-06   -3.956741069972673e-05
-3.983614763658768e-06   -3.0532681911709172e-06   -2.5024509930535632e-05
-3.983614763658768e-06   -3.0532681911709172e-06   -2.5024509930535632e-05
-3.983614763658768e-06   -3.0532681911709172e-06   -2.5024509930535632e-05
-3.983614763658768e-06   -3.0532681911709172e-06   -2.5024509930535632e-05
1.093731480983584e-06   4.3032242119634377e-07   -1.4472111822044862e-05
1.093731480983584e-06   4.3032242119634377e-07   -1.4472111822044862e-05
1.093731480983584e-06   4.3032242119634377e-07   -1.4472111822044862e-05
1.093731480983584e-06   4.3032242119634377e-07   -1.4472111822044862e-05
2.955520416597201e-06   -2.041110212105436e-06   -2.3905116347978353e-05
2.955520416597201e-06   -2.041110212105436e-06   -2.3905116347978353e-05
2.955520416597201e-06   -2.041110212105436e-06   -2.3905116347978353e-05
2.955520416597201e-06   -2.041110212105436e-06   -2.3905116347978353e-05
-3.630026368355542e-06   1.5429570646096312e-06   -1.5079645405752424e-05
-3.630026368355542e-06   1.5429570646096312e-06   -1.5079645405752424e-05
-3.630026368355542e-06   1.5429570646096312e-06   -1.5079645405752424e-05
-3.630026368355542e-06   1.5429570646096312e-06   -1.5079645405752424e-05
-8.684953027965925e-07   -6.297830793253797e-07   -1.8378553095323657e-05
-8.684953027965925e-07   -6.297830793253797e-07   -1.8378553095323657e-05
-8.684953027965925e-07   -6.297830793253797e-07   -1.8378553095323657e-05
-8.684953027965925e-07   -6.297830793253797e-07   -1.8378553095323657e-05
-3.6300263683555284e-06   -2.041110212105436e-06   -2.6055556714007122e-05
-3.6300263683555284e-06   -2.041110212105436e-06   -2.6055556714007122e-05
-3.6300263683555284e-06   -2.041110212105436e-06   -2.6055556714007122e-05
-3.6300263683555284e-06   -2.041110212105436e-06   -2.6055556714007122e-05
2.955520416597201e-06   1.5429570646094144e-06   -1.2929205039723547e-05
2.955520416597201e-06   1.5429570646094144e-06   -1.2929205039723547e-05
2.955520416597201e-06   1.5429570646094144e-06   -1.2929205039723547e-05
2.955520416597201e-06   1.5429570646094144e-06   -1.2929205039723547e-05
4.425491891631525e-06   -1.3419909062548085e-06   -2.521091665572432e-05
4.425491891631525e-06   -1.3419909062548085e-06   -2.521091665572432e-05
4.425491891631525e-06   -1.3419909062548085e-06   -2.521091665572432e-05
4.425491891631525e-06   -1.3419909062548085e-06   -2.521091665572432e-05
-3.105653303468159e-06   2.168852055751567e-06   -1.4765513774428544e-05
-3.105653303468159e-06   2.168852055751567e-06   -1.4765513774428544e-05
-3.105653303468159e-06   2.168852055751567e-06   -1.4765513774428544e-05
-3.105653303468159e-06   2.168852055751567e-06   -1.4765513774428544e-05
7.719697237951428e-08   -9.730665155994848e-08   -1.8710569009787762e-05
7.719697237951428e-08   -9.730665155994848e-08   -1.8710569009787762e-05
7.719697237951428e-08   -9.730665155994848e-08   -1.8710569009787762e-05
7.719697237951428e-08   -9.730665155994848e-08   -1.8710569009787762e-05
-3.105653303468159e-06   -1.3419909062548085e-06   -2.7317422432928166e-05
-3.105653303468159e-06   -1.3419909062548085e-06   -2.7317422432928166e-05
-3.105653303468159e-06   -1.3419909062548085e-06   -2.7317422432928166e-05
-3.105653303468159e-06   -1.3419909062548085e-06   -2.7317422432928166e-05
4.425491891631525e-06   2.168852055751567e-06   -1.2659007997224778e-05
4.425491891631525e-06   2.168852055751567e-06   -1.2659007997224778e-05
4.425491891631525e-06   2.168852055751567e-06   -1.2659007997224778e-05
4.425491891631525e-06   2.168852055751567e-06   -1.2659007997224778e-05
6.279739805539758e-06   3.3051197831542034e-08   -2.8245287264938113e-05
6.279739805539758e-06   3.3051197831542034e-08   -2.8245287264938113e-05
6.279739805539758e-06   3.3051197831542034e-08   -2.8245287264938113e-05
6.279739805539758e-06   3.3051197831542034e-08   -2.8245287264938113e-05
-2.739434182205978e-06   3.279504714054967e-06   -1.5161202728428933e-05
-2.739434182205978e-06   3.279504714054967e-06   -1.5161202728428933e-05
-2.739434182205978e-06   3.279504714054967e-06   -1.5161202728428933e-05
-2.739434182205978e-06   3.279504714054967e-06   -1.5161202728428933e-05
8.89044962555622e-07   5.111935871134846e-07   -1.9547681293533817e-05
8.89044962555622e-07   5.111935871134846e-07   -1.9547681293533817e-05
8.89044962555622e-07   5.111935871134846e-07   -1.9547681293533817e-05
8.89044962555622e-07   5.111935871134846e-07   -1.9547681293533817e-05
-1.189229740591912e-05   2.2374268539920254e-06   -2.1295088856829072e-05
-1.189229740591912e-05   2.2374268539920254e-06   -2.1295088856829072e-05
-1.189229740591912e-05   2.2374268539920254e-06   -2.1295088856829072e-05
-1.189229740591912e-05   2.2374268539920254e-06   -2.1295088856829072e-05
-1.2033539103443959e-05   -1.0377812720140534e-06   -2.3495616561640777e-05
-1.2033539103443959e-05   -1.0377812720140534e-06   -2.3495616561640777e-05
-1.2033539103443959e-05   -1.0377812720140534e-06   -2.3495616561640777e-05
-1.2033539103443959e-05   -1.0377812720140534e-06   -2.3495616561640777e-05
-1.1429715954457207e-05   3.4826575195290223e-06   -2.000782969456159e-05
-1.1429715954457207e-05   3.4826575195290223e-06   -2.000782969456159e-05
-1.1429715954457207e-05   3.4826575195290223e-06   -2.000782969456159e-05
-1.1429715954457207e-05   3.4826575195290223e-06   -2.000782969456159e-05
-9.818028698277783e-06   -3.0072661962639996e-08   -2.058633701263184e-05
-9.818028698277783e-06   -3.0072661962639996e-08   -2.058633701263184e-05
-9.818028698277783e-06   -3.0072661962639996e-08   -2.058633701263184e-05
-9.818028698277783e-06   -3.0072661962639996e-08   -2.058633701263184e-05
-1.0799694545312244e-05   1.5402244473274387e-06   -1.9892405533149466e-05
-1.0799694545312244e-05   1.5402244473274387e-06   -1.9892405533149466e-05
-1.0799694545312244e-05   1.5402244473274387e-06   -1.9892405533149466e-05
-1.0799694545312244e-05   1.5402244473274387e-06   -1.9892405533149466e-05
-9.818028698277729e-06   3.4826575195290223e-06   -1.7900191585666332e-05
-9.818028698277729e-06   3.4826575195290223e-06   -1.7900191585666332e-05
-9.818028698277729e-06   3.4826575195290223e-06   -1.7900191585666332e-05
-9.818028698277729e-06   3.4826575195290223e-06   -1.7900191585666332e-05
-1.1429715954457262e-05   -3.0072661962856836e-08   -2.269397512152726e-05
-1.1429715954457262e-05   -3.0072661962856836e-08   -2.269397512152726e-05
-1.1429715954457262e-05   -3.0072661962856836e-08   -2.269397512152726e-05
-1.1429715954457262e-05   -3.0072661962856836e-08   -2.269397512152726e-05
-1.0668252189747899e-05   4.111507952967016e-06   -1.8567583559797422e-05
-1.0668252189747899e-05   4.111507952967016e-06   -1.8567583559797422e-05
-1.0668252189747899e-05   4.111507952967016e-06   -1.8567583559797422e-05
-1.0668252189747899e-05   4.111507952967016e-06   -1.8567583559797422e-05
-8.102088360715132e-06   5.396253873156398e-07   -2.070139373546104e-05
-8.102088360715132e-06   5.396253873156398e-07   -2.070139373546104e-05
-8.102088360715132e-06   5.396253873156398e-07   -2.070139373546104e-05
-8.102088360715132e-06   5.396253873156398e-07   -2.070139373546104e-05
-9.817071594243735e-06   2.05739817511286e-06   -1.8753752018925906e-05
-9.817071594243735e-06   2.05739817511286e-06   -1.8753752018925906e-05
-9.817071594243735e-06   2.05739817511286e-06   -1.8753752018925906e-05
-9.817071594243735e-06   2.05739817511286e-06   -1.8753752018925906e-05
-8.102088360715078e-06   4.111507952967016e-06   -1.6424454020406466e-05
-8.102088360715078e-06   4.111507952967016e-06   -1.6424454020406466e-05
-8.102088360715078e-06   4.111507952967016e-06   -1.6424454020406466e-05
-8.102088360715078e-06   4.111507952967016e-06   -1.6424454020406466e-05
-1.0668252189747899e-05   5.396253873156398e-07   -2.2844523274851943e-05
-1.0668252189747899e-05   5.396253873156398e-07   -2.2844523274851943e-05
-1.0668252189747899e-05   5.396253873156398e-07   -2.2844523274851943e-05
-1.0668252189747899e-05   5.396253873156398e-07   -2.2844523274851943e-05
-1.007381803123903e-05   5.107486783713236e-06   -1.7227685462406538e-05
-1.007381803123903e-05   5.107486783713236e-06   -1.7227685462406538e-05
-1.007381803123903e-05   5.107486783713236e-06   -1.7227685462406538e-05
-1.007381803123903e-05   5.107486783713236e-06   -1.7227685462406538e-05
-5.983454000927551e-06   1.6759718811129413e-06   -2.1986049904698635e-05
-5.983454000927551e-06   1.6759718811129413e-06   -2.1986049904698635e-05
-5.983454000927551e-06   1.6759718811129413e-06   -2.1986049904698635e-05
-5.983454000927551e-06   1.6759718811129413e-06   -2.1986049904698635e-05
-8.58843126243461e-06   2.5525769068333523e-06   -1.8170384150952555e-05
-8.58843126243461e-06   2.5525769068333523e-06   -1.8170384150952555e-05
-8.58843126243461e-06   2.5525769068333523e-06   -1.8170384150952555e-05
-8.58843126243461e-06   2.5525769068333523e-06   -1.8170384150952555e-05
-1.2033539103443905e-05   1.282911741665475e-06   -3.8693892816652874e-05
-1.2033539103443905e-05   1.282911741665475e-06   -3.8693892816652874e-05
-1.2033539103443905e-05   1.282911741665475e-06   -3.8693892816652874e-05
-1.2033539103443905e-05   1.282911741665475e-06   -3.8693892816652874e-05
-1.3850678368310674e-05   -2.2595011092544671e-07   -4.262777536965211e-05
-1.3850678368310674e-05   -2.2595011092544671e-07   -4.262777536965211e-05
-1.3850678368310674e-05   -2.2595011092544671e-07   -4.262777536965211e-05
-1.3850678368310674e-05   -2.2595011092544671e-07   -4.262777536965211e-05
-1.3362400984700981e-05   2.7105969700304353e-06   -3.87234333816672e-05
-1.3362400984700981e-05   2.7105969700304353e-06   -3.87234333816672e-05
-1.3362400984700981e-05   2.7105969700304353e-06   -3.87234333816672e-05
-1.3362400984700981e-05   2.7105969700304353e-06   -3.87234333816672e-05
-1.1429715954457262e-05   1.0452950518864343e-06   -4.0945393947853094e-05
-1.1429715954457262e-05   1.0452950518864343e-06   -4.0945393947853094e-05
-1.1429715954457262e-05   1.0452950518864343e-06   -4.0945393947853094e-05
-1.1429715954457262e-05   1.0452950518864343e-06   -4.0945393947853094e-05
-1.2521480944796166e-05   1.4818897203458005e-06   -3.9387742431698037e-05
-1.2521480944796166e-05   1.4818897203458005e-06   -3.9387742431698037e-05
-1.2521480944796166e-05   1.4818897203458005e-06   -3.9387742431698037e-05
-1.2521480944796166e-05   1.4818897203458005e-06   -3.9387742431698037e-05
-1.1429715954457207e-05   2.710596970030652e-06   -3.7724252230780255e-05
-1.1429715954457207e-05   2.710596970030652e-06   -3.7724252230780255e-05
-1.1429715954457207e-05   2.710596970030652e-06   -3.7724252230780255e-05
-1.1429715954457207e-05   2.710596970030652e-06   -3.7724252230780255e-05
-1.3362400984700954e-05   1.0452950518864343e-06   -4.194457509873982e-05
-1.3362400984700954e-05   1.0452950518864343e-06   -4.194457509873982e-05
-1.3362400984700954e-05   1.0452950518864343e-06   -4.194457509873982e-05
-1.3362400984700954e-05   1.0452950518864343e-06   -4.194457509873982e-05
-1.2854605737303547e-05   4.0378656379902456e-06   -3.839889848972363e-05
-1.2854605737303547e-05   4.0378656379902456e-06   -3.839889848972363e-05
-1.2854605737303547e-05   4.0378656379902456e-06   -3.839889848972363e-05
-1.2854605737303547e-05   4.0378656379902456e-06   -3.839889848972363e-05
-1.0668252189747953e-05   2.2689898501603196e-06   -4.098149559628471e-05
-1.0668252189747953e-05   2.2689898501603196e-06   -4.098149559628471e-05
-1.0668252189747953e-05   2.2689898501603196e-06   -4.098149559628471e-05
-1.0668252189747953e-05   2.2689898501603196e-06   -4.098149559628471e-05
-1.203216207241397e-05   2.5064739397060495e-06   -3.885080291223572e-05
-1.203216207241397e-05   2.5064739397060495e-06   -3.885080291223572e-05
-1.203216207241397e-05   2.5064739397060495e-06   -3.885080291223572e-05
-1.203216207241397e-05   2.5064739397060495e-06   -3.885080291223572e-05
-1.0668252189747899e-05   4.0378656379902456e-06   -3.7337573017025456e-05
-1.0668252189747899e-05   4.0378656379902456e-06   -3.7337573017025456e-05
-1.0668252189747899e-05   4.0378656379902456e-06   -3.7337573017025456e-05
-1.0668252189747899e-05   4.0378656379902456e-06   -3.7337573017025456e-05
-1.2854605737303492e-05   2.2689898501603196e-06   -4.204282106898261e-05
-1.2854605737303492e-05   2.2689898501603196e-06   -4.204282106898261e-05
-1.2854605737303492e-05   2.2689898501603196e-06   -4.204282106898261e-05
-1.2854605737303492e-05   2.2689898501603196e-06   -4.204282106898261e-05
-1.2376214573906201e-05   5.51244031724062e-06   -3.9034747376280945e-05
-1.2376214573906201e-05   5.51244031724062e-06   -3.9034747376280945e-05
-1.2376214573906201e-05   5.51244031724062e-06   -3.9034747376280945e-05
-1.2376214573906201e-05   5.51244031724062e-06   -3.9034747376280945e-05
-1.0073818031239084e-05   3.6660803661358807e-06   -4.176425897672967e-05
-1.0073818031239084e-05   3.6660803661358807e-06   -4.176425897672967e-05
-1.0073818031239084e-05   3.6660803661358807e-06   -4.176425897672967e-05
-1.0073818031239084e-05   3.6660803661358807e-06   -4.176425897672967e-05
-1.1601488394079613e-05   3.580993823382086e-06   -3.916708977967664e-05
-1.1601488394079613e-05   3.580993823382086e-06   -3.916708977967664e-05
-1.1601488394079613e-05   3.580993823382086e-06   -3.916708977967664e-05
-1.1601488394079613e-05   3.580993823382086e-06   -3.916708977967664e-05
-1.385067836831062e-05   7.34180535163706e-07   -4.505809294622846e-05
-1.385067836831062e-05   7.34180535163706e-07   -4.505809294622846e-05
-1.385067836831062e-05   7.34180535163706e-07   -4.505809294622846e-05
-1.385067836831062e-05   7.34180535163706e-07   -4.505809294622846e-05
-1.5766097814494234e-05   1.052636240232458e-06   -4.8059385266826615e-05
-1.5766097814494234e-05   1.052636240232458e-06   -4.8059385266826615e-05
-1.5766097814494234e-05   1.052636240232458e-06   -4.8059385266826615e-05
-1.5766097814494234e-05   1.052636240232458e-06   -4.8059385266826615e-05
-1.52861434649731e-05   2.1880184886931883e-06   -4.436446404484928e-05
-1.52861434649731e-05   2.1880184886931883e-06   -4.436446404484928e-05
-1.52861434649731e-05   2.1880184886931883e-06   -4.436446404484928e-05
-1.52861434649731e-05   2.1880184886931883e-06   -4.436446404484928e-05
-1.3362400984700981e-05   2.3662756412452454e-06   -4.7677655803500546e-05
-1.3362400984700981e-05   2.3662756412452454e-06   -4.7677655803500546e-05
-1.3362400984700981e-05   2.3662756412452454e-06   -4.7677655803500546e-05
-1.3362400984700981e-05   2.3662756412452454e-06   -4.7677655803500546e-05
-1.4478652398373323e-05   1.7897943789977819e-06   -4.547134802336539e-05
-1.4478652398373323e-05   1.7897943789977819e-06   -4.547134802336539e-05
-1.4478652398373323e-05   1.7897943789977819e-06   -4.547134802336539e-05
-1.4478652398373323e-05   1.7897943789977819e-06   -4.547134802336539e-05
-1.3362400984700927e-05   2.1880184886931883e-06   -4.447141833638043e-05
-1.3362400984700927e-05   2.1880184886931883e-06   -4.447141833638043e-05
-1.3362400984700927e-05   2.1880184886931883e-06   -4.447141833638043e-05
-1.3362400984700927e-05   2.1880184886931883e-06   -4.447141833638043e-05
-1.5286143464973126e-05   2.3662756412454623e-06   -4.7570701511969425e-05
-1.5286143464973126e-05   2.3662756412454623e-06   -4.7570701511969425e-05
-1.5286143464973126e-05   2.3662756412454623e-06   -4.7570701511969425e-05
-1.5286143464973126e-05   2.3662756412454623e-06   -4.7570701511969425e-05
-1.478147952816149e-05   3.6546058073542217e-06   -4.44934610715317e-05
-1.478147952816149e-05   3.6546058073542217e-06   -4.44934610715317e-05
-1.478147952816149e-05   3.6546058073542217e-06   -4.44934610715317e-05
-1.478147952816149e-05   3.6546058073542217e-06   -4.44934610715317e-05
-1.2854605737303547e-05   3.7088401778062868e-06   -4.7737458011899275e-05
-1.2854605737303547e-05   3.7088401778062868e-06   -4.7737458011899275e-05
-1.2854605737303547e-05   3.7088401778062868e-06   -4.7737458011899275e-05
-1.2854605737303547e-05   3.7088401778062868e-06   -4.7737458011899275e-05
-1.4075676957774617e-05   2.913322928017664e-06   -4.522502896124158e-05
-1.4075676957774617e-05   2.913322928017664e-06   -4.522502896124158e-05
-1.4075676957774617e-05   2.913322928017664e-06   -4.522502896124158e-05
-1.4075676957774617e-05   2.913322928017664e-06   -4.522502896124158e-05
-1.2854605737303492e-05   3.6546058073542217e-06   -4.4526001693802786e-05
-1.2854605737303492e-05   3.6546058073542217e-06   -4.4526001693802786e-05
-1.2854605737303492e-05   3.6546058073542217e-06   -4.4526001693802786e-05
-1.2854605737303492e-05   3.6546058073542217e-06   -4.4526001693802786e-05
-1.478147952816149e-05   3.7088401778062868e-06   -4.7704917389628106e-05
-1.478147952816149e-05   3.7088401778062868e-06   -4.7704917389628106e-05
-1.478147952816149e-05   3.7088401778062868e-06   -4.7704917389628106e-05
-1.478147952816149e-05   3.7088401778062868e-06   -4.7704917389628106e-05
-1.4305476536633597e-05   5.1433111029871095e-06   -4.53570479635023e-05
-1.4305476536633597e-05   5.1433111029871095e-06   -4.53570479635023e-05
-1.4305476536633597e-05   5.1433111029871095e-06   -4.53570479635023e-05
-1.4305476536633597e-05   5.1433111029871095e-06   -4.53570479635023e-05
-1.2376214573906228e-05   5.069962276288724e-06   -4.85284752720287e-05
-1.2376214573906228e-05   5.069962276288724e-06   -4.85284752720287e-05
-1.2376214573906228e-05   5.069962276288724e-06   -4.85284752720287e-05
-1.2376214573906228e-05   5.069962276288724e-06   -4.85284752720287e-05
-1.3704652575358008e-05   4.052562781502872e-06   -4.5703972239404455e-05
-1.3704652575358008e-05   4.052562781502872e-06   -4.5703972239404455e-05
-1.3704652575358008e-05   4.052562781502872e-06   -4.5703972239404455e-05
-1.3704652575358008e-05   4.052562781502872e-06   -4.5703972239404455e-05
-1.576609781449418e-05   3.118846637231547e-07   -3.88747067693962e-05
-1.576609781449418e-05   3.118846637231547e-07   -3.88747067693962e-05
-1.576609781449418e-05   3.118846637231547e-07   -3.88747067693962e-05
-1.576609781449418e-05   3.118846637231547e-07   -3.88747067693962e-05
-1.7787307957439454e-05   2.3402488388698465e-06   -4.102637183588348e-05
-1.7787307957439454e-05   2.3402488388698465e-06   -4.102637183588348e-05
-1.7787307957439454e-05   2.3402488388698465e-06   -4.102637183588348e-05
-1.7787307957439454e-05   2.3402488388698465e-06   -4.102637183588348e-05
-1.7206844355307173e-05   1.7199435156222548e-06   -3.716694179473491e-05
-1.7206844355307173e-05   1.7199435156222548e-06   -3.716694179473491e-05
-1.7206844355307173e-05   1.7199435156222548e-06   -3.716694179473491e-05
-1.7206844355307173e-05   1.7199435156222548e-06   -3.716694179473491e-05
-1.52861434649731e-05   3.6581655741849215e-06   -4.1531043180428945e-05
-1.52861434649731e-05   3.6581655741849215e-06   -4.1531043180428945e-05
-1.52861434649731e-05   3.6581655741849215e-06   -4.1531043180428945e-05
-1.52861434649731e-05   3.6581655741849215e-06   -4.1531043180428945e-05
-1.6384029688276452e-05   2.1544921334892136e-06   -3.8799028743839834e-05
-1.6384029688276452e-05   2.1544921334892136e-06   -3.8799028743839834e-05
-1.6384029688276452e-05   2.1544921334892136e-06   -3.8799028743839834e-05
-1.6384029688276452e-05   2.1544921334892136e-06   -3.8799028743839834e-05
-1.528614346497307e-05   1.719943515622038e-06   -3.832987502987227e-05
-1.528614346497307e-05   1.719943515622038e-06   -3.832987502987227e-05
-1.528614346497307e-05   1.719943515622038e-06   -3.832987502987227e-05
-1.528614346497307e-05   1.719943515622038e-06   -3.832987502987227e-05
-1.7206844355307173e-05   3.6581655741849215e-06   -4.036810994529163e-05
-1.7206844355307173e-05   3.6581655741849215e-06   -4.036810994529163e-05
-1.7206844355307173e-05   3.6581655741849215e-06   -4.036810994529163e-05
-1.7206844355307173e-05   3.6581655741849215e-06   -4.036810994529163e-05
-1.6457326201923432e-05   3.0470484614281753e-06   -3.732871947702396e-05
-1.6457326201923432e-05   3.0470484614281753e-06   -3.732871947702396e-05
-1.6457326201923432e-05   3.0470484614281753e-06   -3.732871947702396e-05
-1.6457326201923432e-05   3.0470484614281753e-06   -3.732871947702396e-05
-1.4781479528161463e-05   4.874157079883803e-06   -4.121806243770047e-05
-1.4781479528161463e-05   4.874157079883803e-06   -4.121806243770047e-05
-1.4781479528161463e-05   4.874157079883803e-06   -4.121806243770047e-05
-1.4781479528161463e-05   4.874157079883803e-06   -4.121806243770047e-05
-1.58653053122544e-05   3.1999325014707425e-06   -3.8407151383831536e-05
-1.58653053122544e-05   3.1999325014707425e-06   -3.8407151383831536e-05
-1.58653053122544e-05   3.1999325014707425e-06   -3.8407151383831536e-05
-1.58653053122544e-05   3.1999325014707425e-06   -3.8407151383831536e-05
-1.4781479528161428e-05   3.0470484614281753e-06   -3.842498464809712e-05
-1.4781479528161428e-05   3.0470484614281753e-06   -3.842498464809712e-05
-1.4781479528161428e-05   3.0470484614281753e-06   -3.842498464809712e-05
-1.4781479528161428e-05   3.0470484614281753e-06   -3.842498464809712e-05
-1.6457326201923473e-05   4.874157079883803e-06   -4.0121797266627016e-05
-1.6457326201923473e-05   4.874157079883803e-06   -4.0121797266627016e-05
-1.6457326201923473e-05   4.874157079883803e-06   -4.0121797266627016e-05
-1.6457326201923473e-05   4.874157079883803e-06   -4.0121797266627016e-05
-1.586835291606194e-05   4.547932716822975e-06   -3.836410423139851e-05
-1.586835291606194e-05   4.547932716822975e-06   -3.836410423139851e-05
-1.586835291606194e-05   4.547932716822975e-06   -3.836410423139851e-05
-1.586835291606194e-05   4.547932716822975e-06   -3.836410423139851e-05
-1.4305476536633597e-05   6.237213247474015e-06   -4.1982466515502815e-05
-1.4305476536633597e-05   6.237213247474015e-06   -4.1982466515502815e-05
-1.4305476536633597e-05   6.237213247474015e-06   -4.1982466515502815e-05
-1.4305476536633597e-05   6.237213247474015e-06   -4.1982466515502815e-05
-1.5476257963417458e-05   4.268617995557052e-06   -3.885000698637935e-05
-1.5476257963417458e-05   4.268617995557052e-06   -3.885000698637935e-05
-1.5476257963417458e-05   4.268617995557052e-06   -3.885000698637935e-05
-1.5476257963417458e-05   4.268617995557052e-06   -3.885000698637935e-05
-1.77873079574394e-05   4.3032242119634377e-07   -2.0721262094591927e-05
-1.77873079574394e-05   4.3032242119634377e-07   -2.0721262094591927e-05
-1.77873079574394e-05   4.3032242119634377e-07   -2.0721262094591927e-05
-1.77873079574394e-05   4.3032242119634377e-07   -2.0721262094591927e-05
-2.1530745462930635e-05   3.931443586624233e-06   -2.485965190448733e-05
-2.1530745462930635e-05   3.931443586624233e-06   -2.485965190448733e-05
-2.1530745462930635e-05   3.931443586624233e-06   -2.485965190448733e-05
-2.1530745462930635e-05   3.931443586624233e-06   -2.485965190448733e-05
-1.9473062053261775e-05   1.5429570646094144e-06   -1.708999096371351e-05
-1.9473062053261775e-05   1.5429570646094144e-06   -1.708999096371351e-05
-1.9473062053261775e-05   1.5429570646094144e-06   -1.708999096371351e-05
-1.9473062053261775e-05   1.5429570646094144e-06   -1.708999096371351e-05
-1.7206844355307133e-05   5.125994031978179e-06   -2.301684264072564e-05
-1.7206844355307133e-05   5.125994031978179e-06   -2.301684264072564e-05
-1.7206844355307133e-05   5.125994031978179e-06   -2.301684264072564e-05
-1.7206844355307133e-05   5.125994031978179e-06   -2.301684264072564e-05
-1.8230532864461228e-05   2.9025541828304243e-06   -1.997663121598058e-05
-1.8230532864461228e-05   2.9025541828304243e-06   -1.997663121598058e-05
-1.8230532864461228e-05   2.9025541828304243e-06   -1.997663121598058e-05
-1.8230532864461228e-05   2.9025541828304243e-06   -1.997663121598058e-05
-1.7206844355307092e-05   1.5429570646096312e-06   -1.923981314413438e-05
-1.7206844355307092e-05   1.5429570646096312e-06   -1.923981314413438e-05
-1.7206844355307092e-05   1.5429570646096312e-06   -1.923981314413438e-05
-1.7206844355307092e-05   1.5429570646096312e-06   -1.923981314413438e-05
-1.9473062053261748e-05   5.125994031978396e-06   -2.086702046030461e-05
-1.9473062053261748e-05   5.125994031978396e-06   -2.086702046030461e-05
-1.9473062053261748e-05   5.125994031978396e-06   -2.086702046030461e-05
-1.9473062053261748e-05   5.125994031978396e-06   -2.086702046030461e-05
-1.77994240362629e-05   2.1688520557513503e-06   -1.6813008064042343e-05
-1.77994240362629e-05   2.1688520557513503e-06   -1.6813008064042343e-05
-1.77994240362629e-05   2.1688520557513503e-06   -1.6813008064042343e-05
-1.77994240362629e-05   2.1688520557513503e-06   -1.6813008064042343e-05
-1.6457326201923432e-05   5.6729683562692715e-06   -2.115230756825204e-05
-1.6457326201923432e-05   5.6729683562692715e-06   -2.115230756825204e-05
-1.6457326201923432e-05   5.6729683562692715e-06   -2.115230756825204e-05
-1.6457326201923432e-05   5.6729683562692715e-06   -2.115230756825204e-05
-1.7350870779969996e-05   3.4552881941036454e-06   -1.8332458507541857e-05
-1.7350870779969996e-05   3.4552881941036454e-06   -1.8332458507541857e-05
-1.7350870779969996e-05   3.4552881941036454e-06   -1.8332458507541857e-05
-1.7350870779969996e-05   3.4552881941036454e-06   -1.8332458507541857e-05
-1.6457326201923405e-05   2.1688520557513503e-06   -1.891547784435316e-05
-1.6457326201923405e-05   2.1688520557513503e-06   -1.891547784435316e-05
-1.6457326201923405e-05   2.1688520557513503e-06   -1.891547784435316e-05
-1.6457326201923405e-05   2.1688520557513503e-06   -1.891547784435316e-05
-1.77994240362629e-05   5.6729683562692715e-06   -1.9049837787941167e-05
-1.77994240362629e-05   5.6729683562692715e-06   -1.9049837787941167e-05
-1.77994240362629e-05   5.6729683562692715e-06   -1.9049837787941167e-05
-1.77994240362629e-05   5.6729683562692715e-06   -1.9049837787941167e-05
-1.5753139980266117e-05   3.27950471405475e-06   -1.7347952169591784e-05
-1.5753139980266117e-05   3.27950471405475e-06   -1.7347952169591784e-05
-1.5753139980266117e-05   3.27950471405475e-06   -1.7347952169591784e-05
-1.5753139980266117e-05   3.27950471405475e-06   -1.7347952169591784e-05
-1.586835291606191e-05   6.521256267345019e-06   -1.910098154190578e-05
-1.586835291606191e-05   6.521256267345019e-06   -1.910098154190578e-05
-1.586835291606191e-05   6.521256267345019e-06   -1.910098154190578e-05
-1.586835291606191e-05   6.521256267345019e-06   -1.910098154190578e-05
-1.6059216983251926e-05   3.902627258751956e-06   -1.721169735810019e-05
-1.6059216983251926e-05   3.902627258751956e-06   -1.721169735810019e-05
-1.6059216983251926e-05   3.902627258751956e-06   -1.721169735810019e-05
-1.6059216983251926e-05   3.902627258751956e-06   -1.721169735810019e-05
1.0486315916092149e-05   -1.0377812720138366e-06   -1.079948733876345e-05
1.0486315916092149e-05   -1.0377812720138366e-06   -1.079948733876345e-05
1.0486315916092149e-05   -1.0377812720138366e-06   -1.079948733876345e-05
1.0486315916092149e-05   -1.0377812720138366e-06   -1.079948733876345e-05
1.0725096570670571e-06   -4.373077681223657e-06   -2.8490342282664282e-05
1.0725096570670571e-06   -4.373077681223657e-06   -2.8490342282664282e-05
1.0725096570670571e-06   -4.373077681223657e-06   -2.8490342282664282e-05
1.0725096570670571e-06   -4.373077681223657e-06   -2.8490342282664282e-05
1.9005923646355253e-06   -3.0072661962639996e-08   -1.1927089244715252e-05
1.9005923646355253e-06   -3.0072661962639996e-08   -1.1927089244715252e-05
1.9005923646355253e-06   -3.0072661962639996e-08   -1.1927089244715252e-05
1.9005923646355253e-06   -3.0072661962639996e-08   -1.1927089244715252e-05
1.2796105587076331e-05   -3.593270076307324e-06   -2.7948359500176235e-05
1.2796105587076331e-05   -3.593270076307324e-06   -2.7948359500176235e-05
1.2796105587076331e-05   -3.593270076307324e-06   -2.7948359500176235e-05
1.2796105587076331e-05   -3.593270076307324e-06   -2.7948359500176235e-05
6.3195434959124105e-06   -1.8238434318050556e-06   -1.8215745334937677e-05
6.3195434959124105e-06   -1.8238434318050556e-06   -1.8215745334937677e-05
6.3195434959124105e-06   -1.8238434318050556e-06   -1.8215745334937677e-05
6.3195434959124105e-06   -1.8238434318050556e-06   -1.8215745334937677e-05
1.2796105587076277e-05   -3.0072661962639996e-08   -9.789170796108441e-06
1.2796105587076277e-05   -3.0072661962639996e-08   -9.789170796108441e-06
1.2796105587076277e-05   -3.0072661962639996e-08   -9.789170796108441e-06
1.2796105587076277e-05   -3.0072661962639996e-08   -9.789170796108441e-06
1.9005923646355253e-06   -3.593270076307758e-06   -3.0086277948783262e-05
1.9005923646355253e-06   -3.593270076307758e-06   -3.0086277948783262e-05
1.9005923646355253e-06   -3.593270076307758e-06   -3.0086277948783262e-05
1.9005923646355253e-06   -3.593270076307758e-06   -3.0086277948783262e-05
2.876569413081645e-06   5.396253873156398e-07   -1.2017130721761991e-05
2.876569413081645e-06   5.396253873156398e-07   -1.2017130721761991e-05
2.876569413081645e-06   5.396253873156398e-07   -1.2017130721761991e-05
2.876569413081645e-06   5.396253873156398e-07   -1.2017130721761991e-05
1.4749125174245037e-05   -3.0738021862715403e-06   -2.9636667112882065e-05
1.4749125174245037e-05   -3.0738021862715403e-06   -2.9636667112882065e-05
1.4749125174245037e-05   -3.0738021862715403e-06   -2.9636667112882065e-05
1.4749125174245037e-05   -3.0738021862715403e-06   -2.9636667112882065e-05
7.785168063421423e-06   -1.4597195846536778e-06   -1.8998521489147543e-05
7.785168063421423e-06   -1.4597195846536778e-06   -1.8998521489147543e-05
7.785168063421423e-06   -1.4597195846536778e-06   -1.8998521489147543e-05
7.785168063421423e-06   -1.4597195846536778e-06   -1.8998521489147543e-05
1.4749125174245037e-05   5.396253873156398e-07   -9.849074177609943e-06
1.4749125174245037e-05   5.396253873156398e-07   -9.849074177609943e-06
1.4749125174245037e-05   5.396253873156398e-07   -9.849074177609943e-06
1.4749125174245037e-05   5.396253873156398e-07   -9.849074177609943e-06
2.876569413081645e-06   -3.0738021862715403e-06   -3.180472365703433e-05
2.876569413081645e-06   -3.0738021862715403e-06   -3.180472365703433e-05
2.876569413081645e-06   -3.0738021862715403e-06   -3.180472365703433e-05
2.876569413081645e-06   -3.0738021862715403e-06   -3.180472365703433e-05
3.680486293918049e-06   1.6759718811129413e-06   -1.316414288856033e-05
3.680486293918049e-06   1.6759718811129413e-06   -1.316414288856033e-05
3.680486293918049e-06   1.6759718811129413e-06   -1.316414288856033e-05
3.680486293918049e-06   1.6759718811129413e-06   -1.316414288856033e-05
1.709513667872526e-05   -1.764466682803098e-06   -3.3457630391556096e-05
1.709513667872526e-05   -1.764466682803098e-06   -3.3457630391556096e-05
1.709513667872526e-05   -1.764466682803098e-06   -3.3457630391556096e-05
1.709513667872526e-05   -1.764466682803098e-06   -3.3457630391556096e-05
8.95222756698463e-06   -9.253748274205484e-07   -2.038957031855193e-05
8.95222756698463e-06   -9.253748274205484e-07   -2.038957031855193e-05
8.95222756698463e-06   -9.253748274205484e-07   -2.038957031855193e-05
8.95222756698463e-06   -9.253748274205484e-07   -2.038957031855193e-05
1.0725096570670571e-06   -2.2595011092566356e-07   -3.102750688074602e-05
1.0725096570670571e-06   -2.2595011092566356e-07   -3.102750688074602e-05
1.0725096570670571e-06   -2.2595011092566356e-07   -3.102750688074602e-05
1.0725096570670571e-06   -2.2595011092566356e-07   -3.102750688074602e-05
-9.921127823105862e-06   -1.7314809382332902e-06   -5.02535545107522e-05
-9.921127823105862e-06   -1.7314809382332902e-06   -5.02535545107522e-05
-9.921127823105862e-06   -1.7314809382332902e-06   -5.02535545107522e-05
-9.921127823105862e-06   -1.7314809382332902e-06   -5.02535545107522e-05
-9.19438721690079e-06   1.0452950518862174e-06   -3.12033647009392e-05
-9.19438721690079e-06   1.0452950518862174e-06   -3.12033647009392e-05
-9.19438721690079e-06   1.0452950518862174e-06   -3.12033647009392e-05
-9.19438721690079e-06   1.0452950518862174e-06   -3.12033647009392e-05
1.9005923646355253e-06   -6.627993312771814e-07   -4.8670140706935205e-05
1.9005923646355253e-06   -6.627993312771814e-07   -4.8670140706935205e-05
1.9005923646355253e-06   -6.627993312771814e-07   -4.8670140706935205e-05
1.9005923646355253e-06   -6.627993312771814e-07   -4.8670140706935205e-05
-3.9422225633290375e-06   -6.664298131354648e-08   -3.9289809636972235e-05
-3.9422225633290375e-06   -6.664298131354648e-08   -3.9289809636972235e-05
-3.9422225633290375e-06   -6.664298131354648e-08   -3.9289809636972235e-05
-3.9422225633290375e-06   -6.664298131354648e-08   -3.9289809636972235e-05
1.9005923646355253e-06   1.0452950518864343e-06   -3.0178508071041247e-05
1.9005923646355253e-06   1.0452950518864343e-06   -3.0178508071041247e-05
1.9005923646355253e-06   1.0452950518864343e-06   -3.0178508071041247e-05
1.9005923646355253e-06   1.0452950518864343e-06   -3.0178508071041247e-05
-9.19438721690079e-06   -6.627993312767477e-07   -4.969499733683332e-05
-9.19438721690079e-06   -6.627993312767477e-07   -4.969499733683332e-05
-9.19438721690079e-06   -6.627993312767477e-07   -4.969499733683332e-05
-9.19438721690079e-06   -6.627993312767477e-07   -4.969499733683332e-05
-8.463517078783765e-06   2.2689898501603196e-06   -3.125023998967074e-05
-8.463517078783765e-06   2.2689898501603196e-06   -3.125023998967074e-05
-8.463517078783765e-06   2.2689898501603196e-06   -3.125023998967074e-05
-8.463517078783765e-06   2.2689898501603196e-06   -3.125023998967074e-05
2.876569413081645e-06   4.4209493936693545e-07   -4.9054247196303827e-05
2.876569413081645e-06   4.4209493936693545e-07   -4.9054247196303827e-05
2.876569413081645e-06   4.4209493936693545e-07   -4.9054247196303827e-05
2.876569413081645e-06   4.4209493936693545e-07   -4.9054247196303827e-05
-3.298297842263637e-06   8.107977554688492e-07   -3.898402346038949e-05
-3.298297842263637e-06   8.107977554688492e-07   -3.898402346038949e-05
-3.298297842263637e-06   8.107977554688492e-07   -3.898402346038949e-05
-3.298297842263637e-06   8.107977554688492e-07   -3.898402346038949e-05
2.876569413081645e-06   2.2689898501603196e-06   -3.0154103043194972e-05
2.876569413081645e-06   2.2689898501603196e-06   -3.0154103043194972e-05
2.876569413081645e-06   2.2689898501603196e-06   -3.0154103043194972e-05
2.876569413081645e-06   2.2689898501603196e-06   -3.0154103043194972e-05
-8.463517078783765e-06   4.4209493936693545e-07   -5.015038414277987e-05
-8.463517078783765e-06   4.4209493936693545e-07   -5.015038414277987e-05
-8.463517078783765e-06   4.4209493936693545e-07   -5.015038414277987e-05
-8.463517078783765e-06   4.4209493936693545e-07   -5.015038414277987e-05
-7.765060194534623e-06   3.6660803661358807e-06   -3.203288368189218e-05
-7.765060194534623e-06   3.6660803661358807e-06   -3.203288368189218e-05
-7.765060194534623e-06   3.6660803661358807e-06   -3.203288368189218e-05
-7.765060194534623e-06   3.6660803661358807e-06   -3.203288368189218e-05
3.680486293918103e-06   1.7503459280344968e-06   -4.9959353833118865e-05
3.680486293918103e-06   1.7503459280344968e-06   -4.9959353833118865e-05
3.680486293918103e-06   1.7503459280344968e-06   -4.9959353833118865e-05
3.680486293918103e-06   1.7503459280344968e-06   -4.9959353833118865e-05
-2.5815219005347734e-06   1.7832082142557257e-06   -3.954239088076449e-05
-2.5815219005347734e-06   1.7832082142557257e-06   -3.954239088076449e-05
-2.5815219005347734e-06   1.7832082142557257e-06   -3.954239088076449e-05
-2.5815219005347734e-06   1.7832082142557257e-06   -3.954239088076449e-05
-9.921127823105889e-06   1.052636240232458e-06   -3.7553508697346465e-05
-9.921127823105889e-06   1.052636240232458e-06   -3.7553508697346465e-05
-9.921127823105889e-06   1.052636240232458e-06   -3.7553508697346465e-05
-9.921127823105889e-06   1.052636240232458e-06   -3.7553508697346465e-05
-2.0819978734827506e-05   1.3270317875441369e-06   -5.555362288849519e-05
-2.0819978734827506e-05   1.3270317875441369e-06   -5.555362288849519e-05
-2.0819978734827506e-05   1.3270317875441369e-06   -5.555362288849519e-05
-2.0819978734827506e-05   1.3270317875441369e-06   -5.555362288849519e-05
-2.00879936132293e-05   2.3662756412454623e-06   -3.688175426992332e-05
-2.00879936132293e-05   2.3662756412454623e-06   -3.688175426992332e-05
-2.00879936132293e-05   2.3662756412454623e-06   -3.688175426992332e-05
-2.00879936132293e-05   2.3662756412454623e-06   -3.688175426992332e-05
-9.194387216900817e-06   2.457427534206802e-06   -5.5092456066247776e-05
-9.194387216900817e-06   2.457427534206802e-06   -5.5092456066247776e-05
-9.194387216900817e-06   2.457427534206802e-06   -5.5092456066247776e-05
-9.194387216900817e-06   2.457427534206802e-06   -5.5092456066247776e-05
-1.4918963716943355e-05   2.0314818490797283e-06   -4.5295927821767325e-05
-1.4918963716943355e-05   2.0314818490797283e-06   -4.5295927821767325e-05
-1.4918963716943355e-05   2.0314818490797283e-06   -4.5295927821767325e-05
-1.4918963716943355e-05   2.0314818490797283e-06   -4.5295927821767325e-05
-9.194387216900817e-06   2.3662756412452454e-06   -3.6936445405700387e-05
-9.194387216900817e-06   2.3662756412452454e-06   -3.6936445405700387e-05
-9.194387216900817e-06   2.3662756412452454e-06   -3.6936445405700387e-05
-9.194387216900817e-06   2.3662756412452454e-06   -3.6936445405700387e-05
-2.00879936132293e-05   2.457427534206802e-06   -5.503776493047093e-05
-2.00879936132293e-05   2.457427534206802e-06   -5.503776493047093e-05
-2.00879936132293e-05   2.457427534206802e-06   -5.503776493047093e-05
-2.00879936132293e-05   2.457427534206802e-06   -5.503776493047093e-05
-1.9344361190632257e-05   3.7088401778062868e-06   -3.6977578474221536e-05
-1.9344361190632257e-05   3.7088401778062868e-06   -3.6977578474221536e-05
-1.9344361190632257e-05   3.7088401778062868e-06   -3.6977578474221536e-05
-1.9344361190632257e-05   3.7088401778062868e-06   -3.6977578474221536e-05
-8.463517078783765e-06   3.65433760841612e-06   -5.5079617119001495e-05
-8.463517078783765e-06   3.65433760841612e-06   -5.5079617119001495e-05
-8.463517078783765e-06   3.65433760841612e-06   -5.5079617119001495e-05
-8.463517078783765e-06   3.65433760841612e-06   -5.5079617119001495e-05
-1.4274676560402817e-05   3.018009120857746e-06   -4.5012554223768965e-05
-1.4274676560402817e-05   3.018009120857746e-06   -4.5012554223768965e-05
-1.4274676560402817e-05   3.018009120857746e-06   -4.5012554223768965e-05
-1.4274676560402817e-05   3.018009120857746e-06   -4.5012554223768965e-05
-8.463517078783765e-06   3.7088401778062868e-06   -3.6944876932587436e-05
-8.463517078783765e-06   3.7088401778062868e-06   -3.6944876932587436e-05
-8.463517078783765e-06   3.7088401778062868e-06   -3.6944876932587436e-05
-8.463517078783765e-06   3.7088401778062868e-06   -3.6944876932587436e-05
-1.9344361190632226e-05   3.65433760841612e-06   -5.511231866063581e-05
-1.9344361190632226e-05   3.65433760841612e-06   -5.511231866063581e-05
-1.9344361190632226e-05   3.65433760841612e-06   -5.511231866063581e-05
-1.9344361190632226e-05   3.65433760841612e-06   -5.511231866063581e-05
-1.863524173122475e-05   5.069962276288724e-06   -3.78081088637525e-05
-1.863524173122475e-05   5.069962276288724e-06   -3.78081088637525e-05
-1.863524173122475e-05   5.069962276288724e-06   -3.78081088637525e-05
-1.863524173122475e-05   5.069962276288724e-06   -3.78081088637525e-05
-7.765060194534623e-06   4.871920847581389e-06   -5.5806253234345156e-05
-7.765060194534623e-06   4.871920847581389e-06   -5.5806253234345156e-05
-7.765060194534623e-06   4.871920847581389e-06   -5.5806253234345156e-05
-7.765060194534623e-06   4.871920847581389e-06   -5.5806253234345156e-05
-1.3675184929328405e-05   4.019501074198264e-06   -4.54445934789929e-05
-1.3675184929328405e-05   4.019501074198264e-06   -4.54445934789929e-05
-1.3675184929328405e-05   4.019501074198264e-06   -4.54445934789929e-05
-1.3675184929328405e-05   4.019501074198264e-06   -4.54445934789929e-05
-2.081997873482754e-05   2.3402488388698465e-06   -3.157287644310418e-05
-2.081997873482754e-05   2.3402488388698465e-06   -3.157287644310418e-05
-2.081997873482754e-05   2.3402488388698465e-06   -3.157287644310418e-05
-2.081997873482754e-05   2.3402488388698465e-06   -3.157287644310418e-05
-3.158657056420064e-05   4.294853952062881e-06   -4.834443309081047e-05
-3.158657056420064e-05   4.294853952062881e-06   -4.834443309081047e-05
-3.158657056420064e-05   4.294853952062881e-06   -4.834443309081047e-05
-3.158657056420064e-05   4.294853952062881e-06   -4.834443309081047e-05
-3.075040320791823e-05   3.6581655741849215e-06   -2.9736144238360013e-05
-3.075040320791823e-05   3.6581655741849215e-06   -2.9736144238360013e-05
-3.075040320791823e-05   3.6581655741849215e-06   -2.9736144238360013e-05
-3.075040320791823e-05   3.6581655741849215e-06   -2.9736144238360013e-05
-2.00879936132293e-05   5.501418407556635e-06   -4.86127785961978e-05
-2.00879936132293e-05   5.501418407556635e-06   -4.86127785961978e-05
-2.00879936132293e-05   5.501418407556635e-06   -4.86127785961978e-05
-2.00879936132293e-05   5.501418407556635e-06   -4.86127785961978e-05
-2.563249494844303e-05   4.1056617578983864e-06   -3.853448904771303e-05
-2.563249494844303e-05   4.1056617578983864e-06   -3.853448904771303e-05
-2.563249494844303e-05   4.1056617578983864e-06   -3.853448904771303e-05
-2.563249494844303e-05   4.1056617578983864e-06   -3.853448904771303e-05
-2.008799361322934e-05   3.6581655741849215e-06   -3.0842095938383215e-05
-2.008799361322934e-05   3.6581655741849215e-06   -3.0842095938383215e-05
-2.008799361322934e-05   3.6581655741849215e-06   -3.0842095938383215e-05
-2.008799361322934e-05   3.6581655741849215e-06   -3.0842095938383215e-05
-3.075040320791828e-05   5.501418407556635e-06   -4.7506826896175124e-05
-3.075040320791828e-05   5.501418407556635e-06   -4.7506826896175124e-05
-3.075040320791828e-05   5.501418407556635e-06   -4.7506826896175124e-05
-3.075040320791828e-05   5.501418407556635e-06   -4.7506826896175124e-05
-2.9749808908750383e-05   4.874157079883803e-06   -2.9462181302815924e-05
-2.9749808908750383e-05   4.874157079883803e-06   -2.9462181302815924e-05
-2.9749808908750383e-05   4.874157079883803e-06   -2.9462181302815924e-05
-2.9749808908750383e-05   4.874157079883803e-06   -2.9462181302815924e-05
-1.9344361190632257e-05   6.588394112347438e-06   -4.78331363858242e-05
-1.9344361190632257e-05   6.588394112347438e-06   -4.78331363858242e-05
-1.9344361190632257e-05   6.588394112347438e-06   -4.78331363858242e-05
-1.9344361190632257e-05   6.588394112347438e-06   -4.78331363858242e-05
-2.4790044631509963e-05   5.058155108117381e-06   -3.783885391515733e-05
-2.4790044631509963e-05   5.058155108117381e-06   -3.783885391515733e-05
-2.4790044631509963e-05   5.058155108117381e-06   -3.783885391515733e-05
-2.4790044631509963e-05   5.058155108117381e-06   -3.783885391515733e-05
-1.9344361190632243e-05   4.874157079883803e-06   -3.0490723522293714e-05
-1.9344361190632243e-05   4.874157079883803e-06   -3.0490723522293714e-05
-1.9344361190632243e-05   4.874157079883803e-06   -3.0490723522293714e-05
-1.9344361190632243e-05   4.874157079883803e-06   -3.0490723522293714e-05
-2.9749808908750383e-05   6.588394112347438e-06   -4.680459416634623e-05
-2.9749808908750383e-05   6.588394112347438e-06   -4.680459416634623e-05
-2.9749808908750383e-05   6.588394112347438e-06   -4.680459416634623e-05
-2.9749808908750383e-05   6.588394112347438e-06   -4.680459416634623e-05
-2.891604456557743e-05   6.237213247474015e-06   -3.0277483365583665e-05
-2.891604456557743e-05   6.237213247474015e-06   -3.0277483365583665e-05
-2.891604456557743e-05   6.237213247474015e-06   -3.0277483365583665e-05
-2.891604456557743e-05   6.237213247474015e-06   -3.0277483365583665e-05
-1.863524173122475e-05   7.804892323513835e-06   -4.835276220179532e-05
-1.863524173122475e-05   7.804892323513835e-06   -4.835276220179532e-05
-1.863524173122475e-05   7.804892323513835e-06   -4.835276220179532e-05
-1.863524173122475e-05   7.804892323513835e-06   -4.835276220179532e-05
-2.4225059472243745e-05   5.996875833544444e-06   -3.795158940611554e-05
-2.4225059472243745e-05   5.996875833544444e-06   -3.795158940611554e-05
-2.4225059472243745e-05   5.996875833544444e-06   -3.795158940611554e-05
-2.4225059472243745e-05   5.996875833544444e-06   -3.795158940611554e-05
-3.158657056420064e-05   3.931443586624233e-06   -1.6334066143048947e-05
-3.158657056420064e-05   3.931443586624233e-06   -1.6334066143048947e-05
-3.158657056420064e-05   3.931443586624233e-06   -1.6334066143048947e-05
-3.158657056420064e-05   3.931443586624233e-06   -1.6334066143048947e-05
-4.385445152149477e-05   7.383418842293876e-06   -3.47093492518043e-05
-4.385445152149477e-05   7.383418842293876e-06   -3.47093492518043e-05
-4.385445152149477e-05   7.383418842293876e-06   -3.47093492518043e-05
-4.385445152149477e-05   7.383418842293876e-06   -3.47093492518043e-05
-4.155999532997305e-05   5.125994031978396e-06   -1.0278984662392813e-05
-4.155999532997305e-05   5.125994031978396e-06   -1.0278984662392813e-05
-4.155999532997305e-05   5.125994031978396e-06   -1.0278984662392813e-05
-4.155999532997305e-05   5.125994031978396e-06   -1.0278984662392813e-05
-3.075040320791823e-05   8.635814484314521e-06   -3.0400863803885646e-05
-3.075040320791823e-05   8.635814484314521e-06   -3.0400863803885646e-05
-3.075040320791823e-05   8.635814484314521e-06   -3.0400863803885646e-05
-3.075040320791823e-05   8.635814484314521e-06   -3.0400863803885646e-05
-3.5435020902429177e-05   6.412781030243429e-06   -2.125934757392497e-05
-3.5435020902429177e-05   6.412781030243429e-06   -2.125934757392497e-05
-3.5435020902429177e-05   6.412781030243429e-06   -2.125934757392497e-05
-3.5435020902429177e-05   6.412781030243429e-06   -2.125934757392497e-05
-3.0750403207918255e-05   5.125994031978396e-06   -1.2384876933794076e-05
-3.0750403207918255e-05   5.125994031978396e-06   -1.2384876933794076e-05
-3.0750403207918255e-05   5.125994031978396e-06   -1.2384876933794076e-05
-3.0750403207918255e-05   5.125994031978396e-06   -1.2384876933794076e-05
-4.1559995329972914e-05   8.635814484314087e-06   -2.8294971532484125e-05
-4.1559995329972914e-05   8.635814484314087e-06   -2.8294971532484125e-05
-4.1559995329972914e-05   8.635814484314087e-06   -2.8294971532484125e-05
-4.1559995329972914e-05   8.635814484314087e-06   -2.8294971532484125e-05
-3.9663584613804635e-05   5.6729683562692715e-06   -8.445789524479585e-06
-3.9663584613804635e-05   5.6729683562692715e-06   -8.445789524479585e-06
-3.9663584613804635e-05   5.6729683562692715e-06   -8.445789524479585e-06
-3.9663584613804635e-05   5.6729683562692715e-06   -8.445789524479585e-06
-2.9749808908750342e-05   9.084471822871486e-06   -2.7015651112864672e-05
-2.9749808908750342e-05   9.084471822871486e-06   -2.7015651112864672e-05
-2.9749808908750342e-05   9.084471822871486e-06   -2.7015651112864672e-05
-2.9749808908750342e-05   9.084471822871486e-06   -2.7015651112864672e-05
-3.459267056323881e-05   6.975600291822103e-06   -1.767889210342095e-05
-3.459267056323881e-05   6.975600291822103e-06   -1.767889210342095e-05
-3.459267056323881e-05   6.975600291822103e-06   -1.767889210342095e-05
-3.459267056323881e-05   6.975600291822103e-06   -1.767889210342095e-05
-2.9749808908750383e-05   5.672968356269488e-06   -1.0492691604441001e-05
-2.9749808908750383e-05   5.672968356269488e-06   -1.0492691604441001e-05
-2.9749808908750383e-05   5.672968356269488e-06   -1.0492691604441001e-05
-2.9749808908750383e-05   5.672968356269488e-06   -1.0492691604441001e-05
-3.966358461380458e-05   9.084471822871486e-06   -2.4968749032903623e-05
-3.966358461380458e-05   9.084471822871486e-06   -2.4968749032903623e-05
-3.966358461380458e-05   9.084471822871486e-06   -2.4968749032903623e-05
-3.966358461380458e-05   9.084471822871486e-06   -2.4968749032903623e-05
-3.742160933551246e-05   6.521256267344802e-06   -6.529765583293502e-06
-3.742160933551246e-05   6.521256267344802e-06   -6.529765583293502e-06
-3.742160933551246e-05   6.521256267344802e-06   -6.529765583293502e-06
-3.742160933551246e-05   6.521256267344802e-06   -6.529765583293502e-06
-2.891604456557743e-05   9.654258145817655e-06   -2.258550799360248e-05
-2.891604456557743e-05   9.654258145817655e-06   -2.258550799360248e-05
-2.891604456557743e-05   9.654258145817655e-06   -2.258550799360248e-05
-2.891604456557743e-05   9.654258145817655e-06   -2.258550799360248e-05
-3.281103762922088e-05   7.247685404677181e-06   -1.464990924284615e-05
-3.281103762922088e-05   7.247685404677181e-06   -1.464990924284615e-05
-3.281103762922088e-05   7.247685404677181e-06   -1.464990924284615e-05
-3.281103762922088e-05   7.247685404677181e-06   -1.464990924284615e-05
3.3328033463265365e-05   -4.373077681223657e-06   -2.832152567087357e-07
3.3328033463265365e-05   -4.373077681223657e-06   -2.832152567087357e-07
3.3328033463265365e-05   -4.373077681223657e-06   -2.832152567087357e-07
3.3328033463265365e-05   -4.373077681223657e-06   -2.832152567087357e-07
1.420933624342389e-05   -7.89266377974147e-06   -3.425946228222175e-05
1.420933624342389e-05   -7.89266377974147e-06   -3.425946228222175e-05
1.420933624342389e-05   -7.89266377974147e-06   -3.425946228222175e-05
1.420933624342389e-05   -7.89266377974147e-06   -3.425946228222175e-05
1.5219535484304404e-05   -3.593270076307324e-06   -3.793099380379125e-06
1.5219535484304404e-05   -3.593270076307324e-06   -3.793099380379125e-06
1.5219535484304404e-05   -3.593270076307324e-06   -3.793099380379125e-06
1.5219535484304404e-05   -3.593270076307324e-06   -3.793099380379125e-06
3.5854816951543834e-05   -7.33972687641353e-06   -3.5937361079048055e-05
3.5854816951543834e-05   -7.33972687641353e-06   -3.5937361079048055e-05
3.5854816951543834e-05   -7.33972687641353e-06   -3.5937361079048055e-05
3.5854816951543834e-05   -7.33972687641353e-06   -3.5937361079048055e-05
2.365902034762556e-05   -5.200399186937321e-06   -1.6894630019536586e-05
2.365902034762556e-05   -5.200399186937321e-06   -1.6894630019536586e-05
2.365902034762556e-05   -5.200399186937321e-06   -1.6894630019536586e-05
2.365902034762556e-05   -5.200399186937321e-06   -1.6894630019536586e-05
3.585481695154394e-05   -3.593270076307324e-06   -1.5452253003154452e-06
3.585481695154394e-05   -3.593270076307324e-06   -1.5452253003154452e-06
3.585481695154394e-05   -3.593270076307324e-06   -1.5452253003154452e-06
3.585481695154394e-05   -3.593270076307324e-06   -1.5452253003154452e-06
1.5219535484304323e-05   -7.33972687641353e-06   -3.8185235159111626e-05
1.5219535484304323e-05   -7.33972687641353e-06   -3.8185235159111626e-05
1.5219535484304323e-05   -7.33972687641353e-06   -3.8185235159111626e-05
1.5219535484304323e-05   -7.33972687641353e-06   -3.8185235159111626e-05
1.6338436781578074e-05   -3.0738021862715403e-06   -5.330999233340173e-06
1.6338436781578074e-05   -3.0738021862715403e-06   -5.330999233340173e-06
1.6338436781578074e-05   -3.0738021862715403e-06   -5.330999233340173e-06
1.6338436781578074e-05   -3.0738021862715403e-06   -5.330999233340173e-06
3.797819580746343e-05   -6.865171372545491e-06   -3.912244276471795e-05
3.797819580746343e-05   -6.865171372545491e-06   -3.912244276471795e-05
3.797819580746343e-05   -6.865171372545491e-06   -3.912244276471795e-05
3.797819580746343e-05   -6.865171372545491e-06   -3.912244276471795e-05
2.5556936160542082e-05   -4.989206892090647e-06   -1.9545922041455275e-05
2.5556936160542082e-05   -4.989206892090647e-06   -1.9545922041455275e-05
2.5556936160542082e-05   -4.989206892090647e-06   -1.9545922041455275e-05
2.5556936160542082e-05   -4.989206892090647e-06   -1.9545922041455275e-05
3.797819580746354e-05   -3.0738021862715403e-06   -3.056177721575499e-06
3.797819580746354e-05   -3.0738021862715403e-06   -3.056177721575499e-06
3.797819580746354e-05   -3.0738021862715403e-06   -3.056177721575499e-06
3.797819580746354e-05   -3.0738021862715403e-06   -3.056177721575499e-06
1.6338436781578047e-05   -6.865171372545491e-06   -4.1397264276482734e-05
1.6338436781578047e-05   -6.865171372545491e-06   -4.1397264276482734e-05
1.6338436781578047e-05   -6.865171372545491e-06   -4.1397264276482734e-05
1.6338436781578047e-05   -6.865171372545491e-06   -4.1397264276482734e-05
1.726390584256662e-05   -1.764466682803098e-06   -8.882555094099362e-06
1.726390584256662e-05   -1.764466682803098e-06   -8.882555094099362e-06
1.726390584256662e-05   -1.764466682803098e-06   -8.882555094099362e-06
1.726390584256662e-05   -1.764466682803098e-06   -8.882555094099362e-06
4.0443571076843616e-05   -5.363708103019345e-06   -4.535578563243114e-05
4.0443571076843616e-05   -5.363708103019345e-06   -4.535578563243114e-05
4.0443571076843616e-05   -5.363708103019345e-06   -4.535578563243114e-05
4.0443571076843616e-05   -5.363708103019345e-06   -4.535578563243114e-05
2.658742534609623e-05   -4.403267025755719e-06   -2.283847406087797e-05
2.658742534609623e-05   -4.403267025755719e-06   -2.283847406087797e-05
2.658742534609623e-05   -4.403267025755719e-06   -2.283847406087797e-05
2.658742534609623e-05   -4.403267025755719e-06   -2.283847406087797e-05
1.4209336243423945e-05   -1.7314809382332902e-06   -2.3254860647522546e-05
1.4209336243423945e-05   -1.7314809382332902e-06   -2.3254860647522546e-05
1.4209336243423945e-05   -1.7314809382332902e-06   -2.3254860647522546e-05
1.4209336243423945e-05   -1.7314809382332902e-06   -2.3254860647522546e-05
-6.034699463214864e-06   -3.69954613411343e-06   -5.8175759276115225e-05
-6.034699463214864e-06   -3.69954613411343e-06   -5.8175759276115225e-05
-6.034699463214864e-06   -3.69954613411343e-06   -5.8175759276115225e-05
-6.034699463214864e-06   -3.69954613411343e-06   -5.8175759276115225e-05
-5.094375030344266e-06   -6.627993312771814e-07   -2.3738812944666373e-05
-5.094375030344266e-06   -6.627993312771814e-07   -2.3738812944666373e-05
-5.094375030344266e-06   -6.627993312771814e-07   -2.3738812944666373e-05
-5.094375030344266e-06   -6.627993312771814e-07   -2.3738812944666373e-05
1.5219535484304377e-05   -2.932550674835787e-06   -5.623347966294531e-05
1.5219535484304377e-05   -2.932550674835787e-06   -5.623347966294531e-05
1.5219535484304377e-05   -2.932550674835787e-06   -5.623347966294531e-05
1.5219535484304377e-05   -2.932550674835787e-06   -5.623347966294531e-05
4.625525772445943e-06   -1.7894480654474625e-06   -3.9262658375481064e-05
4.625525772445943e-06   -1.7894480654474625e-06   -3.9262658375481064e-05
4.625525772445943e-06   -1.7894480654474625e-06   -3.9262658375481064e-05
4.625525772445943e-06   -1.7894480654474625e-06   -3.9262658375481064e-05
1.5219535484304377e-05   -6.627993312771814e-07   -2.2376962138530906e-05
1.5219535484304377e-05   -6.627993312771814e-07   -2.2376962138530906e-05
1.5219535484304377e-05   -6.627993312771814e-07   -2.2376962138530906e-05
1.5219535484304377e-05   -6.627993312771814e-07   -2.2376962138530906e-05
-5.094375030344266e-06   -2.932550674835787e-06   -5.759533046908083e-05
-5.094375030344266e-06   -2.932550674835787e-06   -5.759533046908083e-05
-5.094375030344266e-06   -2.932550674835787e-06   -5.759533046908083e-05
-5.094375030344266e-06   -2.932550674835787e-06   -5.759533046908083e-05
-4.196544316879179e-06   4.4209493936736913e-07   -2.4042725583588815e-05
-4.196544316879179e-06   4.4209493936736913e-07   -2.4042725583588815e-05
-4.196544316879179e-06   4.4209493936736913e-07   -2.4042725583588815e-05
-4.196544316879179e-06   4.4209493936736913e-07   -2.4042725583588815e-05
1.6338436781578047e-05   -1.994909745598253e-06   -5.6805491270038155e-05
1.6338436781578047e-05   -1.994909745598253e-06   -5.6805491270038155e-05
1.6338436781578047e-05   -1.994909745598253e-06   -5.6805491270038155e-05
1.6338436781578047e-05   -1.994909745598253e-06   -5.6805491270038155e-05
5.372106643358561e-06   -1.1112968991856126e-06   -3.9058442080852304e-05
5.372106643358561e-06   -1.1112968991856126e-06   -3.9058442080852304e-05
5.372106643358561e-06   -1.1112968991856126e-06   -3.9058442080852304e-05
5.372106643358561e-06   -1.1112968991856126e-06   -3.9058442080852304e-05
1.6338436781578074e-05   4.4209493936693545e-07   -2.2580522772609616e-05
1.6338436781578074e-05   4.4209493936693545e-07   -2.2580522772609616e-05
1.6338436781578074e-05   4.4209493936693545e-07   -2.2580522772609616e-05
1.6338436781578074e-05   4.4209493936693545e-07   -2.2580522772609616e-05
-4.196544316879179e-06   -1.994909745598253e-06   -5.826769408101779e-05
-4.196544316879179e-06   -1.994909745598253e-06   -5.826769408101779e-05
-4.196544316879179e-06   -1.994909745598253e-06   -5.826769408101779e-05
-4.196544316879179e-06   -1.994909745598253e-06   -5.826769408101779e-05
-3.3530601477360688e-06   1.7503459280340632e-06   -2.485943825216775e-05
-3.3530601477360688e-06   1.7503459280340632e-06   -2.485943825216775e-05
-3.3530601477360688e-06   1.7503459280340632e-06   -2.485943825216775e-05
-3.3530601477360688e-06   1.7503459280340632e-06   -2.485943825216775e-05
1.7263905842566566e-05   -8.153588300576116e-07   -5.768162538115053e-05
1.7263905842566566e-05   -8.153588300576116e-07   -5.768162538115053e-05
1.7263905842566566e-05   -8.153588300576116e-07   -5.768162538115053e-05
1.7263905842566566e-05   -8.153588300576116e-07   -5.768162538115053e-05
6.30268180881902e-06   -2.750799434269799e-07   -3.97370859902172e-05
6.30268180881902e-06   -2.750799434269799e-07   -3.97370859902172e-05
6.30268180881902e-06   -2.750799434269799e-07   -3.97370859902172e-05
6.30268180881902e-06   -2.750799434269799e-07   -3.97370859902172e-05
-6.034699463214864e-06   1.3270317875445706e-06   -2.990040547118074e-05
-6.034699463214864e-06   1.3270317875445706e-06   -2.990040547118074e-05
-6.034699463214864e-06   1.3270317875445706e-06   -2.990040547118074e-05
-6.034699463214864e-06   1.3270317875445706e-06   -2.990040547118074e-05
-2.592218651802987e-05   6.66742919882158e-07   -6.344239054980336e-05
-2.592218651802987e-05   6.66742919882158e-07   -6.344239054980336e-05
-2.592218651802987e-05   6.66742919882158e-07   -6.344239054980336e-05
-2.592218651802987e-05   6.66742919882158e-07   -6.344239054980336e-05
-2.4910015102756987e-05   2.457427534206802e-06   -2.9693948216362107e-05
-2.4910015102756987e-05   2.457427534206802e-06   -2.9693948216362107e-05
-2.4910015102756987e-05   2.457427534206802e-06   -2.9693948216362107e-05
-2.4910015102756987e-05   2.457427534206802e-06   -2.9693948216362107e-05
-5.094375030344266e-06   1.5279666304049248e-06   -6.216233846143541e-05
-5.094375030344266e-06   1.5279666304049248e-06   -6.216233846143541e-05
-5.094375030344266e-06   1.5279666304049248e-06   -6.216233846143541e-05
-5.094375030344266e-06   1.5279666304049248e-06   -6.216233846143541e-05
-1.5384138024065102e-05   1.8192238762223742e-06   -4.5187487819391245e-05
-1.5384138024065102e-05   1.8192238762223742e-06   -4.5187487819391245e-05
-1.5384138024065102e-05   1.8192238762223742e-06   -4.5187487819391245e-05
-1.5384138024065102e-05   1.8192238762223742e-06   -4.5187487819391245e-05
-5.094375030344266e-06   2.457427534206802e-06   -2.9136271674080937e-05
-5.094375030344266e-06   2.457427534206802e-06   -2.9136271674080937e-05
-5.094375030344266e-06   2.457427534206802e-06   -2.9136271674080937e-05
-5.094375030344266e-06   2.457427534206802e-06   -2.9136271674080937e-05
-2.4910015102756987e-05   1.5279666304049248e-06   -6.272001500371664e-05
-2.4910015102756987e-05   1.5279666304049248e-06   -6.272001500371664e-05
-2.4910015102756987e-05   1.5279666304049248e-06   -6.272001500371664e-05
-2.4910015102756987e-05   1.5279666304049248e-06   -6.272001500371664e-05
-2.3933842258144362e-05   3.6543376084156864e-06   -2.9649192416508372e-05
-2.3933842258144362e-05   3.6543376084156864e-06   -2.9649192416508372e-05
-2.3933842258144362e-05   3.6543376084156864e-06   -2.9649192416508372e-05
-2.3933842258144362e-05   3.6543376084156864e-06   -2.9649192416508372e-05
-4.1965443168792064e-06   2.5256145139195343e-06   -6.186745512858592e-05
-4.1965443168792064e-06   2.5256145139195343e-06   -6.186745512858592e-05
-4.1965443168792064e-06   2.5256145139195343e-06   -6.186745512858592e-05
-4.1965443168792064e-06   2.5256145139195343e-06   -6.186745512858592e-05
-1.4513029858640569e-05   2.625451992610897e-06   -4.4733215046198656e-05
-1.4513029858640569e-05   2.625451992610897e-06   -4.4733215046198656e-05
-1.4513029858640569e-05   2.625451992610897e-06   -4.4733215046198656e-05
-1.4513029858640569e-05   2.625451992610897e-06   -4.4733215046198656e-05
-4.1965443168792064e-06   3.65433760841612e-06   -2.897195855981055e-05
-4.1965443168792064e-06   3.65433760841612e-06   -2.897195855981055e-05
-4.1965443168792064e-06   3.65433760841612e-06   -2.897195855981055e-05
-4.1965443168792064e-06   3.65433760841612e-06   -2.897195855981055e-05
-2.3933842258144362e-05   2.5256145139191007e-06   -6.254468898528385e-05
-2.3933842258144362e-05   2.5256145139191007e-06   -6.254468898528385e-05
-2.3933842258144362e-05   2.5256145139191007e-06   -6.254468898528385e-05
-2.3933842258144362e-05   2.5256145139191007e-06   -6.254468898528385e-05
-2.303179146012681e-05   4.871920847581389e-06   -3.034602128090965e-05
-2.303179146012681e-05   4.871920847581389e-06   -3.034602128090965e-05
-2.303179146012681e-05   4.871920847581389e-06   -3.034602128090965e-05
-2.303179146012681e-05   4.871920847581389e-06   -3.034602128090965e-05
-3.3530601477360688e-06   3.556713696953144e-06   -6.235478251118425e-05
-3.3530601477360688e-06   3.556713696953144e-06   -6.235478251118425e-05
-3.3530601477360688e-06   3.556713696953144e-06   -6.235478251118425e-05
-3.3530601477360688e-06   3.556713696953144e-06   -6.235478251118425e-05
-1.3734642125247974e-05   3.452727618039747e-06   -4.4989754234650375e-05
-1.3734642125247974e-05   3.452727618039747e-06   -4.4989754234650375e-05
-1.3734642125247974e-05   3.452727618039747e-06   -4.4989754234650375e-05
-1.3734642125247974e-05   3.452727618039747e-06   -4.4989754234650375e-05
-2.592218651802991e-05   4.294853952062881e-06   -2.426015206200894e-05
-2.592218651802991e-05   4.294853952062881e-06   -2.426015206200894e-05
-2.592218651802991e-05   4.294853952062881e-06   -2.426015206200894e-05
-2.592218651802991e-05   4.294853952062881e-06   -2.426015206200894e-05
-4.5437546998948e-05   5.189132432930135e-06   -5.62491857750186e-05
-4.5437546998948e-05   5.189132432930135e-06   -5.62491857750186e-05
-4.5437546998948e-05   5.189132432930135e-06   -5.62491857750186e-05
-4.5437546998948e-05   5.189132432930135e-06   -5.62491857750186e-05
-4.421779816212282e-05   5.501418407556635e-06   -2.2799887621074728e-05
-4.421779816212282e-05   5.501418407556635e-06   -2.2799887621074728e-05
-4.421779816212282e-05   5.501418407556635e-06   -2.2799887621074728e-05
-4.421779816212282e-05   5.501418407556635e-06   -2.2799887621074728e-05
-2.4910015102757028e-05   6.2832088425805385e-06   -5.5448600314365805e-05
-2.4910015102757028e-05   6.2832088425805385e-06   -5.5448600314365805e-05
-2.4910015102757028e-05   6.2832088425805385e-06   -5.5448600314365805e-05
-2.4910015102757028e-05   6.2832088425805385e-06   -5.5448600314365805e-05
-3.486520519980448e-05   5.546170046499387e-06   -3.8414393541637824e-05
-3.486520519980448e-05   5.546170046499387e-06   -3.8414393541637824e-05
-3.486520519980448e-05   5.546170046499387e-06   -3.8414393541637824e-05
-3.486520519980448e-05   5.546170046499387e-06   -3.8414393541637824e-05
-2.4910015102757028e-05   5.501418407556635e-06   -2.3268961882089286e-05
-2.4910015102757028e-05   5.501418407556635e-06   -2.3268961882089286e-05
-2.4910015102757028e-05   5.501418407556635e-06   -2.3268961882089286e-05
-2.4910015102757028e-05   5.501418407556635e-06   -2.3268961882089286e-05
-4.421779816212289e-05   6.2832088425805385e-06   -5.497952605335119e-05
-4.421779816212289e-05   6.2832088425805385e-06   -5.497952605335119e-05
-4.421779816212289e-05   6.2832088425805385e-06   -5.497952605335119e-05
-4.421779816212289e-05   6.2832088425805385e-06   -5.497952605335119e-05
-4.2868606036921476e-05   6.588394112347438e-06   -2.198775279240459e-05
-4.2868606036921476e-05   6.588394112347438e-06   -2.198775279240459e-05
-4.2868606036921476e-05   6.588394112347438e-06   -2.198775279240459e-05
-4.2868606036921476e-05   6.588394112347438e-06   -2.198775279240459e-05
-2.393384225814441e-05   7.225489694501555e-06   -5.392794977299227e-05
-2.393384225814441e-05   7.225489694501555e-06   -5.392794977299227e-05
-2.393384225814441e-05   7.225489694501555e-06   -5.392794977299227e-05
-2.393384225814441e-05   7.225489694501555e-06   -5.392794977299227e-05
-3.363197300207395e-05   6.397753924230337e-06   -3.726775707094674e-05
-3.363197300207395e-05   6.397753924230337e-06   -3.726775707094674e-05
-3.363197300207395e-05   6.397753924230337e-06   -3.726775707094674e-05
-3.363197300207395e-05   6.397753924230337e-06   -3.726775707094674e-05
-2.393384225814439e-05   6.588394112347438e-06   -2.2370010141697016e-05
-2.393384225814439e-05   6.588394112347438e-06   -2.2370010141697016e-05
-2.393384225814439e-05   6.588394112347438e-06   -2.2370010141697016e-05
-2.393384225814439e-05   6.588394112347438e-06   -2.2370010141697016e-05
-4.2868606036921476e-05   7.225489694501555e-06   -5.354569242369965e-05
-4.2868606036921476e-05   7.225489694501555e-06   -5.354569242369965e-05
-4.2868606036921476e-05   7.225489694501555e-06   -5.354569242369965e-05
-4.2868606036921476e-05   7.225489694501555e-06   -5.354569242369965e-05
-4.172840521107432e-05   7.804892323513835e-06   -2.249569243412174e-05
-4.172840521107432e-05   7.804892323513835e-06   -2.249569243412174e-05
-4.172840521107432e-05   7.804892323513835e-06   -2.249569243412174e-05
-4.172840521107432e-05   7.804892323513835e-06   -2.249569243412174e-05
-2.3031791460126844e-05   8.26824725187053e-06   -5.39347283093813e-05
-2.3031791460126844e-05   8.26824725187053e-06   -5.39347283093813e-05
-2.3031791460126844e-05   8.26824725187053e-06   -5.39347283093813e-05
-2.3031791460126844e-05   8.26824725187053e-06   -5.39347283093813e-05
-3.2863657886865564e-05   7.182280619398053e-06   -3.689670428533374e-05
-3.2863657886865564e-05   7.182280619398053e-06   -3.689670428533374e-05
-3.2863657886865564e-05   7.182280619398053e-06   -3.689670428533374e-05
-3.2863657886865564e-05   7.182280619398053e-06   -3.689670428533374e-05
-4.5437546998948e-05   7.383418842293876e-06   -1.2159686287884245e-05
-4.5437546998948e-05   7.383418842293876e-06   -1.2159686287884245e-05
-4.5437546998948e-05   7.383418842293876e-06   -1.2159686287884245e-05
-4.5437546998948e-05   7.383418842293876e-06   -1.2159686287884245e-05
-6.598831450745158e-05   1.0203921083019613e-05   -4.471866412428835e-05
-6.598831450745158e-05   1.0203921083019613e-05   -4.471866412428835e-05
-6.598831450745158e-05   1.0203921083019613e-05   -4.471866412428835e-05
-6.598831450745158e-05   1.0203921083019613e-05   -4.471866412428835e-05
-6.319029216188485e-05   8.635814484314521e-06   -3.880892573053822e-06
-6.319029216188485e-05   8.635814484314521e-06   -3.880892573053822e-06
-6.319029216188485e-05   8.635814484314521e-06   -3.880892573053822e-06
-6.319029216188485e-05   8.635814484314521e-06   -3.880892573053822e-06
-4.421779816212282e-05   1.1657534410533608e-05   -3.731474786172221e-05
-4.421779816212282e-05   1.1657534410533608e-05   -3.731474786172221e-05
-4.421779816212282e-05   1.1657534410533608e-05   -3.731474786172221e-05
-4.421779816212282e-05   1.1657534410533608e-05   -3.731474786172221e-05
-5.244651311813897e-05   9.72137125266996e-06   -2.243852504031055e-05
-5.244651311813897e-05   9.72137125266996e-06   -2.243852504031055e-05
-5.244651311813897e-05   9.72137125266996e-06   -2.243852504031055e-05
-5.244651311813897e-05   9.72137125266996e-06   -2.243852504031055e-05
-4.4217798162122855e-05   8.635814484314087e-06   -5.693924528785317e-06
-4.4217798162122855e-05   8.635814484314087e-06   -5.693924528785317e-06
-4.4217798162122855e-05   8.635814484314087e-06   -5.693924528785317e-06
-4.4217798162122855e-05   8.635814484314087e-06   -5.693924528785317e-06
-6.319029216188476e-05   1.1657534410533608e-05   -3.550171590599059e-05
-6.319029216188476e-05   1.1657534410533608e-05   -3.550171590599059e-05
-6.319029216188476e-05   1.1657534410533608e-05   -3.550171590599059e-05
-6.319029216188476e-05   1.1657534410533608e-05   -3.550171590599059e-05
-6.088775187085399e-05   9.084471822871486e-06   -4.256767071381031e-07
-6.088775187085399e-05   9.084471822871486e-06   -4.256767071381031e-07
-6.088775187085399e-05   9.084471822871486e-06   -4.256767071381031e-07
-6.088775187085399e-05   9.084471822871486e-06   -4.256767071381031e-07
-4.2868606036921476e-05   1.2039693542513063e-05   -3.2230719462144024e-05
-4.2868606036921476e-05   1.2039693542513063e-05   -3.2230719462144024e-05
-4.2868606036921476e-05   1.2039693542513063e-05   -3.2230719462144024e-05
-4.2868606036921476e-05   1.2039693542513063e-05   -3.2230719462144024e-05
-5.149054346036556e-05   1.029970646017949e-05   -1.6816831507003235e-05
-5.149054346036556e-05   1.029970646017949e-05   -1.6816831507003235e-05
-5.149054346036556e-05   1.029970646017949e-05   -1.6816831507003235e-05
-5.149054346036556e-05   1.029970646017949e-05   -1.6816831507003235e-05
-4.2868606036921476e-05   9.084471822871486e-06   -2.198809738923179e-06
-4.2868606036921476e-05   9.084471822871486e-06   -2.198809738923179e-06
-4.2868606036921476e-05   9.084471822871486e-06   -2.198809738923179e-06
-4.2868606036921476e-05   9.084471822871486e-06   -2.198809738923179e-06
-6.088775187085377e-05   1.2039693542513063e-05   -3.0457586430359144e-05
-6.088775187085377e-05   1.2039693542513063e-05   -3.0457586430359144e-05
-6.088775187085377e-05   1.2039693542513063e-05   -3.0457586430359144e-05
-6.088775187085377e-05   1.2039693542513063e-05   -3.0457586430359144e-05
-5.8404593616199184e-05   9.654258145817655e-06   3.960334217548937e-06
-5.8404593616199184e-05   9.654258145817655e-06   3.960334217548937e-06
-5.8404593616199184e-05   9.654258145817655e-06   3.960334217548937e-06
-5.8404593616199184e-05   9.654258145817655e-06   3.960334217548937e-06
-4.172840521107432e-05   1.2369891294320388e-05   -2.5462693013427217e-05
-4.172840521107432e-05   1.2369891294320388e-05   -2.5462693013427217e-05
-4.172840521107432e-05   1.2369891294320388e-05   -2.5462693013427217e-05
-4.172840521107432e-05   1.2369891294320388e-05   -2.5462693013427217e-05
-4.915782286609012e-05   1.0394271168986946e-05   -1.1894958179867838e-05
-4.915782286609012e-05   1.0394271168986946e-05   -1.1894958179867838e-05
-4.915782286609012e-05   1.0394271168986946e-05   -1.1894958179867838e-05
-4.915782286609012e-05   1.0394271168986946e-05   -1.1894958179867838e-05
5.65879951275178e-05   -7.89266377974147e-06   1.1185735538139872e-05
5.65879951275178e-05   -7.89266377974147e-06   1.1185735538139872e-05
5.65879951275178e-05   -7.89266377974147e-06   1.1185735538139872e-05
5.65879951275178e-05   -7.89266377974147e-06   1.1185735538139872e-05
2.7278041162061354e-05   -1.1691758666020503e-05   -3.994364466938815e-05
2.7278041162061354e-05   -1.1691758666020503e-05   -3.994364466938815e-05
2.7278041162061354e-05   -1.1691758666020503e-05   -3.994364466938815e-05
2.7278041162061354e-05   -1.1691758666020503e-05   -3.994364466938815e-05
2.839780684203846e-05   -7.33972687641353e-06   5.376740481581512e-06
2.839780684203846e-05   -7.33972687641353e-06   5.376740481581512e-06
2.839780684203846e-05   -7.33972687641353e-06   5.376740481581512e-06
2.839780684203846e-05   -7.33972687641353e-06   5.376740481581512e-06
5.918462503538423e-05   -1.141811947542263e-05   -4.348758761458935e-05
5.918462503538423e-05   -1.141811947542263e-05   -4.348758761458935e-05
5.918462503538423e-05   -1.141811947542263e-05   -4.348758761458935e-05
5.918462503538423e-05   -1.141811947542263e-05   -4.348758761458935e-05
4.111984473491975e-05   -8.64297940338099e-06   -1.5044704490373563e-05
4.111984473491975e-05   -8.64297940338099e-06   -1.5044704490373563e-05
4.111984473491975e-05   -8.64297940338099e-06   -1.5044704490373563e-05
4.111984473491975e-05   -8.64297940338099e-06   -1.5044704490373563e-05
5.918462503538434e-05   -7.33972687641353e-06   7.823776040987232e-06
5.918462503538434e-05   -7.33972687641353e-06   7.823776040987232e-06
5.918462503538434e-05   -7.33972687641353e-06   7.823776040987232e-06
5.918462503538434e-05   -7.33972687641353e-06   7.823776040987232e-06
2.8397806842038405e-05   -1.141811947542263e-05   -4.593462317399491e-05
2.8397806842038405e-05   -1.141811947542263e-05   -4.593462317399491e-05
2.8397806842038405e-05   -1.141811947542263e-05   -4.593462317399491e-05
2.8397806842038405e-05   -1.141811947542263e-05   -4.593462317399491e-05
2.9511650037543428e-05   -6.865171372545491e-06   2.536140839053992e-06
2.9511650037543428e-05   -6.865171372545491e-06   2.536140839053992e-06
2.9511650037543428e-05   -6.865171372545491e-06   2.536140839053992e-06
2.9511650037543428e-05   -6.865171372545491e-06   2.536140839053992e-06
6.117819542948537e-05   -1.1021915182144858e-05   -4.7747388528423574e-05
6.117819542948537e-05   -1.1021915182144858e-05   -4.7747388528423574e-05
6.117819542948537e-05   -1.1021915182144858e-05   -4.7747388528423574e-05
6.117819542948537e-05   -1.1021915182144858e-05   -4.7747388528423574e-05
4.330620805112206e-05   -8.614563222363383e-06   -1.940515407368665e-05
4.330620805112206e-05   -8.614563222363383e-06   -1.940515407368665e-05
4.330620805112206e-05   -8.614563222363383e-06   -1.940515407368665e-05
4.330620805112206e-05   -8.614563222363383e-06   -1.940515407368665e-05
6.117819542948537e-05   -6.865171372545491e-06   5.030187124813309e-06
6.117819542948537e-05   -6.865171372545491e-06   5.030187124813309e-06
6.117819542948537e-05   -6.865171372545491e-06   5.030187124813309e-06
6.117819542948537e-05   -6.865171372545491e-06   5.030187124813309e-06
2.9511650037543428e-05   -1.1021915182144858e-05   -5.024143481418284e-05
2.9511650037543428e-05   -1.1021915182144858e-05   -5.024143481418284e-05
2.9511650037543428e-05   -1.1021915182144858e-05   -5.024143481418284e-05
2.9511650037543428e-05   -1.1021915182144858e-05   -5.024143481418284e-05
3.026869037955733e-05   -5.3637081030197785e-06   -3.1878160056805424e-06
3.026869037955733e-05   -5.3637081030197785e-06   -3.1878160056805424e-06
3.026869037955733e-05   -5.3637081030197785e-06   -3.1878160056805424e-06
3.026869037955733e-05   -5.3637081030197785e-06   -3.1878160056805424e-06
6.328609662615924e-05   -9.475804691269456e-06   -5.5749568463733725e-05
6.328609662615924e-05   -9.475804691269456e-06   -5.5749568463733725e-05
6.328609662615924e-05   -9.475804691269456e-06   -5.5749568463733725e-05
6.328609662615924e-05   -9.475804691269456e-06   -5.5749568463733725e-05
4.391986432140683e-05   -7.952835171210274e-06   -2.4386296334516218e-05
4.391986432140683e-05   -7.952835171210274e-06   -2.4386296334516218e-05
4.391986432140683e-05   -7.952835171210274e-06   -2.4386296334516218e-05
4.391986432140683e-05   -7.952835171210274e-06   -2.4386296334516218e-05
2.727804116206141e-05   -3.69954613411343e-06   -1.3829179269993089e-05
2.727804116206141e-05   -3.69954613411343e-06   -1.3829179269993089e-05
2.727804116206141e-05   -3.69954613411343e-06   -1.3829179269993089e-05
2.727804116206141e-05   -3.69954613411343e-06   -1.3829179269993089e-05
-1.6369093009025685e-06   -7.585433713696091e-06   -6.435229592268257e-05
-1.6369093009025685e-06   -7.585433713696091e-06   -6.435229592268257e-05
-1.6369093009025685e-06   -7.585433713696091e-06   -6.435229592268257e-05
-1.6369093009025685e-06   -7.585433713696091e-06   -6.435229592268257e-05
-4.871695619404405e-07   -2.932550674835787e-06   -1.5246073828143261e-05
-4.871695619404405e-07   -2.932550674835787e-06   -1.5246073828143261e-05
-4.871695619404405e-07   -2.932550674835787e-06   -1.5246073828143261e-05
-4.871695619404405e-07   -2.932550674835787e-06   -1.5246073828143261e-05
2.839780684203846e-05   -7.223500351320484e-06   -6.081313136221722e-05
2.839780684203846e-05   -7.223500351320484e-06   -6.081313136221722e-05
2.839780684203846e-05   -7.223500351320484e-06   -6.081313136221722e-05
2.839780684203846e-05   -7.223500351320484e-06   -6.081313136221722e-05
1.342854356196167e-05   -4.588759874880714e-06   -3.744520351461975e-05
1.342854356196167e-05   -4.588759874880714e-06   -3.744520351461975e-05
1.342854356196167e-05   -4.588759874880714e-06   -3.744520351461975e-05
1.342854356196167e-05   -4.588759874880714e-06   -3.744520351461975e-05
2.8397806842038432e-05   -2.932550674835787e-06   -1.267150402225201e-05
2.8397806842038432e-05   -2.932550674835787e-06   -1.267150402225201e-05
2.8397806842038432e-05   -2.932550674835787e-06   -1.267150402225201e-05
2.8397806842038432e-05   -2.932550674835787e-06   -1.267150402225201e-05
-4.871695619404405e-07   -7.223500351320484e-06   -6.33877011681082e-05
-4.871695619404405e-07   -7.223500351320484e-06   -6.33877011681082e-05
-4.871695619404405e-07   -7.223500351320484e-06   -6.33877011681082e-05
-4.871695619404405e-07   -7.223500351320484e-06   -6.33877011681082e-05
5.25912812936565e-07   -1.994909745598253e-06   -1.5604402069297136e-05
5.25912812936565e-07   -1.994909745598253e-06   -1.5604402069297136e-05
5.25912812936565e-07   -1.994909745598253e-06   -1.5604402069297136e-05
5.25912812936565e-07   -1.994909745598253e-06   -1.5604402069297136e-05
2.9511650037543428e-05   -6.548769603589941e-06   -6.118164819551359e-05
2.9511650037543428e-05   -6.548769603589941e-06   -6.118164819551359e-05
2.9511650037543428e-05   -6.548769603589941e-06   -6.118164819551359e-05
2.9511650037543428e-05   -6.548769603589941e-06   -6.118164819551359e-05
1.4211935595229182e-05   -4.2135779375921875e-06   -3.708323912458757e-05
1.4211935595229182e-05   -4.2135779375921875e-06   -3.708323912458757e-05
1.4211935595229182e-05   -4.2135779375921875e-06   -3.708323912458757e-05
1.4211935595229182e-05   -4.2135779375921875e-06   -3.708323912458757e-05
2.9511650037543428e-05   -1.994909745598253e-06   -1.2872086154502296e-05
2.9511650037543428e-05   -1.994909745598253e-06   -1.2872086154502296e-05
2.9511650037543428e-05   -1.994909745598253e-06   -1.2872086154502296e-05
2.9511650037543428e-05   -1.994909745598253e-06   -1.2872086154502296e-05
5.25912812936565e-07   -6.548769603589508e-06   -6.391396411030859e-05
5.25912812936565e-07   -6.548769603589508e-06   -6.391396411030859e-05
5.25912812936565e-07   -6.548769603589508e-06   -6.391396411030859e-05
5.25912812936565e-07   -6.548769603589508e-06   -6.391396411030859e-05
1.2475019417005078e-06   -8.153588300576116e-07   -1.621820538266457e-05
1.2475019417005078e-06   -8.153588300576116e-07   -1.621820538266457e-05
1.2475019417005078e-06   -8.153588300576116e-07   -1.621820538266457e-05
1.2475019417005078e-06   -8.153588300576116e-07   -1.621820538266457e-05
3.026869037955744e-05   -5.588849630715122e-06   -6.172275829869847e-05
3.026869037955744e-05   -5.588849630715122e-06   -6.172275829869847e-05
3.026869037955744e-05   -5.588849630715122e-06   -6.172275829869847e-05
3.026869037955744e-05   -5.588849630715122e-06   -6.172275829869847e-05
1.5148577035597281e-05   -3.5519032167848595e-06   -3.774473724045698e-05
1.5148577035597281e-05   -3.5519032167848595e-06   -3.774473724045698e-05
1.5148577035597281e-05   -3.5519032167848595e-06   -3.774473724045698e-05
1.5148577035597281e-05   -3.5519032167848595e-06   -3.774473724045698e-05
-1.6369093009025685e-06   6.66742919882158e-07   -2.1031169770833373e-05
-1.6369093009025685e-06   6.66742919882158e-07   -2.1031169770833373e-05
-1.6369093009025685e-06   6.66742919882158e-07   -2.1031169770833373e-05
-1.6369093009025685e-06   6.66742919882158e-07   -2.1031169770833373e-05
-3.012467737375447e-05   -3.996702918541116e-06   -7.130885072864071e-05
-3.012467737375447e-05   -3.996702918541116e-06   -7.130885072864071e-05
-3.012467737375447e-05   -3.996702918541116e-06   -7.130885072864071e-05
-3.012467737375447e-05   -3.996702918541116e-06   -7.130885072864071e-05
-2.8745321547712783e-05   1.5279666304044912e-06   -2.2872243233106786e-05
-2.8745321547712783e-05   1.5279666304044912e-06   -2.2872243233106786e-05
-2.8745321547712783e-05   1.5279666304044912e-06   -2.2872243233106786e-05
-2.8745321547712783e-05   1.5279666304044912e-06   -2.2872243233106786e-05
-4.871695619404405e-07   -3.570635723943588e-06   -6.691000179678505e-05
-4.871695619404405e-07   -3.570635723943588e-06   -6.691000179678505e-05
-4.871695619404405e-07   -3.570635723943588e-06   -6.691000179678505e-05
-4.871695619404405e-07   -3.570635723943588e-06   -6.691000179678505e-05
-1.5066972674185683e-05   -7.817140826454905e-07   -4.428368292782182e-05
-1.5066972674185683e-05   -7.817140826454905e-07   -4.428368292782182e-05
-1.5066972674185683e-05   -7.817140826454905e-07   -4.428368292782182e-05
-1.5066972674185683e-05   -7.817140826454905e-07   -4.428368292782182e-05
-4.871695619404405e-07   1.5279666304049248e-06   -1.9813081820497895e-05
-4.871695619404405e-07   1.5279666304049248e-06   -1.9813081820497895e-05
-4.871695619404405e-07   1.5279666304049248e-06   -1.9813081820497895e-05
-4.871695619404405e-07   1.5279666304049248e-06   -1.9813081820497895e-05
-2.8745321547712783e-05   -3.570635723943588e-06   -6.996916320939415e-05
-2.8745321547712783e-05   -3.570635723943588e-06   -6.996916320939415e-05
-2.8745321547712783e-05   -3.570635723943588e-06   -6.996916320939415e-05
-2.8745321547712783e-05   -3.570635723943588e-06   -6.996916320939415e-05
-2.7479819013854185e-05   2.5256145139191007e-06   -2.2463172490063592e-05
-2.7479819013854185e-05   2.5256145139191007e-06   -2.2463172490063592e-05
-2.7479819013854185e-05   2.5256145139191007e-06   -2.2463172490063592e-05
-2.7479819013854185e-05   2.5256145139191007e-06   -2.2463172490063592e-05
5.25912812936565e-07   -2.9060677747441525e-06   -6.588038282818326e-05
5.25912812936565e-07   -2.9060677747441525e-06   -6.588038282818326e-05
5.25912812936565e-07   -2.9060677747441525e-06   -6.588038282818326e-05
5.25912812936565e-07   -2.9060677747441525e-06   -6.588038282818326e-05
-1.3943244436719799e-05   -2.9342346130221617e-07   -4.333270733348788e-05
-1.3943244436719799e-05   -2.9342346130221617e-07   -4.333270733348788e-05
-1.3943244436719799e-05   -2.9342346130221617e-07   -4.333270733348788e-05
-1.3943244436719799e-05   -2.9342346130221617e-07   -4.333270733348788e-05
5.25912812936565e-07   2.5256145139191007e-06   -1.920416311686538e-05
5.25912812936565e-07   2.5256145139191007e-06   -1.920416311686538e-05
5.25912812936565e-07   2.5256145139191007e-06   -1.920416311686538e-05
5.25912812936565e-07   2.5256145139191007e-06   -1.920416311686538e-05
-2.7479819013854226e-05   -2.9060677747445862e-06   -6.913939220138158e-05
-2.7479819013854226e-05   -2.9060677747445862e-06   -6.913939220138158e-05
-2.7479819013854226e-05   -2.9060677747445862e-06   -6.913939220138158e-05
-2.7479819013854226e-05   -2.9060677747445862e-06   -6.913939220138158e-05
-2.6626439251085183e-05   3.5567136969535777e-06   -2.2851594969639693e-05
-2.6626439251085183e-05   3.5567136969535777e-06   -2.2851594969639693e-05
-2.6626439251085183e-05   3.5567136969535777e-06   -2.2851594969639693e-05
-2.6626439251085183e-05   3.5567136969535777e-06   -2.2851594969639693e-05
1.2475019417005078e-06   -2.2760451560406396e-06   -6.580850831248628e-05
1.2475019417005078e-06   -2.2760451560406396e-06   -6.580850831248628e-05
1.2475019417005078e-06   -2.2760451560406396e-06   -6.580850831248628e-05
1.2475019417005078e-06   -2.2760451560406396e-06   -6.580850831248628e-05
-1.3141454141382054e-05   2.5494567897858117e-07   -4.33455093416939e-05
-1.3141454141382054e-05   2.5494567897858117e-07   -4.33455093416939e-05
-1.3141454141382054e-05   2.5494567897858117e-07   -4.33455093416939e-05
-1.3141454141382054e-05   2.5494567897858117e-07   -4.33455093416939e-05
-3.0124677373754416e-05   5.189132432930135e-06   -1.7172599587623235e-05
-3.0124677373754416e-05   5.189132432930135e-06   -1.7172599587623235e-05
-3.0124677373754416e-05   5.189132432930135e-06   -1.7172599587623235e-05
-3.0124677373754416e-05   5.189132432930135e-06   -1.7172599587623235e-05
-5.900785053440953e-05   9.852325192839968e-07   -6.783356147023597e-05
-5.900785053440953e-05   9.852325192839968e-07   -6.783356147023597e-05
-5.900785053440953e-05   9.852325192839968e-07   -6.783356147023597e-05
-5.900785053440953e-05   9.852325192839968e-07   -6.783356147023597e-05
-5.70443264935316e-05   6.2832088425805385e-06   -1.8305810009851438e-05
-5.70443264935316e-05   6.2832088425805385e-06   -1.8305810009851438e-05
-5.70443264935316e-05   6.2832088425805385e-06   -1.8305810009851438e-05
-5.70443264935316e-05   6.2832088425805385e-06   -1.8305810009851438e-05
-2.874532154771273e-05   1.7749063990881234e-06   -6.276583678678721e-05
-2.874532154771273e-05   1.7749063990881234e-06   -6.276583678678721e-05
-2.874532154771273e-05   1.7749063990881234e-06   -6.276583678678721e-05
-2.874532154771273e-05   1.7749063990881234e-06   -6.276583678678721e-05
-4.3275926082594984e-05   3.934673477431951e-06   -3.984402280898976e-05
-4.3275926082594984e-05   3.934673477431951e-06   -3.984402280898976e-05
-4.3275926082594984e-05   3.934673477431951e-06   -3.984402280898976e-05
-4.3275926082594984e-05   3.934673477431951e-06   -3.984402280898976e-05
-2.874532154771273e-05   6.2832088425805385e-06   -1.5600828543755685e-05
-2.874532154771273e-05   6.2832088425805385e-06   -1.5600828543755685e-05
-2.874532154771273e-05   6.2832088425805385e-06   -1.5600828543755685e-05
-2.874532154771273e-05   6.2832088425805385e-06   -1.5600828543755685e-05
-5.7044326493531705e-05   1.7749063990881234e-06   -6.547081825288297e-05
-5.7044326493531705e-05   1.7749063990881234e-06   -6.547081825288297e-05
-5.7044326493531705e-05   1.7749063990881234e-06   -6.547081825288297e-05
-5.7044326493531705e-05   1.7749063990881234e-06   -6.547081825288297e-05
-5.514680750176944e-05   7.225489694501989e-06   -1.668050094323181e-05
-5.514680750176944e-05   7.225489694501989e-06   -1.668050094323181e-05
-5.514680750176944e-05   7.225489694501989e-06   -1.668050094323181e-05
-5.514680750176944e-05   7.225489694501989e-06   -1.668050094323181e-05
-2.7479819013854226e-05   2.5020435854014936e-06   -5.995808075763082e-05
-2.7479819013854226e-05   2.5020435854014936e-06   -5.995808075763082e-05
-2.7479819013854226e-05   2.5020435854014936e-06   -5.995808075763082e-05
-2.7479819013854226e-05   2.5020435854014936e-06   -5.995808075763082e-05
-4.1502217316681384e-05   4.621713357700827e-06   -3.785921878296484e-05
-4.1502217316681384e-05   4.621713357700827e-06   -3.785921878296484e-05
-4.1502217316681384e-05   4.621713357700827e-06   -3.785921878296484e-05
-4.1502217316681384e-05   4.621713357700827e-06   -3.785921878296484e-05
-2.747981901385416e-05   7.225489694501989e-06   -1.3846433277771601e-05
-2.747981901385416e-05   7.225489694501989e-06   -1.3846433277771601e-05
-2.747981901385416e-05   7.225489694501989e-06   -1.3846433277771601e-05
-2.747981901385416e-05   7.225489694501989e-06   -1.3846433277771601e-05
-5.5146807501769536e-05   2.5020435854014936e-06   -6.279214842309076e-05
-5.5146807501769536e-05   2.5020435854014936e-06   -6.279214842309076e-05
-5.5146807501769536e-05   2.5020435854014936e-06   -6.279214842309076e-05
-5.5146807501769536e-05   2.5020435854014936e-06   -6.279214842309076e-05
-5.3706522317180755e-05   8.26824725187053e-06   -1.6732842296319703e-05
-5.3706522317180755e-05   8.26824725187053e-06   -1.6732842296319703e-05
-5.3706522317180755e-05   8.26824725187053e-06   -1.6732842296319703e-05
-5.3706522317180755e-05   8.26824725187053e-06   -1.6732842296319703e-05
-2.6626439251085238e-05   3.117537553770991e-06   -5.87758882542861e-05
-2.6626439251085238e-05   3.117537553770991e-06   -5.87758882542861e-05
-2.6626439251085238e-05   3.117537553770991e-06   -5.87758882542861e-05
-2.6626439251085238e-05   3.117537553770991e-06   -5.87758882542861e-05
-4.0506629803858847e-05   5.101136342010142e-06   -3.683239660594003e-05
-4.0506629803858847e-05   5.101136342010142e-06   -3.683239660594003e-05
-4.0506629803858847e-05   5.101136342010142e-06   -3.683239660594003e-05
-4.0506629803858847e-05   5.101136342010142e-06   -3.683239660594003e-05
-5.900785053440953e-05   1.0203921083019613e-05   -9.856719229516149e-06
-5.900785053440953e-05   1.0203921083019613e-05   -9.856719229516149e-06
-5.900785053440953e-05   1.0203921083019613e-05   -9.856719229516149e-06
-5.900785053440953e-05   1.0203921083019613e-05   -9.856719229516149e-06
-8.91793985152767e-05   9.627649095464777e-06   -6.048839572349459e-05
-8.91793985152767e-05   9.627649095464777e-06   -6.048839572349459e-05
-8.91793985152767e-05   9.627649095464777e-06   -6.048839572349459e-05
-8.91793985152767e-05   9.627649095464777e-06   -6.048839572349459e-05
-8.531069019993264e-05   1.1657534410533608e-05   -3.182333977262957e-07
-8.531069019993264e-05   1.1657534410533608e-05   -3.182333977262957e-07
-8.531069019993264e-05   1.1657534410533608e-05   -3.182333977262957e-07
-8.531069019993264e-05   1.1657534410533608e-05   -3.182333977262957e-07
-5.70443264935315e-05   1.2195531778026996e-05   -4.775163799555776e-05
-5.70443264935315e-05   1.2195531778026996e-05   -4.775163799555776e-05
-5.70443264935315e-05   1.2195531778026996e-05   -4.775163799555776e-05
-5.70443264935315e-05   1.2195531778026996e-05   -4.775163799555776e-05
-6.95027271505228e-05   1.1500179227023205e-05   -2.657042536996989e-05
-6.95027271505228e-05   1.1500179227023205e-05   -2.657042536996989e-05
-6.95027271505228e-05   1.1500179227023205e-05   -2.657042536996989e-05
-6.95027271505228e-05   1.1500179227023205e-05   -2.657042536996989e-05
-5.704432649353165e-05   1.1657534410533174e-05   -6.410318182223287e-07
-5.704432649353165e-05   1.1657534410533174e-05   -6.410318182223287e-07
-5.704432649353165e-05   1.1657534410533174e-05   -6.410318182223287e-07
-5.704432649353165e-05   1.1657534410533174e-05   -6.410318182223287e-07
-8.531069019993264e-05   1.2195531778026996e-05   -4.7428839575061566e-05
-8.531069019993264e-05   1.2195531778026996e-05   -4.7428839575061566e-05
-8.531069019993264e-05   1.2195531778026996e-05   -4.7428839575061566e-05
-8.531069019993264e-05   1.2195531778026996e-05   -4.7428839575061566e-05
-8.210127937814463e-05   1.2039693542513063e-05   5.074031113352657e-06
-8.210127937814463e-05   1.2039693542513063e-05   5.074031113352657e-06
-8.210127937814463e-05   1.2039693542513063e-05   5.074031113352657e-06
-8.210127937814463e-05   1.2039693542513063e-05   5.074031113352657e-06
-5.514680750176944e-05   1.2772292034227833e-05   -4.0289647775634944e-05
-5.514680750176944e-05   1.2772292034227833e-05   -4.0289647775634944e-05
-5.514680750176944e-05   1.2772292034227833e-05   -4.0289647775634944e-05
-5.514680750176944e-05   1.2772292034227833e-05   -4.0289647775634944e-05
-6.803389729680042e-05   1.2336428533286491e-05   -1.8549646683351157e-05
-6.803389729680042e-05   1.2336428533286491e-05   -1.8549646683351157e-05
-6.803389729680042e-05   1.2336428533286491e-05   -1.8549646683351157e-05
-6.803389729680042e-05   1.2336428533286491e-05   -1.8549646683351157e-05
-5.5146807501769536e-05   1.2039693542513063e-05   4.634472018323621e-06
-5.5146807501769536e-05   1.2039693542513063e-05   4.634472018323621e-06
-5.5146807501769536e-05   1.2039693542513063e-05   4.634472018323621e-06
-5.5146807501769536e-05   1.2039693542513063e-05   4.634472018323621e-06
-8.210127937814449e-05   1.2772292034228267e-05   -3.985008868060617e-05
-8.210127937814449e-05   1.2772292034228267e-05   -3.985008868060617e-05
-8.210127937814449e-05   1.2772292034228267e-05   -3.985008868060617e-05
-8.210127937814449e-05   1.2772292034228267e-05   -3.985008868060617e-05
-7.874546971706455e-05   1.2369891294320388e-05   1.2298317151953134e-05
-7.874546971706455e-05   1.2369891294320388e-05   1.2298317151953134e-05
-7.874546971706455e-05   1.2369891294320388e-05   1.2298317151953134e-05
-7.874546971706455e-05   1.2369891294320388e-05   1.2298317151953134e-05
-5.3706522317180755e-05   1.3765119809875347e-05   -3.0270398957186135e-05
-5.3706522317180755e-05   1.3765119809875347e-05   -3.0270398957186135e-05
-5.3706522317180755e-05   1.3765119809875347e-05   -3.0270398957186135e-05
-5.3706522317180755e-05   1.3765119809875347e-05   -3.0270398957186135e-05
-6.479588293454311e-05   1.2618397599568117e-05   -1.110009793539883e-05
-6.479588293454311e-05   1.2618397599568117e-05   -1.110009793539883e-05
-6.479588293454311e-05   1.2618397599568117e-05   -1.110009793539883e-05
-6.479588293454311e-05   1.2618397599568117e-05   -1.110009793539883e-05
7.781795953451471e-05   -1.1691758666020503e-05   2.6521205492882095e-05
7.781795953451471e-05   -1.1691758666020503e-05   2.6521205492882095e-05
7.781795953451471e-05   -1.1691758666020503e-05   2.6521205492882095e-05
7.781795953451471e-05   -1.1691758666020503e-05   2.6521205492882095e-05
3.912412850757088e-05   -1.4790076379459817e-05   -3.982750351342115e-05
3.912412850757088e-05   -1.4790076379459817e-05   -3.982750351342115e-05
3.912412850757088e-05   -1.4790076379459817e-05   -3.982750351342115e-05
3.912412850757088e-05   -1.4790076379459817e-05   -3.982750351342115e-05
4.008276640268791e-05   -1.141811947542263e-05   1.9017263186881222e-05
4.008276640268791e-05   -1.141811947542263e-05   1.9017263186881222e-05
4.008276640268791e-05   -1.141811947542263e-05   1.9017263186881222e-05
4.008276640268791e-05   -1.141811947542263e-05   1.9017263186881222e-05
7.97606176277679e-05   -1.516003826713486e-05   -4.4867337579891804e-05
7.97606176277679e-05   -1.516003826713486e-05   -4.4867337579891804e-05
7.97606176277679e-05   -1.516003826713486e-05   -4.4867337579891804e-05
7.97606176277679e-05   -1.516003826713486e-05   -4.4867337579891804e-05
5.6838874604798266e-05   -1.1942978870714115e-05   -8.594668179461311e-06
5.6838874604798266e-05   -1.1942978870714115e-05   -8.594668179461311e-06
5.6838874604798266e-05   -1.1942978870714115e-05   -8.594668179461311e-06
5.6838874604798266e-05   -1.1942978870714115e-05   -8.594668179461311e-06
7.97606176277679e-05   -1.141811947542263e-05   2.1262414461908343e-05
7.97606176277679e-05   -1.141811947542263e-05   2.1262414461908343e-05
7.97606176277679e-05   -1.141811947542263e-05   2.1262414461908343e-05
7.97606176277679e-05   -1.141811947542263e-05   2.1262414461908343e-05
4.008276640268791e-05   -1.516003826713486e-05   -4.711248885491855e-05
4.008276640268791e-05   -1.516003826713486e-05   -4.711248885491855e-05
4.008276640268791e-05   -1.516003826713486e-05   -4.711248885491855e-05
4.008276640268791e-05   -1.516003826713486e-05   -4.711248885491855e-05
4.089311571721125e-05   -1.1021915182144858e-05   1.5002093983177214e-05
4.089311571721125e-05   -1.1021915182144858e-05   1.5002093983177214e-05
4.089311571721125e-05   -1.1021915182144858e-05   1.5002093983177214e-05
4.089311571721125e-05   -1.1021915182144858e-05   1.5002093983177214e-05
8.097157859944423e-05   -1.5023227910315046e-05   -4.939455651697559e-05
8.097157859944423e-05   -1.5023227910315046e-05   -4.939455651697559e-05
8.097157859944423e-05   -1.5023227910315046e-05   -4.939455651697559e-05
8.097157859944423e-05   -1.5023227910315046e-05   -4.939455651697559e-05
5.884507358784972e-05   -1.2320859159282039e-05   -1.4138469414937387e-05
5.884507358784972e-05   -1.2320859159282039e-05   -1.4138469414937387e-05
5.884507358784972e-05   -1.2320859159282039e-05   -1.4138469414937387e-05
5.884507358784972e-05   -1.2320859159282039e-05   -1.4138469414937387e-05
8.097157859944423e-05   -1.1021915182144858e-05   1.7402881620079587e-05
8.097157859944423e-05   -1.1021915182144858e-05   1.7402881620079587e-05
8.097157859944423e-05   -1.1021915182144858e-05   1.7402881620079587e-05
8.097157859944423e-05   -1.1021915182144858e-05   1.7402881620079587e-05
4.089311571721125e-05   -1.5023227910315046e-05   -5.1795344153877584e-05
4.089311571721125e-05   -1.5023227910315046e-05   -5.1795344153877584e-05
4.089311571721125e-05   -1.5023227910315046e-05   -5.1795344153877584e-05
4.089311571721125e-05   -1.5023227910315046e-05   -5.1795344153877584e-05
4.1740144150161144e-05   -9.47580469126989e-06   7.20813805453642e-06
4.1740144150161144e-05   -9.47580469126989e-06   7.20813805453642e-06
4.1740144150161144e-05   -9.47580469126989e-06   7.20813805453642e-06
4.1740144150161144e-05   -9.47580469126989e-06   7.20813805453642e-06
8.216392577086343e-05   -1.4189014861846518e-05   -5.733690521095449e-05
8.216392577086343e-05   -1.4189014861846518e-05   -5.733690521095449e-05
8.216392577086343e-05   -1.4189014861846518e-05   -5.733690521095449e-05
8.216392577086343e-05   -1.4189014861846518e-05   -5.733690521095449e-05
5.887685236435806e-05   -1.185834343453646e-05   -1.9923519056498878e-05
5.887685236435806e-05   -1.185834343453646e-05   -1.9923519056498878e-05
5.887685236435806e-05   -1.185834343453646e-05   -1.9923519056498878e-05
5.887685236435806e-05   -1.185834343453646e-05   -1.9923519056498878e-05
3.912412850757088e-05   -7.585433713696091e-06   2.5850961592739467e-06
3.912412850757088e-05   -7.585433713696091e-06   2.5850961592739467e-06
3.912412850757088e-05   -7.585433713696091e-06   2.5850961592739467e-06
3.912412850757088e-05   -7.585433713696091e-06   2.5850961592739467e-06
4.664277265002361e-06   -1.4859449884327153e-05   -5.921239894738544e-05
4.664277265002361e-06   -1.4859449884327153e-05   -5.921239894738544e-05
4.664277265002361e-06   -1.4859449884327153e-05   -5.921239894738544e-05
4.664277265002361e-06   -1.4859449884327153e-05   -5.921239894738544e-05
5.781828226467014e-06   -7.2235003513209176e-06   -3.9761761225698064e-07
5.781828226467014e-06   -7.2235003513209176e-06   -3.9761761225698064e-07
5.781828226467014e-06   -7.2235003513209176e-06   -3.9761761225698064e-07
5.781828226467014e-06   -7.2235003513209176e-06   -3.9761761225698064e-07
4.008276640268796e-05   -1.4784121369514156e-05   -5.3029475295042646e-05
4.008276640268796e-05   -1.4784121369514156e-05   -5.3029475295042646e-05
4.008276640268796e-05   -1.4784121369514156e-05   -5.3029475295042646e-05
4.008276640268796e-05   -1.4784121369514156e-05   -5.3029475295042646e-05
2.2501073158412657e-05   -1.0023658484877799e-05   -2.658293095203208e-05
2.2501073158412657e-05   -1.0023658484877799e-05   -2.658293095203208e-05
2.2501073158412657e-05   -1.0023658484877799e-05   -2.658293095203208e-05
2.2501073158412657e-05   -1.0023658484877799e-05   -2.658293095203208e-05
4.0082766402687854e-05   -7.2235003513209176e-06   4.138754998659179e-06
4.0082766402687854e-05   -7.2235003513209176e-06   4.138754998659179e-06
4.0082766402687854e-05   -7.2235003513209176e-06   4.138754998659179e-06
4.0082766402687854e-05   -7.2235003513209176e-06   4.138754998659179e-06
5.781828226466987e-06   -1.4784121369513722e-05   -5.756584790595821e-05
5.781828226466987e-06   -1.4784121369513722e-05   -5.756584790595821e-05
5.781828226466987e-06   -1.4784121369513722e-05   -5.756584790595821e-05
5.781828226466987e-06   -1.4784121369513722e-05   -5.756584790595821e-05
6.790635197029558e-06   -6.548769603589941e-06   -7.609892249925421e-07
6.790635197029558e-06   -6.548769603589941e-06   -7.609892249925421e-07
6.790635197029558e-06   -6.548769603589941e-06   -7.609892249925421e-07
6.790635197029558e-06   -6.548769603589941e-06   -7.609892249925421e-07
4.089311571721125e-05   -1.458688598165482e-05   -5.277558693178949e-05
4.089311571721125e-05   -1.458688598165482e-05   -5.277558693178949e-05
4.089311571721125e-05   -1.458688598165482e-05   -5.277558693178949e-05
4.089311571721125e-05   -1.458688598165482e-05   -5.277558693178949e-05
2.313639615728645e-05   -1.0135075601130049e-05   -2.5852140560228532e-05
2.313639615728645e-05   -1.0135075601130049e-05   -2.5852140560228532e-05
2.313639615728645e-05   -1.0135075601130049e-05   -2.5852140560228532e-05
2.313639615728645e-05   -1.0135075601130049e-05   -2.5852140560228532e-05
4.089311571721125e-05   -6.548769603589508e-06   4.0618806018467325e-06
4.089311571721125e-05   -6.548769603589508e-06   4.0618806018467325e-06
4.089311571721125e-05   -6.548769603589508e-06   4.0618806018467325e-06
4.089311571721125e-05   -6.548769603589508e-06   4.0618806018467325e-06
6.790635197029558e-06   -1.458688598165482e-05   -5.75984567586286e-05
6.790635197029558e-06   -1.458688598165482e-05   -5.75984567586286e-05
6.790635197029558e-06   -1.458688598165482e-05   -5.75984567586286e-05
6.790635197029558e-06   -1.458688598165482e-05   -5.75984567586286e-05
8.296032534760723e-06   -5.588849630715122e-06   -1.4597164637300195e-06
8.296032534760723e-06   -5.588849630715122e-06   -1.4597164637300195e-06
8.296032534760723e-06   -5.588849630715122e-06   -1.4597164637300195e-06
8.296032534760723e-06   -5.588849630715122e-06   -1.4597164637300195e-06
4.174014415016109e-05   -1.419205402446817e-05   -5.20379798531454e-05
4.174014415016109e-05   -1.419205402446817e-05   -5.20379798531454e-05
4.174014415016109e-05   -1.419205402446817e-05   -5.20379798531454e-05
4.174014415016109e-05   -1.419205402446817e-05   -5.20379798531454e-05
2.4345849565336332e-05   -9.979238947772397e-06   -2.557517792445448e-05
2.4345849565336332e-05   -9.979238947772397e-06   -2.557517792445448e-05
2.4345849565336332e-05   -9.979238947772397e-06   -2.557517792445448e-05
2.4345849565336332e-05   -9.979238947772397e-06   -2.557517792445448e-05
4.664277265002361e-06   -3.996702918541116e-06   -5.937800846008345e-06
4.664277265002361e-06   -3.996702918541116e-06   -5.937800846008345e-06
4.664277265002361e-06   -3.996702918541116e-06   -5.937800846008345e-06
4.664277265002361e-06   -3.996702918541116e-06   -5.937800846008345e-06
-2.944018868872582e-05   -1.7948816901017153e-05   -7.114984582504104e-05
-2.944018868872582e-05   -1.7948816901017153e-05   -7.114984582504104e-05
-2.944018868872582e-05   -1.7948816901017153e-05   -7.114984582504104e-05
-2.944018868872582e-05   -1.7948816901017153e-05   -7.114984582504104e-05
-2.7699629325073574e-05   -3.5706357239431545e-06   -1.2785874653963806e-05
-2.7699629325073574e-05   -3.5706357239431545e-06   -1.2785874653963806e-05
-2.7699629325073574e-05   -3.5706357239431545e-06   -1.2785874653963806e-05
-2.7699629325073574e-05   -3.5706357239431545e-06   -1.2785874653963806e-05
5.781828226466987e-06   -1.834722974566015e-05   -5.972234749350159e-05
5.781828226466987e-06   -1.834722974566015e-05   -5.972234749350159e-05
5.781828226466987e-06   -1.834722974566015e-05   -5.972234749350159e-05
5.781828226466987e-06   -1.834722974566015e-05   -5.972234749350159e-05
-1.127872523637386e-05   -1.015414969915418e-05   -3.620393975000357e-05
-1.127872523637386e-05   -1.015414969915418e-05   -3.620393975000357e-05
-1.127872523637386e-05   -1.015414969915418e-05   -3.620393975000357e-05
-1.127872523637386e-05   -1.015414969915418e-05   -3.620393975000357e-05
5.781828226466987e-06   -3.5706357239431545e-06   -3.919918240933825e-06
5.781828226466987e-06   -3.5706357239431545e-06   -3.919918240933825e-06
5.781828226466987e-06   -3.5706357239431545e-06   -3.919918240933825e-06
5.781828226466987e-06   -3.5706357239431545e-06   -3.919918240933825e-06
-2.7699629325073614e-05   -1.8347229745659718e-05   -6.858830390653152e-05
-2.7699629325073614e-05   -1.8347229745659718e-05   -6.858830390653152e-05
-2.7699629325073614e-05   -1.8347229745659718e-05   -6.858830390653152e-05
-2.7699629325073614e-05   -1.8347229745659718e-05   -6.858830390653152e-05
-2.620002565310723e-05   -2.9060677747445862e-06   -1.194166966361418e-05
-2.620002565310723e-05   -2.9060677747445862e-06   -1.194166966361418e-05
-2.620002565310723e-05   -2.9060677747445862e-06   -1.194166966361418e-05
-2.620002565310723e-05   -2.9060677747445862e-06   -1.194166966361418e-05
6.790635197029558e-06   -1.8263170642655955e-05   -5.7711842693094996e-05
6.790635197029558e-06   -1.8263170642655955e-05   -5.7711842693094996e-05
6.790635197029558e-06   -1.8263170642655955e-05   -5.7711842693094996e-05
6.790635197029558e-06   -1.8263170642655955e-05   -5.7711842693094996e-05
-1.0042638782651858e-05   -1.0385533297878422e-05   -3.438296846715945e-05
-1.0042638782651858e-05   -1.0385533297878422e-05   -3.438296846715945e-05
-1.0042638782651858e-05   -1.0385533297878422e-05   -3.438296846715945e-05
-1.0042638782651858e-05   -1.0385533297878422e-05   -3.438296846715945e-05
6.790635197029558e-06   -2.9060677747445862e-06   -2.727407942867098e-06
6.790635197029558e-06   -2.9060677747445862e-06   -2.727407942867098e-06
6.790635197029558e-06   -2.9060677747445862e-06   -2.727407942867098e-06
6.790635197029558e-06   -2.9060677747445862e-06   -2.727407942867098e-06
-2.6200025653107324e-05   -1.8263170642655955e-05   -6.69261044138423e-05
-2.6200025653107324e-05   -1.8263170642655955e-05   -6.69261044138423e-05
-2.6200025653107324e-05   -1.8263170642655955e-05   -6.69261044138423e-05
-2.6200025653107324e-05   -1.8263170642655955e-05   -6.69261044138423e-05
-2.3612831383591234e-05   -2.2760451560406396e-06   -1.1890651009722336e-05
-2.3612831383591234e-05   -2.2760451560406396e-06   -1.1890651009722336e-05
-2.3612831383591234e-05   -2.2760451560406396e-06   -1.1890651009722336e-05
-2.3612831383591234e-05   -2.2760451560406396e-06   -1.1890651009722336e-05
8.29603253476075e-06   -1.7624843510373033e-05   -5.5862811861042994e-05
8.29603253476075e-06   -1.7624843510373033e-05   -5.5862811861042994e-05
8.29603253476075e-06   -1.7624843510373033e-05   -5.5862811861042994e-05
8.29603253476075e-06   -1.7624843510373033e-05   -5.5862811861042994e-05
-8.436393698586073e-06   -1.0156826784146235e-05   -3.245624484120107e-05
-8.436393698586073e-06   -1.0156826784146235e-05   -3.245624484120107e-05
-8.436393698586073e-06   -1.0156826784146235e-05   -3.245624484120107e-05
-8.436393698586073e-06   -1.0156826784146235e-05   -3.245624484120107e-05
-2.9440188688725752e-05   9.852325192839968e-07   -8.311440028901766e-06
-2.9440188688725752e-05   9.852325192839968e-07   -8.311440028901766e-06
-2.9440188688725752e-05   9.852325192839968e-07   -8.311440028901766e-06
-2.9440188688725752e-05   9.852325192839968e-07   -8.311440028901766e-06
-6.749899597052338e-05   -2.2402030665000412e-05   -8.5775143409135e-05
-6.749899597052338e-05   -2.2402030665000412e-05   -8.5775143409135e-05
-6.749899597052338e-05   -2.2402030665000412e-05   -8.5775143409135e-05
-6.749899597052338e-05   -2.2402030665000412e-05   -8.5775143409135e-05
-6.542208854901076e-05   1.7749063990876897e-06   -2.1650430922431213e-05
-6.542208854901076e-05   1.7749063990876897e-06   -2.1650430922431213e-05
-6.542208854901076e-05   1.7749063990876897e-06   -2.1650430922431213e-05
-6.542208854901076e-05   1.7749063990876897e-06   -2.1650430922431213e-05
-2.7699629325073574e-05   -2.5004898086035572e-05   -6.84533136045855e-05
-2.7699629325073574e-05   -2.5004898086035572e-05   -6.84533136045855e-05
-2.7699629325073574e-05   -2.5004898086035572e-05   -6.84533136045855e-05
-2.7699629325073574e-05   -2.5004898086035572e-05   -6.84533136045855e-05
-4.683047866040211e-05   -1.1404256170050031e-05   -4.4728949861962586e-05
-4.683047866040211e-05   -1.1404256170050031e-05   -4.4728949861962586e-05
-4.683047866040211e-05   -1.1404256170050031e-05   -4.4728949861962586e-05
-4.683047866040211e-05   -1.1404256170050031e-05   -4.4728949861962586e-05
-2.7699629325073574e-05   1.7749063990876897e-06   -5.5825482313570825e-06
-2.7699629325073574e-05   1.7749063990876897e-06   -5.5825482313570825e-06
-2.7699629325073574e-05   1.7749063990876897e-06   -5.5825482313570825e-06
-2.7699629325073574e-05   1.7749063990876897e-06   -5.5825482313570825e-06
-6.542208854901076e-05   -2.5004898086035572e-05   -8.45211962956598e-05
-6.542208854901076e-05   -2.5004898086035572e-05   -8.45211962956598e-05
-6.542208854901076e-05   -2.5004898086035572e-05   -8.45211962956598e-05
-6.542208854901076e-05   -2.5004898086035572e-05   -8.45211962956598e-05
-6.343098706849558e-05   2.5020435854014936e-06   -1.934930959892494e-05
-6.343098706849558e-05   2.5020435854014936e-06   -1.934930959892494e-05
-6.343098706849558e-05   2.5020435854014936e-06   -1.934930959892494e-05
-6.343098706849558e-05   2.5020435854014936e-06   -1.934930959892494e-05
-2.620002565310727e-05   -2.5146208713034898e-05   -6.481196057884356e-05
-2.620002565310727e-05   -2.5146208713034898e-05   -6.481196057884356e-05
-2.620002565310727e-05   -2.5146208713034898e-05   -6.481196057884356e-05
-2.620002565310727e-05   -2.5146208713034898e-05   -6.481196057884356e-05
-4.480545275977306e-05   -1.1444535694649441e-05   -4.2023919212098556e-05
-4.480545275977306e-05   -1.1444535694649441e-05   -4.2023919212098556e-05
-4.480545275977306e-05   -1.1444535694649441e-05   -4.2023919212098556e-05
-4.480545275977306e-05   -1.1444535694649441e-05   -4.2023919212098556e-05
-2.6200025653107256e-05   2.5020435854014936e-06   -2.7603582198631495e-06
-2.6200025653107256e-05   2.5020435854014936e-06   -2.7603582198631495e-06
-2.6200025653107256e-05   2.5020435854014936e-06   -2.7603582198631495e-06
-2.6200025653107256e-05   2.5020435854014936e-06   -2.7603582198631495e-06
-6.343098706849569e-05   -2.5146208713034898e-05   -8.14009119579056e-05
-6.343098706849569e-05   -2.5146208713034898e-05   -8.14009119579056e-05
-6.343098706849569e-05   -2.5146208713034898e-05   -8.14009119579056e-05
-6.343098706849569e-05   -2.5146208713034898e-05   -8.14009119579056e-05
-6.016872875756767e-05   3.117537553770991e-06   -1.700455349929234e-05
-6.016872875756767e-05   3.117537553770991e-06   -1.700455349929234e-05
-6.016872875756767e-05   3.117537553770991e-06   -1.700455349929234e-05
-6.016872875756767e-05   3.117537553770991e-06   -1.700455349929234e-05
-2.3612831383591315e-05   -2.2959425545505865e-05   -6.228487126302021e-05
-2.3612831383591315e-05   -2.2959425545505865e-05   -6.228487126302021e-05
-2.3612831383591315e-05   -2.2959425545505865e-05   -6.228487126302021e-05
-2.3612831383591315e-05   -2.2959425545505865e-05   -6.228487126302021e-05
-4.280438363276898e-05   -1.011590986485034e-05   -3.800506025611642e-05
-4.280438363276898e-05   -1.011590986485034e-05   -3.800506025611642e-05
-4.280438363276898e-05   -1.011590986485034e-05   -3.800506025611642e-05
-4.280438363276898e-05   -1.011590986485034e-05   -3.800506025611642e-05
-6.749899597052338e-05   9.627649095464777e-06   -1.4652869000198387e-05
-6.749899597052338e-05   9.627649095464777e-06   -1.4652869000198387e-05
-6.749899597052338e-05   9.627649095464777e-06   -1.4652869000198387e-05
-6.749899597052338e-05   9.627649095464777e-06   -1.4652869000198387e-05
-0.00011626157991697453   0.0   -0.00010170043170156288
-0.00011626157991697453   0.0   -0.00010170043170156288
-0.00011626157991697453   0.0   -0.00010170043170156288
-0.00011626157991697453   0.0   -0.00010170043170156288
-0.00011322116702368353   1.219553177802743e-05   -1.1248569731922608e-05
-0.00011322116702368353   1.219553177802743e-05   -1.1248569731922608e-05
-0.00011322116702368353   1.219553177802743e-05   -1.1248569731922608e-05
-0.00011322116702368353   1.219553177802743e-05   -1.1248569731922608e-05
-6.542208854901065e-05   0.0   -8.359638145622744e-05
-6.542208854901065e-05   0.0   -8.359638145622744e-05
-6.542208854901065e-05   0.0   -8.359638145622744e-05
-6.542208854901065e-05   0.0   -8.359638145622744e-05
-8.675094614322198e-05   3.7231305106389355e-06   -5.0282163772258576e-05
-8.675094614322198e-05   3.7231305106389355e-06   -5.0282163772258576e-05
-8.675094614322198e-05   3.7231305106389355e-06   -5.0282163772258576e-05
-8.675094614322198e-05   3.7231305106389355e-06   -5.0282163772258576e-05
-6.542208854901072e-05   1.219553177802743e-05   -3.931250665105846e-06
-6.542208854901072e-05   1.219553177802743e-05   -3.931250665105846e-06
-6.542208854901072e-05   1.219553177802743e-05   -3.931250665105846e-06
-6.542208854901072e-05   1.219553177802743e-05   -3.931250665105846e-06
-0.00011322116702368334   0.0   -9.091370052304384e-05
-0.00011322116702368334   0.0   -9.091370052304384e-05
-0.00011322116702368334   0.0   -9.091370052304384e-05
-0.00011322116702368334   0.0   -9.091370052304384e-05
-0.0001106500800016383   1.2772292034228267e-05   -4.510184172006092e-06
-0.0001106500800016383   1.2772292034228267e-05   -4.510184172006092e-06
-0.0001106500800016383   1.2772292034228267e-05   -4.510184172006092e-06
-0.0001106500800016383   1.2772292034228267e-05   -4.510184172006092e-06
-6.343098706849569e-05   0.0   -7.554529717337388e-05
-6.343098706849569e-05   0.0   -7.554529717337388e-05
-6.343098706849569e-05   0.0   -7.554529717337388e-05
-6.343098706849569e-05   0.0   -7.554529717337388e-05
-8.584123272127374e-05   5.904657444681313e-06   -4.1737682218884816e-05
-8.584123272127374e-05   5.904657444681313e-06   -4.1737682218884816e-05
-8.584123272127374e-05   5.904657444681313e-06   -4.1737682218884816e-05
-8.584123272127374e-05   5.904657444681313e-06   -4.1737682218884816e-05
-6.343098706849569e-05   1.2772292034228267e-05   3.153191048530825e-06
-6.343098706849569e-05   1.2772292034228267e-05   3.153191048530825e-06
-6.343098706849569e-05   1.2772292034228267e-05   3.153191048530825e-06
-6.343098706849569e-05   1.2772292034228267e-05   3.153191048530825e-06
-0.0001106500800016381   0.0   -8.32086723939105e-05
-0.0001106500800016381   0.0   -8.32086723939105e-05
-0.0001106500800016381   0.0   -8.32086723939105e-05
-0.0001106500800016381   0.0   -8.32086723939105e-05
-0.0001055212085308587   1.3765119809875347e-05   6.332289730742171e-06
-0.0001055212085308587   1.3765119809875347e-05   6.332289730742171e-06
-0.0001055212085308587   1.3765119809875347e-05   6.332289730742171e-06
-0.0001055212085308587   1.3765119809875347e-05   6.332289730742171e-06
-6.0168728757567784e-05   0.0   -6.099610467215119e-05
-6.0168728757567784e-05   0.0   -6.099610467215119e-05
-6.0168728757567784e-05   0.0   -6.099610467215119e-05
-6.0168728757567784e-05   0.0   -6.099610467215119e-05
-8.136807988655756e-05   7.284571731895964e-06   -3.003459582963863e-05
-8.136807988655756e-05   7.284571731895964e-06   -3.003459582963863e-05
-8.136807988655756e-05   7.284571731895964e-06   -3.003459582963863e-05
-8.136807988655756e-05   7.284571731895964e-06   -3.003459582963863e-05
8.609372845997317e-05   -1.4790076379459817e-05   5.1403241898755146e-05
8.609372845997317e-05   -1.4790076379459817e-05   5.1403241898755146e-05
8.609372845997317e-05   -1.4790076379459817e-05   5.1403241898755146e-05
8.609372845997317e-05   -1.4790076379459817e-05   5.1403241898755146e-05
4.467674037409884e-05   -1.13905511233167e-05   -1.5585356424015987e-05
4.467674037409884e-05   -1.13905511233167e-05   -1.5585356424015987e-05
4.467674037409884e-05   -1.13905511233167e-05   -1.5585356424015987e-05
4.467674037409884e-05   -1.13905511233167e-05   -1.5585356424015987e-05
4.355107382601078e-05   -1.516003826713486e-05   4.540603087349821e-05
4.355107382601078e-05   -1.516003826713486e-05   4.540603087349821e-05
4.355107382601078e-05   -1.516003826713486e-05   4.540603087349821e-05
4.355107382601078e-05   -1.516003826713486e-05   4.540603087349821e-05
8.517056093376053e-05   -1.2524683609807085e-05   -2.5540993767147595e-05
8.517056093376053e-05   -1.2524683609807085e-05   -2.5540993767147595e-05
8.517056093376053e-05   -1.2524683609807085e-05   -2.5540993767147595e-05
8.517056093376053e-05   -1.2524683609807085e-05   -2.5540993767147595e-05
6.221890268012086e-05   -1.2740793003035867e-05   1.2841435624855722e-05
6.221890268012086e-05   -1.2740793003035867e-05   1.2841435624855722e-05
6.221890268012086e-05   -1.2740793003035867e-05   1.2841435624855722e-05
6.221890268012086e-05   -1.2740793003035867e-05   1.2841435624855722e-05
8.517056093376053e-05   -1.516003826713486e-05   4.382481807910189e-05
8.517056093376053e-05   -1.516003826713486e-05   4.382481807910189e-05
8.517056093376053e-05   -1.516003826713486e-05   4.382481807910189e-05
8.517056093376053e-05   -1.516003826713486e-05   4.382481807910189e-05
4.355107382601078e-05   -1.2524683609807085e-05   -2.395978097275136e-05
4.355107382601078e-05   -1.2524683609807085e-05   -2.395978097275136e-05
4.355107382601078e-05   -1.2524683609807085e-05   -2.395978097275136e-05
4.355107382601078e-05   -1.2524683609807085e-05   -2.395978097275136e-05
4.253292640717056e-05   -1.5023227910315046e-05   4.077071064697603e-05
4.253292640717056e-05   -1.5023227910315046e-05   4.077071064697603e-05
4.253292640717056e-05   -1.5023227910315046e-05   4.077071064697603e-05
4.253292640717056e-05   -1.5023227910315046e-05   4.077071064697603e-05
8.410349723118325e-05   -1.2629500723193056e-05   -2.99498103719851e-05
8.410349723118325e-05   -1.2629500723193056e-05   -2.99498103719851e-05
8.410349723118325e-05   -1.2629500723193056e-05   -2.99498103719851e-05
8.410349723118325e-05   -1.2629500723193056e-05   -2.99498103719851e-05
6.216964475724919e-05   -1.2964225634340062e-05   6.807445364593028e-06
6.216964475724919e-05   -1.2964225634340062e-05   6.807445364593028e-06
6.216964475724919e-05   -1.2964225634340062e-05   6.807445364593028e-06
6.216964475724919e-05   -1.2964225634340062e-05   6.807445364593028e-06
8.410349723118341e-05   -1.5023227910314612e-05   3.9334474334702836e-05
8.410349723118341e-05   -1.5023227910314612e-05   3.9334474334702836e-05
8.410349723118341e-05   -1.5023227910314612e-05   3.9334474334702836e-05
8.410349723118341e-05   -1.5023227910314612e-05   3.9334474334702836e-05
4.253292640717056e-05   -1.2629500723193056e-05   -2.851357405971207e-05
4.253292640717056e-05   -1.2629500723193056e-05   -2.851357405971207e-05
4.253292640717056e-05   -1.2629500723193056e-05   -2.851357405971207e-05
4.253292640717056e-05   -1.2629500723193056e-05   -2.851357405971207e-05
4.1290844317424657e-05   -1.4189014861846518e-05   3.3229477854418e-05
4.1290844317424657e-05   -1.4189014861846518e-05   3.3229477854418e-05
4.1290844317424657e-05   -1.4189014861846518e-05   3.3229477854418e-05
4.1290844317424657e-05   -1.4189014861846518e-05   3.3229477854418e-05
8.243165249083935e-05   -1.2367532899486798e-05   -3.643142494535556e-05
8.243165249083935e-05   -1.2367532899486798e-05   -3.643142494535556e-05
8.243165249083935e-05   -1.2367532899486798e-05   -3.643142494535556e-05
8.243165249083935e-05   -1.2367532899486798e-05   -3.643142494535556e-05
6.004550239462473e-05   -1.2327872953876197e-05   8.550292476352563e-07
6.004550239462473e-05   -1.2327872953876197e-05   8.550292476352563e-07
6.004550239462473e-05   -1.2327872953876197e-05   8.550292476352563e-07
6.004550239462473e-05   -1.2327872953876197e-05   8.550292476352563e-07
4.467674037409884e-05   -1.4859449884327153e-05   3.842247132085537e-05
4.467674037409884e-05   -1.4859449884327153e-05   3.842247132085537e-05
4.467674037409884e-05   -1.4859449884327153e-05   3.842247132085537e-05
4.467674037409884e-05   -1.4859449884327153e-05   3.842247132085537e-05
9.539916493423177e-06   -7.050321691725106e-06   -1.5453424898042873e-05
9.539916493423177e-06   -7.050321691725106e-06   -1.5453424898042873e-05
9.539916493423177e-06   -7.050321691725106e-06   -1.5453424898042873e-05
9.539916493423177e-06   -7.050321691725106e-06   -1.5453424898042873e-05
7.758358387129614e-06   -1.4784121369513722e-05   4.387249986983598e-05
7.758358387129614e-06   -1.4784121369513722e-05   4.387249986983598e-05
7.758358387129614e-06   -1.4784121369513722e-05   4.387249986983598e-05
7.758358387129614e-06   -1.4784121369513722e-05   4.387249986983598e-05
4.355107382601078e-05   -7.47836230874507e-06   -2.0165481298093957e-05
4.355107382601078e-05   -7.47836230874507e-06   -2.0165481298093957e-05
4.355107382601078e-05   -7.47836230874507e-06   -2.0165481298093957e-05
4.355107382601078e-05   -7.47836230874507e-06   -2.0165481298093957e-05
2.634510070518175e-05   -1.0634404404346199e-05   1.0404765827315074e-05
2.634510070518175e-05   -1.0634404404346199e-05   1.0404765827315074e-05
2.634510070518175e-05   -1.0634404404346199e-05   1.0404765827315074e-05
2.634510070518175e-05   -1.0634404404346199e-05   1.0404765827315074e-05
4.3551073826010806e-05   -1.4784121369514156e-05   3.948904443337449e-05
4.3551073826010806e-05   -1.4784121369514156e-05   3.948904443337449e-05
4.3551073826010806e-05   -1.4784121369514156e-05   3.948904443337449e-05
4.3551073826010806e-05   -1.4784121369514156e-05   3.948904443337449e-05
7.758358387129614e-06   -7.47836230874507e-06   -1.578202586163249e-05
7.758358387129614e-06   -7.47836230874507e-06   -1.578202586163249e-05
7.758358387129614e-06   -7.47836230874507e-06   -1.578202586163249e-05
7.758358387129614e-06   -7.47836230874507e-06   -1.578202586163249e-05
6.488166520182866e-06   -1.458688598165482e-05   4.39410269301283e-05
6.488166520182866e-06   -1.458688598165482e-05   4.39410269301283e-05
6.488166520182866e-06   -1.458688598165482e-05   4.39410269301283e-05
6.488166520182866e-06   -1.458688598165482e-05   4.39410269301283e-05
4.253292640717056e-05   -7.669287546548283e-06   -2.028413194258213e-05
4.253292640717056e-05   -7.669287546548283e-06   -2.028413194258213e-05
4.253292640717056e-05   -7.669287546548283e-06   -2.028413194258213e-05
4.253292640717056e-05   -7.669287546548283e-06   -2.028413194258213e-05
2.4818544358544127e-05   -1.0416974332309783e-05   1.0888450209919714e-05
2.4818544358544127e-05   -1.0416974332309783e-05   1.0888450209919714e-05
2.4818544358544127e-05   -1.0416974332309783e-05   1.0888450209919714e-05
2.4818544358544127e-05   -1.0416974332309783e-05   1.0888450209919714e-05
4.253292640717064e-05   -1.458688598165482e-05   3.9790467869063855e-05
4.253292640717064e-05   -1.458688598165482e-05   3.9790467869063855e-05
4.253292640717064e-05   -1.458688598165482e-05   3.9790467869063855e-05
4.253292640717064e-05   -1.458688598165482e-05   3.9790467869063855e-05
6.488166520182866e-06   -7.669287546548283e-06   -1.6133572881518038e-05
6.488166520182866e-06   -7.669287546548283e-06   -1.6133572881518038e-05
6.488166520182866e-06   -7.669287546548283e-06   -1.6133572881518038e-05
6.488166520182866e-06   -7.669287546548283e-06   -1.6133572881518038e-05
5.075094676238096e-06   -1.419205402446817e-05   4.5373118438674694e-05
5.075094676238096e-06   -1.419205402446817e-05   4.5373118438674694e-05
5.075094676238096e-06   -1.419205402446817e-05   4.5373118438674694e-05
5.075094676238096e-06   -1.419205402446817e-05   4.5373118438674694e-05
4.129084431742463e-05   -7.4974054842993215e-06   -1.9003253420737812e-05
4.129084431742463e-05   -7.4974054842993215e-06   -1.9003253420737812e-05
4.129084431742463e-05   -7.4974054842993215e-06   -1.9003253420737812e-05
4.129084431742463e-05   -7.4974054842993215e-06   -1.9003253420737812e-05
2.388447043344531e-05   -9.960760894332614e-06   1.1485382965248261e-05
2.388447043344531e-05   -9.960760894332614e-06   1.1485382965248261e-05
2.388447043344531e-05   -9.960760894332614e-06   1.1485382965248261e-05
2.388447043344531e-05   -9.960760894332614e-06   1.1485382965248261e-05
9.539916493423204e-06   -1.7948816901017153e-05   3.954176974824662e-05
9.539916493423204e-06   -1.7948816901017153e-05   3.954176974824662e-05
9.539916493423204e-06   -1.7948816901017153e-05   3.954176974824662e-05
9.539916493423204e-06   -1.7948816901017153e-05   3.954176974824662e-05
-2.421175011543876e-05   -2.975921001399824e-06   -7.727270393419368e-06
-2.421175011543876e-05   -2.975921001399824e-06   -7.727270393419368e-06
-2.421175011543876e-05   -2.975921001399824e-06   -7.727270393419368e-06
-2.421175011543876e-05   -2.975921001399824e-06   -7.727270393419368e-06
-2.6983364238460908e-05   -1.8347229745659718e-05   5.083867765479045e-05
-2.6983364238460908e-05   -1.8347229745659718e-05   5.083867765479045e-05
-2.6983364238460908e-05   -1.8347229745659718e-05   5.083867765479045e-05
-2.6983364238460908e-05   -1.8347229745659718e-05   5.083867765479045e-05
7.758358387129614e-06   -3.1427674581641085e-06   -1.618687076035809e-05
7.758358387129614e-06   -3.1427674581641085e-06   -1.618687076035809e-05
7.758358387129614e-06   -3.1427674581641085e-06   -1.618687076035809e-05
7.758358387129614e-06   -3.1427674581641085e-06   -1.618687076035809e-05
-8.17126887776333e-06   -1.0262975053317198e-05   1.4634632571555598e-05
-8.17126887776333e-06   -1.0262975053317198e-05   1.4634632571555598e-05
-8.17126887776333e-06   -1.0262975053317198e-05   1.4634632571555598e-05
-8.17126887776333e-06   -1.0262975053317198e-05   1.4634632571555598e-05
7.758358387129614e-06   -1.834722974566015e-05   4.1716000282292654e-05
7.758358387129614e-06   -1.834722974566015e-05   4.1716000282292654e-05
7.758358387129614e-06   -1.834722974566015e-05   4.1716000282292654e-05
7.758358387129614e-06   -1.834722974566015e-05   4.1716000282292654e-05
-2.698336423846088e-05   -3.1427674581641085e-06   -7.064193387860398e-06
-2.698336423846088e-05   -3.1427674581641085e-06   -7.064193387860398e-06
-2.698336423846088e-05   -3.1427674581641085e-06   -7.064193387860398e-06
-2.698336423846088e-05   -3.1427674581641085e-06   -7.064193387860398e-06
-2.867697212099291e-05   -1.8263170642655955e-05   5.277736482740608e-05
-2.867697212099291e-05   -1.8263170642655955e-05   5.277736482740608e-05
-2.867697212099291e-05   -1.8263170642655955e-05   5.277736482740608e-05
-2.867697212099291e-05   -1.8263170642655955e-05   5.277736482740608e-05
6.488166520182866e-06   -3.34696425641429e-06   -1.4780923406298031e-05
6.488166520182866e-06   -3.34696425641429e-06   -1.4780923406298031e-05
6.488166520182866e-06   -3.34696425641429e-06   -1.4780923406298031e-05
6.488166520182866e-06   -3.34696425641429e-06   -1.4780923406298031e-05
-1.0047448585561472e-05   -1.0231447188147492e-05   1.690912486231554e-05
-1.0047448585561472e-05   -1.0231447188147492e-05   1.690912486231554e-05
-1.0047448585561472e-05   -1.0231447188147492e-05   1.690912486231554e-05
-1.0047448585561472e-05   -1.0231447188147492e-05   1.690912486231554e-05
6.488166520182866e-06   -1.8263170642655955e-05   4.382764099566125e-05
6.488166520182866e-06   -1.8263170642655955e-05   4.382764099566125e-05
6.488166520182866e-06   -1.8263170642655955e-05   4.382764099566125e-05
6.488166520182866e-06   -1.8263170642655955e-05   4.382764099566125e-05
-2.8676972120992856e-05   -3.34696425641429e-06   -5.8311995745534764e-06
-2.8676972120992856e-05   -3.34696425641429e-06   -5.8311995745534764e-06
-2.8676972120992856e-05   -3.34696425641429e-06   -5.8311995745534764e-06
-2.8676972120992856e-05   -3.34696425641429e-06   -5.8311995745534764e-06
-3.0669391488123265e-05   -1.7624843510373033e-05   5.5288269139213645e-05
-3.0669391488123265e-05   -1.7624843510373033e-05   5.5288269139213645e-05
-3.0669391488123265e-05   -1.7624843510373033e-05   5.5288269139213645e-05
-3.0669391488123265e-05   -1.7624843510373033e-05   5.5288269139213645e-05
5.075094676238069e-06   -3.3280767233983925e-06   -1.2863934540240064e-05
5.075094676238069e-06   -3.3280767233983925e-06   -1.2863934540240064e-05
5.075094676238069e-06   -3.3280767233983925e-06   -1.2863934540240064e-05
5.075094676238069e-06   -3.3280767233983925e-06   -1.2863934540240064e-05
-1.1575009623382993e-05   -9.825713791852212e-06   1.878482153353368e-05
-1.1575009623382993e-05   -9.825713791852212e-06   1.878482153353368e-05
-1.1575009623382993e-05   -9.825713791852212e-06   1.878482153353368e-05
-1.1575009623382993e-05   -9.825713791852212e-06   1.878482153353368e-05
-2.4211750115438787e-05   -2.2402030665000412e-05   4.7932567614493915e-05
-2.4211750115438787e-05   -2.2402030665000412e-05   4.7932567614493915e-05
-2.4211750115438787e-05   -2.2402030665000412e-05   4.7932567614493915e-05
-2.4211750115438787e-05   -2.2402030665000412e-05   4.7932567614493915e-05
-6.265838589697419e-05   3.168091971825996e-06   -8.030851059693221e-07
-6.265838589697419e-05   3.168091971825996e-06   -8.030851059693221e-07
-6.265838589697419e-05   3.168091971825996e-06   -8.030851059693221e-07
-6.265838589697419e-05   3.168091971825996e-06   -8.030851059693221e-07
-6.598744201864432e-05   -2.5004898086035572e-05   6.776221934493096e-05
-6.598744201864432e-05   -2.5004898086035572e-05   6.776221934493096e-05
-6.598744201864432e-05   -2.5004898086035572e-05   6.776221934493096e-05
-6.598744201864432e-05   -2.5004898086035572e-05   6.776221934493096e-05
-2.698336423846088e-05   2.9760208942889235e-06   -1.4033128343569326e-05
-2.698336423846088e-05   2.9760208942889235e-06   -1.4033128343569326e-05
-2.698336423846088e-05   2.9760208942889235e-06   -1.4033128343569326e-05
-2.698336423846088e-05   2.9760208942889235e-06   -1.4033128343569326e-05
-4.433076207964525e-05   -9.314404565143389e-06   2.225345666739722e-05
-4.433076207964525e-05   -9.314404565143389e-06   2.225345666739722e-05
-4.433076207964525e-05   -9.314404565143389e-06   2.225345666739722e-05
-4.433076207964525e-05   -9.314404565143389e-06   2.225345666739722e-05
-2.6983364238460908e-05   -2.5004898086035572e-05   5.097366795673631e-05
-2.6983364238460908e-05   -2.5004898086035572e-05   5.097366795673631e-05
-2.6983364238460908e-05   -2.5004898086035572e-05   5.097366795673631e-05
-2.6983364238460908e-05   -2.5004898086035572e-05   5.097366795673631e-05
-6.598744201864432e-05   2.9760208942889235e-06   2.755423044625274e-06
-6.598744201864432e-05   2.9760208942889235e-06   2.755423044625274e-06
-6.598744201864432e-05   2.9760208942889235e-06   2.755423044625274e-06
-6.598744201864432e-05   2.9760208942889235e-06   2.755423044625274e-06
-6.801684696998409e-05   -2.5146208713034898e-05   7.15536299525268e-05
-6.801684696998409e-05   -2.5146208713034898e-05   7.15536299525268e-05
-6.801684696998409e-05   -2.5146208713034898e-05   7.15536299525268e-05
-6.801684696998409e-05   -2.5146208713034898e-05   7.15536299525268e-05
-2.8676972120992856e-05   2.623993437169108e-06   -1.0674949419247173e-05
-2.8676972120992856e-05   2.623993437169108e-06   -1.0674949419247173e-05
-2.8676972120992856e-05   2.623993437169108e-06   -1.0674949419247173e-05
-2.8676972120992856e-05   2.623993437169108e-06   -1.0674949419247173e-05
-4.649450126293653e-05   -1.0718930462170258e-05   2.7026686823595917e-05
-4.649450126293653e-05   -1.0718930462170258e-05   2.7026686823595917e-05
-4.649450126293653e-05   -1.0718930462170258e-05   2.7026686823595917e-05
-4.649450126293653e-05   -1.0718930462170258e-05   2.7026686823595917e-05
-2.8676972120992815e-05   -2.5146208713034898e-05   5.489150866240457e-05
-2.8676972120992815e-05   -2.5146208713034898e-05   5.489150866240457e-05
-2.8676972120992815e-05   -2.5146208713034898e-05   5.489150866240457e-05
-2.8676972120992815e-05   -2.5146208713034898e-05   5.489150866240457e-05
-6.801684696998398e-05   2.623993437169108e-06   5.987171870874787e-06
-6.801684696998398e-05   2.623993437169108e-06   5.987171870874787e-06
-6.801684696998398e-05   2.623993437169108e-06   5.987171870874787e-06
-6.801684696998398e-05   2.623993437169108e-06   5.987171870874787e-06
-7.020308287716294e-05   -2.2959425545505865e-05   7.318655424333356e-05
-7.020308287716294e-05   -2.2959425545505865e-05   7.318655424333356e-05
-7.020308287716294e-05   -2.2959425545505865e-05   7.318655424333356e-05
-7.020308287716294e-05   -2.2959425545505865e-05   7.318655424333356e-05
-3.066939148812317e-05   2.225683610323527e-06   -7.813996898563551e-06
-3.066939148812317e-05   2.225683610323527e-06   -7.813996898563551e-06
-3.066939148812317e-05   2.225683610323527e-06   -7.813996898563551e-06
-3.066939148812317e-05   2.225683610323527e-06   -7.813996898563551e-06
-4.872250190580337e-05   -1.0800072459814236e-05   3.00899741063202e-05
-4.872250190580337e-05   -1.0800072459814236e-05   3.00899741063202e-05
-4.872250190580337e-05   -1.0800072459814236e-05   3.00899741063202e-05
-4.872250190580337e-05   -1.0800072459814236e-05   3.00899741063202e-05
-6.265838589697394e-05   0.0   5.312594236144019e-05
-6.265838589697394e-05   0.0   5.312594236144019e-05
-6.265838589697394e-05   0.0   5.312594236144019e-05
-6.265838589697394e-05   0.0   5.312594236144019e-05
-0.00011039229888372705   1.447036758177745e-05   -1.7748358734081876e-05
-0.00011039229888372705   1.447036758177745e-05   -1.7748358734081876e-05
-0.00011039229888372705   1.447036758177745e-05   -1.7748358734081876e-05
-0.00011039229888372705   1.447036758177745e-05   -1.7748358734081876e-05
-0.00011498635573201978   0.0   7.706469527542616e-05
-0.00011498635573201978   0.0   7.706469527542616e-05
-0.00011498635573201978   0.0   7.706469527542616e-05
-0.00011498635573201978   0.0   7.706469527542616e-05
-6.59874420186442e-05   1.3962768485106022e-05   -1.2977822004596885e-05
-6.59874420186442e-05   1.3962768485106022e-05   -1.2977822004596885e-05
-6.59874420186442e-05   1.3962768485106022e-05   -1.2977822004596885e-05
-6.59874420186442e-05   1.3962768485106022e-05   -1.2977822004596885e-05
-8.47314827247263e-05   8.585382734513976e-06   2.1488677289228453e-05
-8.47314827247263e-05   8.585382734513976e-06   2.1488677289228453e-05
-8.47314827247263e-05   8.585382734513976e-06   2.1488677289228453e-05
-8.47314827247263e-05   8.585382734513976e-06   2.1488677289228453e-05
-6.598744201864412e-05   0.0   6.868703418436302e-05
-6.598744201864412e-05   0.0   6.868703418436302e-05
-6.598744201864412e-05   0.0   6.868703418436302e-05
-6.598744201864412e-05   0.0   6.868703418436302e-05
-0.00011498635573201997   1.3962768485106022e-05   -4.600160913533153e-06
-0.00011498635573201997   1.3962768485106022e-05   -4.600160913533153e-06
-0.00011498635573201997   1.3962768485106022e-05   -4.600160913533153e-06
-0.00011498635573201997   1.3962768485106022e-05   -4.600160913533153e-06
-0.00011730043107719306   0.0   8.557129257136665e-05
-0.00011730043107719306   0.0   8.557129257136665e-05
-0.00011730043107719306   0.0   8.557129257136665e-05
-0.00011730043107719306   0.0   8.557129257136665e-05
-6.801684696998398e-05   1.360341305718096e-05   -4.7300621082906145e-06
-6.801684696998398e-05   1.360341305718096e-05   -4.7300621082906145e-06
-6.801684696998398e-05   1.360341305718096e-05   -4.7300621082906145e-06
-6.801684696998398e-05   1.360341305718096e-05   -4.7300621082906145e-06
-8.915909222310286e-05   7.167869975792558e-06   3.4368339162408235e-05
-8.915909222310286e-05   7.167869975792558e-06   3.4368339162408235e-05
-8.915909222310286e-05   7.167869975792558e-06   3.4368339162408235e-05
-8.915909222310286e-05   7.167869975792558e-06   3.4368339162408235e-05
-6.801684696998398e-05   0.0   7.740924473705816e-05
-6.801684696998398e-05   0.0   7.740924473705816e-05
-6.801684696998398e-05   0.0   7.740924473705816e-05
-6.801684696998398e-05   0.0   7.740924473705816e-05
-0.00011730043107719345   1.360341305718096e-05   3.4319857260180914e-06
-0.00011730043107719345   1.360341305718096e-05   3.4319857260180914e-06
-0.00011730043107719345   1.360341305718096e-05   3.4319857260180914e-06
-0.00011730043107719345   1.360341305718096e-05   3.4319857260180914e-06
-0.00011987868148144882   0.0   9.691541718985833e-05
-0.00011987868148144882   0.0   9.691541718985833e-05
-0.00011987868148144882   0.0   9.691541718985833e-05
-0.00011987868148144882   0.0   9.691541718985833e-05
-7.020308287716294e-05   1.1323197493483088e-05   7.328834353291611e-06
-7.020308287716294e-05   1.1323197493483088e-05   7.328834353291611e-06
-7.020308287716294e-05   1.1323197493483088e-05   7.328834353291611e-06
-7.020308287716294e-05   1.1323197493483088e-05   7.328834353291611e-06
-8.990643973267107e-05   5.02924234109612e-06   4.3944135537237546e-05
-8.990643973267107e-05   5.02924234109612e-06   4.3944135537237546e-05
-8.990643973267107e-05   5.02924234109612e-06   4.3944135537237546e-05
-8.990643973267107e-05   5.02924234109612e-06   4.3944135537237546e-05
7.569620544363765e-05   -1.13905511233167e-05   5.3765467267387e-05
7.569620544363765e-05   -1.13905511233167e-05   5.3765467267387e-05
7.569620544363765e-05   -1.13905511233167e-05   5.3765467267387e-05
7.569620544363765e-05   -1.13905511233167e-05   5.3765467267387e-05
3.828983505416813e-05   -8.585551177538262e-06   -6.89548341426178e-06
3.828983505416813e-05   -8.585551177538262e-06   -6.89548341426178e-06
3.828983505416813e-05   -8.585551177538262e-06   -6.89548341426178e-06
3.828983505416813e-05   -8.585551177538262e-06   -6.89548341426178e-06
3.7277748640586104e-05   -1.2524683609806651e-05   4.693581217475552e-05
3.7277748640586104e-05   -1.2524683609806651e-05   4.693581217475552e-05
3.7277748640586104e-05   -1.2524683609806651e-05   4.693581217475552e-05
3.7277748640586104e-05   -1.2524683609806651e-05   4.693581217475552e-05
7.38885551298228e-05   -9.732130215264062e-06   -1.575773067736462e-05
7.38885551298228e-05   -9.732130215264062e-06   -1.575773067736462e-05
7.38885551298228e-05   -9.732130215264062e-06   -1.575773067736462e-05
7.38885551298228e-05   -9.732130215264062e-06   -1.575773067736462e-05
5.378222906830307e-05   -1.0135807794285981e-05   1.7995019305914648e-05
5.378222906830307e-05   -1.0135807794285981e-05   1.7995019305914648e-05
5.378222906830307e-05   -1.0135807794285981e-05   1.7995019305914648e-05
5.378222906830307e-05   -1.0135807794285981e-05   1.7995019305914648e-05
7.388855512982267e-05   -1.2524683609806651e-05   4.5260280138029836e-05
7.388855512982267e-05   -1.2524683609806651e-05   4.5260280138029836e-05
7.388855512982267e-05   -1.2524683609806651e-05   4.5260280138029836e-05
7.388855512982267e-05   -1.2524683609806651e-05   4.5260280138029836e-05
3.727774864058616e-05   -9.732130215264062e-06   -1.4082198640638774e-05
3.727774864058616e-05   -9.732130215264062e-06   -1.4082198640638774e-05
3.727774864058616e-05   -9.732130215264062e-06   -1.4082198640638774e-05
3.727774864058616e-05   -9.732130215264062e-06   -1.4082198640638774e-05
3.597358218590414e-05   -1.262950072319349e-05   4.2132847103308136e-05
3.597358218590414e-05   -1.262950072319349e-05   4.2132847103308136e-05
3.597358218590414e-05   -1.262950072319349e-05   4.2132847103308136e-05
3.597358218590414e-05   -1.262950072319349e-05   4.2132847103308136e-05
7.206069005858068e-05   -9.902905246736513e-06   -1.9648289970359938e-05
7.206069005858068e-05   -9.902905246736513e-06   -1.9648289970359938e-05
7.206069005858068e-05   -9.902905246736513e-06   -1.9648289970359938e-05
7.206069005858068e-05   -9.902905246736513e-06   -1.9648289970359938e-05
5.327342788651556e-05   -1.0578728663912865e-05   1.2069307700054207e-05
5.327342788651556e-05   -1.0578728663912865e-05   1.2069307700054207e-05
5.327342788651556e-05   -1.0578728663912865e-05   1.2069307700054207e-05
5.327342788651556e-05   -1.0578728663912865e-05   1.2069307700054207e-05
7.206069005858068e-05   -1.2629500723193056e-05   4.0496889817434253e-05
7.206069005858068e-05   -1.2629500723193056e-05   4.0496889817434253e-05
7.206069005858068e-05   -1.2629500723193056e-05   4.0496889817434253e-05
7.206069005858068e-05   -1.2629500723193056e-05   4.0496889817434253e-05
3.597358218590414e-05   -9.902905246736513e-06   -1.8012332684486055e-05
3.597358218590414e-05   -9.902905246736513e-06   -1.8012332684486055e-05
3.597358218590414e-05   -9.902905246736513e-06   -1.8012332684486055e-05
3.597358218590414e-05   -9.902905246736513e-06   -1.8012332684486055e-05
3.460540322270185e-05   -1.2367532899486364e-05   3.5009702986366076e-05
3.460540322270185e-05   -1.2367532899486364e-05   3.5009702986366076e-05
3.460540322270185e-05   -1.2367532899486364e-05   3.5009702986366076e-05
3.460540322270185e-05   -1.2367532899486364e-05   3.5009702986366076e-05
6.97726963312772e-05   -9.841810656449103e-06   -2.5117885540415306e-05
6.97726963312772e-05   -9.841810656449103e-06   -2.5117885540415306e-05
6.97726963312772e-05   -9.841810656449103e-06   -2.5117885540415306e-05
6.97726963312772e-05   -9.841810656449103e-06   -2.5117885540415306e-05
5.089625958626114e-05   -1.030231957506152e-05   6.6191477191133346e-06
5.089625958626114e-05   -1.030231957506152e-05   6.6191477191133346e-06
5.089625958626114e-05   -1.030231957506152e-05   6.6191477191133346e-06
5.089625958626114e-05   -1.030231957506152e-05   6.6191477191133346e-06
3.82898350541682e-05   -7.050321691725106e-06   5.089492184526582e-05
3.82898350541682e-05   -7.050321691725106e-06   5.089492184526582e-05
3.82898350541682e-05   -7.050321691725106e-06   5.089492184526582e-05
3.82898350541682e-05   -7.050321691725106e-06   5.089492184526582e-05
4.211972365352005e-06   -3.0311703148005846e-06   -3.4900251432729706e-06
4.211972365352005e-06   -3.0311703148005846e-06   -3.4900251432729706e-06
4.211972365352005e-06   -3.0311703148005846e-06   -3.4900251432729706e-06
4.211972365352005e-06   -3.0311703148005846e-06   -3.4900251432729706e-06
3.2067451348210423e-06   -7.47836230874507e-06   5.3028548371473984e-05
3.2067451348210423e-06   -7.47836230874507e-06   5.3028548371473984e-05
3.2067451348210423e-06   -7.47836230874507e-06   5.3028548371473984e-05
3.2067451348210423e-06   -7.47836230874507e-06   5.3028548371473984e-05
3.727774864058616e-05   -3.6476347719761534e-06   -6.054893993529101e-06
3.727774864058616e-05   -3.6476347719761534e-06   -6.054893993529101e-06
3.727774864058616e-05   -3.6476347719761534e-06   -6.054893993529101e-06
3.727774864058616e-05   -3.6476347719761534e-06   -6.054893993529101e-06
2.054789563995933e-05   -4.929668632463937e-06   2.2597414657141482e-05
2.054789563995933e-05   -4.929668632463937e-06   2.2597414657141482e-05
2.054789563995933e-05   -4.929668632463937e-06   2.2597414657141482e-05
2.054789563995933e-05   -4.929668632463937e-06   2.2597414657141482e-05
3.727774864058613e-05   -7.47836230874507e-06   5.073011184941268e-05
3.727774864058613e-05   -7.47836230874507e-06   5.073011184941268e-05
3.727774864058613e-05   -7.47836230874507e-06   5.073011184941268e-05
3.727774864058613e-05   -7.47836230874507e-06   5.073011184941268e-05
3.2067451348210423e-06   -3.6476347719761534e-06   -3.756457471467767e-06
3.2067451348210423e-06   -3.6476347719761534e-06   -3.756457471467767e-06
3.2067451348210423e-06   -3.6476347719761534e-06   -3.756457471467767e-06
3.2067451348210423e-06   -3.6476347719761534e-06   -3.756457471467767e-06
1.92336382469051e-06   -7.669287546547849e-06   5.253247055081456e-05
1.92336382469051e-06   -7.669287546547849e-06   5.253247055081456e-05
1.92336382469051e-06   -7.669287546547849e-06   5.253247055081456e-05
1.92336382469051e-06   -7.669287546547849e-06   5.253247055081456e-05
3.597358218590414e-05   -4.052318662587685e-06   -6.3880747149179485e-06
3.597358218590414e-05   -4.052318662587685e-06   -6.3880747149179485e-06
3.597358218590414e-05   -4.052318662587685e-06   -6.3880747149179485e-06
3.597358218590414e-05   -4.052318662587685e-06   -6.3880747149179485e-06
1.927345819403236e-05   -5.1632536803509e-06   2.2112026282193674e-05
1.927345819403236e-05   -5.1632536803509e-06   2.2112026282193674e-05
1.927345819403236e-05   -5.1632536803509e-06   2.2112026282193674e-05
1.927345819403236e-05   -5.1632536803509e-06   2.2112026282193674e-05
3.5973582185904075e-05   -7.669287546548283e-06   5.036228922043794e-05
3.5973582185904075e-05   -7.669287546548283e-06   5.036228922043794e-05
3.5973582185904075e-05   -7.669287546548283e-06   5.036228922043794e-05
3.5973582185904075e-05   -7.669287546548283e-06   5.036228922043794e-05
1.92336382469051e-06   -4.052318662587685e-06   -4.217893384541845e-06
1.92336382469051e-06   -4.052318662587685e-06   -4.217893384541845e-06
1.92336382469051e-06   -4.052318662587685e-06   -4.217893384541845e-06
1.92336382469051e-06   -4.052318662587685e-06   -4.217893384541845e-06
5.056092085191442e-07   -7.4974054842993215e-06   5.3307627677093294e-05
5.056092085191442e-07   -7.4974054842993215e-06   5.3307627677093294e-05
5.056092085191442e-07   -7.4974054842993215e-06   5.3307627677093294e-05
5.056092085191442e-07   -7.4974054842993215e-06   5.3307627677093294e-05
3.460540322270182e-05   -4.226334911757584e-06   -5.4880046900692954e-06
3.460540322270182e-05   -4.226334911757584e-06   -5.4880046900692954e-06
3.460540322270182e-05   -4.226334911757584e-06   -5.4880046900692954e-06
3.460540322270182e-05   -4.226334911757584e-06   -5.4880046900692954e-06
1.8234560711853157e-05   -5.114911731103015e-06   2.232987891961978e-05
1.8234560711853157e-05   -5.114911731103015e-06   2.232987891961978e-05
1.8234560711853157e-05   -5.114911731103015e-06   2.232987891961978e-05
1.8234560711853157e-05   -5.114911731103015e-06   2.232987891961978e-05
4.211972365352005e-06   -2.975921001399824e-06   5.204882963627381e-05
4.211972365352005e-06   -2.975921001399824e-06   5.204882963627381e-05
4.211972365352005e-06   -2.975921001399824e-06   5.204882963627381e-05
4.211972365352005e-06   -2.975921001399824e-06   5.204882963627381e-05
-2.8800671482354226e-05   2.6900500055136896e-06   4.273391609114878e-07
-2.8800671482354226e-05   2.6900500055136896e-06   4.273391609114878e-07
-2.8800671482354226e-05   2.6900500055136896e-06   4.273391609114878e-07
-2.8800671482354226e-05   2.6900500055136896e-06   4.273391609114878e-07
-2.993321212074794e-05   -3.1427674581641085e-06   5.583998162872429e-05
-2.993321212074794e-05   -3.1427674581641085e-06   5.583998162872429e-05
-2.993321212074794e-05   -3.1427674581641085e-06   5.583998162872429e-05
-2.993321212074794e-05   -3.1427674581641085e-06   5.583998162872429e-05
3.2067451348210423e-06   2.217696135127945e-06   -2.6095586198657933e-06
3.2067451348210423e-06   2.217696135127945e-06   -2.6095586198657933e-06
3.2067451348210423e-06   2.217696135127945e-06   -2.6095586198657933e-06
3.2067451348210423e-06   2.217696135127945e-06   -2.6095586198657933e-06
-1.2805192891306697e-05   -5.401475382639867e-08   2.5440031290386244e-05
-1.2805192891306697e-05   -5.401475382639867e-08   2.5440031290386244e-05
-1.2805192891306697e-05   -5.401475382639867e-08   2.5440031290386244e-05
-1.2805192891306697e-05   -5.401475382639867e-08   2.5440031290386244e-05
3.2067451348210423e-06   -3.1427674581641085e-06   5.262370347274914e-05
3.2067451348210423e-06   -3.1427674581641085e-06   5.262370347274914e-05
3.2067451348210423e-06   -3.1427674581641085e-06   5.262370347274914e-05
3.2067451348210423e-06   -3.1427674581641085e-06   5.262370347274914e-05
-2.993321212074794e-05   2.217696135127945e-06   6.067195361090811e-07
-2.993321212074794e-05   2.217696135127945e-06   6.067195361090811e-07
-2.993321212074794e-05   2.217696135127945e-06   6.067195361090811e-07
-2.993321212074794e-05   2.217696135127945e-06   6.067195361090811e-07
-3.145193632622155e-05   -3.34696425641429e-06   5.696008927581135e-05
-3.145193632622155e-05   -3.34696425641429e-06   5.696008927581135e-05
-3.145193632622155e-05   -3.34696425641429e-06   5.696008927581135e-05
-3.145193632622155e-05   -3.34696425641429e-06   5.696008927581135e-05
1.92336382469051e-06   1.7779844932140632e-06   -1.7403802254859911e-06
1.92336382469051e-06   1.7779844932140632e-06   -1.7403802254859911e-06
1.92336382469051e-06   1.7779844932140632e-06   -1.7403802254859911e-06
1.92336382469051e-06   1.7779844932140632e-06   -1.7403802254859911e-06
-1.392244532212269e-05   -1.8718400356370485e-07   2.5848402783936277e-05
-1.392244532212269e-05   -1.8718400356370485e-07   2.5848402783936277e-05
-1.392244532212269e-05   -1.8718400356370485e-07   2.5848402783936277e-05
-1.392244532212269e-05   -1.8718400356370485e-07   2.5848402783936277e-05
1.92336382469051e-06   -3.34696425641429e-06   5.3885120026034294e-05
1.92336382469051e-06   -3.34696425641429e-06   5.3885120026034294e-05
1.92336382469051e-06   -3.34696425641429e-06   5.3885120026034294e-05
1.92336382469051e-06   -3.34696425641429e-06   5.3885120026034294e-05
-3.1451936326221493e-05   1.7779844932140632e-06   1.3345890242913352e-06
-3.1451936326221493e-05   1.7779844932140632e-06   1.3345890242913352e-06
-3.1451936326221493e-05   1.7779844932140632e-06   1.3345890242913352e-06
-3.1451936326221493e-05   1.7779844932140632e-06   1.3345890242913352e-06
-3.307003711778403e-05   -3.328076723398826e-06   5.83036833959002e-05
-3.307003711778403e-05   -3.328076723398826e-06   5.83036833959002e-05
-3.307003711778403e-05   -3.328076723398826e-06   5.83036833959002e-05
-3.307003711778403e-05   -3.328076723398826e-06   5.83036833959002e-05
5.056092085191442e-07   1.4611332139523661e-06   -5.292531103486334e-07
5.056092085191442e-07   1.4611332139523661e-06   -5.292531103486334e-07
5.056092085191442e-07   1.4611332139523661e-06   -5.292531103486334e-07
5.056092085191442e-07   1.4611332139523661e-06   -5.292531103486334e-07
-1.5347407547552333e-05   -2.8296517889069006e-07   2.6938900518810025e-05
-1.5347407547552333e-05   -2.8296517889069006e-07   2.6938900518810025e-05
-1.5347407547552333e-05   -2.8296517889069006e-07   2.6938900518810025e-05
-1.5347407547552333e-05   -2.8296517889069006e-07   2.6938900518810025e-05
-2.8800671482354117e-05   3.1680919718264297e-06   4.703052394577608e-05
-2.8800671482354117e-05   3.1680919718264297e-06   4.703052394577608e-05
-2.8800671482354117e-05   3.1680919718264297e-06   4.703052394577608e-05
-2.8800671482354117e-05   3.1680919718264297e-06   4.703052394577608e-05
-6.113782508419404e-05   8.76836960168794e-06   -3.504565479373707e-06
-6.113782508419404e-05   8.76836960168794e-06   -3.504565479373707e-06
-6.113782508419404e-05   8.76836960168794e-06   -3.504565479373707e-06
-6.113782508419404e-05   8.76836960168794e-06   -3.504565479373707e-06
-6.278809008563932e-05   2.9760208942889235e-06   5.20621564474434e-05
-6.278809008563932e-05   2.9760208942889235e-06   5.20621564474434e-05
-6.278809008563932e-05   2.9760208942889235e-06   5.20621564474434e-05
-6.278809008563932e-05   2.9760208942889235e-06   5.20621564474434e-05
-2.9933212120747833e-05   8.29453718500248e-06   -5.887083268470237e-06
-2.9933212120747833e-05   8.29453718500248e-06   -5.887083268470237e-06
-2.9933212120747833e-05   8.29453718500248e-06   -5.887083268470237e-06
-2.9933212120747833e-05   8.29453718500248e-06   -5.887083268470237e-06
-4.530426779592439e-05   5.903658550912398e-06   2.1165870037277755e-05
-4.530426779592439e-05   5.903658550912398e-06   2.1165870037277755e-05
-4.530426779592439e-05   5.903658550912398e-06   2.1165870037277755e-05
-4.530426779592439e-05   5.903658550912398e-06   2.1165870037277755e-05
-2.9933212120747887e-05   2.9760208942889235e-06   4.8871046673015306e-05
-2.9933212120747887e-05   2.9760208942889235e-06   4.8871046673015306e-05
-2.9933212120747887e-05   2.9760208942889235e-06   4.8871046673015306e-05
-2.9933212120747887e-05   2.9760208942889235e-06   4.8871046673015306e-05
-6.278809008563921e-05   8.29453718500248e-06   -2.6959734940421465e-06
-6.278809008563921e-05   8.29453718500248e-06   -2.6959734940421465e-06
-6.278809008563921e-05   8.29453718500248e-06   -2.6959734940421465e-06
-6.278809008563921e-05   8.29453718500248e-06   -2.6959734940421465e-06
-6.481022427547864e-05   2.623993437169108e-06   5.525589236270081e-05
-6.481022427547864e-05   2.623993437169108e-06   5.525589236270081e-05
-6.481022427547864e-05   2.623993437169108e-06   5.525589236270081e-05
-6.481022427547864e-05   2.623993437169108e-06   5.525589236270081e-05
-3.1451936326221493e-05   7.85658165647395e-06   -3.4808071509774986e-06
-3.1451936326221493e-05   7.85658165647395e-06   -3.4808071509774986e-06
-3.1451936326221493e-05   7.85658165647395e-06   -3.4808071509774986e-06
-3.1451936326221493e-05   7.85658165647395e-06   -3.4808071509774986e-06
-4.653401239123127e-05   5.793751332460687e-06   2.289368448511297e-05
-4.653401239123127e-05   5.793751332460687e-06   2.289368448511297e-05
-4.653401239123127e-05   5.793751332460687e-06   2.289368448511297e-05
-4.653401239123127e-05   5.793751332460687e-06   2.289368448511297e-05
-3.1451936326221466e-05   2.623993437169108e-06   5.211633943111738e-05
-3.1451936326221466e-05   2.623993437169108e-06   5.211633943111738e-05
-3.1451936326221466e-05   2.623993437169108e-06   5.211633943111738e-05
-3.1451936326221466e-05   2.623993437169108e-06   5.211633943111738e-05
-6.481022427547864e-05   7.85658165647395e-06   -3.4125421939450694e-07
-6.481022427547864e-05   7.85658165647395e-06   -3.4125421939450694e-07
-6.481022427547864e-05   7.85658165647395e-06   -3.4125421939450694e-07
-6.481022427547864e-05   7.85658165647395e-06   -3.4125421939450694e-07
-6.695011842322029e-05   2.225683610323527e-06   5.780103473236771e-05
-6.695011842322029e-05   2.225683610323527e-06   5.780103473236771e-05
-6.695011842322029e-05   2.225683610323527e-06   5.780103473236771e-05
-6.695011842322029e-05   2.225683610323527e-06   5.780103473236771e-05
-3.30700371177839e-05   7.26813988861626e-06   -1.6912412103350255e-06
-3.30700371177839e-05   7.26813988861626e-06   -1.6912412103350255e-06
-3.30700371177839e-05   7.26813988861626e-06   -1.6912412103350255e-06
-3.30700371177839e-05   7.26813988861626e-06   -1.6912412103350255e-06
-4.858041005147067e-05   5.438147599094809e-06   2.5257375719524495e-05
-4.858041005147067e-05   5.438147599094809e-06   2.5257375719524495e-05
-4.858041005147067e-05   5.438147599094809e-06   2.5257375719524495e-05
-4.858041005147067e-05   5.438147599094809e-06   2.5257375719524495e-05
-6.113782508419404e-05   1.4470367581777017e-05   2.4763196346514046e-05
-6.113782508419404e-05   1.4470367581777017e-05   2.4763196346514046e-05
-6.113782508419404e-05   1.4470367581777017e-05   2.4763196346514046e-05
-6.113782508419404e-05   1.4470367581777017e-05   2.4763196346514046e-05
-9.210196733298452e-05   1.4260198949922823e-05   -2.6969808580582866e-05
-9.210196733298452e-05   1.4260198949922823e-05   -2.6969808580582866e-05
-9.210196733298452e-05   1.4260198949922823e-05   -2.6969808580582866e-05
-9.210196733298452e-05   1.4260198949922823e-05   -2.6969808580582866e-05
-9.50639230629675e-05   1.3962768485106022e-05   3.66706916126577e-05
-9.50639230629675e-05   1.3962768485106022e-05   3.66706916126577e-05
-9.50639230629675e-05   1.3962768485106022e-05   3.66706916126577e-05
-9.50639230629675e-05   1.3962768485106022e-05   3.66706916126577e-05
-6.278809008563921e-05   1.4532402175833261e-05   -1.7464143563993017e-05
-6.278809008563921e-05   1.4532402175833261e-05   -1.7464143563993017e-05
-6.278809008563921e-05   1.4532402175833261e-05   -1.7464143563993017e-05
-6.278809008563921e-05   1.4532402175833261e-05   -1.7464143563993017e-05
-7.464248634712149e-05   1.4532848181729539e-05   2.2929159349397484e-06
-7.464248634712149e-05   1.4532848181729539e-05   2.2929159349397484e-06
-7.464248634712149e-05   1.4532848181729539e-05   2.2929159349397484e-06
-7.464248634712149e-05   1.4532848181729539e-05   2.2929159349397484e-06
-6.278809008563918e-05   1.3962768485105588e-05   3.6328911398221184e-05
-6.278809008563918e-05   1.3962768485105588e-05   3.6328911398221184e-05
-6.278809008563918e-05   1.3962768485105588e-05   3.6328911398221184e-05
-6.278809008563918e-05   1.3962768485105588e-05   3.6328911398221184e-05
-9.50639230629675e-05   1.4532402175833261e-05   -1.712236334955623e-05
-9.50639230629675e-05   1.4532402175833261e-05   -1.712236334955623e-05
-9.50639230629675e-05   1.4532402175833261e-05   -1.712236334955623e-05
-9.50639230629675e-05   1.4532402175833261e-05   -1.712236334955623e-05
-9.796859732590069e-05   1.360341305718096e-05   4.503296813928139e-05
-9.796859732590069e-05   1.360341305718096e-05   4.503296813928139e-05
-9.796859732590069e-05   1.360341305718096e-05   4.503296813928139e-05
-9.796859732590069e-05   1.360341305718096e-05   4.503296813928139e-05
-6.481022427547853e-05   1.4427262650091796e-05   -1.072529670050217e-05
-6.481022427547853e-05   1.4427262650091796e-05   -1.072529670050217e-05
-6.481022427547853e-05   1.4427262650091796e-05   -1.072529670050217e-05
-6.481022427547853e-05   1.4427262650091796e-05   -1.072529670050217e-05
-7.803583457787086e-05   1.4529501588974019e-05   1.1256043773490002e-05
-7.803583457787086e-05   1.4529501588974019e-05   1.1256043773490002e-05
-7.803583457787086e-05   1.4529501588974019e-05   1.1256043773490002e-05
-7.803583457787086e-05   1.4529501588974019e-05   1.1256043773490002e-05
-6.481022427547853e-05   1.360341305718096e-05   4.453865838353519e-05
-6.481022427547853e-05   1.360341305718096e-05   4.453865838353519e-05
-6.481022427547853e-05   1.360341305718096e-05   4.453865838353519e-05
-6.481022427547853e-05   1.360341305718096e-05   4.453865838353519e-05
-9.796859732590069e-05   1.4427262650091796e-05   -1.0230986944755483e-05
-9.796859732590069e-05   1.4427262650091796e-05   -1.0230986944755483e-05
-9.796859732590069e-05   1.4427262650091796e-05   -1.0230986944755483e-05
-9.796859732590069e-05   1.4427262650091796e-05   -1.0230986944755483e-05
-0.00010139400544427747   1.1323197493483522e-05   5.900683781516697e-05
-0.00010139400544427747   1.1323197493483522e-05   5.900683781516697e-05
-0.00010139400544427747   1.1323197493483522e-05   5.900683781516697e-05
-0.00010139400544427747   1.1323197493483522e-05   5.900683781516697e-05
-6.695011842322004e-05   1.3279926367553135e-05   4.263221222961075e-07
-6.695011842322004e-05   1.3279926367553135e-05   4.263221222961075e-07
-6.695011842322004e-05   1.3279926367553135e-05   4.263221222961075e-07
-6.695011842322004e-05   1.3279926367553135e-05   4.263221222961075e-07
-7.925679761537109e-05   1.3838684678062901e-05   2.060219912290934e-05
-7.925679761537109e-05   1.3838684678062901e-05   2.060219912290934e-05
-7.925679761537109e-05   1.3838684678062901e-05   2.060219912290934e-05
-7.925679761537109e-05   1.3838684678062901e-05   2.060219912290934e-05
6.136052322194575e-05   -8.585551177538262e-06   4.737443951954726e-05
6.136052322194575e-05   -8.585551177538262e-06   4.737443951954726e-05
6.136052322194575e-05   -8.585551177538262e-06   4.737443951954726e-05
6.136052322194575e-05   -8.585551177538262e-06   4.737443951954726e-05
3.0383985015947128e-05   -6.290580352410601e-06   -2.8761416620405687e-06
3.0383985015947128e-05   -6.290580352410601e-06   -2.8761416620405687e-06
3.0383985015947128e-05   -6.290580352410601e-06   -2.8761416620405687e-06
3.0383985015947128e-05   -6.290580352410601e-06   -2.8761416620405687e-06
2.9218235128304187e-05   -9.732130215263628e-06   4.1200494711374864e-05
2.9218235128304187e-05   -9.732130215263628e-06   4.1200494711374864e-05
2.9218235128304187e-05   -9.732130215263628e-06   4.1200494711374864e-05
2.9218235128304187e-05   -9.732130215263628e-06   4.1200494711374864e-05
5.921634729713235e-05   -7.300113153075032e-06   -1.0255569140651416e-05
5.921634729713235e-05   -7.300113153075032e-06   -1.0255569140651416e-05
5.921634729713235e-05   -7.300113153075032e-06   -1.0255569140651416e-05
5.921634729713235e-05   -7.300113153075032e-06   -1.0255569140651416e-05
4.298241315143254e-05   -7.895555748510096e-06   1.715825332610887e-05
4.298241315143254e-05   -7.895555748510096e-06   1.715825332610887e-05
4.298241315143254e-05   -7.895555748510096e-06   1.715825332610887e-05
4.298241315143254e-05   -7.895555748510096e-06   1.715825332610887e-05
5.921634729713225e-05   -9.732130215263628e-06   3.974128447406175e-05
5.921634729713225e-05   -9.732130215263628e-06   3.974128447406175e-05
5.921634729713225e-05   -9.732130215263628e-06   3.974128447406175e-05
5.921634729713225e-05   -9.732130215263628e-06   3.974128447406175e-05
2.9218235128304282e-05   -7.300113153075032e-06   -8.796358903338406e-06
2.9218235128304282e-05   -7.300113153075032e-06   -8.796358903338406e-06
2.9218235128304282e-05   -7.300113153075032e-06   -8.796358903338406e-06
2.9218235128304282e-05   -7.300113153075032e-06   -8.796358903338406e-06
2.7923010164202782e-05   -9.902905246736513e-06   3.692564821960445e-05
2.7923010164202782e-05   -9.902905246736513e-06   3.692564821960445e-05
2.7923010164202782e-05   -9.902905246736513e-06   3.692564821960445e-05
2.7923010164202782e-05   -9.902905246736513e-06   3.692564821960445e-05
5.7275032422386414e-05   -7.503171871926697e-06   -1.3434228902253645e-05
5.7275032422386414e-05   -7.503171871926697e-06   -1.3434228902253645e-05
5.7275032422386414e-05   -7.503171871926697e-06   -1.3434228902253645e-05
5.7275032422386414e-05   -7.503171871926697e-06   -1.3434228902253645e-05
4.217388726759974e-05   -8.286682767859321e-06   1.2204452893283565e-05
4.217388726759974e-05   -8.286682767859321e-06   1.2204452893283565e-05
4.217388726759974e-05   -8.286682767859321e-06   1.2204452893283565e-05
4.217388726759974e-05   -8.286682767859321e-06   1.2204452893283565e-05
5.727503242238621e-05   -9.902905246736513e-06   3.5485808194718645e-05
5.727503242238621e-05   -9.902905246736513e-06   3.5485808194718645e-05
5.727503242238621e-05   -9.902905246736513e-06   3.5485808194718645e-05
5.727503242238621e-05   -9.902905246736513e-06   3.5485808194718645e-05
2.7923010164202837e-05   -7.503171871926697e-06   -1.1994388877367788e-05
2.7923010164202837e-05   -7.503171871926697e-06   -1.1994388877367788e-05
2.7923010164202837e-05   -7.503171871926697e-06   -1.1994388877367788e-05
2.7923010164202837e-05   -7.503171871926697e-06   -1.1994388877367788e-05
2.6677398628394063e-05   -9.841810656449103e-06   3.096645198295291e-05
2.6677398628394063e-05   -9.841810656449103e-06   3.096645198295291e-05
2.6677398628394063e-05   -9.841810656449103e-06   3.096645198295291e-05
2.6677398628394063e-05   -9.841810656449103e-06   3.096645198295291e-05
5.507661844773084e-05   -7.586515260274516e-06   -1.771875828697942e-05
5.507661844773084e-05   -7.586515260274516e-06   -1.771875828697942e-05
5.507661844773084e-05   -7.586515260274516e-06   -1.771875828697942e-05
5.507661844773084e-05   -7.586515260274516e-06   -1.771875828697942e-05
3.999933585306062e-05   -8.14715570492553e-06   7.746430304261939e-06
3.999933585306062e-05   -8.14715570492553e-06   7.746430304261939e-06
3.999933585306062e-05   -8.14715570492553e-06   7.746430304261939e-06
3.999933585306062e-05   -8.14715570492553e-06   7.746430304261939e-06
3.0383985015947128e-05   -3.0311703148005846e-06   4.9745389459458084e-05
3.0383985015947128e-05   -3.0311703148005846e-06   4.9745389459458084e-05
3.0383985015947128e-05   -3.0311703148005846e-06   4.9745389459458084e-05
3.0383985015947128e-05   -3.0311703148005846e-06   4.9745389459458084e-05
1.3080621250508126e-06   -1.2026937703363792e-06   2.3826039013093766e-06
1.3080621250508126e-06   -1.2026937703363792e-06   2.3826039013093766e-06
1.3080621250508126e-06   -1.2026937703363792e-06   2.3826039013093766e-06
1.3080621250508126e-06   -1.2026937703363792e-06   2.3826039013093766e-06
1.891299141366801e-07   -3.647634771976587e-06   5.026506478930507e-05
1.891299141366801e-07   -3.647634771976587e-06   5.026506478930507e-05
1.891299141366801e-07   -3.647634771976587e-06   5.026506478930507e-05
1.891299141366801e-07   -3.647634771976587e-06   5.026506478930507e-05
2.9218235128304282e-05   -1.9188590539421894e-06   8.459573348721657e-07
2.9218235128304282e-05   -1.9188590539421894e-06   8.459573348721657e-07
2.9218235128304282e-05   -1.9188590539421894e-06   8.459573348721657e-07
2.9218235128304282e-05   -1.9188590539421894e-06   8.459573348721657e-07
1.5089592602032147e-05   -2.3592151490443684e-06   2.465790853572016e-05
1.5089592602032147e-05   -2.3592151490443684e-06   2.465790853572016e-05
1.5089592602032147e-05   -2.3592151490443684e-06   2.465790853572016e-05
1.5089592602032147e-05   -2.3592151490443684e-06   2.465790853572016e-05
2.9218235128304255e-05   -3.647634771976587e-06   4.9227799358484564e-05
2.9218235128304255e-05   -3.647634771976587e-06   4.9227799358484564e-05
2.9218235128304255e-05   -3.647634771976587e-06   4.9227799358484564e-05
2.9218235128304255e-05   -3.647634771976587e-06   4.9227799358484564e-05
1.891299141366801e-07   -1.9188590539421894e-06   1.8832227656926607e-06
1.891299141366801e-07   -1.9188590539421894e-06   1.8832227656926607e-06
1.891299141366801e-07   -1.9188590539421894e-06   1.8832227656926607e-06
1.891299141366801e-07   -1.9188590539421894e-06   1.8832227656926607e-06
-9.739175205127786e-07   -4.052318662587685e-06   4.951054241242119e-05
-9.739175205127786e-07   -4.052318662587685e-06   4.951054241242119e-05
-9.739175205127786e-07   -4.052318662587685e-06   4.951054241242119e-05
-9.739175205127786e-07   -4.052318662587685e-06   4.951054241242119e-05
2.7923010164202837e-05   -2.451258290506707e-06   3.883600479800205e-07
2.7923010164202837e-05   -2.451258290506707e-06   3.883600479800205e-07
2.7923010164202837e-05   -2.451258290506707e-06   3.883600479800205e-07
2.7923010164202837e-05   -2.451258290506707e-06   3.883600479800205e-07
1.3805453337565506e-05   -2.7346200991954124e-06   2.408763851092263e-05
1.3805453337565506e-05   -2.7346200991954124e-06   2.408763851092263e-05
1.3805453337565506e-05   -2.7346200991954124e-06   2.408763851092263e-05
1.3805453337565506e-05   -2.7346200991954124e-06   2.408763851092263e-05
2.7923010164202782e-05   -4.052318662587685e-06   4.854990618917247e-05
2.7923010164202782e-05   -4.052318662587685e-06   4.854990618917247e-05
2.7923010164202782e-05   -4.052318662587685e-06   4.854990618917247e-05
2.7923010164202782e-05   -4.052318662587685e-06   4.854990618917247e-05
-9.739175205127786e-07   -2.451258290506707e-06   1.3489962712286835e-06
-9.739175205127786e-07   -2.451258290506707e-06   1.3489962712286835e-06
-9.739175205127786e-07   -2.451258290506707e-06   1.3489962712286835e-06
-9.739175205127786e-07   -2.451258290506707e-06   1.3489962712286835e-06
-2.1847270148639647e-06   -4.226334911757584e-06   4.9893668238454444e-05
-2.1847270148639647e-06   -4.226334911757584e-06   4.9893668238454444e-05
-2.1847270148639647e-06   -4.226334911757584e-06   4.9893668238454444e-05
-2.1847270148639647e-06   -4.226334911757584e-06   4.9893668238454444e-05
2.667739862839413e-05   -2.871720326793649e-06   9.773567487127388e-07
2.667739862839413e-05   -2.871720326793649e-06   9.773567487127388e-07
2.667739862839413e-05   -2.871720326793649e-06   9.773567487127388e-07
2.667739862839413e-05   -2.871720326793649e-06   9.773567487127388e-07
1.283931876282638e-05   -2.936683935428081e-06   2.4079801356507178e-05
1.283931876282638e-05   -2.936683935428081e-06   2.4079801356507178e-05
1.283931876282638e-05   -2.936683935428081e-06   2.4079801356507178e-05
1.283931876282638e-05   -2.936683935428081e-06   2.4079801356507178e-05
1.3080621250508126e-06   2.6900500055136896e-06   5.1360257086172523e-05
1.3080621250508126e-06   2.6900500055136896e-06   5.1360257086172523e-05
1.3080621250508126e-06   2.6900500055136896e-06   5.1360257086172523e-05
1.3080621250508126e-06   2.6900500055136896e-06   5.1360257086172523e-05
-2.6917541605636235e-05   3.9078593841732415e-06   5.048269828890036e-06
-2.6917541605636235e-05   3.9078593841732415e-06   5.048269828890036e-06
-2.6917541605636235e-05   3.9078593841732415e-06   5.048269828890036e-06
-2.6917541605636235e-05   3.9078593841732415e-06   5.048269828890036e-06
-2.8086562535491335e-05   2.217696135127945e-06   5.206822449953046e-05
-2.8086562535491335e-05   2.217696135127945e-06   5.206822449953046e-05
-2.8086562535491335e-05   2.217696135127945e-06   5.206822449953046e-05
-2.8086562535491335e-05   2.217696135127945e-06   5.206822449953046e-05
1.891299141366801e-07   3.3114642328337975e-06   4.285809558193598e-06
1.891299141366801e-07   3.3114642328337975e-06   4.285809558193598e-06
1.891299141366801e-07   3.3114642328337975e-06   4.285809558193598e-06
1.891299141366801e-07   3.3114642328337975e-06   4.285809558193598e-06
-1.3397479922760394e-05   3.0667062412858583e-06   2.7077014081284124e-05
-1.3397479922760394e-05   3.0667062412858583e-06   2.7077014081284124e-05
-1.3397479922760394e-05   3.0667062412858583e-06   2.7077014081284124e-05
-1.3397479922760394e-05   3.0667062412858583e-06   2.7077014081284124e-05
1.891299141366801e-07   2.217696135127945e-06   5.1411963640906775e-05
1.891299141366801e-07   2.217696135127945e-06   5.1411963640906775e-05
1.891299141366801e-07   2.217696135127945e-06   5.1411963640906775e-05
1.891299141366801e-07   2.217696135127945e-06   5.1411963640906775e-05
-2.8086562535491335e-05   3.3114642328337975e-06   4.942070416817093e-06
-2.8086562535491335e-05   3.3114642328337975e-06   4.942070416817093e-06
-2.8086562535491335e-05   3.3114642328337975e-06   4.942070416817093e-06
-2.8086562535491335e-05   3.3114642328337975e-06   4.942070416817093e-06
-2.9321136673173226e-05   1.7779844932144968e-06   5.2560671512863434e-05
-2.9321136673173226e-05   1.7779844932144968e-06   5.2560671512863434e-05
-2.9321136673173226e-05   1.7779844932144968e-06   5.2560671512863434e-05
-2.9321136673173226e-05   1.7779844932144968e-06   5.2560671512863434e-05
-9.739175205127786e-07   2.732344395524767e-06   4.742690317043128e-06
-9.739175205127786e-07   2.732344395524767e-06   4.742690317043128e-06
-9.739175205127786e-07   2.732344395524767e-06   4.742690317043128e-06
-9.739175205127786e-07   2.732344395524767e-06   4.742690317043128e-06
-1.4483524553612274e-05   2.7259890243965315e-06   2.7262515261552837e-05
-1.4483524553612274e-05   2.7259890243965315e-06   2.7262515261552837e-05
-1.4483524553612274e-05   2.7259890243965315e-06   2.7262515261552837e-05
-1.4483524553612274e-05   2.7259890243965315e-06   2.7262515261552837e-05
-9.739175205127786e-07   1.7779844932140632e-06   5.1988055571477315e-05
-9.739175205127786e-07   1.7779844932140632e-06   5.1988055571477315e-05
-9.739175205127786e-07   1.7779844932140632e-06   5.1988055571477315e-05
-9.739175205127786e-07   1.7779844932140632e-06   5.1988055571477315e-05
-2.9321136673173253e-05   2.732344395524767e-06   5.315306258429301e-06
-2.9321136673173253e-05   2.732344395524767e-06   5.315306258429301e-06
-2.9321136673173253e-05   2.732344395524767e-06   5.315306258429301e-06
-2.9321136673173253e-05   2.732344395524767e-06   5.315306258429301e-06
-3.059518095267777e-05   1.4611332139519324e-06   5.334319548911987e-05
-3.059518095267777e-05   1.4611332139519324e-06   5.334319548911987e-05
-3.059518095267777e-05   1.4611332139519324e-06   5.334319548911987e-05
-3.059518095267777e-05   1.4611332139519324e-06   5.334319548911987e-05
-2.1847270148639647e-06   2.216829904735408e-06   5.539020911626911e-06
-2.1847270148639647e-06   2.216829904735408e-06   5.539020911626911e-06
-2.1847270148639647e-06   2.216829904735408e-06   5.539020911626911e-06
-2.1847270148639647e-06   2.216829904735408e-06   5.539020911626911e-06
-1.565879322529646e-05   2.3995198646792337e-06   2.788618395304927e-05
-1.565879322529646e-05   2.3995198646792337e-06   2.788618395304927e-05
-1.565879322529646e-05   2.3995198646792337e-06   2.788618395304927e-05
-1.565879322529646e-05   2.3995198646792337e-06   2.788618395304927e-05
-2.6917541605636316e-05   8.768369601687507e-06   4.479887149516659e-05
-2.6917541605636316e-05   8.768369601687507e-06   4.479887149516659e-05
-2.6917541605636316e-05   8.768369601687507e-06   4.479887149516659e-05
-2.6917541605636316e-05   8.768369601687507e-06   4.479887149516659e-05
-5.42494939312984e-05   8.879239577588068e-06   -6.878603953967225e-07
-5.42494939312984e-05   8.879239577588068e-06   -6.878603953967225e-07
-5.42494939312984e-05   8.879239577588068e-06   -6.878603953967225e-07
-5.42494939312984e-05   8.879239577588068e-06   -6.878603953967225e-07
-5.5606707971224217e-05   8.29453718500248e-06   4.5583286041388574e-05
-5.5606707971224217e-05   8.29453718500248e-06   4.5583286041388574e-05
-5.5606707971224217e-05   8.29453718500248e-06   4.5583286041388574e-05
-5.5606707971224217e-05   8.29453718500248e-06   4.5583286041388574e-05
-2.8086562535491416e-05   8.309311095731388e-06   -2.924873646033624e-07
-2.8086562535491416e-05   8.309311095731388e-06   -2.924873646033624e-07
-2.8086562535491416e-05   8.309311095731388e-06   -2.924873646033624e-07
-2.8086562535491416e-05   8.309311095731388e-06   -2.924873646033624e-07
-4.103087398188359e-05   8.542768830345146e-06   2.114129040528209e-05
-4.103087398188359e-05   8.542768830345146e-06   2.114129040528209e-05
-4.103087398188359e-05   8.542768830345146e-06   2.114129040528209e-05
-4.103087398188359e-05   8.542768830345146e-06   2.114129040528209e-05
-2.8086562535491416e-05   8.29453718500248e-06   4.557442169495114e-05
-2.8086562535491416e-05   8.29453718500248e-06   4.557442169495114e-05
-2.8086562535491416e-05   8.29453718500248e-06   4.557442169495114e-05
-2.8086562535491416e-05   8.29453718500248e-06   4.557442169495114e-05
-5.5606707971224135e-05   8.309311095731388e-06   -2.8362301816636445e-07
-5.5606707971224135e-05   8.309311095731388e-06   -2.8362301816636445e-07
-5.5606707971224135e-05   8.309311095731388e-06   -2.8362301816636445e-07
-5.5606707971224135e-05   8.309311095731388e-06   -2.8362301816636445e-07
-5.7111153274076634e-05   7.85658165647395e-06   4.770188187153265e-05
-5.7111153274076634e-05   7.85658165647395e-06   4.770188187153265e-05
-5.7111153274076634e-05   7.85658165647395e-06   4.770188187153265e-05
-5.7111153274076634e-05   7.85658165647395e-06   4.770188187153265e-05
-2.9321136673173253e-05   7.784259213037149e-06   1.4285810027558758e-06
-2.9321136673173253e-05   7.784259213037149e-06   1.4285810027558758e-06
-2.9321136673173253e-05   7.784259213037149e-06   1.4285810027558758e-06
-2.9321136673173253e-05   7.784259213037149e-06   1.4285810027558758e-06
-4.201285709008486e-05   8.220662860391765e-06   2.2319606175862355e-05
-4.201285709008486e-05   8.220662860391765e-06   2.2319606175862355e-05
-4.201285709008486e-05   8.220662860391765e-06   2.2319606175862355e-05
-4.201285709008486e-05   8.220662860391765e-06   2.2319606175862355e-05
-2.9321136673173253e-05   7.85658165647395e-06   4.774527533759482e-05
-2.9321136673173253e-05   7.85658165647395e-06   4.774527533759482e-05
-2.9321136673173253e-05   7.85658165647395e-06   4.774527533759482e-05
-2.9321136673173253e-05   7.85658165647395e-06   4.774527533759482e-05
-5.7111153274076525e-05   7.784259213037149e-06   1.3851875366936543e-06
-5.7111153274076525e-05   7.784259213037149e-06   1.3851875366936543e-06
-5.7111153274076525e-05   7.784259213037149e-06   1.3851875366936543e-06
-5.7111153274076525e-05   7.784259213037149e-06   1.3851875366936543e-06
-5.854508851181446e-05   7.268139888616694e-06   4.923282175206892e-05
-5.854508851181446e-05   7.268139888616694e-06   4.923282175206892e-05
-5.854508851181446e-05   7.268139888616694e-06   4.923282175206892e-05
-5.854508851181446e-05   7.268139888616694e-06   4.923282175206892e-05
-3.059518095267788e-05   7.143373764192159e-06   2.724502161495989e-06
-3.059518095267788e-05   7.143373764192159e-06   2.724502161495989e-06
-3.059518095267788e-05   7.143373764192159e-06   2.724502161495989e-06
-3.059518095267788e-05   7.143373764192159e-06   2.724502161495989e-06
-4.3573391947333175e-05   7.802758770273505e-06   2.3959222815607807e-05
-4.3573391947333175e-05   7.802758770273505e-06   2.3959222815607807e-05
-4.3573391947333175e-05   7.802758770273505e-06   2.3959222815607807e-05
-4.3573391947333175e-05   7.802758770273505e-06   2.3959222815607807e-05
-5.4249493931298316e-05   1.4260198949923256e-05   2.152625155860989e-05
-5.4249493931298316e-05   1.4260198949923256e-05   2.152625155860989e-05
-5.4249493931298316e-05   1.4260198949923256e-05   2.152625155860989e-05
-5.4249493931298316e-05   1.4260198949923256e-05   2.152625155860989e-05
-8.02120483921833e-05   1.2779750077566553e-05   -2.263294186627884e-05
-8.02120483921833e-05   1.2779750077566553e-05   -2.263294186627884e-05
-8.02120483921833e-05   1.2779750077566553e-05   -2.263294186627884e-05
-8.02120483921833e-05   1.2779750077566553e-05   -2.263294186627884e-05
-8.234925404288499e-05   1.4532402175833261e-05   2.984402620165869e-05
-8.234925404288499e-05   1.4532402175833261e-05   2.984402620165869e-05
-8.234925404288499e-05   1.4532402175833261e-05   2.984402620165869e-05
-8.234925404288499e-05   1.4532402175833261e-05   2.984402620165869e-05
-5.5606707971224217e-05   1.2913919226201914e-05   -1.3755794147997152e-05
-5.5606707971224217e-05   1.2913919226201914e-05   -1.3755794147997152e-05
-5.5606707971224217e-05   1.2913919226201914e-05   -1.3755794147997152e-05
-5.5606707971224217e-05   1.2913919226201914e-05   -1.3755794147997152e-05
-6.549683162490126e-05   1.354293953711224e-05   2.350333088251672e-06
-6.549683162490126e-05   1.354293953711224e-05   2.350333088251672e-06
-6.549683162490126e-05   1.354293953711224e-05   2.350333088251672e-06
-6.549683162490126e-05   1.354293953711224e-05   2.350333088251672e-06
-5.5606707971224054e-05   1.4532402175833261e-05   3.081511597143776e-05
-5.5606707971224054e-05   1.4532402175833261e-05   3.081511597143776e-05
-5.5606707971224054e-05   1.4532402175833261e-05   3.081511597143776e-05
-5.5606707971224054e-05   1.4532402175833261e-05   3.081511597143776e-05
-8.234925404288531e-05   1.2913919226201914e-05   -1.4726883917776275e-05
-8.234925404288531e-05   1.2913919226201914e-05   -1.4726883917776275e-05
-8.234925404288531e-05   1.2913919226201914e-05   -1.4726883917776275e-05
-8.234925404288531e-05   1.2913919226201914e-05   -1.4726883917776275e-05
-8.44364570484681e-05   1.4427262650091796e-05   3.632432114241942e-05
-8.44364570484681e-05   1.4427262650091796e-05   3.632432114241942e-05
-8.44364570484681e-05   1.4427262650091796e-05   3.632432114241942e-05
-8.44364570484681e-05   1.4427262650091796e-05   3.632432114241942e-05
-5.7111153274076634e-05   1.2771398903415037e-05   -8.224333566894627e-06
-5.7111153274076634e-05   1.2771398903415037e-05   -8.224333566894627e-06
-5.7111153274076634e-05   1.2771398903415037e-05   -8.224333566894627e-06
-5.7111153274076634e-05   1.2771398903415037e-05   -8.224333566894627e-06
-6.812034341849394e-05   1.3789617023913462e-05   9.513385801503322e-06
-6.812034341849394e-05   1.3789617023913462e-05   9.513385801503322e-06
-6.812034341849394e-05   1.3789617023913462e-05   9.513385801503322e-06
-6.812034341849394e-05   1.3789617023913462e-05   9.513385801503322e-06
-5.7111153274076634e-05   1.4427262650091362e-05   3.731783939042526e-05
-5.7111153274076634e-05   1.4427262650091362e-05   3.731783939042526e-05
-5.7111153274076634e-05   1.4427262650091362e-05   3.731783939042526e-05
-5.7111153274076634e-05   1.4427262650091362e-05   3.731783939042526e-05
-8.443645704846842e-05   1.2771398903415037e-05   -9.217851814900249e-06
-8.443645704846842e-05   1.2771398903415037e-05   -9.217851814900249e-06
-8.443645704846842e-05   1.2771398903415037e-05   -9.217851814900249e-06
-8.443645704846842e-05   1.2771398903415037e-05   -9.217851814900249e-06
-8.687439264280024e-05   1.3279926367552701e-05   4.742833854327324e-05
-8.687439264280024e-05   1.3279926367552701e-05   4.742833854327324e-05
-8.687439264280024e-05   1.3279926367552701e-05   4.742833854327324e-05
-8.687439264280024e-05   1.3279926367552701e-05   4.742833854327324e-05
-5.854508851181446e-05   1.178563841013492e-05   1.109404432747443e-06
-5.854508851181446e-05   1.178563841013492e-05   1.109404432747443e-06
-5.854508851181446e-05   1.178563841013492e-05   1.109404432747443e-06
-5.854508851181446e-05   1.178563841013492e-05   1.109404432747443e-06
-6.879021269924907e-05   1.3383009749559725e-05   1.722618860815141e-05
-6.879021269924907e-05   1.3383009749559725e-05   1.722618860815141e-05
-6.879021269924907e-05   1.3383009749559725e-05   1.722618860815141e-05
-6.879021269924907e-05   1.3383009749559725e-05   1.722618860815141e-05
4.654905851601069e-05   -6.290580352410601e-06   3.953074390939488e-05
4.654905851601069e-05   -6.290580352410601e-06   3.953074390939488e-05
4.654905851601069e-05   -6.290580352410601e-06   3.953074390939488e-05
4.654905851601069e-05   -6.290580352410601e-06   3.953074390939488e-05
2.1917074709375263e-05   -4.153298271960312e-06   -2.4019318672712474e-07
2.1917074709375263e-05   -4.153298271960312e-06   -2.4019318672712474e-07
2.1917074709375263e-05   -4.153298271960312e-06   -2.4019318672712474e-07
2.1917074709375263e-05   -4.153298271960312e-06   -2.4019318672712474e-07
2.0876186050208064e-05   -7.300113153075032e-06   3.4737611782319645e-05
2.0876186050208064e-05   -7.300113153075032e-06   3.4737611782319645e-05
2.0876186050208064e-05   -7.300113153075032e-06   3.4737611782319645e-05
2.0876186050208064e-05   -7.300113153075032e-06   3.4737611782319645e-05
4.4535398183548586e-05   -5.042489906194412e-06   -6.048982388043113e-06
4.4535398183548586e-05   -5.042489906194412e-06   -6.048982388043113e-06
4.4535398183548586e-05   -5.042489906194412e-06   -6.048982388043113e-06
4.4535398183548586e-05   -5.042489906194412e-06   -6.048982388043113e-06
3.189486927800227e-05   -5.74030962223037e-06   1.5437257617489063e-05
3.189486927800227e-05   -5.74030962223037e-06   1.5437257617489063e-05
3.189486927800227e-05   -5.74030962223037e-06   1.5437257617489063e-05
3.189486927800227e-05   -5.74030962223037e-06   1.5437257617489063e-05
4.4535398183548586e-05   -7.300113153075032e-06   3.3383037834191186e-05
4.4535398183548586e-05   -7.300113153075032e-06   3.3383037834191186e-05
4.4535398183548586e-05   -7.300113153075032e-06   3.3383037834191186e-05
4.4535398183548586e-05   -7.300113153075032e-06   3.3383037834191186e-05
2.087618605020809e-05   -5.042489906194412e-06   -4.694408439914451e-06
2.087618605020809e-05   -5.042489906194412e-06   -4.694408439914451e-06
2.087618605020809e-05   -5.042489906194412e-06   -4.694408439914451e-06
2.087618605020809e-05   -5.042489906194412e-06   -4.694408439914451e-06
1.9727546593260456e-05   -7.503171871926697e-06   3.136804848525828e-05
1.9727546593260456e-05   -7.503171871926697e-06   3.136804848525828e-05
1.9727546593260456e-05   -7.503171871926697e-06   3.136804848525828e-05
1.9727546593260456e-05   -7.503171871926697e-06   3.136804848525828e-05
4.277095253499368e-05   -5.280264110767846e-06   -8.371372740992495e-06
4.277095253499368e-05   -5.280264110767846e-06   -8.371372740992495e-06
4.277095253499368e-05   -5.280264110767846e-06   -8.371372740992495e-06
4.277095253499368e-05   -5.280264110767846e-06   -8.371372740992495e-06
3.105872588065895e-05   -6.100948892872899e-06   1.1641415885495806e-05
3.105872588065895e-05   -6.100948892872899e-06   1.1641415885495806e-05
3.105872588065895e-05   -6.100948892872899e-06   1.1641415885495806e-05
3.105872588065895e-05   -6.100948892872899e-06   1.1641415885495806e-05
4.277095253499361e-05   -7.503171871926697e-06   3.0034303828562967e-05
4.277095253499361e-05   -7.503171871926697e-06   3.0034303828562967e-05
4.277095253499361e-05   -7.503171871926697e-06   3.0034303828562967e-05
4.277095253499361e-05   -7.503171871926697e-06   3.0034303828562967e-05
1.9727546593260483e-05   -5.280264110767846e-06   -7.037628084297131e-06
1.9727546593260483e-05   -5.280264110767846e-06   -7.037628084297131e-06
1.9727546593260483e-05   -5.280264110767846e-06   -7.037628084297131e-06
1.9727546593260483e-05   -5.280264110767846e-06   -7.037628084297131e-06
1.866707248317709e-05   -7.586515260274516e-06   2.680662838077958e-05
1.866707248317709e-05   -7.586515260274516e-06   2.680662838077958e-05
1.866707248317709e-05   -7.586515260274516e-06   2.680662838077958e-05
1.866707248317709e-05   -7.586515260274516e-06   2.680662838077958e-05
4.0800005900836896e-05   -5.5035336583527696e-06   -1.133138294313951e-05
4.0800005900836896e-05   -5.5035336583527696e-06   -1.133138294313951e-05
4.0800005900836896e-05   -5.5035336583527696e-06   -1.133138294313951e-05
4.0800005900836896e-05   -5.5035336583527696e-06   -1.133138294313951e-05
2.9218534056179204e-05   -6.066577403401885e-06   8.308896378319826e-06
2.9218534056179204e-05   -6.066577403401885e-06   8.308896378319826e-06
2.9218534056179204e-05   -6.066577403401885e-06   8.308896378319826e-06
2.9218534056179204e-05   -6.066577403401885e-06   8.308896378319826e-06
2.191707470937519e-05   -1.202693770336813e-06   4.497477279433626e-05
2.191707470937519e-05   -1.202693770336813e-06   4.497477279433626e-05
2.191707470937519e-05   -1.202693770336813e-06   4.497477279433626e-05
2.191707470937519e-05   -1.202693770336813e-06   4.497477279433626e-05
-1.3992259905269016e-06   -1.9157022908972143e-08   6.824393676289377e-06
-1.3992259905269016e-06   -1.9157022908972143e-08   6.824393676289377e-06
-1.3992259905269016e-06   -1.9157022908972143e-08   6.824393676289377e-06
-1.3992259905269016e-06   -1.9157022908972143e-08   6.824393676289377e-06
-2.3776677180096758e-06   -1.9188590539421894e-06   4.505544099749851e-05
-2.3776677180096758e-06   -1.9188590539421894e-06   4.505544099749851e-05
-2.3776677180096758e-06   -1.9188590539421894e-06   4.505544099749851e-05
-2.3776677180096758e-06   -1.9188590539421894e-06   4.505544099749851e-05
2.087618605020809e-05   -7.930040923282734e-07   5.62350507350053e-06
2.087618605020809e-05   -7.930040923282734e-07   5.62350507350053e-06
2.087618605020809e-05   -7.930040923282734e-07   5.62350507350053e-06
2.087618605020809e-05   -7.930040923282734e-07   5.62350507350053e-06
9.596147471037407e-06   -1.0114528410450248e-06   2.4554638621348494e-05
9.596147471037407e-06   -1.0114528410450248e-06   2.4554638621348494e-05
9.596147471037407e-06   -1.0114528410450248e-06   2.4554638621348494e-05
9.596147471037407e-06   -1.0114528410450248e-06   2.4554638621348494e-05
2.087618605020803e-05   -1.9188590539421894e-06   4.4379928020529986e-05
2.087618605020803e-05   -1.9188590539421894e-06   4.4379928020529986e-05
2.087618605020803e-05   -1.9188590539421894e-06   4.4379928020529986e-05
2.087618605020803e-05   -1.9188590539421894e-06   4.4379928020529986e-05
-2.3776677180096758e-06   -7.930040923282734e-07   6.29901805046908e-06
-2.3776677180096758e-06   -7.930040923282734e-07   6.29901805046908e-06
-2.3776677180096758e-06   -7.930040923282734e-07   6.29901805046908e-06
-2.3776677180096758e-06   -7.930040923282734e-07   6.29901805046908e-06
-3.3768700701168955e-06   -2.451258290506707e-06   4.437951690770283e-05
-3.3768700701168955e-06   -2.451258290506707e-06   4.437951690770283e-05
-3.3768700701168955e-06   -2.451258290506707e-06   4.437951690770283e-05
-3.3768700701168955e-06   -2.451258290506707e-06   4.437951690770283e-05
1.9727546593260483e-05   -1.4033924620121888e-06   5.243436304977191e-06
1.9727546593260483e-05   -1.4033924620121888e-06   5.243436304977191e-06
1.9727546593260483e-05   -1.4033924620121888e-06   5.243436304977191e-06
1.9727546593260483e-05   -1.4033924620121888e-06   5.243436304977191e-06
8.499041288441346e-06   -1.4892437617893169e-06   2.4009122592877222e-05
8.499041288441346e-06   -1.4892437617893169e-06   2.4009122592877222e-05
8.499041288441346e-06   -1.4892437617893169e-06   2.4009122592877222e-05
8.499041288441346e-06   -1.4892437617893169e-06   2.4009122592877222e-05
1.9727546593260456e-05   -2.451258290506707e-06   4.3750797410606465e-05
1.9727546593260456e-05   -2.451258290506707e-06   4.3750797410606465e-05
1.9727546593260456e-05   -2.451258290506707e-06   4.3750797410606465e-05
1.9727546593260456e-05   -2.451258290506707e-06   4.3750797410606465e-05
-3.3768700701168955e-06   -1.4033924620121888e-06   5.8721558020737984e-06
-3.3768700701168955e-06   -1.4033924620121888e-06   5.8721558020737984e-06
-3.3768700701168955e-06   -1.4033924620121888e-06   5.8721558020737984e-06
-3.3768700701168955e-06   -1.4033924620121888e-06   5.8721558020737984e-06
-4.3814584458142945e-06   -2.871720326793649e-06   4.469107789212691e-05
-4.3814584458142945e-06   -2.871720326793649e-06   4.469107789212691e-05
-4.3814584458142945e-06   -2.871720326793649e-06   4.469107789212691e-05
-4.3814584458142945e-06   -2.871720326793649e-06   4.469107789212691e-05
1.8667072483177103e-05   -1.9692008045276224e-06   5.735347963781553e-06
1.8667072483177103e-05   -1.9692008045276224e-06   5.735347963781553e-06
1.8667072483177103e-05   -1.9692008045276224e-06   5.735347963781553e-06
1.8667072483177103e-05   -1.9692008045276224e-06   5.735347963781553e-06
7.660622282608771e-06   -1.8434172653976517e-06   2.4003961507918187e-05
7.660622282608771e-06   -1.8434172653976517e-06   2.4003961507918187e-05
7.660622282608771e-06   -1.8434172653976517e-06   2.4003961507918187e-05
7.660622282608771e-06   -1.8434172653976517e-06   2.4003961507918187e-05
-1.3992259905269016e-06   3.9078593841732415e-06   4.7619875143178024e-05
-1.3992259905269016e-06   3.9078593841732415e-06   4.7619875143178024e-05
-1.3992259905269016e-06   3.9078593841732415e-06   4.7619875143178024e-05
-1.3992259905269016e-06   3.9078593841732415e-06   4.7619875143178024e-05
-2.4226398124330346e-05   4.02145353936437e-06   9.642744746620087e-06
-2.4226398124330346e-05   4.02145353936437e-06   9.642744746620087e-06
-2.4226398124330346e-05   4.02145353936437e-06   9.642744746620087e-06
-2.4226398124330346e-05   4.02145353936437e-06   9.642744746620087e-06
-2.5209968771079574e-05   3.3114642328337975e-06   4.747576855257765e-05
-2.5209968771079574e-05   3.3114642328337975e-06   4.747576855257765e-05
-2.5209968771079574e-05   3.3114642328337975e-06   4.747576855257765e-05
-2.5209968771079574e-05   3.3114642328337975e-06   4.747576855257765e-05
-2.3776677180096758e-06   3.3410321704642303e-06   9.40419270154967e-06
-2.3776677180096758e-06   3.3410321704642303e-06   9.40419270154967e-06
-2.3776677180096758e-06   3.3410321704642303e-06   9.40419270154967e-06
-2.3776677180096758e-06   3.3410321704642303e-06   9.40419270154967e-06
-1.3337871457813827e-05   3.582000974698858e-06   2.7526617652015302e-05
-1.3337871457813827e-05   3.582000974698858e-06   2.7526617652015302e-05
-1.3337871457813827e-05   3.582000974698858e-06   2.7526617652015302e-05
-1.3337871457813827e-05   3.582000974698858e-06   2.7526617652015302e-05
-2.3776677180096758e-06   3.3114642328337975e-06   4.745802778999969e-05
-2.3776677180096758e-06   3.3114642328337975e-06   4.745802778999969e-05
-2.3776677180096758e-06   3.3114642328337975e-06   4.745802778999969e-05
-2.3776677180096758e-06   3.3114642328337975e-06   4.745802778999969e-05
-2.5209968771079574e-05   3.3410321704642303e-06   9.421933464127735e-06
-2.5209968771079574e-05   3.3410321704642303e-06   9.421933464127735e-06
-2.5209968771079574e-05   3.3410321704642303e-06   9.421933464127735e-06
-2.5209968771079574e-05   3.3410321704642303e-06   9.421933464127735e-06
-2.621817622808063e-05   2.732344395524767e-06   4.773663751407131e-05
-2.621817622808063e-05   2.732344395524767e-06   4.773663751407131e-05
-2.621817622808063e-05   2.732344395524767e-06   4.773663751407131e-05
-2.621817622808063e-05   2.732344395524767e-06   4.773663751407131e-05
-3.3768700701169226e-06   2.67138866311481e-06   9.70436735691114e-06
-3.3768700701169226e-06   2.67138866311481e-06   9.70436735691114e-06
-3.3768700701169226e-06   2.67138866311481e-06   9.70436735691114e-06
-3.3768700701169226e-06   2.67138866311481e-06   9.70436735691114e-06
-1.425120649865537e-05   3.124313877602043e-06   2.7556506275783535e-05
-1.425120649865537e-05   3.124313877602043e-06   2.7556506275783535e-05
-1.425120649865537e-05   3.124313877602043e-06   2.7556506275783535e-05
-1.425120649865537e-05   3.124313877602043e-06   2.7556506275783535e-05
-3.3768700701169226e-06   2.732344395524767e-06   4.777321095351733e-05
-3.3768700701169226e-06   2.732344395524767e-06   4.777321095351733e-05
-3.3768700701169226e-06   2.732344395524767e-06   4.777321095351733e-05
-3.3768700701169226e-06   2.732344395524767e-06   4.777321095351733e-05
-2.621817622808063e-05   2.67138866311481e-06   9.667793917465068e-06
-2.621817622808063e-05   2.67138866311481e-06   9.667793917465068e-06
-2.621817622808063e-05   2.67138866311481e-06   9.667793917465068e-06
-2.621817622808063e-05   2.67138866311481e-06   9.667793917465068e-06
-2.7226051163070294e-05   2.216829904735408e-06   4.833142599855499e-05
-2.7226051163070294e-05   2.216829904735408e-06   4.833142599855499e-05
-2.7226051163070294e-05   2.216829904735408e-06   4.833142599855499e-05
-2.7226051163070294e-05   2.216829904735408e-06   4.833142599855499e-05
-4.381458445814322e-06   2.035917728889468e-06   1.0365652108636024e-05
-4.381458445814322e-06   2.035917728889468e-06   1.0365652108636024e-05
-4.381458445814322e-06   2.035917728889468e-06   1.0365652108636024e-05
-4.381458445814322e-06   2.035917728889468e-06   1.0365652108636024e-05
-1.5207321997871514e-05   2.6782701912121676e-06   2.8023346551338583e-05
-1.5207321997871514e-05   2.6782701912121676e-06   2.8023346551338583e-05
-1.5207321997871514e-05   2.6782701912121676e-06   2.8023346551338583e-05
-1.5207321997871514e-05   2.6782701912121676e-06   2.8023346551338583e-05
-2.422639812433029e-05   8.879239577588068e-06   4.188537942646569e-05
-2.422639812433029e-05   8.879239577588068e-06   4.188537942646569e-05
-2.422639812433029e-05   8.879239577588068e-06   4.188537942646569e-05
-2.422639812433029e-05   8.879239577588068e-06   4.188537942646569e-05
-4.654545225041257e-05   7.909208139442268e-06   4.104937020108206e-06
-4.654545225041257e-05   7.909208139442268e-06   4.104937020108206e-06
-4.654545225041257e-05   7.909208139442268e-06   4.104937020108206e-06
-4.654545225041257e-05   7.909208139442268e-06   4.104937020108206e-06
-4.7603677155896146e-05   8.309311095731388e-06   4.160992428585376e-05
-4.7603677155896146e-05   8.309311095731388e-06   4.160992428585376e-05
-4.7603677155896146e-05   8.309311095731388e-06   4.160992428585376e-05
-4.7603677155896146e-05   8.309311095731388e-06   4.160992428585376e-05
-2.52099687710796e-05   7.257166953559581e-06   4.918363463129517e-06
-2.52099687710796e-05   7.257166953559581e-06   4.918363463129517e-06
-2.52099687710796e-05   7.257166953559581e-06   4.918363463129517e-06
-2.52099687710796e-05   7.257166953559581e-06   4.918363463129517e-06
-3.5777883388601927e-05   7.98374535417425e-06   2.2095607451964676e-05
-3.5777883388601927e-05   7.98374535417425e-06   2.2095607451964676e-05
-3.5777883388601927e-05   7.98374535417425e-06   2.2095607451964676e-05
-3.5777883388601927e-05   7.98374535417425e-06   2.2095607451964676e-05
-2.5209968771079574e-05   8.309311095731822e-06   4.224121077115719e-05
-2.5209968771079574e-05   8.309311095731822e-06   4.224121077115719e-05
-2.5209968771079574e-05   8.309311095731822e-06   4.224121077115719e-05
-2.5209968771079574e-05   8.309311095731822e-06   4.224121077115719e-05
-4.7603677155896146e-05   7.257166953559581e-06   4.287076977826411e-06
-4.7603677155896146e-05   7.257166953559581e-06   4.287076977826411e-06
-4.7603677155896146e-05   7.257166953559581e-06   4.287076977826411e-06
-4.7603677155896146e-05   7.257166953559581e-06   4.287076977826411e-06
-4.876881363893095e-05   7.784259213037149e-06   4.316936192043418e-05
-4.876881363893095e-05   7.784259213037149e-06   4.316936192043418e-05
-4.876881363893095e-05   7.784259213037149e-06   4.316936192043418e-05
-4.876881363893095e-05   7.784259213037149e-06   4.316936192043418e-05
-2.6218176228080684e-05   6.650008649764904e-06   6.265516573647175e-06
-2.6218176228080684e-05   6.650008649764904e-06   6.265516573647175e-06
-2.6218176228080684e-05   6.650008649764904e-06   6.265516573647175e-06
-2.6218176228080684e-05   6.650008649764904e-06   6.265516573647175e-06
-3.653832597289135e-05   7.567285467355474e-06   2.291540005777801e-05
-3.653832597289135e-05   7.567285467355474e-06   2.291540005777801e-05
-3.653832597289135e-05   7.567285467355474e-06   2.291540005777801e-05
-3.653832597289135e-05   7.567285467355474e-06   2.291540005777801e-05
-2.6218176228080657e-05   7.784259213037149e-06   4.38499122583974e-05
-2.6218176228080657e-05   7.784259213037149e-06   4.38499122583974e-05
-2.6218176228080657e-05   7.784259213037149e-06   4.38499122583974e-05
-2.6218176228080657e-05   7.784259213037149e-06   4.38499122583974e-05
-4.876881363893095e-05   6.650008649764904e-06   5.584966235683579e-06
-4.876881363893095e-05   6.650008649764904e-06   5.584966235683579e-06
-4.876881363893095e-05   6.650008649764904e-06   5.584966235683579e-06
-4.876881363893095e-05   6.650008649764904e-06   5.584966235683579e-06
-4.9834394983622914e-05   7.143373764192159e-06   4.4343456776449854e-05
-4.9834394983622914e-05   7.143373764192159e-06   4.4343456776449854e-05
-4.9834394983622914e-05   7.143373764192159e-06   4.4343456776449854e-05
-4.9834394983622914e-05   7.143373764192159e-06   4.4343456776449854e-05
-2.722605116307035e-05   5.943319668351259e-06   7.382916199700205e-06
-2.722605116307035e-05   5.943319668351259e-06   7.382916199700205e-06
-2.722605116307035e-05   5.943319668351259e-06   7.382916199700205e-06
-2.722605116307035e-05   5.943319668351259e-06   7.382916199700205e-06
-3.774651043980761e-05   7.097950347981913e-06   2.4224236586485744e-05
-3.774651043980761e-05   7.097950347981913e-06   2.4224236586485744e-05
-3.774651043980761e-05   7.097950347981913e-06   2.4224236586485744e-05
-3.774651043980761e-05   7.097950347981913e-06   2.4224236586485744e-05
-4.654545225041257e-05   1.2779750077566553e-05   2.024654841611029e-05
-4.654545225041257e-05   1.2779750077566553e-05   2.024654841611029e-05
-4.654545225041257e-05   1.2779750077566553e-05   2.024654841611029e-05
-4.654545225041257e-05   1.2779750077566553e-05   2.024654841611029e-05
-6.773047468939598e-05   1.0895047413969801e-05   -1.619264391368707e-05
-6.773047468939598e-05   1.0895047413969801e-05   -1.619264391368707e-05
-6.773047468939598e-05   1.0895047413969801e-05   -1.619264391368707e-05
-6.773047468939598e-05   1.0895047413969801e-05   -1.619264391368707e-05
-6.963182955656435e-05   1.291391922620148e-05   2.689283320278773e-05
-6.963182955656435e-05   1.291391922620148e-05   2.689283320278773e-05
-6.963182955656435e-05   1.291391922620148e-05   2.689283320278773e-05
-6.963182955656435e-05   1.291391922620148e-05   2.689283320278773e-05
-4.7603677155896146e-05   1.0839052637476743e-05   -8.57583417842461e-06
-4.7603677155896146e-05   1.0839052637476743e-05   -8.57583417842461e-06
-4.7603677155896146e-05   1.0839052637476743e-05   -8.57583417842461e-06
-4.7603677155896146e-05   1.0839052637476743e-05   -8.57583417842461e-06
-5.567609434668606e-05   1.1683887094108853e-05   4.371293798912908e-06
-5.567609434668606e-05   1.1683887094108853e-05   4.371293798912908e-06
-5.567609434668606e-05   1.1683887094108853e-05   4.371293798912908e-06
-5.567609434668606e-05   1.1683887094108853e-05   4.371293798912908e-06
-4.760367715589609e-05   1.2913919226201914e-05   2.81377531560227e-05
-4.760367715589609e-05   1.2913919226201914e-05   2.81377531560227e-05
-4.760367715589609e-05   1.2913919226201914e-05   2.81377531560227e-05
-4.760367715589609e-05   1.2913919226201914e-05   2.81377531560227e-05
-6.963182955656446e-05   1.0839052637476743e-05   -9.820754131659474e-06
-6.963182955656446e-05   1.0839052637476743e-05   -9.820754131659474e-06
-6.963182955656446e-05   1.0839052637476743e-05   -9.820754131659474e-06
-6.963182955656446e-05   1.0839052637476743e-05   -9.820754131659474e-06
-7.133464852604026e-05   1.277139890341547e-05   3.226760264068767e-05
-7.133464852604026e-05   1.277139890341547e-05   3.226760264068767e-05
-7.133464852604026e-05   1.277139890341547e-05   3.226760264068767e-05
-7.133464852604026e-05   1.277139890341547e-05   3.226760264068767e-05
-4.876881363893095e-05   1.0617668609817776e-05   -4.049883995003176e-06
-4.876881363893095e-05   1.0617668609817776e-05   -4.049883995003176e-06
-4.876881363893095e-05   1.0617668609817776e-05   -4.049883995003176e-06
-4.876881363893095e-05   1.0617668609817776e-05   -4.049883995003176e-06
-5.7859302600981276e-05   1.1812366302067171e-05   1.0384112326399918e-05
-5.7859302600981276e-05   1.1812366302067171e-05   1.0384112326399918e-05
-5.7859302600981276e-05   1.1812366302067171e-05   1.0384112326399918e-05
-5.7859302600981276e-05   1.1812366302067171e-05   1.0384112326399918e-05
-4.876881363893095e-05   1.277139890341547e-05   3.3559840816846116e-05
-4.876881363893095e-05   1.277139890341547e-05   3.3559840816846116e-05
-4.876881363893095e-05   1.277139890341547e-05   3.3559840816846116e-05
-4.876881363893095e-05   1.277139890341547e-05   3.3559840816846116e-05
-7.133464852604037e-05   1.0617668609817776e-05   -5.342122171161836e-06
-7.133464852604037e-05   1.0617668609817776e-05   -5.342122171161836e-06
-7.133464852604037e-05   1.0617668609817776e-05   -5.342122171161836e-06
-7.133464852604037e-05   1.0617668609817776e-05   -5.342122171161836e-06
-7.329169101976025e-05   1.1785638410135354e-05   4.151722555826784e-05
-7.329169101976025e-05   1.1785638410135354e-05   4.151722555826784e-05
-7.329169101976025e-05   1.1785638410135354e-05   4.151722555826784e-05
-7.329169101976025e-05   1.1785638410135354e-05   4.151722555826784e-05
-4.9834394983622914e-05   9.642316469988914e-06   3.7077253287935924e-06
-4.9834394983622914e-05   9.642316469988914e-06   3.7077253287935924e-06
-4.9834394983622914e-05   9.642316469988914e-06   3.7077253287935924e-06
-4.9834394983622914e-05   9.642316469988914e-06   3.7077253287935924e-06
-5.832969224845339e-05   1.140811682770514e-05   1.6807073888882185e-05
-5.832969224845339e-05   1.140811682770514e-05   1.6807073888882185e-05
-5.832969224845339e-05   1.140811682770514e-05   1.6807073888882185e-05
-5.832969224845339e-05   1.140811682770514e-05   1.6807073888882185e-05
3.2039820019099034e-05   -4.153298271960312e-06   3.215969192510676e-05
3.2039820019099034e-05   -4.153298271960312e-06   3.215969192510676e-05
3.2039820019099034e-05   -4.153298271960312e-06   3.215969192510676e-05
3.2039820019099034e-05   -4.153298271960312e-06   3.215969192510676e-05
1.3292617264352229e-05   -2.037164811039688e-06   2.1840340770811276e-06
1.3292617264352229e-05   -2.037164811039688e-06   2.1840340770811276e-06
1.3292617264352229e-05   -2.037164811039688e-06   2.1840340770811276e-06
1.3292617264352229e-05   -2.037164811039688e-06   2.1840340770811276e-06
1.2455854891214346e-05   -5.042489906194412e-06   2.8918046625164406e-05
1.2455854891214346e-05   -5.042489906194412e-06   2.8918046625164406e-05
1.2455854891214346e-05   -5.042489906194412e-06   2.8918046625164406e-05
1.2455854891214346e-05   -5.042489906194412e-06   2.8918046625164406e-05
3.025921537732134e-05   -2.8319574636209884e-06   -2.080540317224807e-06
3.025921537732134e-05   -2.8319574636209884e-06   -2.080540317224807e-06
3.025921537732134e-05   -2.8319574636209884e-06   -2.080540317224807e-06
3.025921537732134e-05   -2.8319574636209884e-06   -2.080540317224807e-06
2.0916470286697054e-05   -3.6010230377516057e-06   1.3952140844961363e-05
2.0916470286697054e-05   -3.6010230377516057e-06   1.3952140844961363e-05
2.0916470286697054e-05   -3.6010230377516057e-06   1.3952140844961363e-05
2.0916470286697054e-05   -3.6010230377516057e-06   1.3952140844961363e-05
3.02592153773214e-05   -5.042489906194412e-06   2.759172715962048e-05
3.02592153773214e-05   -5.042489906194412e-06   2.759172715962048e-05
3.02592153773214e-05   -5.042489906194412e-06   2.759172715962048e-05
3.02592153773214e-05   -5.042489906194412e-06   2.759172715962048e-05
1.2455854891214299e-05   -2.8319574636209884e-06   -7.542208516806391e-07
1.2455854891214299e-05   -2.8319574636209884e-06   -7.542208516806391e-07
1.2455854891214299e-05   -2.8319574636209884e-06   -7.542208516806391e-07
1.2455854891214299e-05   -2.8319574636209884e-06   -7.542208516806391e-07
1.151633325510706e-05   -5.280264110767846e-06   2.651026129662148e-05
1.151633325510706e-05   -5.280264110767846e-06   2.651026129662148e-05
1.151633325510706e-05   -5.280264110767846e-06   2.651026129662148e-05
1.151633325510706e-05   -5.280264110767846e-06   2.651026129662148e-05
2.873097980891623e-05   -3.1058780252642484e-06   -3.485447944362685e-06
2.873097980891623e-05   -3.1058780252642484e-06   -3.485447944362685e-06
2.873097980891623e-05   -3.1058780252642484e-06   -3.485447944362685e-06
2.873097980891623e-05   -3.1058780252642484e-06   -3.485447944362685e-06
2.012293090427235e-05   -3.938033527807038e-06   1.1360593531570327e-05
2.012293090427235e-05   -3.938033527807038e-06   1.1360593531570327e-05
2.012293090427235e-05   -3.938033527807038e-06   1.1360593531570327e-05
2.012293090427235e-05   -3.938033527807038e-06   1.1360593531570327e-05
2.8730979808916277e-05   -5.280264110767846e-06   2.5205629645319323e-05
2.8730979808916277e-05   -5.280264110767846e-06   2.5205629645319323e-05
2.8730979808916277e-05   -5.280264110767846e-06   2.5205629645319323e-05
2.8730979808916277e-05   -5.280264110767846e-06   2.5205629645319323e-05
1.1516333255107039e-05   -3.1058780252642484e-06   -2.1808162930603368e-06
1.1516333255107039e-05   -3.1058780252642484e-06   -2.1808162930603368e-06
1.1516333255107039e-05   -3.1058780252642484e-06   -2.1808162930603368e-06
1.1516333255107039e-05   -3.1058780252642484e-06   -2.1808162930603368e-06
1.0674269685279269e-05   -5.5035336583527696e-06   2.3386046623673912e-05
1.0674269685279269e-05   -5.5035336583527696e-06   2.3386046623673912e-05
1.0674269685279269e-05   -5.5035336583527696e-06   2.3386046623673912e-05
1.0674269685279269e-05   -5.5035336583527696e-06   2.3386046623673912e-05
2.6998134042229113e-05   -3.4689885979721086e-06   -5.04112100747106e-06
2.6998134042229113e-05   -3.4689885979721086e-06   -5.04112100747106e-06
2.6998134042229113e-05   -3.4689885979721086e-06   -5.04112100747106e-06
2.6998134042229113e-05   -3.4689885979721086e-06   -5.04112100747106e-06
1.8657382556228328e-05   -4.0047675390719566e-06   9.181598833856775e-06
1.8657382556228328e-05   -4.0047675390719566e-06   9.181598833856775e-06
1.8657382556228328e-05   -4.0047675390719566e-06   9.181598833856775e-06
1.8657382556228328e-05   -4.0047675390719566e-06   9.181598833856775e-06
1.329261726435227e-05   -1.9157022909405824e-08   3.978383681621923e-05
1.329261726435227e-05   -1.9157022909405824e-08   3.978383681621923e-05
1.329261726435227e-05   -1.9157022909405824e-08   3.978383681621923e-05
1.329261726435227e-05   -1.9157022909405824e-08   3.978383681621923e-05
-4.302171887113891e-06   1.0542961686810584e-06   1.1103260145396698e-05
-4.302171887113891e-06   1.0542961686810584e-06   1.1103260145396698e-05
-4.302171887113891e-06   1.0542961686810584e-06   1.1103260145396698e-05
-4.302171887113891e-06   1.0542961686810584e-06   1.1103260145396698e-05
-5.070915563061513e-06   -7.930040923282734e-07   3.986123657513424e-05
-5.070915563061513e-06   -7.930040923282734e-07   3.986123657513424e-05
-5.070915563061513e-06   -7.930040923282734e-07   3.986123657513424e-05
-5.070915563061513e-06   -7.930040923282734e-07   3.986123657513424e-05
1.2455854891214299e-05   2.4912330192977325e-07   1.0024676048119623e-05
1.2455854891214299e-05   2.4912330192977325e-07   1.0024676048119623e-05
1.2455854891214299e-05   2.4912330192977325e-07   1.0024676048119623e-05
1.2455854891214299e-05   2.4912330192977325e-07   1.0024676048119623e-05
3.968518291842194e-06   5.378746037627835e-08   2.428743855200624e-05
3.968518291842194e-06   5.378746037627835e-08   2.428743855200624e-05
3.968518291842194e-06   5.378746037627835e-08   2.428743855200624e-05
3.968518291842194e-06   5.378746037627835e-08   2.428743855200624e-05
1.2455854891214333e-05   -7.930040923278397e-07   3.9235960138579414e-05
1.2455854891214333e-05   -7.930040923278397e-07   3.9235960138579414e-05
1.2455854891214333e-05   -7.930040923278397e-07   3.9235960138579414e-05
1.2455854891214333e-05   -7.930040923278397e-07   3.9235960138579414e-05
-5.070915563061513e-06   2.4912330193020693e-07   1.0649952484674628e-05
-5.070915563061513e-06   2.4912330193020693e-07   1.0649952484674628e-05
-5.070915563061513e-06   2.4912330193020693e-07   1.0649952484674628e-05
-5.070915563061513e-06   2.4912330193020693e-07   1.0649952484674628e-05
-5.856834825781413e-06   -1.4033924620121888e-06   3.938728424690346e-05
-5.856834825781413e-06   -1.4033924620121888e-06   3.938728424690346e-05
-5.856834825781413e-06   -1.4033924620121888e-06   3.938728424690346e-05
-5.856834825781413e-06   -1.4033924620121888e-06   3.938728424690346e-05
1.1516333255107039e-05   -4.101281936654856e-07   9.8360455510819e-06
1.1516333255107039e-05   -4.101281936654856e-07   9.8360455510819e-06
1.1516333255107039e-05   -4.101281936654856e-07   9.8360455510819e-06
1.1516333255107039e-05   -4.101281936654856e-07   9.8360455510819e-06
3.123611883532422e-06   -4.834888836097173e-07   2.3867930917673792e-05
3.123611883532422e-06   -4.834888836097173e-07   2.3867930917673792e-05
3.123611883532422e-06   -4.834888836097173e-07   2.3867930917673792e-05
3.123611883532422e-06   -4.834888836097173e-07   2.3867930917673792e-05
1.1516333255107086e-05   -1.4033924620121888e-06   3.879132568589561e-05
1.1516333255107086e-05   -1.4033924620121888e-06   3.879132568589561e-05
1.1516333255107086e-05   -1.4033924620121888e-06   3.879132568589561e-05
1.1516333255107086e-05   -1.4033924620121888e-06   3.879132568589561e-05
-5.856834825781386e-06   -4.101281936654856e-07   1.0432004112089681e-05
-5.856834825781386e-06   -4.101281936654856e-07   1.0432004112089681e-05
-5.856834825781386e-06   -4.101281936654856e-07   1.0432004112089681e-05
-5.856834825781386e-06   -4.101281936654856e-07   1.0432004112089681e-05
-6.636101453226376e-06   -1.9692008045276224e-06   3.9748326510803894e-05
-6.636101453226376e-06   -1.9692008045276224e-06   3.9748326510803894e-05
-6.636101453226376e-06   -1.9692008045276224e-06   3.9748326510803894e-05
-6.636101453226376e-06   -1.9692008045276224e-06   3.9748326510803894e-05
1.0674269685279215e-05   -1.0603042355904896e-06   1.0352370005266021e-05
1.0674269685279215e-05   -1.0603042355904896e-06   1.0352370005266021e-05
1.0674269685279215e-05   -1.0603042355904896e-06   1.0352370005266021e-05
1.0674269685279215e-05   -1.0603042355904896e-06   1.0352370005266021e-05
2.4556369770190087e-06   -9.319100460650036e-07   2.3973054671984112e-05
2.4556369770190087e-06   -9.319100460650036e-07   2.3973054671984112e-05
2.4556369770190087e-06   -9.319100460650036e-07   2.3973054671984112e-05
2.4556369770190087e-06   -9.319100460650036e-07   2.3973054671984112e-05
-4.3021718871138635e-06   4.02145353936437e-06   4.3178103308389674e-05
-4.3021718871138635e-06   4.02145353936437e-06   4.3178103308389674e-05
-4.3021718871138635e-06   4.02145353936437e-06   4.3178103308389674e-05
-4.3021718871138635e-06   4.02145353936437e-06   4.3178103308389674e-05
-2.1608133720679034e-05   3.956077200069092e-06   1.4295607782204229e-05
-2.1608133720679034e-05   3.956077200069092e-06   1.4295607782204229e-05
-2.1608133720679034e-05   3.956077200069092e-06   1.4295607782204229e-05
-2.1608133720679034e-05   3.956077200069092e-06   1.4295607782204229e-05
-2.236641890500466e-05   3.3410321704642303e-06   4.289617327320888e-05
-2.236641890500466e-05   3.3410321704642303e-06   4.289617327320888e-05
-2.236641890500466e-05   3.3410321704642303e-06   4.289617327320888e-05
-2.236641890500466e-05   3.3410321704642303e-06   4.289617327320888e-05
-5.070915563061513e-06   3.223968915454494e-06   1.4140572322976226e-05
-5.070915563061513e-06   3.223968915454494e-06   1.4140572322976226e-05
-5.070915563061513e-06   3.223968915454494e-06   1.4140572322976226e-05
-5.070915563061513e-06   3.223968915454494e-06   1.4140572322976226e-05
-1.3370133932703092e-05   3.5458526496086676e-06   2.7779472698553768e-05
-1.3370133932703092e-05   3.5458526496086676e-06   2.7779472698553768e-05
-1.3370133932703092e-05   3.5458526496086676e-06   2.7779472698553768e-05
-1.3370133932703092e-05   3.5458526496086676e-06   2.7779472698553768e-05
-5.070915563061513e-06   3.3410321704642303e-06   4.296641122621494e-05
-5.070915563061513e-06   3.3410321704642303e-06   4.296641122621494e-05
-5.070915563061513e-06   3.3410321704642303e-06   4.296641122621494e-05
-5.070915563061513e-06   3.3410321704642303e-06   4.296641122621494e-05
-2.236641890500466e-05   3.2239689154540604e-06   1.4070334369970547e-05
-2.236641890500466e-05   3.2239689154540604e-06   1.4070334369970547e-05
-2.236641890500466e-05   3.2239689154540604e-06   1.4070334369970547e-05
-2.236641890500466e-05   3.2239689154540604e-06   1.4070334369970547e-05
-2.314300167116366e-05   2.67138866311481e-06   4.311680919596452e-05
-2.314300167116366e-05   2.67138866311481e-06   4.311680919596452e-05
-2.314300167116366e-05   2.67138866311481e-06   4.311680919596452e-05
-2.314300167116366e-05   2.67138866311481e-06   4.311680919596452e-05
-5.856834825781386e-06   2.50024432015385e-06   1.4409217726104077e-05
-5.856834825781386e-06   2.50024432015385e-06   1.4409217726104077e-05
-5.856834825781386e-06   2.50024432015385e-06   1.4409217726104077e-05
-5.856834825781386e-06   2.50024432015385e-06   1.4409217726104077e-05
-1.4064745695169682e-05   3.0142839417403137e-06   2.7780645402133194e-05
-1.4064745695169682e-05   3.0142839417403137e-06   2.7780645402133194e-05
-1.4064745695169682e-05   3.0142839417403137e-06   2.7780645402133194e-05
-1.4064745695169682e-05   3.0142839417403137e-06   2.7780645402133194e-05
-5.856834825781386e-06   2.67138866311481e-06   4.3219495801740965e-05
-5.856834825781386e-06   2.67138866311481e-06   4.3219495801740965e-05
-5.856834825781386e-06   2.67138866311481e-06   4.3219495801740965e-05
-5.856834825781386e-06   2.67138866311481e-06   4.3219495801740965e-05
-2.314300167116366e-05   2.50024432015385e-06   1.4306531120327685e-05
-2.314300167116366e-05   2.50024432015385e-06   1.4306531120327685e-05
-2.314300167116366e-05   2.50024432015385e-06   1.4306531120327685e-05
-2.314300167116366e-05   2.50024432015385e-06   1.4306531120327685e-05
-2.391060407635928e-05   2.035917728889468e-06   4.369762414227897e-05
-2.391060407635928e-05   2.035917728889468e-06   4.369762414227897e-05
-2.391060407635928e-05   2.035917728889468e-06   4.369762414227897e-05
-2.391060407635928e-05   2.035917728889468e-06   4.369762414227897e-05
-6.636101453226349e-06   1.803426395522497e-06   1.5046281237077522e-05
-6.636101453226349e-06   1.803426395522497e-06   1.5046281237077522e-05
-6.636101453226349e-06   1.803426395522497e-06   1.5046281237077522e-05
-6.636101453226349e-06   1.803426395522497e-06   1.5046281237077522e-05
-1.4791224111994331e-05   2.495161982350204e-06   2.8223110982927456e-05
-1.4791224111994331e-05   2.495161982350204e-06   2.8223110982927456e-05
-1.4791224111994331e-05   2.495161982350204e-06   2.8223110982927456e-05
-1.4791224111994331e-05   2.495161982350204e-06   2.8223110982927456e-05
-2.1608133720679034e-05   7.909208139442701e-06   3.8183088641187716e-05
-2.1608133720679034e-05   7.909208139442701e-06   3.8183088641187716e-05
-2.1608133720679034e-05   7.909208139442701e-06   3.8183088641187716e-05
-2.1608133720679034e-05   7.909208139442701e-06   3.8183088641187716e-05
-3.862009143024256e-05   6.778686692388101e-06   9.151512923682471e-06
-3.862009143024256e-05   6.778686692388101e-06   9.151512923682471e-06
-3.862009143024256e-05   6.778686692388101e-06   9.151512923682471e-06
-3.862009143024256e-05   6.778686692388101e-06   9.151512923682471e-06
-3.943330876537174e-05   7.257166953559581e-06   3.7676201868389785e-05
-3.943330876537174e-05   7.257166953559581e-06   3.7676201868389785e-05
-3.943330876537174e-05   7.257166953559581e-06   3.7676201868389785e-05
-3.943330876537174e-05   7.257166953559581e-06   3.7676201868389785e-05
-2.2366418905004552e-05   6.063164613858297e-06   9.947786838265609e-06
-2.2366418905004552e-05   6.063164613858297e-06   9.947786838265609e-06
-2.2366418905004552e-05   6.063164613858297e-06   9.947786838265609e-06
-2.2366418905004552e-05   6.063164613858297e-06   9.947786838265609e-06
-3.0420894120881213e-05   6.883484340992289e-06   2.2879720361780164e-05
-3.0420894120881213e-05   6.883484340992289e-06   2.2879720361780164e-05
-3.0420894120881213e-05   6.883484340992289e-06   2.2879720361780164e-05
-3.0420894120881213e-05   6.883484340992289e-06   2.2879720361780164e-05
-2.236641890500466e-05   7.257166953559581e-06   3.8392603272210555e-05
-2.236641890500466e-05   7.257166953559581e-06   3.8392603272210555e-05
-2.236641890500466e-05   7.257166953559581e-06   3.8392603272210555e-05
-2.236641890500466e-05   7.257166953559581e-06   3.8392603272210555e-05
-3.943330876537168e-05   6.063164613858297e-06   9.23138543444473e-06
-3.943330876537168e-05   6.063164613858297e-06   9.23138543444473e-06
-3.943330876537168e-05   6.063164613858297e-06   9.23138543444473e-06
-3.943330876537168e-05   6.063164613858297e-06   9.23138543444473e-06
-4.034869324133272e-05   6.650008649764904e-06   3.8965399556860434e-05
-4.034869324133272e-05   6.650008649764904e-06   3.8965399556860434e-05
-4.034869324133272e-05   6.650008649764904e-06   3.8965399556860434e-05
-4.034869324133272e-05   6.650008649764904e-06   3.8965399556860434e-05
-2.3143001671163552e-05   5.401454824287971e-06   1.1038379235198202e-05
-2.3143001671163552e-05   5.401454824287971e-06   1.1038379235198202e-05
-2.3143001671163552e-05   5.401454824287971e-06   1.1038379235198202e-05
-2.3143001671163552e-05   5.401454824287971e-06   1.1038379235198202e-05
-3.0984955354071636e-05   6.395916041380088e-06   2.3511625309790857e-05
-3.0984955354071636e-05   6.395916041380088e-06   2.3511625309790857e-05
-3.0984955354071636e-05   6.395916041380088e-06   2.3511625309790857e-05
-3.0984955354071636e-05   6.395916041380088e-06   2.3511625309790857e-05
-2.3143001671163633e-05   6.650008649764904e-06   3.9714531852146464e-05
-2.3143001671163633e-05   6.650008649764904e-06   3.9714531852146464e-05
-2.3143001671163633e-05   6.650008649764904e-06   3.9714531852146464e-05
-2.3143001671163633e-05   6.650008649764904e-06   3.9714531852146464e-05
-4.034869324133261e-05   5.401454824288405e-06   1.0289246939912226e-05
-4.034869324133261e-05   5.401454824288405e-06   1.0289246939912226e-05
-4.034869324133261e-05   5.401454824288405e-06   1.0289246939912226e-05
-4.034869324133261e-05   5.401454824288405e-06   1.0289246939912226e-05
-4.116282007025039e-05   5.943319668351259e-06   4.00547066239734e-05
-4.116282007025039e-05   5.943319668351259e-06   4.00547066239734e-05
-4.116282007025039e-05   5.943319668351259e-06   4.00547066239734e-05
-4.116282007025039e-05   5.943319668351259e-06   4.00547066239734e-05
-2.39106040763592e-05   4.662104810223763e-06   1.20697422156987e-05
-2.39106040763592e-05   4.662104810223763e-06   1.20697422156987e-05
-2.39106040763592e-05   4.662104810223763e-06   1.20697422156987e-05
-2.39106040763592e-05   4.662104810223763e-06   1.20697422156987e-05
-3.190198890951395e-05   5.883137687822445e-06   2.4656097211064247e-05
-3.190198890951395e-05   5.883137687822445e-06   2.4656097211064247e-05
-3.190198890951395e-05   5.883137687822445e-06   2.4656097211064247e-05
-3.190198890951395e-05   5.883137687822445e-06   2.4656097211064247e-05
-3.862009143024256e-05   1.0895047413969801e-05   1.833801643731799e-05
-3.862009143024256e-05   1.0895047413969801e-05   1.833801643731799e-05
-3.862009143024256e-05   1.0895047413969801e-05   1.833801643731799e-05
-3.862009143024256e-05   1.0895047413969801e-05   1.833801643731799e-05
-5.456156712333566e-05   8.886271242607852e-06   -9.436375420654344e-06
-5.456156712333566e-05   8.886271242607852e-06   -9.436375420654344e-06
-5.456156712333566e-05   8.886271242607852e-06   -9.436375420654344e-06
-5.456156712333566e-05   8.886271242607852e-06   -9.436375420654344e-06
-5.626117401618671e-05   1.0839052637476743e-05   2.3503324380319502e-05
-5.626117401618671e-05   1.0839052637476743e-05   2.3503324380319502e-05
-5.626117401618671e-05   1.0839052637476743e-05   2.3503324380319502e-05
-5.626117401618671e-05   1.0839052637476743e-05   2.3503324380319502e-05
-3.943330876537163e-05   8.655775417777938e-06   -3.2331513725530024e-06
-3.943330876537163e-05   8.655775417777938e-06   -3.2331513725530024e-06
-3.943330876537163e-05   8.655775417777938e-06   -3.2331513725530024e-06
-3.943330876537163e-05   8.655775417777938e-06   -3.2331513725530024e-06
-4.5449651147254745e-05   9.640968933892317e-06   6.202969820917766e-06
-4.5449651147254745e-05   9.640968933892317e-06   6.202969820917766e-06
-4.5449651147254745e-05   9.640968933892317e-06   6.202969820917766e-06
-4.5449651147254745e-05   9.640968933892317e-06   6.202969820917766e-06
-3.943330876537174e-05   1.0839052637476743e-05   2.4813290712138655e-05
-3.943330876537174e-05   1.0839052637476743e-05   2.4813290712138655e-05
-3.943330876537174e-05   1.0839052637476743e-05   2.4813290712138655e-05
-3.943330876537174e-05   1.0839052637476743e-05   2.4813290712138655e-05
-5.626117401618682e-05   8.655775417777938e-06   -4.543117704372372e-06
-5.626117401618682e-05   8.655775417777938e-06   -4.543117704372372e-06
-5.626117401618682e-05   8.655775417777938e-06   -4.543117704372372e-06
-5.626117401618682e-05   8.655775417777938e-06   -4.543117704372372e-06
-5.774452953180451e-05   1.0617668609817776e-05   2.798514981758272e-05
-5.774452953180451e-05   1.0617668609817776e-05   2.798514981758272e-05
-5.774452953180451e-05   1.0617668609817776e-05   2.798514981758272e-05
-5.774452953180451e-05   1.0617668609817776e-05   2.798514981758272e-05
-4.034869324133256e-05   8.375336095499657e-06   3.3748884205385236e-07
-4.034869324133256e-05   8.375336095499657e-06   3.3748884205385236e-07
-4.034869324133256e-05   8.375336095499657e-06   3.3748884205385236e-07
-4.034869324133256e-05   8.375336095499657e-06   3.3748884205385236e-07
-4.7247900151821723e-05   9.646523776056688e-06   1.1073454417869985e-05
-4.7247900151821723e-05   9.646523776056688e-06   1.1073454417869985e-05
-4.7247900151821723e-05   9.646523776056688e-06   1.1073454417869985e-05
-4.7247900151821723e-05   9.646523776056688e-06   1.1073454417869985e-05
-4.034869324133272e-05   1.0617668609817776e-05   2.933054932617368e-05
-4.034869324133272e-05   1.0617668609817776e-05   2.933054932617368e-05
-4.034869324133272e-05   1.0617668609817776e-05   2.933054932617368e-05
-4.034869324133272e-05   1.0617668609817776e-05   2.933054932617368e-05
-5.774452953180451e-05   8.375336095499657e-06   -1.0079106665372142e-06
-5.774452953180451e-05   8.375336095499657e-06   -1.0079106665372142e-06
-5.774452953180451e-05   8.375336095499657e-06   -1.0079106665372142e-06
-5.774452953180451e-05   8.375336095499657e-06   -1.0079106665372142e-06
-5.946563609774124e-05   9.642316469988914e-06   3.577531795614236e-05
-5.946563609774124e-05   9.642316469988914e-06   3.577531795614236e-05
-5.946563609774124e-05   9.642316469988914e-06   3.577531795614236e-05
-5.946563609774124e-05   9.642316469988914e-06   3.577531795614236e-05
-4.116282007025028e-05   7.435266045940567e-06   6.594854831419475e-06
-4.116282007025028e-05   7.435266045940567e-06   6.594854831419475e-06
-4.116282007025028e-05   7.435266045940567e-06   6.594854831419475e-06
-4.116282007025028e-05   7.435266045940567e-06   6.594854831419475e-06
-4.765233516315878e-05   9.237217769382002e-06   1.6329542285535635e-05
-4.765233516315878e-05   9.237217769382002e-06   1.6329542285535635e-05
-4.765233516315878e-05   9.237217769382002e-06   1.6329542285535635e-05
-4.765233516315878e-05   9.237217769382002e-06   1.6329542285535635e-05
1.775689360012216e-05   -2.037164811039688e-06   2.528328586746801e-05
1.775689360012216e-05   -2.037164811039688e-06   2.528328586746801e-05
1.775689360012216e-05   -2.037164811039688e-06   2.528328586746801e-05
1.775689360012216e-05   -2.037164811039688e-06   2.528328586746801e-05
4.629001321991046e-06   5.5528470289337856e-08   4.659081372713645e-06
4.629001321991046e-06   5.5528470289337856e-08   4.659081372713645e-06
4.629001321991046e-06   5.5528470289337856e-08   4.659081372713645e-06
4.629001321991046e-06   5.5528470289337856e-08   4.659081372713645e-06
4.003703067838501e-06   -2.831957463621422e-06   2.3578038555176857e-05
4.003703067838501e-06   -2.831957463621422e-06   2.3578038555176857e-05
4.003703067838501e-06   -2.831957463621422e-06   2.3578038555176857e-05
4.003703067838501e-06   -2.831957463621422e-06   2.3578038555176857e-05
1.6211697924115173e-05   -6.56310780271013e-07   1.9259924513725544e-06
1.6211697924115173e-05   -6.56310780271013e-07   1.9259924513725544e-06
1.6211697924115173e-05   -6.56310780271013e-07   1.9259924513725544e-06
1.6211697924115173e-05   -6.56310780271013e-07   1.9259924513725544e-06
1.002085229984058e-05   -1.468250469405328e-06   1.273123230531169e-05
1.002085229984058e-05   -1.468250469405328e-06   1.273123230531169e-05
1.002085229984058e-05   -1.468250469405328e-06   1.273123230531169e-05
1.002085229984058e-05   -1.468250469405328e-06   1.273123230531169e-05
1.62116979241152e-05   -2.831957463621422e-06   2.2272650545167045e-05
1.62116979241152e-05   -2.831957463621422e-06   2.2272650545167045e-05
1.62116979241152e-05   -2.831957463621422e-06   2.2272650545167045e-05
1.62116979241152e-05   -2.831957463621422e-06   2.2272650545167045e-05
4.003703067838498e-06   -6.56310780271013e-07   3.2313804613829083e-06
4.003703067838498e-06   -6.56310780271013e-07   3.2313804613829083e-06
4.003703067838498e-06   -6.56310780271013e-07   3.2313804613829083e-06
4.003703067838498e-06   -6.56310780271013e-07   3.2313804613829083e-06
3.275277835973034e-06   -3.1058780252638148e-06   2.2132352475053496e-05
3.275277835973034e-06   -3.1058780252638148e-06   2.2132352475053496e-05
3.275277835973034e-06   -3.1058780252638148e-06   2.2132352475053496e-05
3.275277835973034e-06   -3.1058780252638148e-06   2.2132352475053496e-05
1.4903757386210175e-05   -9.636860907513613e-07   1.4662380639507303e-06
1.4903757386210175e-05   -9.636860907513613e-07   1.4662380639507303e-06
1.4903757386210175e-05   -9.636860907513613e-07   1.4662380639507303e-06
1.4903757386210175e-05   -9.636860907513613e-07   1.4662380639507303e-06
9.273001434251166e-06   -1.778926009001489e-06   1.1339975268165564e-05
9.273001434251166e-06   -1.778926009001489e-06   1.1339975268165564e-05
9.273001434251166e-06   -1.778926009001489e-06   1.1339975268165564e-05
9.273001434251166e-06   -1.778926009001489e-06   1.1339975268165564e-05
1.4903757386210202e-05   -3.1058780252642484e-06   2.0847037314345677e-05
1.4903757386210202e-05   -3.1058780252642484e-06   2.0847037314345677e-05
1.4903757386210202e-05   -3.1058780252642484e-06   2.0847037314345677e-05
1.4903757386210202e-05   -3.1058780252642484e-06   2.0847037314345677e-05
3.2752778359730274e-06   -9.636860907513613e-07   2.7515532246584137e-06
3.2752778359730274e-06   -9.636860907513613e-07   2.7515532246584137e-06
3.2752778359730274e-06   -9.636860907513613e-07   2.7515532246584137e-06
3.2752778359730274e-06   -9.636860907513613e-07   2.7515532246584137e-06
2.6443211743039393e-06   -3.4689885979721086e-06   2.046441015380782e-05
2.6443211743039393e-06   -3.4689885979721086e-06   2.046441015380782e-05
2.6443211743039393e-06   -3.4689885979721086e-06   2.046441015380782e-05
2.6443211743039393e-06   -3.4689885979721086e-06   2.046441015380782e-05
1.3372675731294277e-05   -1.4765554314805779e-06   1.3883593255960053e-06
1.3372675731294277e-05   -1.4765554314805779e-06   1.3883593255960053e-06
1.3372675731294277e-05   -1.4765554314805779e-06   1.3883593255960053e-06
1.3372675731294277e-05   -1.4765554314805779e-06   1.3883593255960053e-06
8.174188187817292e-06   -1.9400362441771186e-06   1.0330593719009304e-05
8.174188187817292e-06   -1.9400362441771186e-06   1.0330593719009304e-05
8.174188187817292e-06   -1.9400362441771186e-06   1.0330593719009304e-05
8.174188187817292e-06   -1.9400362441771186e-06   1.0330593719009304e-05
4.629001321991052e-06   1.054296168681492e-06   3.481405598962698e-05
4.629001321991052e-06   1.054296168681492e-06   3.481405598962698e-05
4.629001321991052e-06   1.054296168681492e-06   3.481405598962698e-05
4.629001321991052e-06   1.054296168681492e-06   3.481405598962698e-05
-7.33346599119571e-06   2.000926755790647e-06   1.5444588819914684e-05
-7.33346599119571e-06   2.000926755790647e-06   1.5444588819914684e-05
-7.33346599119571e-06   2.000926755790647e-06   1.5444588819914684e-05
-7.33346599119571e-06   2.000926755790647e-06   1.5444588819914684e-05
-7.882601573357416e-06   2.4912330192977325e-07   3.492502162726779e-05
-7.882601573357416e-06   2.4912330192977325e-07   3.492502162726779e-05
-7.882601573357416e-06   2.4912330192977325e-07   3.492502162726779e-05
-7.882601573357416e-06   2.4912330192977325e-07   3.492502162726779e-05
4.003703067838498e-06   1.1959335890804508e-06   1.4546427719651234e-05
4.003703067838498e-06   1.1959335890804508e-06   1.4546427719651234e-05
4.003703067838498e-06   1.1959335890804508e-06   1.4546427719651234e-05
4.003703067838498e-06   1.1959335890804508e-06   1.4546427719651234e-05
-1.7351233358912025e-06   1.0450789061419025e-06   2.420165120229842e-05
-1.7351233358912025e-06   1.0450789061419025e-06   2.420165120229842e-05
-1.7351233358912025e-06   1.0450789061419025e-06   2.420165120229842e-05
-1.7351233358912025e-06   1.0450789061419025e-06   2.420165120229842e-05
4.003703067838498e-06   2.4912330193020693e-07   3.435693545497751e-05
4.003703067838498e-06   2.4912330193020693e-07   3.435693545497751e-05
4.003703067838498e-06   2.4912330193020693e-07   3.435693545497751e-05
4.003703067838498e-06   2.4912330193020693e-07   3.435693545497751e-05
-7.882601573357416e-06   1.1959335890804508e-06   1.5114513891941578e-05
-7.882601573357416e-06   1.1959335890804508e-06   1.5114513891941578e-05
-7.882601573357416e-06   1.1959335890804508e-06   1.5114513891941578e-05
-7.882601573357416e-06   1.1959335890804508e-06   1.5114513891941578e-05
-8.447699558916812e-06   -4.101281936654856e-07   3.4703244173906e-05
-8.447699558916812e-06   -4.101281936654856e-07   3.4703244173906e-05
-8.447699558916812e-06   -4.101281936654856e-07   3.4703244173906e-05
-8.447699558916812e-06   -4.101281936654856e-07   3.4703244173906e-05
3.2752778359730274e-06   5.132548975186196e-07   1.4610918661045968e-05
3.2752778359730274e-06   5.132548975186196e-07   1.4610918661045968e-05
3.2752778359730274e-06   5.132548975186196e-07   1.4610918661045968e-05
3.2752778359730274e-06   5.132548975186196e-07   1.4610918661045968e-05
-2.3210952080295065e-06   4.833574934904467e-07   2.3956145510134214e-05
-2.3210952080295065e-06   4.833574934904467e-07   2.3956145510134214e-05
-2.3210952080295065e-06   4.833574934904467e-07   2.3956145510134214e-05
-2.3210952080295065e-06   4.833574934904467e-07   2.3956145510134214e-05
3.275277835973034e-06   -4.101281936659193e-07   3.4149214319195665e-05
3.275277835973034e-06   -4.101281936659193e-07   3.4149214319195665e-05
3.275277835973034e-06   -4.101281936659193e-07   3.4149214319195665e-05
3.275277835973034e-06   -4.101281936659193e-07   3.4149214319195665e-05
-8.44769955891684e-06   5.132548975186196e-07   1.5164948515756626e-05
-8.44769955891684e-06   5.132548975186196e-07   1.5164948515756626e-05
-8.44769955891684e-06   5.132548975186196e-07   1.5164948515756626e-05
-8.44769955891684e-06   5.132548975186196e-07   1.5164948515756626e-05
-9.004283348487587e-06   -1.0603042355909233e-06   3.516239378696987e-05
-9.004283348487587e-06   -1.0603042355909233e-06   3.516239378696987e-05
-9.004283348487587e-06   -1.0603042355909233e-06   3.516239378696987e-05
-9.004283348487587e-06   -1.0603042355909233e-06   3.516239378696987e-05
2.6443211743039393e-06   -1.8493814116834345e-07   1.5222833258997416e-05
2.6443211743039393e-06   -1.8493814116834345e-07   1.5222833258997416e-05
2.6443211743039393e-06   -1.8493814116834345e-07   1.5222833258997416e-05
2.6443211743039393e-06   -1.8493814116834345e-07   1.5222833258997416e-05
-2.8175832089872025e-06   -2.1232067232840324e-08   2.4227783586788158e-05
-2.8175832089872025e-06   -2.1232067232840324e-08   2.4227783586788158e-05
-2.8175832089872025e-06   -2.1232067232840324e-08   2.4227783586788158e-05
-2.8175832089872025e-06   -2.1232067232840324e-08   2.4227783586788158e-05
-7.33346599119571e-06   3.956077200069092e-06   3.861360778227704e-05
-7.33346599119571e-06   3.956077200069092e-06   3.861360778227704e-05
-7.33346599119571e-06   3.956077200069092e-06   3.861360778227704e-05
-7.33346599119571e-06   3.956077200069092e-06   3.861360778227704e-05
-1.909500532010542e-05   3.7278572546206156e-06   1.8874110266825072e-05
-1.909500532010542e-05   3.7278572546206156e-06   1.8874110266825072e-05
-1.909500532010542e-05   3.7278572546206156e-06   1.8874110266825072e-05
-1.909500532010542e-05   3.7278572546206156e-06   1.8874110266825072e-05
-1.962173824277745e-05   3.223968915454494e-06   3.827241129891138e-05
-1.962173824277745e-05   3.223968915454494e-06   3.827241129891138e-05
-1.962173824277745e-05   3.223968915454494e-06   3.827241129891138e-05
-1.962173824277745e-05   3.223968915454494e-06   3.827241129891138e-05
-7.882601573357389e-06   2.9852519710235267e-06   1.8850413683203142e-05
-7.882601573357389e-06   2.9852519710235267e-06   1.8850413683203142e-05
-7.882601573357389e-06   2.9852519710235267e-06   1.8850413683203142e-05
-7.882601573357389e-06   2.9852519710235267e-06   1.8850413683203142e-05
-1.3508211407819371e-05   3.3907184628274595e-06   2.798315017889198e-05
-1.3508211407819371e-05   3.3907184628274595e-06   2.798315017889198e-05
-1.3508211407819371e-05   3.3907184628274595e-06   2.798315017889198e-05
-1.3508211407819371e-05   3.3907184628274595e-06   2.798315017889198e-05
-7.882601573357416e-06   3.223968915454494e-06   3.841564146556966e-05
-7.882601573357416e-06   3.223968915454494e-06   3.841564146556966e-05
-7.882601573357416e-06   3.223968915454494e-06   3.841564146556966e-05
-7.882601573357416e-06   3.223968915454494e-06   3.841564146556966e-05
-1.9621738242777396e-05   2.9852519710237436e-06   1.870718351654492e-05
-1.9621738242777396e-05   2.9852519710237436e-06   1.870718351654492e-05
-1.9621738242777396e-05   2.9852519710237436e-06   1.870718351654492e-05
-1.9621738242777396e-05   2.9852519710237436e-06   1.870718351654492e-05
-2.016580212534021e-05   2.50024432015385e-06   3.852817252605802e-05
-2.016580212534021e-05   2.50024432015385e-06   3.852817252605802e-05
-2.016580212534021e-05   2.50024432015385e-06   3.852817252605802e-05
-2.016580212534021e-05   2.50024432015385e-06   3.852817252605802e-05
-8.447699558916812e-06   2.246435550383322e-06   1.915028684388166e-05
-8.447699558916812e-06   2.246435550383322e-06   1.915028684388166e-05
-8.447699558916812e-06   2.246435550383322e-06   1.915028684388166e-05
-8.447699558916812e-06   2.246435550383322e-06   1.915028684388166e-05
-1.3977320679125458e-05   2.8256570287017637e-06   2.801878915723819e-05
-1.3977320679125458e-05   2.8256570287017637e-06   2.801878915723819e-05
-1.3977320679125458e-05   2.8256570287017637e-06   2.801878915723819e-05
-1.3977320679125458e-05   2.8256570287017637e-06   2.801878915723819e-05
-8.44769955891684e-06   2.50024432015385e-06   3.868045778792034e-05
-8.44769955891684e-06   2.50024432015385e-06   3.868045778792034e-05
-8.44769955891684e-06   2.50024432015385e-06   3.868045778792034e-05
-8.44769955891684e-06   2.50024432015385e-06   3.868045778792034e-05
-2.016580212534021e-05   2.246435550383539e-06   1.8998001582019343e-05
-2.016580212534021e-05   2.246435550383539e-06   1.8998001582019343e-05
-2.016580212534021e-05   2.246435550383539e-06   1.8998001582019343e-05
-2.016580212534021e-05   2.246435550383539e-06   1.8998001582019343e-05
-2.070141014782459e-05   1.803426395522497e-06   3.915223669693525e-05
-2.070141014782459e-05   1.803426395522497e-06   3.915223669693525e-05
-2.070141014782459e-05   1.803426395522497e-06   3.915223669693525e-05
-2.070141014782459e-05   1.803426395522497e-06   3.915223669693525e-05
-9.004283348487587e-06   1.5388757613828304e-06   1.9815755745191592e-05
-9.004283348487587e-06   1.5388757613828304e-06   1.9815755745191592e-05
-9.004283348487587e-06   1.5388757613828304e-06   1.9815755745191592e-05
-9.004283348487587e-06   1.5388757613828304e-06   1.9815755745191592e-05
-1.4476227403170027e-05   2.2718526425718685e-06   2.8495876374282352e-05
-1.4476227403170027e-05   2.2718526425718685e-06   2.8495876374282352e-05
-1.4476227403170027e-05   2.2718526425718685e-06   2.8495876374282352e-05
-1.4476227403170027e-05   2.2718526425718685e-06   2.8495876374282352e-05
-1.909500532010542e-05   6.778686692388101e-06   3.4010893824719e-05
-1.909500532010542e-05   6.778686692388101e-06   3.4010893824719e-05
-1.909500532010542e-05   6.778686692388101e-06   3.4010893824719e-05
-1.909500532010542e-05   6.778686692388101e-06   3.4010893824719e-05
-3.064001892699665e-05   5.534203079285991e-06   1.4022514312039174e-05
-3.064001892699665e-05   5.534203079285991e-06   1.4022514312039174e-05
-3.064001892699665e-05   5.534203079285991e-06   1.4022514312039174e-05
-3.064001892699665e-05   5.534203079285991e-06   1.4022514312039174e-05
-3.1213968511409785e-05   6.063164613858297e-06   3.338301017525658e-05
-3.1213968511409785e-05   6.063164613858297e-06   3.338301017525658e-05
-3.1213968511409785e-05   6.063164613858297e-06   3.338301017525658e-05
-3.1213968511409785e-05   6.063164613858297e-06   3.338301017525658e-05
-1.9621738242777396e-05   4.785075293942077e-06   1.482947998615277e-05
-1.9621738242777396e-05   4.785075293942077e-06   1.482947998615277e-05
-1.9621738242777396e-05   4.785075293942077e-06   1.482947998615277e-05
-1.9621738242777396e-05   4.785075293942077e-06   1.482947998615277e-05
-2.508212586901519e-05   5.69668637095521e-06   2.3383159383675938e-05
-2.508212586901519e-05   5.69668637095521e-06   2.3383159383675938e-05
-2.508212586901519e-05   5.69668637095521e-06   2.3383159383675938e-05
-2.508212586901519e-05   5.69668637095521e-06   2.3383159383675938e-05
-1.962173824277745e-05   6.063164613858297e-06   3.4149863767206226e-05
-1.962173824277745e-05   6.063164613858297e-06   3.4149863767206226e-05
-1.962173824277745e-05   6.063164613858297e-06   3.4149863767206226e-05
-1.962173824277745e-05   6.063164613858297e-06   3.4149863767206226e-05
-3.121396851140973e-05   4.78507529394186e-06   1.4062626394202907e-05
-3.121396851140973e-05   4.78507529394186e-06   1.4062626394202907e-05
-3.121396851140973e-05   4.78507529394186e-06   1.4062626394202907e-05
-3.121396851140973e-05   4.78507529394186e-06   1.4062626394202907e-05
-3.189390163438593e-05   5.401454824288405e-06   3.448174674045728e-05
-3.189390163438593e-05   5.401454824288405e-06   3.448174674045728e-05
-3.189390163438593e-05   5.401454824288405e-06   3.448174674045728e-05
-3.189390163438593e-05   5.401454824288405e-06   3.448174674045728e-05
-2.0165802125340156e-05   4.104331656835892e-06   1.5713188125852722e-05
-2.0165802125340156e-05   4.104331656835892e-06   1.5713188125852722e-05
-2.0165802125340156e-05   4.104331656835892e-06   1.5713188125852722e-05
-2.0165802125340156e-05   4.104331656835892e-06   1.5713188125852722e-05
-2.545462007438564e-05   5.166657018460278e-06   2.3890489490620715e-05
-2.545462007438564e-05   5.166657018460278e-06   2.3890489490620715e-05
-2.545462007438564e-05   5.166657018460278e-06   2.3890489490620715e-05
-2.545462007438564e-05   5.166657018460278e-06   2.3890489490620715e-05
-2.0165802125340156e-05   5.401454824288405e-06   3.52600206409287e-05
-2.0165802125340156e-05   5.401454824288405e-06   3.52600206409287e-05
-2.0165802125340156e-05   5.401454824288405e-06   3.52600206409287e-05
-2.0165802125340156e-05   5.401454824288405e-06   3.52600206409287e-05
-3.189390163438582e-05   4.104331656835892e-06   1.4934914225381356e-05
-3.189390163438582e-05   4.104331656835892e-06   1.4934914225381356e-05
-3.189390163438582e-05   4.104331656835892e-06   1.4934914225381356e-05
-3.189390163438582e-05   4.104331656835892e-06   1.4934914225381356e-05
-3.2477640036622925e-05   4.662104810223763e-06   3.554425303420902e-05
-3.2477640036622925e-05   4.662104810223763e-06   3.554425303420902e-05
-3.2477640036622925e-05   4.662104810223763e-06   3.554425303420902e-05
-3.2477640036622925e-05   4.662104810223763e-06   3.554425303420902e-05
-2.0701410147824534e-05   3.3772057412774677e-06   1.6688142660912706e-05
-2.0701410147824534e-05   3.3772057412774677e-06   1.6688142660912706e-05
-2.0701410147824534e-05   3.3772057412774677e-06   1.6688142660912706e-05
-2.0701410147824534e-05   3.3772057412774677e-06   1.6688142660912706e-05
-2.6094061331649555e-05   4.63625195240157e-06   2.4920466907281174e-05
-2.6094061331649555e-05   4.63625195240157e-06   2.4920466907281174e-05
-2.6094061331649555e-05   4.63625195240157e-06   2.4920466907281174e-05
-2.6094061331649555e-05   4.63625195240157e-06   2.4920466907281174e-05
-3.064001892699676e-05   8.886271242607852e-06   1.5881581015338413e-05
-3.064001892699676e-05   8.886271242607852e-06   1.5881581015338413e-05
-3.064001892699676e-05   8.886271242607852e-06   1.5881581015338413e-05
-3.064001892699676e-05   8.886271242607852e-06   1.5881581015338413e-05
-4.104091058687901e-05   6.803177555804148e-06   -2.7030946298810298e-06
-4.104091058687901e-05   6.803177555804148e-06   -2.7030946298810298e-06
-4.104091058687901e-05   6.803177555804148e-06   -2.7030946298810298e-06
-4.104091058687901e-05   6.803177555804148e-06   -2.7030946298810298e-06
-4.251180179803309e-05   8.655775417777938e-06   1.9576156793590796e-05
-4.251180179803309e-05   8.655775417777938e-06   1.9576156793590796e-05
-4.251180179803309e-05   8.655775417777938e-06   1.9576156793590796e-05
-4.251180179803309e-05   8.655775417777938e-06   1.9576156793590796e-05
-3.1213968511409676e-05   6.4185811266650235e-06   2.088751223886724e-06
-3.1213968511409676e-05   6.4185811266650235e-06   2.088751223886724e-06
-3.1213968511409676e-05   6.4185811266650235e-06   2.088751223886724e-06
-3.1213968511409676e-05   6.4185811266650235e-06   2.088751223886724e-06
-3.502812356541592e-05   7.550428709019287e-06   7.766567764486121e-06
-3.502812356541592e-05   7.550428709019287e-06   7.766567764486121e-06
-3.502812356541592e-05   7.550428709019287e-06   7.766567764486121e-06
-3.502812356541592e-05   7.550428709019287e-06   7.766567764486121e-06
-3.121396851140973e-05   8.655775417777938e-06   2.0918473368258632e-05
-3.121396851140973e-05   8.655775417777938e-06   2.0918473368258632e-05
-3.121396851140973e-05   8.655775417777938e-06   2.0918473368258632e-05
-3.121396851140973e-05   8.655775417777938e-06   2.0918473368258632e-05
-4.251180179803309e-05   6.4185811266650235e-06   7.464346492191596e-07
-4.251180179803309e-05   6.4185811266650235e-06   7.464346492191596e-07
-4.251180179803309e-05   6.4185811266650235e-06   7.464346492191596e-07
-4.251180179803309e-05   6.4185811266650235e-06   7.464346492191596e-07
-4.3778696546901605e-05   8.375336095499657e-06   2.316355673961305e-05
-4.3778696546901605e-05   8.375336095499657e-06   2.316355673961305e-05
-4.3778696546901605e-05   8.375336095499657e-06   2.316355673961305e-05
-4.3778696546901605e-05   8.375336095499657e-06   2.316355673961305e-05
-3.189390163438582e-05   6.097949590523014e-06   4.721997121739626e-06
-3.189390163438582e-05   6.097949590523014e-06   4.721997121739626e-06
-3.189390163438582e-05   6.097949590523014e-06   4.721997121739626e-06
-3.189390163438582e-05   6.097949590523014e-06   4.721997121739626e-06
-3.6439299052217676e-05   7.450254463495622e-06   1.1486276561009775e-05
-3.6439299052217676e-05   7.450254463495622e-06   1.1486276561009775e-05
-3.6439299052217676e-05   7.450254463495622e-06   1.1486276561009775e-05
-3.6439299052217676e-05   7.450254463495622e-06   1.1486276561009775e-05
-3.1893901634385874e-05   8.375336095499657e-06   2.4529988642598907e-05
-3.1893901634385874e-05   8.375336095499657e-06   2.4529988642598907e-05
-3.1893901634385874e-05   8.375336095499657e-06   2.4529988642598907e-05
-3.1893901634385874e-05   8.375336095499657e-06   2.4529988642598907e-05
-4.3778696546901605e-05   6.097949590523014e-06   3.355565218753553e-06
-4.3778696546901605e-05   6.097949590523014e-06   3.355565218753553e-06
-4.3778696546901605e-05   6.097949590523014e-06   3.355565218753553e-06
-4.3778696546901605e-05   6.097949590523014e-06   3.355565218753553e-06
-4.529549762175597e-05   7.435266045940567e-06   2.951314470801803e-05
-4.529549762175597e-05   7.435266045940567e-06   2.951314470801803e-05
-4.529549762175597e-05   7.435266045940567e-06   2.951314470801803e-05
-4.529549762175597e-05   7.435266045940567e-06   2.951314470801803e-05
-3.2477640036622816e-05   5.2270162846264345e-06   9.474998589585246e-06
-3.2477640036622816e-05   5.2270162846264345e-06   9.474998589585246e-06
-3.2477640036622816e-05   5.2270162846264345e-06   9.474998589585246e-06
-3.2477640036622816e-05   5.2270162846264345e-06   9.474998589585246e-06
-3.6793359990202224e-05   7.05420990893468e-06   1.5571549004299626e-05
-3.6793359990202224e-05   7.05420990893468e-06   1.5571549004299626e-05
-3.6793359990202224e-05   7.05420990893468e-06   1.5571549004299626e-05
-3.6793359990202224e-05   7.05420990893468e-06   1.5571549004299626e-05
3.4921833076313893e-06   5.5528470289554696e-08   1.8845280784267012e-05
3.4921833076313893e-06   5.5528470289554696e-08   1.8845280784267012e-05
3.4921833076313893e-06   5.5528470289554696e-08   1.8845280784267012e-05
3.4921833076313893e-06   5.5528470289554696e-08   1.8845280784267012e-05
-4.000056304942156e-06   2.0630601046973257e-06   7.562733743955805e-06
-4.000056304942156e-06   2.0630601046973257e-06   7.562733743955805e-06
-4.000056304942156e-06   2.0630601046973257e-06   7.562733743955805e-06
-4.000056304942156e-06   2.0630601046973257e-06   7.562733743955805e-06
-4.441895537697249e-06   -6.56310780271013e-07   1.8596389636204983e-05
-4.441895537697249e-06   -6.56310780271013e-07   1.8596389636204983e-05
-4.441895537697249e-06   -6.56310780271013e-07   1.8596389636204983e-05
-4.441895537697249e-06   -6.56310780271013e-07   1.8596389636204983e-05
2.1466585422723117e-06   1.3990736789073945e-06   6.382235494082033e-06
2.1466585422723117e-06   1.3990736789073945e-06   6.382235494082033e-06
2.1466585422723117e-06   1.3990736789073945e-06   6.382235494082033e-06
2.1466585422723117e-06   1.3990736789073945e-06   6.382235494082033e-06
-8.743534382454764e-07   6.019143416590572e-07   1.1895551063960624e-05
-8.743534382454764e-07   6.019143416590572e-07   1.1895551063960624e-05
-8.743534382454764e-07   6.019143416590572e-07   1.1895551063960624e-05
-8.743534382454764e-07   6.019143416590572e-07   1.1895551063960624e-05
2.1466585422723117e-06   -6.56310780271013e-07   1.7363158960697852e-05
2.1466585422723117e-06   -6.56310780271013e-07   1.7363158960697852e-05
2.1466585422723117e-06   -6.56310780271013e-07   1.7363158960697852e-05
2.1466585422723117e-06   -6.56310780271013e-07   1.7363158960697852e-05
-4.441895537697249e-06   1.3990736789073945e-06   7.615466169589029e-06
-4.441895537697249e-06   1.3990736789073945e-06   7.615466169589029e-06
-4.441895537697249e-06   1.3990736789073945e-06   7.615466169589029e-06
-4.441895537697249e-06   1.3990736789073945e-06   7.615466169589029e-06
-4.98753770487884e-06   -9.636860907513613e-07   1.8115452366223445e-05
-4.98753770487884e-06   -9.636860907513613e-07   1.8115452366223445e-05
-4.98753770487884e-06   -9.636860907513613e-07   1.8115452366223445e-05
-4.98753770487884e-06   -9.636860907513613e-07   1.8115452366223445e-05
9.795323748287426e-07   1.0329105243264951e-06   6.972377597664047e-06
9.795323748287426e-07   1.0329105243264951e-06   6.972377597664047e-06
9.795323748287426e-07   1.0329105243264951e-06   6.972377597664047e-06
9.795323748287426e-07   1.0329105243264951e-06   6.972377597664047e-06
-1.6011683740764446e-06   3.1893716013011754e-07   1.1701929531023959e-05
-1.6011683740764446e-06   3.1893716013011754e-07   1.1701929531023959e-05
-1.6011683740764446e-06   3.1893716013011754e-07   1.1701929531023959e-05
-1.6011683740764446e-06   3.1893716013011754e-07   1.1701929531023959e-05
9.79532374828729e-07   -9.636860907511445e-07   1.6917494397176492e-05
9.79532374828729e-07   -9.636860907511445e-07   1.6917494397176492e-05
9.79532374828729e-07   -9.636860907511445e-07   1.6917494397176492e-05
9.79532374828729e-07   -9.636860907511445e-07   1.6917494397176492e-05
-4.98753770487883e-06   1.0329105243264951e-06   8.170335566710756e-06
-4.98753770487883e-06   1.0329105243264951e-06   8.170335566710756e-06
-4.98753770487883e-06   1.0329105243264951e-06   8.170335566710756e-06
-4.98753770487883e-06   1.0329105243264951e-06   8.170335566710756e-06
-5.4432751931617445e-06   -1.476555431480361e-06   1.7952632693014957e-05
-5.4432751931617445e-06   -1.476555431480361e-06   1.7952632693014957e-05
-5.4432751931617445e-06   -1.476555431480361e-06   1.7952632693014957e-05
-5.4432751931617445e-06   -1.476555431480361e-06   1.7952632693014957e-05
-4.843523207899105e-07   2.556520456735347e-07   8.648436752769844e-06
-4.843523207899105e-07   2.556520456735347e-07   8.648436752769844e-06
-4.843523207899105e-07   2.556520456735347e-07   8.648436752769844e-06
-4.843523207899105e-07   2.556520456735347e-07   8.648436752769844e-06
-2.3816600049828883e-06   5.857391823958433e-08   1.1928863102885032e-05
-2.3816600049828883e-06   5.857391823958433e-08   1.1928863102885032e-05
-2.3816600049828883e-06   5.857391823958433e-08   1.1928863102885032e-05
-2.3816600049828883e-06   5.857391823958433e-08   1.1928863102885032e-05
-4.000056304942156e-06   2.000926755790647e-06   3.026732885984696e-05
-4.000056304942156e-06   2.000926755790647e-06   3.026732885984696e-05
-4.000056304942156e-06   2.000926755790647e-06   3.026732885984696e-05
-4.000056304942156e-06   2.000926755790647e-06   3.026732885984696e-05
-1.0272468269490077e-05   2.3957447067241098e-06   2.0050199689493754e-05
-1.0272468269490077e-05   2.3957447067241098e-06   2.0050199689493754e-05
-1.0272468269490077e-05   2.3957447067241098e-06   2.0050199689493754e-05
-1.0272468269490077e-05   2.3957447067241098e-06   2.0050199689493754e-05
-1.0605324744565343e-05   1.1959335890804508e-06   3.0186207367196303e-05
-1.0605324744565343e-05   1.1959335890804508e-06   3.0186207367196303e-05
-1.0605324744565343e-05   1.1959335890804508e-06   3.0186207367196303e-05
-1.0605324744565343e-05   1.1959335890804508e-06   3.0186207367196303e-05
-4.441895537697249e-06   1.6538843769519935e-06   1.9639054883026725e-05
-4.441895537697249e-06   1.6538843769519935e-06   1.9639054883026725e-05
-4.441895537697249e-06   1.6538843769519935e-06   1.9639054883026725e-05
-4.441895537697249e-06   1.6538843769519935e-06   1.9639054883026725e-05
-7.372932398966334e-06   1.7259452458175464e-06   2.4480879797156036e-05
-7.372932398966334e-06   1.7259452458175464e-06   2.4480879797156036e-05
-7.372932398966334e-06   1.7259452458175464e-06   2.4480879797156036e-05
-7.372932398966334e-06   1.7259452458175464e-06   2.4480879797156036e-05
-4.441895537697252e-06   1.1959335890804508e-06   2.991143689447316e-05
-4.441895537697252e-06   1.1959335890804508e-06   2.991143689447316e-05
-4.441895537697252e-06   1.1959335890804508e-06   2.991143689447316e-05
-4.441895537697252e-06   1.1959335890804508e-06   2.991143689447316e-05
-1.0605324744565316e-05   1.6538843769519935e-06   1.991382535574955e-05
-1.0605324744565316e-05   1.6538843769519935e-06   1.991382535574955e-05
-1.0605324744565316e-05   1.6538843769519935e-06   1.991382535574955e-05
-1.0605324744565316e-05   1.6538843769519935e-06   1.991382535574955e-05
-1.0948595885930406e-05   5.132548975184028e-07   3.0247944170887046e-05
-1.0948595885930406e-05   5.132548975184028e-07   3.0247944170887046e-05
-1.0948595885930406e-05   5.132548975184028e-07   3.0247944170887046e-05
-1.0948595885930406e-05   5.132548975184028e-07   3.0247944170887046e-05
-4.98753770487883e-06   9.684655113118522e-07   2.003972083419194e-05
-4.98753770487883e-06   9.684655113118522e-07   2.003972083419194e-05
-4.98753770487883e-06   9.684655113118522e-07   2.003972083419194e-05
-4.98753770487883e-06   9.684655113118522e-07   2.003972083419194e-05
-7.712679051151141e-06   1.1834429162480356e-06   2.4452636635017655e-05
-7.712679051151141e-06   1.1834429162480356e-06   2.4452636635017655e-05
-7.712679051151141e-06   1.1834429162480356e-06   2.4452636635017655e-05
-7.712679051151141e-06   1.1834429162480356e-06   2.4452636635017655e-05
-4.98753770487884e-06   5.132548975186196e-07   2.997481780261089e-05
-4.98753770487884e-06   5.132548975186196e-07   2.997481780261089e-05
-4.98753770487884e-06   5.132548975186196e-07   2.997481780261089e-05
-4.98753770487884e-06   5.132548975186196e-07   2.997481780261089e-05
-1.0948595885930406e-05   9.684655113118522e-07   2.031284720246777e-05
-1.0948595885930406e-05   9.684655113118522e-07   2.031284720246777e-05
-1.0948595885930406e-05   9.684655113118522e-07   2.031284720246777e-05
-1.0948595885930406e-05   9.684655113118522e-07   2.031284720246777e-05
-1.1285190212365916e-05   -1.849381411681266e-07   3.0837755647191226e-05
-1.1285190212365916e-05   -1.849381411681266e-07   3.0837755647191226e-05
-1.1285190212365916e-05   -1.849381411681266e-07   3.0837755647191226e-05
-1.1285190212365916e-05   -1.849381411681266e-07   3.0837755647191226e-05
-5.443275193161738e-06   2.2524339328118884e-07   2.0855121694514752e-05
-5.443275193161738e-06   2.2524339328118884e-07   2.0855121694514752e-05
-5.443275193161738e-06   2.2524339328118884e-07   2.0855121694514752e-05
-5.443275193161738e-06   2.2524339328118884e-07   2.0855121694514752e-05
-8.052257975303141e-06   6.496455172162047e-07   2.4948785057055936e-05
-8.052257975303141e-06   6.496455172162047e-07   2.4948785057055936e-05
-8.052257975303141e-06   6.496455172162047e-07   2.4948785057055936e-05
-8.052257975303141e-06   6.496455172162047e-07   2.4948785057055936e-05
-1.0272468269490077e-05   3.7278572546206156e-06   3.407067304458662e-05
-1.0272468269490077e-05   3.7278572546206156e-06   3.407067304458662e-05
-1.0272468269490077e-05   3.7278572546206156e-06   3.407067304458662e-05
-1.0272468269490077e-05   3.7278572546206156e-06   3.407067304458662e-05
-1.6526808235685407e-05   2.8689209500302668e-06   2.3131411318173226e-05
-1.6526808235685407e-05   2.8689209500302668e-06   2.3131411318173226e-05
-1.6526808235685407e-05   2.8689209500302668e-06   2.3131411318173226e-05
-1.6526808235685407e-05   2.8689209500302668e-06   2.3131411318173226e-05
-1.6808283190697826e-05   2.9852519710237436e-06   3.343952893836047e-05
-1.6808283190697826e-05   2.9852519710237436e-06   3.343952893836047e-05
-1.6808283190697826e-05   2.9852519710237436e-06   3.343952893836047e-05
-1.6808283190697826e-05   2.9852519710237436e-06   3.343952893836047e-05
-1.0605324744565316e-05   2.1809549375277713e-06   2.3583843081570303e-05
-1.0605324744565316e-05   2.1809549375277713e-06   2.3583843081570303e-05
-1.0605324744565316e-05   2.1809549375277713e-06   2.3583843081570303e-05
-1.0605324744565316e-05   2.1809549375277713e-06   2.3583843081570303e-05
-1.355978369118192e-05   2.884512193989351e-06   2.8085806972054513e-05
-1.355978369118192e-05   2.884512193989351e-06   2.8085806972054513e-05
-1.355978369118192e-05   2.884512193989351e-06   2.8085806972054513e-05
-1.355978369118192e-05   2.884512193989351e-06   2.8085806972054513e-05
-1.0605324744565316e-05   2.9852519710237436e-06   3.392210715845792e-05
-1.0605324744565316e-05   2.9852519710237436e-06   3.392210715845792e-05
-1.0605324744565316e-05   2.9852519710237436e-06   3.392210715845792e-05
-1.0605324744565316e-05   2.9852519710237436e-06   3.392210715845792e-05
-1.6808283190697826e-05   2.1809549375277713e-06   2.3101264861472904e-05
-1.6808283190697826e-05   2.1809549375277713e-06   2.3101264861472904e-05
-1.6808283190697826e-05   2.1809549375277713e-06   2.3101264861472904e-05
-1.6808283190697826e-05   2.1809549375277713e-06   2.3101264861472904e-05
-1.7109994279512037e-05   2.246435550383539e-06   3.377443621641529e-05
-1.7109994279512037e-05   2.246435550383539e-06   3.377443621641529e-05
-1.7109994279512037e-05   2.246435550383539e-06   3.377443621641529e-05
-1.7109994279512037e-05   2.246435550383539e-06   3.377443621641529e-05
-1.0948595885930406e-05   1.4816917460549767e-06   2.3964285176376074e-05
-1.0948595885930406e-05   1.4816917460549767e-06   2.3964285176376074e-05
-1.0948595885930406e-05   1.4816917460549767e-06   2.3964285176376074e-05
-1.0948595885930406e-05   1.4816917460549767e-06   2.3964285176376074e-05
-1.380026129031703e-05   2.3333451375521976e-06   2.8206068815455417e-05
-1.380026129031703e-05   2.3333451375521976e-06   2.8206068815455417e-05
-1.380026129031703e-05   2.3333451375521976e-06   2.8206068815455417e-05
-1.380026129031703e-05   2.3333451375521976e-06   2.8206068815455417e-05
-1.0948595885930406e-05   2.246435550383539e-06   3.423328249901197e-05
-1.0948595885930406e-05   2.246435550383539e-06   3.423328249901197e-05
-1.0948595885930406e-05   2.246435550383539e-06   3.423328249901197e-05
-1.0948595885930406e-05   2.246435550383539e-06   3.423328249901197e-05
-1.7109994279512037e-05   1.4816917460549767e-06   2.3505438893779013e-05
-1.7109994279512037e-05   1.4816917460549767e-06   2.3505438893779013e-05
-1.7109994279512037e-05   1.4816917460549767e-06   2.3505438893779013e-05
-1.7109994279512037e-05   1.4816917460549767e-06   2.3505438893779013e-05
-1.740546998326185e-05   1.5388757613826135e-06   3.447326191675102e-05
-1.740546998326185e-05   1.5388757613826135e-06   3.447326191675102e-05
-1.740546998326185e-05   1.5388757613826135e-06   3.447326191675102e-05
-1.740546998326185e-05   1.5388757613826135e-06   3.447326191675102e-05
-1.1285190212365889e-05   8.185481614145663e-07   2.4704992191905417e-05
-1.1285190212365889e-05   8.185481614145663e-07   2.4704992191905417e-05
-1.1285190212365889e-05   8.185481614145663e-07   2.4704992191905417e-05
-1.1285190212365889e-05   8.185481614145663e-07   2.4704992191905417e-05
-1.4068217600852228e-05   1.7903736880433944e-06   2.8760275856738455e-05
-1.4068217600852228e-05   1.7903736880433944e-06   2.8760275856738455e-05
-1.4068217600852228e-05   1.7903736880433944e-06   2.8760275856738455e-05
-1.4068217600852228e-05   1.7903736880433944e-06   2.8760275856738455e-05
-1.652680823568546e-05   5.5342030792862075e-06   2.9450405474907432e-05
-1.652680823568546e-05   5.5342030792862075e-06   2.9450405474907432e-05
-1.652680823568546e-05   5.5342030792862075e-06   2.9450405474907432e-05
-1.652680823568546e-05   5.5342030792862075e-06   2.9450405474907432e-05
-2.267656803598973e-05   3.875875883262159e-06   1.8205809490119175e-05
-2.267656803598973e-05   3.875875883262159e-06   1.8205809490119175e-05
-2.267656803598973e-05   3.875875883262159e-06   1.8205809490119175e-05
-2.267656803598973e-05   3.875875883262159e-06   1.8205809490119175e-05
-2.298576539605876e-05   4.78507529394186e-06   2.8581991315760344e-05
-2.298576539605876e-05   4.78507529394186e-06   2.8581991315760344e-05
-2.298576539605876e-05   4.78507529394186e-06   2.8581991315760344e-05
-2.298576539605876e-05   4.78507529394186e-06   2.8581991315760344e-05
-1.6808283190697826e-05   3.152018473595239e-06   1.926602173236687e-05
-1.6808283190697826e-05   3.152018473595239e-06   1.926602173236687e-05
-1.6808283190697826e-05   3.152018473595239e-06   1.926602173236687e-05
-1.6808283190697826e-05   3.152018473595239e-06   1.926602173236687e-05
-1.9707534100000222e-05   4.300536509902961e-06   2.3408995759419517e-05
-1.9707534100000222e-05   4.300536509902961e-06   2.3408995759419517e-05
-1.9707534100000222e-05   4.300536509902961e-06   2.3408995759419517e-05
-1.9707534100000222e-05   4.300536509902961e-06   2.3408995759419517e-05
-1.6808283190697826e-05   4.78507529394186e-06   2.9561825407968317e-05
-1.6808283190697826e-05   4.78507529394186e-06   2.9561825407968317e-05
-1.6808283190697826e-05   4.78507529394186e-06   2.9561825407968317e-05
-1.6808283190697826e-05   4.78507529394186e-06   2.9561825407968317e-05
-2.2985765396058705e-05   3.152018473595239e-06   1.828618764015887e-05
-2.2985765396058705e-05   3.152018473595239e-06   1.828618764015887e-05
-2.2985765396058705e-05   3.152018473595239e-06   1.828618764015887e-05
-2.2985765396058705e-05   3.152018473595239e-06   1.828618764015887e-05
-2.3413536783729026e-05   4.104331656836109e-06   2.9532011059932133e-05
-2.3413536783729026e-05   4.104331656836109e-06   2.9532011059932133e-05
-2.3413536783729026e-05   4.104331656836109e-06   2.9532011059932133e-05
-2.3413536783729026e-05   4.104331656836109e-06   2.9532011059932133e-05
-1.7109994279512037e-05   2.508312156308855e-06   1.998371858655376e-05
-1.7109994279512037e-05   2.508312156308855e-06   1.998371858655376e-05
-1.7109994279512037e-05   2.508312156308855e-06   1.998371858655376e-05
-1.7109994279512037e-05   2.508312156308855e-06   1.998371858655376e-05
-1.9875644743224123e-05   3.7663436187216834e-06   2.3838317148625922e-05
-1.9875644743224123e-05   3.7663436187216834e-06   2.3838317148625922e-05
-1.9875644743224123e-05   3.7663436187216834e-06   2.3838317148625922e-05
-1.9875644743224123e-05   3.7663436187216834e-06   2.3838317148625922e-05
-1.710999427951209e-05   4.104331656835892e-06   3.048962276024829e-05
-1.710999427951209e-05   4.104331656835892e-06   3.048962276024829e-05
-1.710999427951209e-05   4.104331656835892e-06   3.048962276024829e-05
-1.710999427951209e-05   4.104331656835892e-06   3.048962276024829e-05
-2.3413536783728917e-05   2.508312156308855e-06   1.9026106886237414e-05
-2.3413536783728917e-05   2.508312156308855e-06   1.9026106886237414e-05
-2.3413536783728917e-05   2.508312156308855e-06   1.9026106886237414e-05
-2.3413536783728917e-05   2.508312156308855e-06   1.9026106886237414e-05
-2.375657957109326e-05   3.3772057412774677e-06   3.058976274820219e-05
-2.375657957109326e-05   3.3772057412774677e-06   3.058976274820219e-05
-2.375657957109326e-05   3.3772057412774677e-06   3.058976274820219e-05
-2.375657957109326e-05   3.3772057412774677e-06   3.058976274820219e-05
-1.7405469983261795e-05   1.8528449666867838e-06   2.0919196566570957e-05
-1.7405469983261795e-05   1.8528449666867838e-06   2.0919196566570957e-05
-1.7405469983261795e-05   1.8528449666867838e-06   2.0919196566570957e-05
-1.7405469983261795e-05   1.8528449666867838e-06   2.0919196566570957e-05
-2.0229692365847e-05   3.258678246086154e-06   2.4782733903240366e-05
-2.0229692365847e-05   3.258678246086154e-06   2.4782733903240366e-05
-2.0229692365847e-05   3.258678246086154e-06   2.4782733903240366e-05
-2.0229692365847e-05   3.258678246086154e-06   2.4782733903240366e-05
-2.267656803598973e-05   6.803177555804148e-06   1.2979656427454913e-05
-2.267656803598973e-05   6.803177555804148e-06   1.2979656427454913e-05
-2.267656803598973e-05   6.803177555804148e-06   1.2979656427454913e-05
-2.267656803598973e-05   6.803177555804148e-06   1.2979656427454913e-05
-2.749178591348212e-05   4.57467469941312e-06   3.6171915844665896e-06
-2.749178591348212e-05   4.57467469941312e-06   3.6171915844665896e-06
-2.749178591348212e-05   4.57467469941312e-06   3.6171915844665896e-06
-2.749178591348212e-05   4.57467469941312e-06   3.6171915844665896e-06
-2.8666677343154004e-05   6.41858112666524e-06   1.5212725867911258e-05
-2.8666677343154004e-05   6.41858112666524e-06   1.5212725867911258e-05
-2.8666677343154004e-05   6.41858112666524e-06   1.5212725867911258e-05
-2.8666677343154004e-05   6.41858112666524e-06   1.5212725867911258e-05
-2.2985765396058705e-05   4.092930664110258e-06   7.139929566952032e-06
-2.2985765396058705e-05   4.092930664110258e-06   7.139929566952032e-06
-2.2985765396058705e-05   4.092930664110258e-06   7.139929566952032e-06
-2.2985765396058705e-05   4.092930664110258e-06   7.139929566952032e-06
-2.457230670584347e-05   5.418115031258046e-06   8.989054462971071e-06
-2.457230670584347e-05   5.418115031258046e-06   8.989054462971071e-06
-2.457230670584347e-05   5.418115031258046e-06   8.989054462971071e-06
-2.457230670584347e-05   5.418115031258046e-06   8.989054462971071e-06
-2.298576539605865e-05   6.41858112666524e-06   1.6608116145444053e-05
-2.298576539605865e-05   6.41858112666524e-06   1.6608116145444053e-05
-2.298576539605865e-05   6.41858112666524e-06   1.6608116145444053e-05
-2.298576539605865e-05   6.41858112666524e-06   1.6608116145444053e-05
-2.8666677343154113e-05   4.092930664110258e-06   5.744539289418926e-06
-2.8666677343154113e-05   4.092930664110258e-06   5.744539289418926e-06
-2.8666677343154113e-05   4.092930664110258e-06   5.744539289418926e-06
-2.8666677343154113e-05   4.092930664110258e-06   5.744539289418926e-06
-2.9675731182226693e-05   6.097949590523014e-06   1.7917740205757038e-05
-2.9675731182226693e-05   6.097949590523014e-06   1.7917740205757038e-05
-2.9675731182226693e-05   6.097949590523014e-06   1.7917740205757038e-05
-2.9675731182226693e-05   6.097949590523014e-06   1.7917740205757038e-05
-2.341353678372897e-05   3.762360006300631e-06   8.882103292127334e-06
-2.341353678372897e-05   3.762360006300631e-06   8.882103292127334e-06
-2.341353678372897e-05   3.762360006300631e-06   8.882103292127334e-06
-2.341353678372897e-05   3.762360006300631e-06   8.882103292127334e-06
-2.5567195625150947e-05   5.2286391199892705e-06   1.1591767226284814e-05
-2.5567195625150947e-05   5.2286391199892705e-06   1.1591767226284814e-05
-2.5567195625150947e-05   5.2286391199892705e-06   1.1591767226284814e-05
-2.5567195625150947e-05   5.2286391199892705e-06   1.1591767226284814e-05
-2.341353678372897e-05   6.097949590522797e-06   1.9319093956290294e-05
-2.341353678372897e-05   6.097949590522797e-06   1.9319093956290294e-05
-2.341353678372897e-05   6.097949590522797e-06   1.9319093956290294e-05
-2.341353678372897e-05   6.097949590522797e-06   1.9319093956290294e-05
-2.967573118222691e-05   3.762360006300848e-06   7.4807495415939796e-06
-2.967573118222691e-05   3.762360006300848e-06   7.4807495415939796e-06
-2.967573118222691e-05   3.762360006300848e-06   7.4807495415939796e-06
-2.967573118222691e-05   3.762360006300848e-06   7.4807495415939796e-06
-3.096138951294157e-05   5.2270162846264345e-06   2.2814134362613174e-05
-3.096138951294157e-05   5.2270162846264345e-06   2.2814134362613174e-05
-3.096138951294157e-05   5.2270162846264345e-06   2.2814134362613174e-05
-3.096138951294157e-05   5.2270162846264345e-06   2.2814134362613174e-05
-2.3756579571093206e-05   3.0046433585788953e-06   1.2139541548494403e-05
-2.3756579571093206e-05   3.0046433585788953e-06   1.2139541548494403e-05
-2.3756579571093206e-05   3.0046433585788953e-06   1.2139541548494403e-05
-2.3756579571093206e-05   3.0046433585788953e-06   1.2139541548494403e-05
-2.585265484677534e-05   4.867215771843731e-06   1.4515456893339019e-05
-2.585265484677534e-05   4.867215771843731e-06   1.4515456893339019e-05
-2.585265484677534e-05   4.867215771843731e-06   1.4515456893339019e-05
-2.585265484677534e-05   4.867215771843731e-06   1.4515456893339019e-05
-1.1379272940083472e-05   2.0630601046973257e-06   1.3422973362060679e-05
-1.1379272940083472e-05   2.0630601046973257e-06   1.3422973362060679e-05
-1.1379272940083472e-05   2.0630601046973257e-06   1.3422973362060679e-05
-1.1379272940083472e-05   2.0630601046973257e-06   1.3422973362060679e-05
-1.2389815987670546e-05   3.8867535147743765e-06   1.2832950995462014e-05
-1.2389815987670546e-05   3.8867535147743765e-06   1.2832950995462014e-05
-1.2389815987670546e-05   3.8867535147743765e-06   1.2832950995462014e-05
-1.2389815987670546e-05   3.8867535147743765e-06   1.2832950995462014e-05
-1.2705721820589656e-05   1.3990736789073945e-06   1.4434136635370896e-05
-1.2705721820589656e-05   1.3990736789073945e-06   1.4434136635370896e-05
-1.2705721820589656e-05   1.3990736789073945e-06   1.4434136635370896e-05
-1.2705721820589656e-05   1.3990736789073945e-06   1.4434136635370896e-05
-1.2714119761151992e-05   3.0385693822346325e-06   1.3464435780978284e-05
-1.2714119761151992e-05   3.0385693822346325e-06   1.3464435780978284e-05
-1.2714119761151992e-05   3.0385693822346325e-06   1.3464435780978284e-05
-1.2714119761151992e-05   3.0385693822346325e-06   1.3464435780978284e-05
-1.1990151937247118e-05   2.4282989443122956e-06   1.262398500389032e-05
-1.1990151937247118e-05   2.4282989443122956e-06   1.262398500389032e-05
-1.1990151937247118e-05   2.4282989443122956e-06   1.262398500389032e-05
-1.1990151937247118e-05   2.4282989443122956e-06   1.262398500389032e-05
-1.2714119761152005e-05   1.3990736789071777e-06   1.345043921337425e-05
-1.2714119761152005e-05   1.3990736789071777e-06   1.345043921337425e-05
-1.2714119761152005e-05   1.3990736789071777e-06   1.345043921337425e-05
-1.2714119761152005e-05   1.3990736789071777e-06   1.345043921337425e-05
-1.2705721820589656e-05   3.0385693822346325e-06   1.4448133202974714e-05
-1.2705721820589656e-05   3.0385693822346325e-06   1.4448133202974714e-05
-1.2705721820589656e-05   3.0385693822346325e-06   1.4448133202974714e-05
-1.2705721820589656e-05   3.0385693822346325e-06   1.4448133202974714e-05
-1.3115841427633331e-05   1.032910524326712e-06   1.4899296464937852e-05
-1.3115841427633331e-05   1.032910524326712e-06   1.4899296464937852e-05
-1.3115841427633331e-05   1.032910524326712e-06   1.4899296464937852e-05
-1.3115841427633331e-05   1.032910524326712e-06   1.4899296464937852e-05
-1.401174994317982e-05   2.4514433244770574e-06   1.5541357644091553e-05
-1.401174994317982e-05   2.4514433244770574e-06   1.5541357644091553e-05
-1.401174994317982e-05   2.4514433244770574e-06   1.5541357644091553e-05
-1.401174994317982e-05   2.4514433244770574e-06   1.5541357644091553e-05
-1.2784967387034866e-05   2.0622253463693264e-06   1.373025083738086e-05
-1.2784967387034866e-05   2.0622253463693264e-06   1.373025083738086e-05
-1.2784967387034866e-05   2.0622253463693264e-06   1.373025083738086e-05
-1.2784967387034866e-05   2.0622253463693264e-06   1.373025083738086e-05
-1.4011749943179834e-05   1.032910524326712e-06   1.4048176784847298e-05
-1.4011749943179834e-05   1.032910524326712e-06   1.4048176784847298e-05
-1.4011749943179834e-05   1.032910524326712e-06   1.4048176784847298e-05
-1.4011749943179834e-05   1.032910524326712e-06   1.4048176784847298e-05
-1.3115841427633331e-05   2.4514433244770574e-06   1.6392477324181864e-05
-1.3115841427633331e-05   2.4514433244770574e-06   1.6392477324181864e-05
-1.3115841427633331e-05   2.4514433244770574e-06   1.6392477324181864e-05
-1.3115841427633331e-05   2.4514433244770574e-06   1.6392477324181864e-05
-1.3375874984400438e-05   2.556520456735347e-07   1.6390352205694213e-05
-1.3375874984400438e-05   2.556520456735347e-07   1.6390352205694213e-05
-1.3375874984400438e-05   2.556520456735347e-07   1.6390352205694213e-05
-1.3375874984400438e-05   2.556520456735347e-07   1.6390352205694213e-05
-1.539296945904606e-05   1.0069227436103724e-06   1.9301413911341288e-05
-1.539296945904606e-05   1.0069227436103724e-06   1.9301413911341288e-05
-1.539296945904606e-05   1.0069227436103724e-06   1.9301413911341288e-05
-1.539296945904606e-05   1.0069227436103724e-06   1.9301413911341288e-05
-1.3339527455938635e-05   1.6119691138951394e-06   1.5515982750657616e-05
-1.3339527455938635e-05   1.6119691138951394e-06   1.5515982750657616e-05
-1.3339527455938635e-05   1.6119691138951394e-06   1.5515982750657616e-05
-1.3339527455938635e-05   1.6119691138951394e-06   1.5515982750657616e-05
-1.2389815987670526e-05   2.3957447067243266e-06   2.676776458308502e-05
-1.2389815987670526e-05   2.3957447067243266e-06   2.676776458308502e-05
-1.2389815987670526e-05   2.3957447067243266e-06   2.676776458308502e-05
-1.2389815987670526e-05   2.3957447067243266e-06   2.676776458308502e-05
-1.252547350326678e-05   1.0055431340734097e-06   2.5707547780167447e-05
-1.252547350326678e-05   1.0055431340734097e-06   2.5707547780167447e-05
-1.252547350326678e-05   1.0055431340734097e-06   2.5707547780167447e-05
-1.252547350326678e-05   1.0055431340734097e-06   2.5707547780167447e-05
-1.2621653674382323e-05   1.6538843769519935e-06   2.5755441105060816e-05
-1.2621653674382323e-05   1.6538843769519935e-06   2.5755441105060816e-05
-1.2621653674382323e-05   1.6538843769519935e-06   2.5755441105060816e-05
-1.2621653674382323e-05   1.6538843769519935e-06   2.5755441105060816e-05
-1.2705721820589656e-05   4.834106373724284e-07   2.65978389258207e-05
-1.2705721820589656e-05   4.834106373724284e-07   2.65978389258207e-05
-1.2705721820589656e-05   4.834106373724284e-07   2.65978389258207e-05
-1.2705721820589656e-05   4.834106373724284e-07   2.65978389258207e-05
-1.2521485326399116e-05   1.2249630195197876e-06   2.5845846672881444e-05
-1.2521485326399116e-05   1.2249630195197876e-06   2.5845846672881444e-05
-1.2521485326399116e-05   1.2249630195197876e-06   2.5845846672881444e-05
-1.2521485326399116e-05   1.2249630195197876e-06   2.5845846672881444e-05
-1.2705721820589643e-05   1.6538843769519935e-06   2.6457725348808057e-05
-1.2705721820589643e-05   1.6538843769519935e-06   2.6457725348808057e-05
-1.2705721820589643e-05   1.6538843769519935e-06   2.6457725348808057e-05
-1.2705721820589643e-05   1.6538843769519935e-06   2.6457725348808057e-05
-1.2621653674382323e-05   4.834106373724284e-07   2.5895554682072905e-05
-1.2621653674382323e-05   4.834106373724284e-07   2.5895554682072905e-05
-1.2621653674382323e-05   4.834106373724284e-07   2.5895554682072905e-05
-1.2621653674382323e-05   4.834106373724284e-07   2.5895554682072905e-05
-1.2741111871597305e-05   9.684655113116353e-07   2.6113681638282953e-05
-1.2741111871597305e-05   9.684655113116353e-07   2.6113681638282953e-05
-1.2741111871597305e-05   9.684655113116353e-07   2.6113681638282953e-05
-1.2741111871597305e-05   9.684655113116353e-07   2.6113681638282953e-05
-1.3115841427633331e-05   -1.2320131224854026e-07   2.7393230992478807e-05
-1.3115841427633331e-05   -1.2320131224854026e-07   2.7393230992478807e-05
-1.3115841427633331e-05   -1.2320131224854026e-07   2.7393230992478807e-05
-1.3115841427633331e-05   -1.2320131224854026e-07   2.7393230992478807e-05
-1.2639664672522522e-05   7.918269254406519e-07   2.6050586124680484e-05
-1.2639664672522522e-05   7.918269254406519e-07   2.6050586124680484e-05
-1.2639664672522522e-05   7.918269254406519e-07   2.6050586124680484e-05
-1.2639664672522522e-05   7.918269254406519e-07   2.6050586124680484e-05
-1.3115841427633331e-05   9.684655113116353e-07   2.6768681732418495e-05
-1.3115841427633331e-05   9.684655113116353e-07   2.6768681732418495e-05
-1.3115841427633331e-05   9.684655113116353e-07   2.6768681732418495e-05
-1.3115841427633331e-05   9.684655113116353e-07   2.6768681732418495e-05
-1.274111187159725e-05   -1.2320131224854026e-07   2.6738230898342764e-05
-1.274111187159725e-05   -1.2320131224854026e-07   2.6738230898342764e-05
-1.274111187159725e-05   -1.2320131224854026e-07   2.6738230898342764e-05
-1.274111187159725e-05   -1.2320131224854026e-07   2.6738230898342764e-05
-1.2827179260056646e-05   2.2524339328118884e-07   2.6869933372174366e-05
-1.2827179260056646e-05   2.2524339328118884e-07   2.6869933372174366e-05
-1.2827179260056646e-05   2.2524339328118884e-07   2.6869933372174366e-05
-1.2827179260056646e-05   2.2524339328118884e-07   2.6869933372174366e-05
-1.3375874984400425e-05   -9.210554216731916e-07   2.847220553505292e-05
-1.3375874984400425e-05   -9.210554216731916e-07   2.847220553505292e-05
-1.3375874984400425e-05   -9.210554216731916e-07   2.847220553505292e-05
-1.3375874984400425e-05   -9.210554216731916e-07   2.847220553505292e-05
-1.2827832779602054e-05   2.821264736391736e-07   2.6836892723201025e-05
-1.2827832779602054e-05   2.821264736391736e-07   2.6836892723201025e-05
-1.2827832779602054e-05   2.821264736391736e-07   2.6836892723201025e-05
-1.2827832779602054e-05   2.821264736391736e-07   2.6836892723201025e-05
-1.2525473503266808e-05   2.8689209500302668e-06   2.953021705092839e-05
-1.2525473503266808e-05   2.8689209500302668e-06   2.953021705092839e-05
-1.2525473503266808e-05   2.8689209500302668e-06   2.953021705092839e-05
-1.2525473503266808e-05   2.8689209500302668e-06   2.953021705092839e-05
-1.3462025942188936e-05   2.790481633747118e-07   2.641537264739814e-05
-1.3462025942188936e-05   2.790481633747118e-07   2.641537264739814e-05
-1.3462025942188936e-05   2.790481633747118e-07   2.641537264739814e-05
-1.3462025942188936e-05   2.790481633747118e-07   2.641537264739814e-05
-1.3492813915610513e-05   2.1809549375277713e-06   2.8019253975504043e-05
-1.3492813915610513e-05   2.1809549375277713e-06   2.8019253975504043e-05
-1.3492813915610513e-05   2.1809549375277713e-06   2.8019253975504043e-05
-1.3492813915610513e-05   2.1809549375277713e-06   2.8019253975504043e-05
-1.2621653674382323e-05   -1.627198214345033e-07   2.7973525095501244e-05
-1.2621653674382323e-05   -1.627198214345033e-07   2.7973525095501244e-05
-1.2621653674382323e-05   -1.627198214345033e-07   2.7973525095501244e-05
-1.2621653674382323e-05   -1.627198214345033e-07   2.7973525095501244e-05
-1.3002860910495191e-05   1.2483498283049135e-06   2.7762228699179138e-05
-1.3002860910495191e-05   1.2483498283049135e-06   2.7762228699179138e-05
-1.3002860910495191e-05   1.2483498283049135e-06   2.7762228699179138e-05
-1.3002860910495191e-05   1.2483498283049135e-06   2.7762228699179138e-05
-1.2621653674382323e-05   2.1809549375277713e-06   2.9425458830881516e-05
-1.2621653674382323e-05   2.1809549375277713e-06   2.9425458830881516e-05
-1.2621653674382323e-05   2.1809549375277713e-06   2.9425458830881516e-05
-1.2621653674382323e-05   2.1809549375277713e-06   2.9425458830881516e-05
-1.3492813915610513e-05   -1.627198214345033e-07   2.656732024012377e-05
-1.3492813915610513e-05   -1.627198214345033e-07   2.656732024012377e-05
-1.3492813915610513e-05   -1.627198214345033e-07   2.656732024012377e-05
-1.3492813915610513e-05   -1.627198214345033e-07   2.656732024012377e-05
-1.3550542390365617e-05   1.4816917460549767e-06   2.84610380367424e-05
-1.3550542390365617e-05   1.4816917460549767e-06   2.84610380367424e-05
-1.3550542390365617e-05   1.4816917460549767e-06   2.84610380367424e-05
-1.3550542390365617e-05   1.4816917460549767e-06   2.84610380367424e-05
-1.274111187159725e-05   -6.917775463596929e-07   2.8416068747576988e-05
-1.274111187159725e-05   -6.917775463596929e-07   2.8416068747576988e-05
-1.274111187159725e-05   -6.917775463596929e-07   2.8416068747576988e-05
-1.274111187159725e-05   -6.917775463596929e-07   2.8416068747576988e-05
-1.3007919784376883e-05   8.104775466824966e-07   2.7959395546383497e-05
-1.3007919784376883e-05   8.104775466824966e-07   2.7959395546383497e-05
-1.3007919784376883e-05   8.104775466824966e-07   2.7959395546383497e-05
-1.3007919784376883e-05   8.104775466824966e-07   2.7959395546383497e-05
-1.2741111871597305e-05   1.4816917460551936e-06   2.9765119612190877e-05
-1.2741111871597305e-05   1.4816917460551936e-06   2.9765119612190877e-05
-1.2741111871597305e-05   1.4816917460551936e-06   2.9765119612190877e-05
-1.2741111871597305e-05   1.4816917460551936e-06   2.9765119612190877e-05
-1.3550542390365562e-05   -6.917775463596929e-07   2.711198717212805e-05
-1.3550542390365562e-05   -6.917775463596929e-07   2.711198717212805e-05
-1.3550542390365562e-05   -6.917775463596929e-07   2.711198717212805e-05
-1.3550542390365562e-05   -6.917775463596929e-07   2.711198717212805e-05
-1.3586601804020356e-05   8.185481614145663e-07   2.9248475026742065e-05
-1.3586601804020356e-05   8.185481614145663e-07   2.9248475026742065e-05
-1.3586601804020356e-05   8.185481614145663e-07   2.9248475026742065e-05
-1.3586601804020356e-05   8.185481614145663e-07   2.9248475026742065e-05
-1.2827179260056646e-05   -1.2234850421742431e-06   2.9207990708955418e-05
-1.2827179260056646e-05   -1.2234850421742431e-06   2.9207990708955418e-05
-1.2827179260056646e-05   -1.2234850421742431e-06   2.9207990708955418e-05
-1.2827179260056646e-05   -1.2234850421742431e-06   2.9207990708955418e-05
-1.3034482192722069e-05   3.6020878506327035e-07   2.860327930038787e-05
-1.3034482192722069e-05   3.6020878506327035e-07   2.860327930038787e-05
-1.3034482192722069e-05   3.6020878506327035e-07   2.860327930038787e-05
-1.3034482192722069e-05   3.6020878506327035e-07   2.860327930038787e-05
-1.3462025942188936e-05   3.875875883262159e-06   2.4045687868495228e-05
-1.3462025942188936e-05   3.875875883262159e-06   2.4045687868495228e-05
-1.3462025942188936e-05   3.875875883262159e-06   2.4045687868495228e-05
-1.3462025942188936e-05   3.875875883262159e-06   2.4045687868495228e-05
-1.4826986629258446e-05   1.2715215347528386e-06   2.0208140780940637e-05
-1.4826986629258446e-05   1.2715215347528386e-06   2.0208140780940637e-05
-1.4826986629258446e-05   1.2715215347528386e-06   2.0208140780940637e-05
-1.4826986629258446e-05   1.2715215347528386e-06   2.0208140780940637e-05
-1.4849055524221281e-05   3.152018473595239e-06   2.2706649119654887e-05
-1.4849055524221281e-05   3.152018473595239e-06   2.2706649119654887e-05
-1.4849055524221281e-05   3.152018473595239e-06   2.2706649119654887e-05
-1.4849055524221281e-05   3.152018473595239e-06   2.2706649119654887e-05
-1.3492813915610513e-05   6.897489290228626e-07   2.1923608165380333e-05
-1.3492813915610513e-05   6.897489290228626e-07   2.1923608165380333e-05
-1.3492813915610513e-05   6.897489290228626e-07   2.1923608165380333e-05
-1.3492813915610513e-05   6.897489290228626e-07   2.1923608165380333e-05
-1.4120649219861526e-05   2.3011606839961826e-06   2.200315328614803e-05
-1.4120649219861526e-05   2.3011606839961826e-06   2.200315328614803e-05
-1.4120649219861526e-05   2.3011606839961826e-06   2.200315328614803e-05
-1.4120649219861526e-05   2.3011606839961826e-06   2.200315328614803e-05
-1.3492813915610513e-05   3.152018473595022e-06   2.41840108463979e-05
-1.3492813915610513e-05   3.152018473595022e-06   2.41840108463979e-05
-1.3492813915610513e-05   3.152018473595022e-06   2.41840108463979e-05
-1.3492813915610513e-05   3.152018473595022e-06   2.41840108463979e-05
-1.4849055524221281e-05   6.897489290228626e-07   2.0446246438636977e-05
-1.4849055524221281e-05   6.897489290228626e-07   2.0446246438636977e-05
-1.4849055524221281e-05   6.897489290228626e-07   2.0446246438636977e-05
-1.4849055524221281e-05   6.897489290228626e-07   2.0446246438636977e-05
-1.5008218639604742e-05   2.508312156308855e-06   2.354937030036512e-05
-1.5008218639604742e-05   2.508312156308855e-06   2.354937030036512e-05
-1.5008218639604742e-05   2.508312156308855e-06   2.354937030036512e-05
-1.5008218639604742e-05   2.508312156308855e-06   2.354937030036512e-05
-1.3550542390365617e-05   1.9173310772206947e-07   2.2509857314118335e-05
-1.3550542390365617e-05   1.9173310772206947e-07   2.2509857314118335e-05
-1.3550542390365617e-05   1.9173310772206947e-07   2.2509857314118335e-05
-1.3550542390365617e-05   1.9173310772206947e-07   2.2509857314118335e-05
-1.4078281183046325e-05   1.8228673750308056e-06   2.241074140819975e-05
-1.4078281183046325e-05   1.8228673750308056e-06   2.241074140819975e-05
-1.4078281183046325e-05   1.8228673750308056e-06   2.241074140819975e-05
-1.4078281183046325e-05   1.8228673750308056e-06   2.241074140819975e-05
-1.3550542390365562e-05   2.508312156308855e-06   2.493931772951639e-05
-1.3550542390365562e-05   2.508312156308855e-06   2.493931772951639e-05
-1.3550542390365562e-05   2.508312156308855e-06   2.493931772951639e-05
-1.3550542390365562e-05   2.508312156308855e-06   2.493931772951639e-05
-1.5008218639604742e-05   1.9173310772206947e-07   2.1119909884966395e-05
-1.5008218639604742e-05   1.9173310772206947e-07   2.1119909884966395e-05
-1.5008218639604742e-05   1.9173310772206947e-07   2.1119909884966395e-05
-1.5008218639604742e-05   1.9173310772206947e-07   2.1119909884966395e-05
-1.5102481127655042e-05   1.8528449666867838e-06   2.4597046729880933e-05
-1.5102481127655042e-05   1.8528449666867838e-06   2.4597046729880933e-05
-1.5102481127655042e-05   1.8528449666867838e-06   2.4597046729880933e-05
-1.5102481127655042e-05   1.8528449666867838e-06   2.4597046729880933e-05
-1.3586601804020356e-05   -3.1020375249231086e-07   2.3368410421997126e-05
-1.3586601804020356e-05   -3.1020375249231086e-07   2.3368410421997126e-05
-1.3586601804020356e-05   -3.1020375249231086e-07   2.3368410421997126e-05
-1.3586601804020356e-05   -3.1020375249231086e-07   2.3368410421997126e-05
-1.4146700741361892e-05   1.3958776794440516e-06   2.3278259791737334e-05
-1.4146700741361892e-05   1.3958776794440516e-06   2.3278259791737334e-05
-1.4146700741361892e-05   1.3958776794440516e-06   2.3278259791737334e-05
-1.4146700741361892e-05   1.3958776794440516e-06   2.3278259791737334e-05
-1.4826986629258446e-05   4.574674699413337e-06   9.231559067571595e-06
-1.4826986629258446e-05   4.574674699413337e-06   9.231559067571595e-06
-1.4826986629258446e-05   4.574674699413337e-06   9.231559067571595e-06
-1.4826986629258446e-05   4.574674699413337e-06   9.231559067571595e-06
-1.4611606526147977e-05   2.0919511344443887e-06   8.100891767107865e-06
-1.4611606526147977e-05   2.0919511344443887e-06   8.100891767107865e-06
-1.4611606526147977e-05   2.0919511344443887e-06   8.100891767107865e-06
-1.4611606526147977e-05   2.0919511344443887e-06   8.100891767107865e-06
-1.5362808371690868e-05   4.092930664110258e-06   1.0113056402330468e-05
-1.5362808371690868e-05   4.092930664110258e-06   1.0113056402330468e-05
-1.5362808371690868e-05   4.092930664110258e-06   1.0113056402330468e-05
-1.5362808371690868e-05   4.092930664110258e-06   1.0113056402330468e-05
-1.4849055524221227e-05   1.6807062572481027e-06   1.0704136300664926e-05
-1.4849055524221227e-05   1.6807062572481027e-06   1.0704136300664926e-05
-1.4849055524221227e-05   1.6807062572481027e-06   1.0704136300664926e-05
-1.4849055524221227e-05   1.6807062572481027e-06   1.0704136300664926e-05
-1.4428428551547823e-05   3.217081158152701e-06   9.081266405666492e-06
-1.4428428551547823e-05   3.217081158152701e-06   9.081266405666492e-06
-1.4428428551547823e-05   3.217081158152701e-06   9.081266405666492e-06
-1.4428428551547823e-05   3.217081158152701e-06   9.081266405666492e-06
-1.4849055524221173e-05   4.092930664110258e-06   1.156039104644737e-05
-1.4849055524221173e-05   4.092930664110258e-06   1.156039104644737e-05
-1.4849055524221173e-05   4.092930664110258e-06   1.156039104644737e-05
-1.4849055524221173e-05   4.092930664110258e-06   1.156039104644737e-05
-1.5362808371690976e-05   1.6807062572481027e-06   9.256801656547725e-06
-1.5362808371690976e-05   1.6807062572481027e-06   9.256801656547725e-06
-1.5362808371690976e-05   1.6807062572481027e-06   9.256801656547725e-06
-1.5362808371690976e-05   1.6807062572481027e-06   9.256801656547725e-06
-1.6022672343226317e-05   3.762360006300631e-06   1.1994960935901577e-05
-1.6022672343226317e-05   3.762360006300631e-06   1.1994960935901577e-05
-1.6022672343226317e-05   3.762360006300631e-06   1.1994960935901577e-05
-1.6022672343226317e-05   3.762360006300631e-06   1.1994960935901577e-05
-1.5008218639604742e-05   1.4116837223786174e-06   1.1714610533552008e-05
-1.5008218639604742e-05   1.4116837223786174e-06   1.1714610533552008e-05
-1.5008218639604742e-05   1.4116837223786174e-06   1.1714610533552008e-05
-1.5008218639604742e-05   1.4116837223786174e-06   1.1714610533552008e-05
-1.4962952495433123e-05   2.9761440256093844e-06   1.0700490777993538e-05
-1.4962952495433123e-05   2.9761440256093844e-06   1.0700490777993538e-05
-1.4962952495433123e-05   2.9761440256093844e-06   1.0700490777993538e-05
-1.4962952495433123e-05   2.9761440256093844e-06   1.0700490777993538e-05
-1.5008218639604688e-05   3.762360006300631e-06   1.3405366706254417e-05
-1.5008218639604688e-05   3.762360006300631e-06   1.3405366706254417e-05
-1.5008218639604688e-05   3.762360006300631e-06   1.3405366706254417e-05
-1.5008218639604688e-05   3.762360006300631e-06   1.3405366706254417e-05
-1.602267234322621e-05   1.4116837223786174e-06   1.0304204763198735e-05
-1.602267234322621e-05   1.4116837223786174e-06   1.0304204763198735e-05
-1.602267234322621e-05   1.4116837223786174e-06   1.0304204763198735e-05
-1.602267234322621e-05   1.4116837223786174e-06   1.0304204763198735e-05
-1.700573973065125e-05   3.0046433585788953e-06   1.545241502643878e-05
-1.700573973065125e-05   3.0046433585788953e-06   1.545241502643878e-05
-1.700573973065125e-05   3.0046433585788953e-06   1.545241502643878e-05
-1.700573973065125e-05   3.0046433585788953e-06   1.545241502643878e-05
-1.5102481127655042e-05   8.719881083787007e-07   1.3559910504898375e-05
-1.5102481127655042e-05   8.719881083787007e-07   1.3559910504898375e-05
-1.5102481127655042e-05   8.719881083787007e-07   1.3559910504898375e-05
-1.5102481127655042e-05   8.719881083787007e-07   1.3559910504898375e-05
-1.5143478655243304e-05   2.690762699579345e-06   1.2536974962823748e-05
-1.5143478655243304e-05   2.690762699579345e-06   1.2536974962823748e-05
-1.5143478655243304e-05   2.690762699579345e-06   1.2536974962823748e-05
-1.5143478655243304e-05   2.690762699579345e-06   1.2536974962823748e-05
-2.9357719824200094e-05   3.8867535147743765e-06   1.1207327449930346e-05
-2.9357719824200094e-05   3.8867535147743765e-06   1.1207327449930346e-05
-2.9357719824200094e-05   3.8867535147743765e-06   1.1207327449930346e-05
-2.9357719824200094e-05   3.8867535147743765e-06   1.1207327449930346e-05
-1.9790891748831297e-05   5.3854801235452e-06   2.8051276874140876e-05
-1.9790891748831297e-05   5.3854801235452e-06   2.8051276874140876e-05
-1.9790891748831297e-05   5.3854801235452e-06   2.8051276874140876e-05
-1.9790891748831297e-05   5.3854801235452e-06   2.8051276874140876e-05
-1.9779381276793146e-05   3.0385693822346325e-06   1.275866895984111e-05
-1.9779381276793146e-05   3.0385693822346325e-06   1.275866895984111e-05
-1.9779381276793146e-05   3.0385693822346325e-06   1.275866895984111e-05
-1.9779381276793146e-05   3.0385693822346325e-06   1.275866895984111e-05
-3.2321205694565145e-05   2.1967453409297536e-06   3.416680408091104e-05
-3.2321205694565145e-05   2.1967453409297536e-06   3.416680408091104e-05
-3.2321205694565145e-05   2.1967453409297536e-06   3.416680408091104e-05
-3.2321205694565145e-05   2.1967453409297536e-06   3.416680408091104e-05
-2.400673461333251e-05   3.1948462146412027e-06   1.9710491754629705e-05
-2.400673461333251e-05   3.1948462146412027e-06   1.9710491754629705e-05
-2.400673461333251e-05   3.1948462146412027e-06   1.9710491754629705e-05
-2.400673461333251e-05   3.1948462146412027e-06   1.9710491754629705e-05
-3.23212056945652e-05   3.0385693822346325e-06   1.3263763384624135e-05
-3.23212056945652e-05   3.0385693822346325e-06   1.3263763384624135e-05
-3.23212056945652e-05   3.0385693822346325e-06   1.3263763384624135e-05
-3.23212056945652e-05   3.0385693822346325e-06   1.3263763384624135e-05
-1.9779381276793146e-05   2.1967453409297536e-06   3.3661709656128067e-05
-1.9779381276793146e-05   2.1967453409297536e-06   3.3661709656128067e-05
-1.9779381276793146e-05   2.1967453409297536e-06   3.3661709656128067e-05
-1.9779381276793146e-05   2.1967453409297536e-06   3.3661709656128067e-05
-2.0043990141711816e-05   2.4514433244770574e-06   1.4284115839959953e-05
-2.0043990141711816e-05   2.4514433244770574e-06   1.4284115839959953e-05
-2.0043990141711816e-05   2.4514433244770574e-06   1.4284115839959953e-05
-2.0043990141711816e-05   2.4514433244770574e-06   1.4284115839959953e-05
-3.243023722229696e-05   1.581682699234937e-06   3.5449717349413654e-05
-3.243023722229696e-05   1.581682699234937e-06   3.5449717349413654e-05
-3.243023722229696e-05   1.581682699234937e-06   3.5449717349413654e-05
-3.243023722229696e-05   1.581682699234937e-06   3.5449717349413654e-05
-2.5608829423288622e-05   2.001498691551985e-06   2.382881475567592e-05
-2.5608829423288622e-05   2.001498691551985e-06   2.382881475567592e-05
-2.5608829423288622e-05   2.001498691551985e-06   2.382881475567592e-05
-2.5608829423288622e-05   2.001498691551985e-06   2.382881475567592e-05
-3.243023722229702e-05   2.4514433244770574e-06   1.4805972215105193e-05
-3.243023722229702e-05   2.4514433244770574e-06   1.4805972215105193e-05
-3.243023722229702e-05   2.4514433244770574e-06   1.4805972215105193e-05
-3.243023722229702e-05   2.4514433244770574e-06   1.4805972215105193e-05
-2.0043990141711783e-05   1.581682699234937e-06   3.4927860974268414e-05
-2.0043990141711783e-05   1.581682699234937e-06   3.4927860974268414e-05
-2.0043990141711783e-05   1.581682699234937e-06   3.4927860974268414e-05
-2.0043990141711783e-05   1.581682699234937e-06   3.4927860974268414e-05
-1.9824894973650005e-05   1.0069227436103724e-06   1.695327877652812e-05
-1.9824894973650005e-05   1.0069227436103724e-06   1.695327877652812e-05
-1.9824894973650005e-05   1.0069227436103724e-06   1.695327877652812e-05
-1.9824894973650005e-05   1.0069227436103724e-06   1.695327877652812e-05
-3.277307446978068e-05   -1.030790156614518e-06   3.975620567688067e-05
-3.277307446978068e-05   -1.030790156614518e-06   3.975620567688067e-05
-3.277307446978068e-05   -1.030790156614518e-06   3.975620567688067e-05
-3.277307446978068e-05   -1.030790156614518e-06   3.975620567688067e-05
-2.5212688110572454e-05   9.772774257820957e-07   2.595072119542904e-05
-2.5212688110572454e-05   9.772774257820957e-07   2.595072119542904e-05
-2.5212688110572454e-05   9.772774257820957e-07   2.595072119542904e-05
-2.5212688110572454e-05   9.772774257820957e-07   2.595072119542904e-05
-1.9790891748831345e-05   1.0055431340735181e-06   2.5815281143488856e-05
-1.9790891748831345e-05   1.0055431340735181e-06   2.5815281143488856e-05
-1.9790891748831345e-05   1.0055431340735181e-06   2.5815281143488856e-05
-1.9790891748831345e-05   1.0055431340735181e-06   2.5815281143488856e-05
-1.2129584419858012e-05   -6.0329749158524195e-06   3.4361015861822196e-05
-1.2129584419858012e-05   -6.0329749158524195e-06   3.4361015861822196e-05
-1.2129584419858012e-05   -6.0329749158524195e-06   3.4361015861822196e-05
-1.2129584419858012e-05   -6.0329749158524195e-06   3.4361015861822196e-05
-1.2150897649122213e-05   4.834106373724284e-07   2.1656556465220146e-05
-1.2150897649122213e-05   4.834106373724284e-07   2.1656556465220146e-05
-1.2150897649122213e-05   4.834106373724284e-07   2.1656556465220146e-05
-1.2150897649122213e-05   4.834106373724284e-07   2.1656556465220146e-05
-1.9779381276793146e-05   -4.936286391739244e-06   3.762251406213887e-05
-1.9779381276793146e-05   -4.936286391739244e-06   3.762251406213887e-05
-1.9779381276793146e-05   -4.936286391739244e-06   3.762251406213887e-05
-1.9779381276793146e-05   -4.936286391739244e-06   3.762251406213887e-05
-1.5876782363447653e-05   -2.982550167081495e-06   2.9945940805101954e-05
-1.5876782363447653e-05   -2.982550167081495e-06   2.9945940805101954e-05
-1.5876782363447653e-05   -2.982550167081495e-06   2.9945940805101954e-05
-1.5876782363447653e-05   -2.982550167081495e-06   2.9945940805101954e-05
-1.977938127679316e-05   4.834106373724284e-07   2.490837468268692e-05
-1.977938127679316e-05   4.834106373724284e-07   2.490837468268692e-05
-1.977938127679316e-05   4.834106373724284e-07   2.490837468268692e-05
-1.977938127679316e-05   4.834106373724284e-07   2.490837468268692e-05
-1.2150897649122186e-05   -4.936286391739244e-06   3.437069584467185e-05
-1.2150897649122186e-05   -4.936286391739244e-06   3.437069584467185e-05
-1.2150897649122186e-05   -4.936286391739244e-06   3.437069584467185e-05
-1.2150897649122186e-05   -4.936286391739244e-06   3.437069584467185e-05
-1.2194007028984503e-05   -1.2320131224854026e-07   2.2329115269800726e-05
-1.2194007028984503e-05   -1.2320131224854026e-07   2.2329115269800726e-05
-1.2194007028984503e-05   -1.2320131224854026e-07   2.2329115269800726e-05
-1.2194007028984503e-05   -1.2320131224854026e-07   2.2329115269800726e-05
-2.0043990141711783e-05   -5.049458376342225e-06   3.836817469613562e-05
-2.0043990141711783e-05   -5.049458376342225e-06   3.836817469613562e-05
-2.0043990141711783e-05   -5.049458376342225e-06   3.836817469613562e-05
-2.0043990141711783e-05   -5.049458376342225e-06   3.836817469613562e-05
-1.5757611274403533e-05   -2.605619510636292e-06   2.975790659786486e-05
-1.5757611274403533e-05   -2.605619510636292e-06   2.975790659786486e-05
-1.5757611274403533e-05   -2.605619510636292e-06   2.975790659786486e-05
-1.5757611274403533e-05   -2.605619510636292e-06   2.975790659786486e-05
-2.0043990141711816e-05   -1.2320131224854026e-07   2.528486950825699e-05
-2.0043990141711816e-05   -1.2320131224854026e-07   2.528486950825699e-05
-2.0043990141711816e-05   -1.2320131224854026e-07   2.528486950825699e-05
-2.0043990141711816e-05   -1.2320131224854026e-07   2.528486950825699e-05
-1.2194007028984476e-05   -5.049458376342225e-06   3.5412420457679435e-05
-1.2194007028984476e-05   -5.049458376342225e-06   3.5412420457679435e-05
-1.2194007028984476e-05   -5.049458376342225e-06   3.5412420457679435e-05
-1.2194007028984476e-05   -5.049458376342225e-06   3.5412420457679435e-05
-1.206943707330189e-05   -9.210554216731916e-07   2.3166700752088438e-05
-1.206943707330189e-05   -9.210554216731916e-07   2.3166700752088438e-05
-1.206943707330189e-05   -9.210554216731916e-07   2.3166700752088438e-05
-1.206943707330189e-05   -9.210554216731916e-07   2.3166700752088438e-05
-1.982489497364995e-05   -5.098734137321936e-06   3.859907114872428e-05
-1.982489497364995e-05   -5.098734137321936e-06   3.859907114872428e-05
-1.982489497364995e-05   -5.098734137321936e-06   3.859907114872428e-05
-1.982489497364995e-05   -5.098734137321936e-06   3.859907114872428e-05
-1.582605295911004e-05   -2.92799302042577e-06   3.063188978768682e-05
-1.582605295911004e-05   -2.92799302042577e-06   3.063188978768682e-05
-1.582605295911004e-05   -2.92799302042577e-06   3.063188978768682e-05
-1.582605295911004e-05   -2.92799302042577e-06   3.063188978768682e-05
-1.2129584419858012e-05   2.790481633747118e-07   2.3853918852757285e-05
-1.2129584419858012e-05   2.790481633747118e-07   2.3853918852757285e-05
-1.2129584419858012e-05   2.790481633747118e-07   2.3853918852757285e-05
-1.2129584419858012e-05   2.790481633747118e-07   2.3853918852757285e-05
-8.910351113406627e-06   -4.71252963420057e-06   2.622436101829795e-05
-8.910351113406627e-06   -4.71252963420057e-06   2.622436101829795e-05
-8.910351113406627e-06   -4.71252963420057e-06   2.622436101829795e-05
-8.910351113406627e-06   -4.71252963420057e-06   2.622436101829795e-05
-8.827304498364662e-06   -1.627198214345033e-07   2.105521651394888e-05
-8.827304498364662e-06   -1.627198214345033e-07   2.105521651394888e-05
-8.827304498364662e-06   -1.627198214345033e-07   2.105521651394888e-05
-8.827304498364662e-06   -1.627198214345033e-07   2.105521651394888e-05
-1.2150897649122186e-05   -4.628237095933663e-06   2.9273848796577853e-05
-1.2150897649122186e-05   -4.628237095933663e-06   2.9273848796577853e-05
-1.2150897649122186e-05   -4.628237095933663e-06   2.9273848796577853e-05
-1.2150897649122186e-05   -4.628237095933663e-06   2.9273848796577853e-05
-1.0439465561320926e-05   -2.3823624941210833e-06   2.5073937222488388e-05
-1.0439465561320926e-05   -2.3823624941210833e-06   2.5073937222488388e-05
-1.0439465561320926e-05   -2.3823624941210833e-06   2.5073937222488388e-05
-1.0439465561320926e-05   -2.3823624941210833e-06   2.5073937222488388e-05
-1.2150897649122186e-05   -1.627198214345033e-07   2.3734526878648376e-05
-1.2150897649122186e-05   -1.627198214345033e-07   2.3734526878648376e-05
-1.2150897649122186e-05   -1.627198214345033e-07   2.3734526878648376e-05
-1.2150897649122186e-05   -1.627198214345033e-07   2.3734526878648376e-05
-8.827304498364716e-06   -4.628237095933663e-06   2.659453843187829e-05
-8.827304498364716e-06   -4.628237095933663e-06   2.659453843187829e-05
-8.827304498364716e-06   -4.628237095933663e-06   2.659453843187829e-05
-8.827304498364716e-06   -4.628237095933663e-06   2.659453843187829e-05
-8.754911351348965e-06   -6.917775463596929e-07   2.1559862289542166e-05
-8.754911351348965e-06   -6.917775463596929e-07   2.1559862289542166e-05
-8.754911351348965e-06   -6.917775463596929e-07   2.1559862289542166e-05
-8.754911351348965e-06   -6.917775463596929e-07   2.1559862289542166e-05
-1.2194007028984476e-05   -4.7702622621810715e-06   2.973877924842736e-05
-1.2194007028984476e-05   -4.7702622621810715e-06   2.973877924842736e-05
-1.2194007028984476e-05   -4.7702622621810715e-06   2.973877924842736e-05
-1.2194007028984476e-05   -4.7702622621810715e-06   2.973877924842736e-05
-1.034386139100859e-05   -2.5423667004501873e-06   2.5318465848095156e-05
-1.034386139100859e-05   -2.5423667004501873e-06   2.5318465848095156e-05
-1.034386139100859e-05   -2.5423667004501873e-06   2.5318465848095156e-05
-1.034386139100859e-05   -2.5423667004501873e-06   2.5318465848095156e-05
-1.2194007028984476e-05   -6.917775463596929e-07   2.4006953119034896e-05
-1.2194007028984476e-05   -6.917775463596929e-07   2.4006953119034896e-05
-1.2194007028984476e-05   -6.917775463596929e-07   2.4006953119034896e-05
-1.2194007028984476e-05   -6.917775463596929e-07   2.4006953119034896e-05
-8.754911351348965e-06   -4.7702622621810715e-06   2.729168841893463e-05
-8.754911351348965e-06   -4.7702622621810715e-06   2.729168841893463e-05
-8.754911351348965e-06   -4.7702622621810715e-06   2.729168841893463e-05
-8.754911351348965e-06   -4.7702622621810715e-06   2.729168841893463e-05
-8.57842674184203e-06   -1.2234850421742431e-06   2.234078757778655e-05
-8.57842674184203e-06   -1.2234850421742431e-06   2.234078757778655e-05
-8.57842674184203e-06   -1.2234850421742431e-06   2.234078757778655e-05
-8.57842674184203e-06   -1.2234850421742431e-06   2.234078757778655e-05
-1.2069437073301863e-05   -4.972614437469009e-06   3.040861576739638e-05
-1.2069437073301863e-05   -4.972614437469009e-06   3.040861576739638e-05
-1.2069437073301863e-05   -4.972614437469009e-06   3.040861576739638e-05
-1.2069437073301863e-05   -4.972614437469009e-06   3.040861576739638e-05
-1.0231838252924231e-05   -2.774932113332575e-06   2.6027341672285056e-05
-1.0231838252924231e-05   -2.774932113332575e-06   2.6027341672285056e-05
-1.0231838252924231e-05   -2.774932113332575e-06   2.6027341672285056e-05
-1.0231838252924231e-05   -2.774932113332575e-06   2.6027341672285056e-05
-8.910351113406573e-06   1.271521534752947e-06   1.6214352916860196e-05
-8.910351113406573e-06   1.271521534752947e-06   1.6214352916860196e-05
-8.910351113406573e-06   1.271521534752947e-06   1.6214352916860196e-05
-8.910351113406573e-06   1.271521534752947e-06   1.6214352916860196e-05
-7.41328516373909e-06   -1.9323654003084345e-06   1.678713067193577e-05
-7.41328516373909e-06   -1.9323654003084345e-06   1.678713067193577e-05
-7.41328516373909e-06   -1.9323654003084345e-06   1.678713067193577e-05
-7.41328516373909e-06   -1.9323654003084345e-06   1.678713067193577e-05
-7.2501021280098115e-06   6.897489290228626e-07   1.4639688989003538e-05
-7.2501021280098115e-06   6.897489290228626e-07   1.4639688989003538e-05
-7.2501021280098115e-06   6.897489290228626e-07   1.4639688989003538e-05
-7.2501021280098115e-06   6.897489290228626e-07   1.4639688989003538e-05
-8.827304498364662e-06   -2.2632768213136627e-06   1.904017505646358e-05
-8.827304498364662e-06   -2.2632768213136627e-06   1.904017505646358e-05
-8.827304498364662e-06   -2.2632768213136627e-06   1.904017505646358e-05
-8.827304498364662e-06   -2.2632768213136627e-06   1.904017505646358e-05
-8.040975568135265e-06   -4.4061540958385045e-07   1.6636029992377066e-05
-8.040975568135265e-06   -4.4061540958385045e-07   1.6636029992377066e-05
-8.040975568135265e-06   -4.4061540958385045e-07   1.6636029992377066e-05
-8.040975568135265e-06   -4.4061540958385045e-07   1.6636029992377066e-05
-8.827304498364662e-06   6.897489290228626e-07   1.641150443920539e-05
-8.827304498364662e-06   6.897489290228626e-07   1.641150443920539e-05
-8.827304498364662e-06   6.897489290228626e-07   1.641150443920539e-05
-8.827304498364662e-06   6.897489290228626e-07   1.641150443920539e-05
-7.2501021280098115e-06   -2.2632768213136627e-06   1.7268359606261786e-05
-7.2501021280098115e-06   -2.2632768213136627e-06   1.7268359606261786e-05
-7.2501021280098115e-06   -2.2632768213136627e-06   1.7268359606261786e-05
-7.2501021280098115e-06   -2.2632768213136627e-06   1.7268359606261786e-05
-7.174310924475222e-06   1.9173310772206947e-07   1.5332937187989603e-05
-7.174310924475222e-06   1.9173310772206947e-07   1.5332937187989603e-05
-7.174310924475222e-06   1.9173310772206947e-07   1.5332937187989603e-05
-7.174310924475222e-06   1.9173310772206947e-07   1.5332937187989603e-05
-8.75491135134891e-06   -2.516258964849118e-06   1.959206647632165e-05
-8.75491135134891e-06   -2.516258964849118e-06   1.959206647632165e-05
-8.75491135134891e-06   -2.516258964849118e-06   1.959206647632165e-05
-8.75491135134891e-06   -2.516258964849118e-06   1.959206647632165e-05
-7.879289937172846e-06   -7.956143972165288e-07   1.710031071211471e-05
-7.879289937172846e-06   -7.956143972165288e-07   1.710031071211471e-05
-7.879289937172846e-06   -7.956143972165288e-07   1.710031071211471e-05
-7.879289937172846e-06   -7.956143972165288e-07   1.710031071211471e-05
-8.754911351348856e-06   1.9173310772206947e-07   1.6957732431532207e-05
-8.754911351348856e-06   1.9173310772206947e-07   1.6957732431532207e-05
-8.754911351348856e-06   1.9173310772206947e-07   1.6957732431532207e-05
-8.754911351348856e-06   1.9173310772206947e-07   1.6957732431532207e-05
-7.174310924475168e-06   -2.516258964849118e-06   1.796727123277894e-05
-7.174310924475168e-06   -2.516258964849118e-06   1.796727123277894e-05
-7.174310924475168e-06   -2.516258964849118e-06   1.796727123277894e-05
-7.174310924475168e-06   -2.516258964849118e-06   1.796727123277894e-05
-7.051627121402277e-06   -3.1020375249231086e-07   1.6203530723723873e-05
-7.051627121402277e-06   -3.1020375249231086e-07   1.6203530723723873e-05
-7.051627121402277e-06   -3.1020375249231086e-07   1.6203530723723873e-05
-7.051627121402277e-06   -3.1020375249231086e-07   1.6203530723723873e-05
-8.57842674184203e-06   -2.8483645679217603e-06   2.0271093247047327e-05
-8.57842674184203e-06   -2.8483645679217603e-06   2.0271093247047327e-05
-8.57842674184203e-06   -2.8483645679217603e-06   2.0271093247047327e-05
-8.57842674184203e-06   -2.8483645679217603e-06   2.0271093247047327e-05
-7.752559755924964e-06   -1.1063741912547631e-06   1.7849454044519117e-05
-7.752559755924964e-06   -1.1063741912547631e-06   1.7849454044519117e-05
-7.752559755924964e-06   -1.1063741912547631e-06   1.7849454044519117e-05
-7.752559755924964e-06   -1.1063741912547631e-06   1.7849454044519117e-05
-7.41328516373909e-06   2.0919511344442802e-06   3.6744058809719043e-06
-7.41328516373909e-06   2.0919511344442802e-06   3.6744058809719043e-06
-7.41328516373909e-06   2.0919511344442802e-06   3.6744058809719043e-06
-7.41328516373909e-06   2.0919511344442802e-06   3.6744058809719043e-06
-4.263126435590848e-06   -2.184510842191483e-07   7.5384290966875114e-06
-4.263126435590848e-06   -2.184510842191483e-07   7.5384290966875114e-06
-4.263126435590848e-06   -2.184510842191483e-07   7.5384290966875114e-06
-4.263126435590848e-06   -2.184510842191483e-07   7.5384290966875114e-06
-4.502164188317e-06   1.6807062572481027e-06   3.7069667975508924e-06
-4.502164188317e-06   1.6807062572481027e-06   3.7069667975508924e-06
-4.502164188317e-06   1.6807062572481027e-06   3.7069667975508924e-06
-4.502164188317e-06   1.6807062572481027e-06   3.7069667975508924e-06
-7.2501021280098115e-06   -3.036471652195262e-07   9.477475417186336e-06
-7.2501021280098115e-06   -3.036471652195262e-07   9.477475417186336e-06
-7.2501021280098115e-06   -3.036471652195262e-07   9.477475417186336e-06
-7.2501021280098115e-06   -3.036471652195262e-07   9.477475417186336e-06
-5.655822202391294e-06   1.0748448106712855e-06   5.9932470222879685e-06
-5.655822202391294e-06   1.0748448106712855e-06   5.9932470222879685e-06
-5.655822202391294e-06   1.0748448106712855e-06   5.9932470222879685e-06
-5.655822202391294e-06   1.0748448106712855e-06   5.9932470222879685e-06
-7.2501021280098115e-06   1.6807062572481027e-06   4.8975788510311445e-06
-7.2501021280098115e-06   1.6807062572481027e-06   4.8975788510311445e-06
-7.2501021280098115e-06   1.6807062572481027e-06   4.8975788510311445e-06
-7.2501021280098115e-06   1.6807062572481027e-06   4.8975788510311445e-06
-4.502164188317e-06   -3.036471652195262e-07   8.286863363705758e-06
-4.502164188317e-06   -3.036471652195262e-07   8.286863363705758e-06
-4.502164188317e-06   -3.036471652195262e-07   8.286863363705758e-06
-4.502164188317e-06   -3.036471652195262e-07   8.286863363705758e-06
-4.697851943369596e-06   1.4116837223786174e-06   4.829054514021583e-06
-4.697851943369596e-06   1.4116837223786174e-06   4.829054514021583e-06
-4.697851943369596e-06   1.4116837223786174e-06   4.829054514021583e-06
-4.697851943369596e-06   1.4116837223786174e-06   4.829054514021583e-06
-7.174310924475222e-06   -4.1928848187769256e-07   1.0055069471751185e-05
-7.174310924475222e-06   -4.1928848187769256e-07   1.0055069471751185e-05
-7.174310924475222e-06   -4.1928848187769256e-07   1.0055069471751185e-05
-7.174310924475222e-06   -4.1928848187769256e-07   1.0055069471751185e-05
-5.751416025475049e-06   8.708663472643645e-07   6.909485075931826e-06
-5.751416025475049e-06   8.708663472643645e-07   6.909485075931826e-06
-5.751416025475049e-06   8.708663472643645e-07   6.909485075931826e-06
-5.751416025475049e-06   8.708663472643645e-07   6.909485075931826e-06
-7.174310924475222e-06   1.4116837223786174e-06   5.927637836575413e-06
-7.174310924475222e-06   1.4116837223786174e-06   5.927637836575413e-06
-7.174310924475222e-06   1.4116837223786174e-06   5.927637836575413e-06
-7.174310924475222e-06   1.4116837223786174e-06   5.927637836575413e-06
-4.697851943369705e-06   -4.1928848187769256e-07   8.956486149197464e-06
-4.697851943369705e-06   -4.1928848187769256e-07   8.956486149197464e-06
-4.697851943369705e-06   -4.1928848187769256e-07   8.956486149197464e-06
-4.697851943369705e-06   -4.1928848187769256e-07   8.956486149197464e-06
-5.186168995724113e-06   8.719881083787007e-07   6.8345239540572745e-06
-5.186168995724113e-06   8.719881083787007e-07   6.8345239540572745e-06
-5.186168995724113e-06   8.719881083787007e-07   6.8345239540572745e-06
-5.186168995724113e-06   8.719881083787007e-07   6.8345239540572745e-06
-7.051627121402277e-06   -5.585720317466273e-07   1.0801956914262842e-05
-7.051627121402277e-06   -5.585720317466273e-07   1.0801956914262842e-05
-7.051627121402277e-06   -5.585720317466273e-07   1.0801956914262842e-05
-7.051627121402277e-06   -5.585720317466273e-07   1.0801956914262842e-05
-5.761141879902264e-06   7.334130127320277e-07   7.875957151742049e-06
-5.761141879902264e-06   7.334130127320277e-07   7.875957151742049e-06
-5.761141879902264e-06   7.334130127320277e-07   7.875957151742049e-06
-5.761141879902264e-06   7.334130127320277e-07   7.875957151742049e-06
-6.860549968425534e-05   5.385480123545254e-06   2.919739531571087e-05
-6.860549968425534e-05   5.385480123545254e-06   2.919739531571087e-05
-6.860549968425534e-05   5.385480123545254e-06   2.919739531571087e-05
-6.860549968425534e-05   5.385480123545254e-06   2.919739531571087e-05
-1.615168414930584e-05   -3.3276557978471225e-05   9.34231983460836e-05
-1.615168414930584e-05   -3.3276557978471225e-05   9.34231983460836e-05
-1.615168414930584e-05   -3.3276557978471225e-05   9.34231983460836e-05
-1.615168414930584e-05   -3.3276557978471225e-05   9.34231983460836e-05
-1.8942036214433846e-05   2.1967453409297536e-06   1.6047697979563324e-05
-1.8942036214433846e-05   2.1967453409297536e-06   1.6047697979563324e-05
-1.8942036214433846e-05   2.1967453409297536e-06   1.6047697979563324e-05
-1.8942036214433846e-05   2.1967453409297536e-06   1.6047697979563324e-05
-6.257003711331503e-05   -2.582676522434597e-05   0.00010557513915019723
-6.257003711331503e-05   -2.582676522434597e-05   0.00010557513915019723
-6.257003711331503e-05   -2.582676522434597e-05   0.00010557513915019723
-6.257003711331503e-05   -2.582676522434597e-05   0.00010557513915019723
-4.172445384097878e-05   -1.2859507571123823e-05   6.305214577103685e-05
-4.172445384097878e-05   -1.2859507571123823e-05   6.305214577103685e-05
-4.172445384097878e-05   -1.2859507571123823e-05   6.305214577103685e-05
-4.172445384097878e-05   -1.2859507571123823e-05   6.305214577103685e-05
-6.257003711331492e-05   2.1967453409297536e-06   3.2861804318728695e-05
-6.257003711331492e-05   2.1967453409297536e-06   3.2861804318728695e-05
-6.257003711331492e-05   2.1967453409297536e-06   3.2861804318728695e-05
-6.257003711331492e-05   2.1967453409297536e-06   3.2861804318728695e-05
-1.8942036214433886e-05   -2.582676522434597e-05   8.876103281103182e-05
-1.8942036214433886e-05   -2.582676522434597e-05   8.876103281103182e-05
-1.8942036214433886e-05   -2.582676522434597e-05   8.876103281103182e-05
-1.8942036214433886e-05   -2.582676522434597e-05   8.876103281103182e-05
-1.9362397205161268e-05   1.581682699234937e-06   1.7633097662305623e-05
-1.9362397205161268e-05   1.581682699234937e-06   1.7633097662305623e-05
-1.9362397205161268e-05   1.581682699234937e-06   1.7633097662305623e-05
-1.9362397205161268e-05   1.581682699234937e-06   1.7633097662305623e-05
-5.903480867812259e-05   -2.2232051502017786e-05   9.804202397132599e-05
-5.903480867812259e-05   -2.2232051502017786e-05   9.804202397132599e-05
-5.903480867812259e-05   -2.2232051502017786e-05   9.804202397132599e-05
-5.903480867812259e-05   -2.2232051502017786e-05   9.804202397132599e-05
-4.047023733298162e-05   -1.2179096599871541e-05   6.106929878813668e-05
-4.047023733298162e-05   -1.2179096599871541e-05   6.106929878813668e-05
-4.047023733298162e-05   -1.2179096599871541e-05   6.106929878813668e-05
-4.047023733298162e-05   -1.2179096599871541e-05   6.106929878813668e-05
-5.903480867812249e-05   1.581682699234937e-06   3.1921338183057236e-05
-5.903480867812249e-05   1.581682699234937e-06   3.1921338183057236e-05
-5.903480867812249e-05   1.581682699234937e-06   3.1921338183057236e-05
-5.903480867812249e-05   1.581682699234937e-06   3.1921338183057236e-05
-1.936239720516131e-05   -2.2232051502017786e-05   8.375378345057436e-05
-1.936239720516131e-05   -2.2232051502017786e-05   8.375378345057436e-05
-1.936239720516131e-05   -2.2232051502017786e-05   8.375378345057436e-05
-1.936239720516131e-05   -2.2232051502017786e-05   8.375378345057436e-05
-2.1193117597269662e-05   -1.030790156614518e-06   2.208818646932858e-05
-2.1193117597269662e-05   -1.030790156614518e-06   2.208818646932858e-05
-2.1193117597269662e-05   -1.030790156614518e-06   2.208818646932858e-05
-2.1193117597269662e-05   -1.030790156614518e-06   2.208818646932858e-05
-5.450587763910942e-05   -1.7461496437409286e-05   8.746787697420488e-05
-5.450587763910942e-05   -1.7461496437409286e-05   8.746787697420488e-05
-5.450587763910942e-05   -1.7461496437409286e-05   8.746787697420488e-05
-5.450587763910942e-05   -1.7461496437409286e-05   8.746787697420488e-05
-3.891811894252225e-05   -1.1240636254502054e-05   5.775576303681534e-05
-3.891811894252225e-05   -1.1240636254502054e-05   5.775576303681534e-05
-3.891811894252225e-05   -1.1240636254502054e-05   5.775576303681534e-05
-3.891811894252225e-05   -1.1240636254502054e-05   5.775576303681534e-05
-1.6151684149305813e-05   -6.0329749158524195e-06   1.6533022272137855e-05
-1.6151684149305813e-05   -6.0329749158524195e-06   1.6533022272137855e-05
-1.6151684149305813e-05   -6.0329749158524195e-06   1.6533022272137855e-05
-1.6151684149305813e-05   -6.0329749158524195e-06   1.6533022272137855e-05
-5.633104574546808e-06   -1.0247235595557967e-05   3.153543182224635e-05
-5.633104574546808e-06   -1.0247235595557967e-05   3.153543182224635e-05
-5.633104574546808e-06   -1.0247235595557967e-05   3.153543182224635e-05
-5.633104574546808e-06   -1.0247235595557967e-05   3.153543182224635e-05
-6.283398522256693e-06   -4.936286391739244e-06   1.4801472312544702e-05
-6.283398522256693e-06   -4.936286391739244e-06   1.4801472312544702e-05
-6.283398522256693e-06   -4.936286391739244e-06   1.4801472312544702e-05
-6.283398522256693e-06   -4.936286391739244e-06   1.4801472312544702e-05
-1.8942036214433886e-05   -1.3614669846788292e-05   4.110623187253602e-05
-1.8942036214433886e-05   -1.3614669846788292e-05   4.110623187253602e-05
-1.8942036214433886e-05   -1.3614669846788292e-05   4.110623187253602e-05
-1.8942036214433886e-05   -1.3614669846788292e-05   4.110623187253602e-05
-1.1139840850903313e-05   -7.143423633673479e-06   2.421982520544943e-05
-1.1139840850903313e-05   -7.143423633673479e-06   2.421982520544943e-05
-1.1139840850903313e-05   -7.143423633673479e-06   2.421982520544943e-05
-1.1139840850903313e-05   -7.143423633673479e-06   2.421982520544943e-05
-1.894203621443382e-05   -4.936286391739244e-06   2.0008502385573886e-05
-1.894203621443382e-05   -4.936286391739244e-06   2.0008502385573886e-05
-1.894203621443382e-05   -4.936286391739244e-06   2.0008502385573886e-05
-1.894203621443382e-05   -4.936286391739244e-06   2.0008502385573886e-05
-6.283398522256666e-06   -1.3614669846788292e-05   3.5899201799506606e-05
-6.283398522256666e-06   -1.3614669846788292e-05   3.5899201799506606e-05
-6.283398522256666e-06   -1.3614669846788292e-05   3.5899201799506606e-05
-6.283398522256666e-06   -1.3614669846788292e-05   3.5899201799506606e-05
-6.83981995110031e-06   -5.049458376342225e-06   1.6641635720878085e-05
-6.83981995110031e-06   -5.049458376342225e-06   1.6641635720878085e-05
-6.83981995110031e-06   -5.049458376342225e-06   1.6641635720878085e-05
-6.83981995110031e-06   -5.049458376342225e-06   1.6641635720878085e-05
-1.936239720516131e-05   -1.2435751148500291e-05   4.194437347427435e-05
-1.936239720516131e-05   -1.2435751148500291e-05   4.194437347427435e-05
-1.936239720516131e-05   -1.2435751148500291e-05   4.194437347427435e-05
-1.936239720516131e-05   -1.2435751148500291e-05   4.194437347427435e-05
-1.2551095461753596e-05   -8.742574107435832e-06   2.8376297677289733e-05
-1.2551095461753596e-05   -8.742574107435832e-06   2.8376297677289733e-05
-1.2551095461753596e-05   -8.742574107435832e-06   2.8376297677289733e-05
-1.2551095461753596e-05   -8.742574107435832e-06   2.8376297677289733e-05
-1.9362397205161268e-05   -5.049458376342225e-06   2.107341138417288e-05
-1.9362397205161268e-05   -5.049458376342225e-06   2.107341138417288e-05
-1.9362397205161268e-05   -5.049458376342225e-06   2.107341138417288e-05
-1.9362397205161268e-05   -5.049458376342225e-06   2.107341138417288e-05
-6.839819951100337e-06   -1.2435751148500291e-05   3.751259781097954e-05
-6.839819951100337e-06   -1.2435751148500291e-05   3.751259781097954e-05
-6.839819951100337e-06   -1.2435751148500291e-05   3.751259781097954e-05
-6.839819951100337e-06   -1.2435751148500291e-05   3.751259781097954e-05
-7.743369323393181e-06   -5.098734137321936e-06   1.8196609556205207e-05
-7.743369323393181e-06   -5.098734137321936e-06   1.8196609556205207e-05
-7.743369323393181e-06   -5.098734137321936e-06   1.8196609556205207e-05
-7.743369323393181e-06   -5.098734137321936e-06   1.8196609556205207e-05
-2.119311759726969e-05   -1.1693851012491848e-05   4.4569926804434494e-05
-2.119311759726969e-05   -1.1693851012491848e-05   4.4569926804434494e-05
-2.119311759726969e-05   -1.1693851012491848e-05   4.4569926804434494e-05
-2.119311759726969e-05   -1.1693851012491848e-05   4.4569926804434494e-05
-1.3369485222069989e-05   -7.980870119602958e-06   2.930275097670179e-05
-1.3369485222069989e-05   -7.980870119602958e-06   2.930275097670179e-05
-1.3369485222069989e-05   -7.980870119602958e-06   2.930275097670179e-05
-1.3369485222069989e-05   -7.980870119602958e-06   2.930275097670179e-05
-5.633104574546808e-06   -4.71252963420057e-06   8.862757699335455e-06
-5.633104574546808e-06   -4.71252963420057e-06   8.862757699335455e-06
-5.633104574546808e-06   -4.71252963420057e-06   8.862757699335455e-06
-5.633104574546808e-06   -4.71252963420057e-06   8.862757699335455e-06
-3.1386398264214685e-06   -2.8241939180609967e-06   1.4153200375894789e-05
-3.1386398264214685e-06   -2.8241939180609967e-06   1.4153200375894789e-05
-3.1386398264214685e-06   -2.8241939180609967e-06   1.4153200375894789e-05
-3.1386398264214685e-06   -2.8241939180609967e-06   1.4153200375894789e-05
-3.012046745069774e-06   -4.628237095933663e-06   1.025589034490005e-05
-3.012046745069774e-06   -4.628237095933663e-06   1.025589034490005e-05
-3.012046745069774e-06   -4.628237095933663e-06   1.025589034490005e-05
-3.012046745069774e-06   -4.628237095933663e-06   1.025589034490005e-05
-6.283398522256666e-06   -3.7094619618513827e-06   1.5156878226428648e-05
-6.283398522256666e-06   -3.7094619618513827e-06   1.5156878226428648e-05
-6.283398522256666e-06   -3.7094619618513827e-06   1.5156878226428648e-05
-6.283398522256666e-06   -3.7094619618513827e-06   1.5156878226428648e-05
-4.2314168398648245e-06   -3.762658438050836e-06   1.1768826641495001e-05
-4.2314168398648245e-06   -3.762658438050836e-06   1.1768826641495001e-05
-4.2314168398648245e-06   -3.762658438050836e-06   1.1768826641495001e-05
-4.2314168398648245e-06   -3.762658438050836e-06   1.1768826641495001e-05
-6.283398522256666e-06   -4.628237095933663e-06   9.704625264450649e-06
-6.283398522256666e-06   -4.628237095933663e-06   9.704625264450649e-06
-6.283398522256666e-06   -4.628237095933663e-06   9.704625264450649e-06
-6.283398522256666e-06   -4.628237095933663e-06   9.704625264450649e-06
-3.012046745069774e-06   -3.7094619618513827e-06   1.570814330687805e-05
-3.012046745069774e-06   -3.7094619618513827e-06   1.570814330687805e-05
-3.012046745069774e-06   -3.7094619618513827e-06   1.570814330687805e-05
-3.012046745069774e-06   -3.7094619618513827e-06   1.570814330687805e-05
-3.012652477212604e-06   -4.7702622621810715e-06   1.0962615582833833e-05
-3.012652477212604e-06   -4.7702622621810715e-06   1.0962615582833833e-05
-3.012652477212604e-06   -4.7702622621810715e-06   1.0962615582833833e-05
-3.012652477212604e-06   -4.7702622621810715e-06   1.0962615582833833e-05
-6.839819951100337e-06   -4.779227143501676e-06   1.7346606968105395e-05
-6.839819951100337e-06   -4.779227143501676e-06   1.7346606968105395e-05
-6.839819951100337e-06   -4.779227143501676e-06   1.7346606968105395e-05
-6.839819951100337e-06   -4.779227143501676e-06   1.7346606968105395e-05
-4.481231127068629e-06   -4.114242115588261e-06   1.301663457797125e-05
-4.481231127068629e-06   -4.114242115588261e-06   1.301663457797125e-05
-4.481231127068629e-06   -4.114242115588261e-06   1.301663457797125e-05
-4.481231127068629e-06   -4.114242115588261e-06   1.301663457797125e-05
-6.83981995110031e-06   -4.7702622621810715e-06   1.0967994511626065e-05
-6.83981995110031e-06   -4.7702622621810715e-06   1.0967994511626065e-05
-6.83981995110031e-06   -4.7702622621810715e-06   1.0967994511626065e-05
-6.83981995110031e-06   -4.7702622621810715e-06   1.0967994511626065e-05
-3.012652477212604e-06   -4.779227143501676e-06   1.7341228039313e-05
-3.012652477212604e-06   -4.779227143501676e-06   1.7341228039313e-05
-3.012652477212604e-06   -4.779227143501676e-06   1.7341228039313e-05
-3.012652477212604e-06   -4.779227143501676e-06   1.7341228039313e-05
-3.0503804350738442e-06   -4.972614437469063e-06   1.2018386429237058e-05
-3.0503804350738442e-06   -4.972614437469063e-06   1.2018386429237058e-05
-3.0503804350738442e-06   -4.972614437469063e-06   1.2018386429237058e-05
-3.0503804350738442e-06   -4.972614437469063e-06   1.2018386429237058e-05
-7.743369323393181e-06   -5.796572729184726e-06   2.0334409551465223e-05
-7.743369323393181e-06   -5.796572729184726e-06   2.0334409551465223e-05
-7.743369323393181e-06   -5.796572729184726e-06   2.0334409551465223e-05
-7.743369323393181e-06   -5.796572729184726e-06   2.0334409551465223e-05
-4.7647642336858805e-06   -4.497044972374763e-06   1.4590351081200442e-05
-4.7647642336858805e-06   -4.497044972374763e-06   1.4590351081200442e-05
-4.7647642336858805e-06   -4.497044972374763e-06   1.4590351081200442e-05
-4.7647642336858805e-06   -4.497044972374763e-06   1.4590351081200442e-05
-3.1386398264214685e-06   -1.9323654003084345e-06   2.4808609436938493e-06
-3.1386398264214685e-06   -1.9323654003084345e-06   2.4808609436938493e-06
-3.1386398264214685e-06   -1.9323654003084345e-06   2.4808609436938493e-06
-3.1386398264214685e-06   -1.9323654003084345e-06   2.4808609436938493e-06
-2.3221545413467564e-06   5.301604186094163e-07   5.319185243502335e-06
-2.3221545413467564e-06   5.301604186094163e-07   5.319185243502335e-06
-2.3221545413467564e-06   5.301604186094163e-07   5.319185243502335e-06
-2.3221545413467564e-06   5.301604186094163e-07   5.319185243502335e-06
-1.875490893360769e-06   -2.2632768213136627e-06   4.189243628945939e-06
-1.875490893360769e-06   -2.2632768213136627e-06   4.189243628945939e-06
-1.875490893360769e-06   -2.2632768213136627e-06   4.189243628945939e-06
-1.875490893360769e-06   -2.2632768213136627e-06   4.189243628945939e-06
-3.012046745069774e-06   2.162509444538215e-07   4.595786722333579e-06
-3.012046745069774e-06   2.162509444538215e-07   4.595786722333579e-06
-3.012046745069774e-06   2.162509444538215e-07   4.595786722333579e-06
-3.012046745069774e-06   2.162509444538215e-07   4.595786722333579e-06
-2.4277460969744267e-06   -8.945001589808095e-07   4.288402970901951e-06
-2.4277460969744267e-06   -8.945001589808095e-07   4.288402970901951e-06
-2.4277460969744267e-06   -8.945001589808095e-07   4.288402970901951e-06
-2.4277460969744267e-06   -8.945001589808095e-07   4.288402970901951e-06
-3.012046745069774e-06   -2.2632768213136627e-06   2.701526969485328e-06
-3.012046745069774e-06   -2.2632768213136627e-06   2.701526969485328e-06
-3.012046745069774e-06   -2.2632768213136627e-06   2.701526969485328e-06
-3.012046745069774e-06   -2.2632768213136627e-06   2.701526969485328e-06
-1.875490893360769e-06   2.162509444538215e-07   6.0835033817941905e-06
-1.875490893360769e-06   2.162509444538215e-07   6.0835033817941905e-06
-1.875490893360769e-06   2.162509444538215e-07   6.0835033817941905e-06
-1.875490893360769e-06   2.162509444538215e-07   6.0835033817941905e-06
-1.6289246021280882e-06   -2.5162589648491723e-06   4.601706026525023e-06
-1.6289246021280882e-06   -2.5162589648491723e-06   4.601706026525023e-06
-1.6289246021280882e-06   -2.5162589648491723e-06   4.601706026525023e-06
-1.6289246021280882e-06   -2.5162589648491723e-06   4.601706026525023e-06
-3.012652477212604e-06   -2.850716543419598e-07   5.569206765361533e-06
-3.012652477212604e-06   -2.850716543419598e-07   5.569206765361533e-06
-3.012652477212604e-06   -2.850716543419598e-07   5.569206765361533e-06
-3.012652477212604e-06   -2.850716543419598e-07   5.569206765361533e-06
-2.1972688710923617e-06   -1.1485542413998417e-06   4.728323640729192e-06
-2.1972688710923617e-06   -1.1485542413998417e-06   4.728323640729192e-06
-2.1972688710923617e-06   -1.1485542413998417e-06   4.728323640729192e-06
-2.1972688710923617e-06   -1.1485542413998417e-06   4.728323640729192e-06
-3.012652477212604e-06   -2.5162589648491723e-06   3.262993640220529e-06
-3.012652477212604e-06   -2.5162589648491723e-06   3.262993640220529e-06
-3.012652477212604e-06   -2.5162589648491723e-06   3.262993640220529e-06
-3.012652477212604e-06   -2.5162589648491723e-06   3.262993640220529e-06
-1.6289246021280882e-06   -2.850716543419598e-07   6.90791915166581e-06
-1.6289246021280882e-06   -2.850716543419598e-07   6.90791915166581e-06
-1.6289246021280882e-06   -2.850716543419598e-07   6.90791915166581e-06
-1.6289246021280882e-06   -2.850716543419598e-07   6.90791915166581e-06
-1.2505092768774003e-06   -2.8483645679217603e-06   5.0477491462979415e-06
-1.2505092768774003e-06   -2.8483645679217603e-06   5.0477491462979415e-06
-1.2505092768774003e-06   -2.8483645679217603e-06   5.0477491462979415e-06
-1.2505092768774003e-06   -2.8483645679217603e-06   5.0477491462979415e-06
-3.0503804350738442e-06   -1.319351900867067e-06   7.130126809725638e-06
-3.0503804350738442e-06   -1.319351900867067e-06   7.130126809725638e-06
-3.0503804350738442e-06   -1.319351900867067e-06   7.130126809725638e-06
-3.0503804350738442e-06   -1.319351900867067e-06   7.130126809725638e-06
-2.00777179981134e-06   -1.5389296147475234e-06   5.524192379283426e-06
-2.00777179981134e-06   -1.5389296147475234e-06   5.524192379283426e-06
-2.00777179981134e-06   -1.5389296147475234e-06   5.524192379283426e-06
-2.00777179981134e-06   -1.5389296147475234e-06   5.524192379283426e-06
-2.3221545413467564e-06   -2.184510842190941e-07   -3.904083809005629e-06
-2.3221545413467564e-06   -2.184510842190941e-07   -3.904083809005629e-06
-2.3221545413467564e-06   -2.184510842190941e-07   -3.904083809005629e-06
-2.3221545413467564e-06   -2.184510842190941e-07   -3.904083809005629e-06
-4.228593426983769e-07   3.36157820938533e-07   -4.0582646816363435e-07
-4.228593426983769e-07   3.36157820938533e-07   -4.0582646816363435e-07
-4.228593426983769e-07   3.36157820938533e-07   -4.0582646816363435e-07
-4.228593426983769e-07   3.36157820938533e-07   -4.0582646816363435e-07
1.6088206273375157e-08   -3.03647165219472e-07   -3.069647319226508e-06
1.6088206273375157e-08   -3.03647165219472e-07   -3.069647319226508e-06
1.6088206273375157e-08   -3.03647165219472e-07   -3.069647319226508e-06
1.6088206273375157e-08   -3.03647165219472e-07   -3.069647319226508e-06
-1.875490893360769e-06   5.83008236285661e-07   -4.4900872740618984e-07
-1.875490893360769e-06   5.83008236285661e-07   -4.4900872740618984e-07
-1.875490893360769e-06   5.83008236285661e-07   -4.4900872740618984e-07
-1.875490893360769e-06   5.83008236285661e-07   -4.4900872740618984e-07
-1.052241088127519e-06   1.5433661840454972e-07   -1.5638887653998158e-06
-1.052241088127519e-06   1.5433661840454972e-07   -1.5638887653998158e-06
-1.052241088127519e-06   1.5433661840454972e-07   -1.5638887653998158e-06
-1.052241088127519e-06   1.5433661840454972e-07   -1.5638887653998158e-06
-1.875490893360769e-06   -3.03647165219472e-07   -3.6016405601297275e-06
-1.875490893360769e-06   -3.03647165219472e-07   -3.6016405601297275e-06
-1.875490893360769e-06   -3.03647165219472e-07   -3.6016405601297275e-06
-1.875490893360769e-06   -3.03647165219472e-07   -3.6016405601297275e-06
1.6088206273375157e-08   5.83008236285661e-07   8.298451349697533e-08
1.6088206273375157e-08   5.83008236285661e-07   8.298451349697533e-08
1.6088206273375157e-08   5.83008236285661e-07   8.298451349697533e-08
1.6088206273375157e-08   5.83008236285661e-07   8.298451349697533e-08
2.4755166016989655e-07   -4.1928848187763835e-07   -2.75714880455997e-06
2.4755166016989655e-07   -4.1928848187763835e-07   -2.75714880455997e-06
2.4755166016989655e-07   -4.1928848187763835e-07   -2.75714880455997e-06
2.4755166016989655e-07   -4.1928848187763835e-07   -2.75714880455997e-06
-1.6289246021280882e-06   5.029564013604479e-07   -1.830352973396579e-07
-1.6289246021280882e-06   5.029564013604479e-07   -1.830352973396579e-07
-1.6289246021280882e-06   5.029564013604479e-07   -1.830352973396579e-07
-1.6289246021280882e-06   5.029564013604479e-07   -1.830352973396579e-07
-7.271480856743738e-07   1.0110438686828098e-07   -1.4448849493999688e-06
-7.271480856743738e-07   1.0110438686828098e-07   -1.4448849493999688e-06
-7.271480856743738e-07   1.0110438686828098e-07   -1.4448849493999688e-06
-7.271480856743738e-07   1.0110438686828098e-07   -1.4448849493999688e-06
-1.6289246021280882e-06   -4.1928848187769256e-07   -3.3104957345028935e-06
-1.6289246021280882e-06   -4.1928848187769256e-07   -3.3104957345028935e-06
-1.6289246021280882e-06   -4.1928848187769256e-07   -3.3104957345028935e-06
-1.6289246021280882e-06   -4.1928848187769256e-07   -3.3104957345028935e-06
2.4755166016989655e-07   5.029564013604479e-07   3.7031163260315726e-07
2.4755166016989655e-07   5.029564013604479e-07   3.7031163260315726e-07
2.4755166016989655e-07   5.029564013604479e-07   3.7031163260315726e-07
2.4755166016989655e-07   5.029564013604479e-07   3.7031163260315726e-07
5.365898728010863e-07   -5.585720317465731e-07   -2.300229972781488e-06
5.365898728010863e-07   -5.585720317465731e-07   -2.300229972781488e-06
5.365898728010863e-07   -5.585720317465731e-07   -2.300229972781488e-06
5.365898728010863e-07   -5.585720317465731e-07   -2.300229972781488e-06
-1.2505092768774003e-06   4.3852917566618185e-07   8.000788556813358e-08
-1.2505092768774003e-06   4.3852917566618185e-07   8.000788556813358e-08
-1.2505092768774003e-06   4.3852917566618185e-07   8.000788556813358e-08
-1.2505092768774003e-06   4.3852917566618185e-07   8.000788556813358e-08
-4.325697121797744e-07   3.7408843278581355e-08   -1.042552522828523e-06
-4.325697121797744e-07   3.7408843278581355e-08   -1.042552522828523e-06
-4.325697121797744e-07   3.7408843278581355e-08   -1.042552522828523e-06
-4.325697121797744e-07   3.7408843278581355e-08   -1.042552522828523e-06
              </DataArray>   
             <DataArray type="Float64" NumberOfComponents="3" Name="Stress" format="ascii">   
-3.5579101935230373   -0.8894775483807593   -0.8894775483807593
-3.5579101935230373   -0.8894775483807593   -0.8894775483807593
-3.5579101935230373   -0.8894775483807593   -0.8894775483807593
-3.5579101935230373   -0.8894775483807593   -0.8894775483807593
-2.0589855200235787   -0.06511718938282002   -0.04123599112376812
-2.0589855200235787   -0.06511718938282002   -0.04123599112376812
-2.0589855200235787   -0.06511718938282002   -0.04123599112376812
-2.0589855200235787   -0.06511718938282002   -0.04123599112376812
-2.21946803345691   -0.5548670083642275   -0.5548670083642275
-2.21946803345691   -0.5548670083642275   -0.5548670083642275
-2.21946803345691   -0.5548670083642275   -0.5548670083642275
-2.21946803345691   -0.5548670083642275   -0.5548670083642275
-3.4291288897803343   -0.28151370334364956   -0.10763057411819188
-3.4291288897803343   -0.28151370334364956   -0.10763057411819188
-3.4291288897803343   -0.28151370334364956   -0.10763057411819188
-3.4291288897803343   -0.28151370334364956   -0.10763057411819188
-2.6894781597157436   -0.4408696658132857   -0.007420122060573041
-2.6894781597157436   -0.4408696658132857   -0.007420122060573041
-2.6894781597157436   -0.4408696658132857   -0.007420122060573041
-2.6894781597157436   -0.4408696658132857   -0.007420122060573041
-3.723666704764413   -0.9309166761911033   -0.9309166761911033
-3.723666704764413   -0.9309166761911033   -0.9309166761911033
-3.723666704764413   -0.9309166761911033   -0.9309166761911033
-3.723666704764413   -0.9309166761911033   -0.9309166761911033
-1.9947710044027485   0.024695178553314212   -0.010944050010962061
-1.9947710044027485   0.024695178553314212   -0.010944050010962061
-1.9947710044027485   0.024695178553314212   -0.010944050010962061
-1.9947710044027485   0.024695178553314212   -0.010944050010962061
-2.2258543848060874   -0.5564635962015219   -0.5564635962015219
-2.2258543848060874   -0.5564635962015219   -0.5564635962015219
-2.2258543848060874   -0.5564635962015219   -0.5564635962015219
-2.2258543848060874   -0.5564635962015219   -0.5564635962015219
-3.5445180534262235   -0.28425385775248246   -0.15773247055209078
-3.5445180534262235   -0.28425385775248246   -0.15773247055209078
-3.5445180534262235   -0.28425385775248246   -0.15773247055209078
-3.5445180534262235   -0.28425385775248246   -0.15773247055209078
-2.7899258695508875   -0.41513145890170655   -0.14807543731912653
-2.7899258695508875   -0.41513145890170655   -0.14807543731912653
-2.7899258695508875   -0.41513145890170655   -0.14807543731912653
-2.7899258695508875   -0.41513145890170655   -0.14807543731912653
-3.840134208628127   -0.9600335521570318   -0.9600335521570318
-3.840134208628127   -0.9600335521570318   -0.9600335521570318
-3.840134208628127   -0.9600335521570318   -0.9600335521570318
-3.840134208628127   -0.9600335521570318   -0.9600335521570318
-1.9890917130464651   0.06046261476075199   0.01042355163431588
-1.9890917130464651   0.06046261476075199   0.01042355163431588
-1.9890917130464651   0.06046261476075199   0.01042355163431588
-1.9890917130464651   0.06046261476075199   0.01042355163431588
-2.2248276572765193   -0.5562069143191298   -0.5562069143191298
-2.2248276572765193   -0.5562069143191298   -0.5562069143191298
-2.2248276572765193   -0.5562069143191298   -0.5562069143191298
-2.2248276572765193   -0.5562069143191298   -0.5562069143191298
-3.7506160482806026   -0.24941401184295053   -0.0945658027006577
-3.7506160482806026   -0.24941401184295053   -0.0945658027006577
-3.7506160482806026   -0.24941401184295053   -0.0945658027006577
-3.7506160482806026   -0.24941401184295053   -0.0945658027006577
-2.864503489416065   -0.4087102575724795   -0.267642991222413
-2.864503489416065   -0.4087102575724795   -0.267642991222413
-2.864503489416065   -0.4087102575724795   -0.267642991222413
-2.864503489416065   -0.4087102575724795   -0.267642991222413
-2.2641276488025164   -0.5660319122006291   -0.5660319122006291
-2.2641276488025164   -0.5660319122006291   -0.5660319122006291
-2.2641276488025164   -0.5660319122006291   -0.5660319122006291
-2.2641276488025164   -0.5660319122006291   -0.5660319122006291
-0.9444890731931067   -0.06276838907296847   -0.020406294432420514
-0.9444890731931067   -0.06276838907296847   -0.020406294432420514
-0.9444890731931067   -0.06276838907296847   -0.020406294432420514
-0.9444890731931067   -0.06276838907296847   -0.020406294432420514
-0.9916760384323365   -0.24791900960808413   -0.24791900960808413
-0.9916760384323365   -0.24791900960808413   -0.24791900960808413
-0.9916760384323365   -0.24791900960808413   -0.24791900960808413
-0.9916760384323365   -0.24791900960808413   -0.24791900960808413
-2.06144014006747   -0.24240922710439392   -0.07718532267686035
-2.06144014006747   -0.24240922710439392   -0.07718532267686035
-2.06144014006747   -0.24240922710439392   -0.07718532267686035
-2.06144014006747   -0.24240922710439392   -0.07718532267686035
-1.5203276196139652   -0.2879809312001569   0.01190112940873592
-1.5203276196139652   -0.2879809312001569   0.01190112940873592
-1.5203276196139652   -0.2879809312001569   0.01190112940873592
-1.5203276196139652   -0.2879809312001569   0.01190112940873592
-2.219468033456908   -0.554867008364227   -0.554867008364227
-2.219468033456908   -0.554867008364227   -0.554867008364227
-2.219468033456908   -0.554867008364227   -0.554867008364227
-2.219468033456908   -0.554867008364227   -0.554867008364227
-0.8912116797221133   0.006975236972532439   -0.0004914626375850314
-0.8912116797221133   0.006975236972532439   -0.0004914626375850314
-0.8912116797221133   0.006975236972532439   -0.0004914626375850314
-0.8912116797221133   0.006975236972532439   -0.0004914626375850314
-0.9696710496639905   -0.24241776241599763   -0.24241776241599763
-0.9696710496639905   -0.24241776241599763   -0.24241776241599763
-0.9696710496639905   -0.24241776241599763   -0.24241776241599763
-0.9696710496639905   -0.24241776241599763   -0.24241776241599763
-2.056379097487045   -0.19778837622445694   -0.0677623795833756
-2.056379097487045   -0.19778837622445694   -0.0677623795833756
-2.056379097487045   -0.19778837622445694   -0.0677623795833756
-2.056379097487045   -0.19778837622445694   -0.0677623795833756
-1.4992867236443215   -0.24246817801641807   -0.07840250318317774
-1.4992867236443215   -0.24246817801641807   -0.07840250318317774
-1.4992867236443215   -0.24246817801641807   -0.07840250318317774
-1.4992867236443215   -0.24246817801641807   -0.07840250318317774
-2.2258543848060874   -0.5564635962015219   -0.5564635962015219
-2.2258543848060874   -0.5564635962015219   -0.5564635962015219
-2.2258543848060874   -0.5564635962015219   -0.5564635962015219
-2.2258543848060874   -0.5564635962015219   -0.5564635962015219
-0.8559488209195387   0.06050439898647686   0.023271219903786902
-0.8559488209195387   0.06050439898647686   0.023271219903786902
-0.8559488209195387   0.06050439898647686   0.023271219903786902
-0.8559488209195387   0.06050439898647686   0.023271219903786902
-0.9496547731699929   -0.23741369329249823   -0.23741369329249823
-0.9496547731699929   -0.23741369329249823   -0.23741369329249823
-0.9496547731699929   -0.23741369329249823   -0.23741369329249823
-0.9496547731699929   -0.23741369329249823   -0.23741369329249823
-2.0414082987125135   -0.15265395613934346   -0.04266307967891371
-2.0414082987125135   -0.15265395613934346   -0.04266307967891371
-2.0414082987125135   -0.15265395613934346   -0.04266307967891371
-2.0414082987125135   -0.15265395613934346   -0.04266307967891371
-1.506839566066427   -0.21460606948948344   -0.17469615539647382
-1.506839566066427   -0.21460606948948344   -0.17469615539647382
-1.506839566066427   -0.21460606948948344   -0.17469615539647382
-1.506839566066427   -0.21460606948948344   -0.17469615539647382
-1.0309490405467006   -0.25773726013667514   -0.25773726013667514
-1.0309490405467006   -0.25773726013667514   -0.25773726013667514
-1.0309490405467006   -0.25773726013667514   -0.25773726013667514
-1.0309490405467006   -0.25773726013667514   -0.25773726013667514
0.12266950126489069   0.008080103716095577   0.0009998727994550687
0.12266950126489069   0.008080103716095577   0.0009998727994550687
0.12266950126489069   0.008080103716095577   0.0009998727994550687
0.12266950126489069   0.008080103716095577   0.0009998727994550687
0.1592906669398002   0.03982266673495005   0.03982266673495005
0.1592906669398002   0.03982266673495005   0.03982266673495005
0.1592906669398002   0.03982266673495005   0.03982266673495005
0.1592906669398002   0.03982266673495005   0.03982266673495005
-0.9322630632792628   -0.16113810734645118   -0.03763503610434826
-0.9322630632792628   -0.16113810734645118   -0.03763503610434826
-0.9322630632792628   -0.16113810734645118   -0.03763503610434826
-0.9322630632792628   -0.16113810734645118   -0.03763503610434826
-0.3989277411898311   -0.10120603368728098   0.06779866835364674
-0.3989277411898311   -0.10120603368728098   0.06779866835364674
-0.3989277411898311   -0.10120603368728098   0.06779866835364674
-0.3989277411898311   -0.10120603368728098   0.06779866835364674
-0.9916760384323365   -0.24791900960808413   -0.24791900960808413
-0.9916760384323365   -0.24791900960808413   -0.24791900960808413
-0.9916760384323365   -0.24791900960808413   -0.24791900960808413
-0.9916760384323365   -0.24791900960808413   -0.24791900960808413
0.1621120194207851   0.07001194632449398   0.023740149550329524
0.1621120194207851   0.07001194632449398   0.023740149550329524
0.1621120194207851   0.07001194632449398   0.023740149550329524
0.1621120194207851   0.07001194632449398   0.023740149550329524
0.17901255608878958   0.044753139022197394   0.044753139022197394
0.17901255608878958   0.044753139022197394   0.044753139022197394
0.17901255608878958   0.044753139022197394   0.044753139022197394
0.17901255608878958   0.044753139022197394   0.044753139022197394
-0.8994563919771232   -0.10852231992881044   -0.02523991646885595
-0.8994563919771232   -0.10852231992881044   -0.02523991646885595
-0.8994563919771232   -0.10852231992881044   -0.02523991646885595
-0.8994563919771232   -0.10852231992881044   -0.02523991646885595
-0.38283710005334337   -0.06257145625198127   -0.02312120874175598
-0.38283710005334337   -0.06257145625198127   -0.02312120874175598
-0.38283710005334337   -0.06257145625198127   -0.02312120874175598
-0.38283710005334337   -0.06257145625198127   -0.02312120874175598
-0.9696710496639905   -0.24241776241599763   -0.24241776241599763
-0.9696710496639905   -0.24241776241599763   -0.24241776241599763
-0.9696710496639905   -0.24241776241599763   -0.24241776241599763
-0.9696710496639905   -0.24241776241599763   -0.24241776241599763
0.1937743349767694   0.12319570271049846   0.040119469773794006
0.1937743349767694   0.12319570271049846   0.040119469773794006
0.1937743349767694   0.12319570271049846   0.040119469773794006
0.1937743349767694   0.12319570271049846   0.040119469773794006
0.20559063009237194   0.051397657523092985   0.051397657523092985
0.20559063009237194   0.051397657523092985   0.051397657523092985
0.20559063009237194   0.051397657523092985   0.051397657523092985
0.20559063009237194   0.051397657523092985   0.051397657523092985
-0.863750523786448   -0.04576344933365442   0.000457309666378386
-0.863750523786448   -0.04576344933365442   0.000457309666378386
-0.863750523786448   -0.04576344933365442   0.000457309666378386
-0.863750523786448   -0.04576344933365442   0.000457309666378386
-0.37154742294281506   -0.025326672308906645   -0.11322949836903076
-0.37154742294281506   -0.025326672308906645   -0.11322949836903076
-0.37154742294281506   -0.025326672308906645   -0.11322949836903076
-0.37154742294281506   -0.025326672308906645   -0.11322949836903076
0.1342816732908675   0.03357041832271687   0.03357041832271687
0.1342816732908675   0.03357041832271687   0.03357041832271687
0.1342816732908675   0.03357041832271687   0.03357041832271687
0.1342816732908675   0.03357041832271687   0.03357041832271687
1.2907386253582869   0.11841118535445766   0.03971946400528811
1.2907386253582869   0.11841118535445766   0.03971946400528811
1.2907386253582869   0.11841118535445766   0.03971946400528811
1.2907386253582869   0.11841118535445766   0.03971946400528811
1.401320575510349   0.35033014387758726   0.35033014387758726
1.401320575510349   0.35033014387758726   0.35033014387758726
1.401320575510349   0.35033014387758726   0.35033014387758726
1.401320575510349   0.35033014387758726   0.35033014387758726
0.121370171331269   -0.0909009422018916   -0.019056202370866707
0.121370171331269   -0.0909009422018916   -0.019056202370866707
0.121370171331269   -0.0909009422018916   -0.019056202370866707
0.121370171331269   -0.0909009422018916   -0.019056202370866707
0.7360992405107806   0.0916357292364548   0.1337554135147102
0.7360992405107806   0.0916357292364548   0.1337554135147102
0.7360992405107806   0.0916357292364548   0.1337554135147102
0.7360992405107806   0.0916357292364548   0.1337554135147102
0.15929066693980073   0.039822666734950184   0.039822666734950184
0.15929066693980073   0.039822666734950184   0.039822666734950184
0.15929066693980073   0.039822666734950184   0.039822666734950184
0.15929066693980073   0.039822666734950184   0.039822666734950184
1.3058797994361708   0.16208625447509906   0.06137015290918464
1.3058797994361708   0.16208625447509906   0.06137015290918464
1.3058797994361708   0.16208625447509906   0.06137015290918464
1.3058797994361708   0.16208625447509906   0.06137015290918464
1.3951629486059216   0.3487907371514804   0.3487907371514804
1.3951629486059216   0.3487907371514804   0.3487907371514804
1.3951629486059216   0.3487907371514804   0.3487907371514804
1.3951629486059216   0.3487907371514804   0.3487907371514804
0.15323402838505745   -0.039457102127127025   7.074165285979317e-05
0.15323402838505745   -0.039457102127127025   7.074165285979317e-05
0.15323402838505745   -0.039457102127127025   7.074165285979317e-05
0.15323402838505745   -0.039457102127127025   7.074165285979317e-05
0.7305080121899856   0.1202049240057963   0.03481450196625578
0.7305080121899856   0.1202049240057963   0.03481450196625578
0.7305080121899856   0.1202049240057963   0.03481450196625578
0.7305080121899856   0.1202049240057963   0.03481450196625578
0.17901255608878974   0.044753139022197436   0.044753139022197436
0.17901255608878974   0.044753139022197436   0.044753139022197436
0.17901255608878974   0.044753139022197436   0.044753139022197436
0.17901255608878974   0.044753139022197436   0.044753139022197436
1.3124160446341109   0.2076121197340776   0.07623483470982942
1.3124160446341109   0.2076121197340776   0.07623483470982942
1.3124160446341109   0.2076121197340776   0.07623483470982942
1.3124160446341109   0.2076121197340776   0.07623483470982942
1.4220331864115496   0.3555082966028874   0.3555082966028874
1.4220331864115496   0.3555082966028874   0.3555082966028874
1.4220331864115496   0.3555082966028874   0.3555082966028874
1.4220331864115496   0.3555082966028874   0.3555082966028874
0.19504644808682112   0.02861637763727119   0.021458027381158894
0.19504644808682112   0.02861637763727119   0.021458027381158894
0.19504644808682112   0.02861637763727119   0.021458027381158894
0.19504644808682112   0.02861637763727119   0.021458027381158894
0.7416914323028541   0.1630309308194834   -0.056926689930974245
0.7416914323028541   0.1630309308194834   -0.056926689930974245
0.7416914323028541   0.1630309308194834   -0.056926689930974245
0.7416914323028541   0.1630309308194834   -0.056926689930974245
1.3990138838737087   0.3497534709684272   0.3497534709684272
1.3990138838737087   0.3497534709684272   0.3497534709684272
1.3990138838737087   0.3497534709684272   0.3497534709684272
1.3990138838737087   0.3497534709684272   0.3497534709684272
2.9011114734091934   0.22109095813482954   0.07564147460035715
2.9011114734091934   0.22109095813482954   0.07564147460035715
2.9011114734091934   0.22109095813482954   0.07564147460035715
2.9011114734091934   0.22109095813482954   0.07564147460035715
2.965182598353209   0.7412956495883023   0.7412956495883023
2.965182598353209   0.7412956495883023   0.7412956495883023
2.965182598353209   0.7412956495883023   0.7412956495883023
2.965182598353209   0.7412956495883023   0.7412956495883023
1.2455894853072627   -0.07083546848704042   -0.007159694773216707
1.2455894853072627   -0.07083546848704042   -0.007159694773216707
1.2455894853072627   -0.07083546848704042   -0.007159694773216707
1.2455894853072627   -0.07083546848704042   -0.007159694773216707
2.069177167339255   0.2928070709987942   0.23363668068691432
2.069177167339255   0.2928070709987942   0.23363668068691432
2.069177167339255   0.2928070709987942   0.23363668068691432
2.069177167339255   0.2928070709987942   0.23363668068691432
1.4013205755103477   0.35033014387758693   0.35033014387758693
1.4013205755103477   0.35033014387758693   0.35033014387758693
1.4013205755103477   0.35033014387758693   0.35033014387758693
1.4013205755103477   0.35033014387758693   0.35033014387758693
2.7478016784361476   0.2584802075097078   0.1372064920816352
2.7478016784361476   0.2584802075097078   0.1372064920816352
2.7478016784361476   0.2584802075097078   0.1372064920816352
2.7478016784361476   0.2584802075097078   0.1372064920816352
2.876419223868551   0.7191048059671378   0.7191048059671378
2.876419223868551   0.7191048059671378   0.7191048059671378
2.876419223868551   0.7191048059671378   0.7191048059671378
2.876419223868551   0.7191048059671378   0.7191048059671378
1.249798933987094   -0.039146106429605254   0.009907507638428417
1.249798933987094   -0.039146106429605254   0.009907507638428417
1.249798933987094   -0.039146106429605254   0.009907507638428417
1.249798933987094   -0.039146106429605254   0.009907507638428417
2.0076334361695447   0.30121317123094044   0.11203946101426336
2.0076334361695447   0.30121317123094044   0.11203946101426336
2.0076334361695447   0.30121317123094044   0.11203946101426336
2.0076334361695447   0.30121317123094044   0.11203946101426336
1.3951629486059216   0.3487907371514804   0.3487907371514804
1.3951629486059216   0.3487907371514804   0.3487907371514804
1.3951629486059216   0.3487907371514804   0.3487907371514804
1.3951629486059216   0.3487907371514804   0.3487907371514804
2.6591728574428517   0.25928561057918853   0.09269216922663626
2.6591728574428517   0.25928561057918853   0.09269216922663626
2.6591728574428517   0.25928561057918853   0.09269216922663626
2.6591728574428517   0.25928561057918853   0.09269216922663626
2.7443845437435335   0.6860961359358834   0.6860961359358834
2.7443845437435335   0.6860961359358834   0.6860961359358834
2.7443845437435335   0.6860961359358834   0.6860961359358834
2.7443845437435335   0.6860961359358834   0.6860961359358834
1.2958909470216542   0.04074833751314583   0.039557058743151324
1.2958909470216542   0.04074833751314583   0.039557058743151324
1.2958909470216542   0.04074833751314583   0.039557058743151324
1.2958909470216542   0.04074833751314583   0.039557058743151324
1.922231603084277   0.32653994228035854   -0.029363784645258493
1.922231603084277   0.32653994228035854   -0.029363784645258493
1.922231603084277   0.32653994228035854   -0.029363784645258493
1.922231603084277   0.32653994228035854   -0.029363784645258493
-2.813353308163847   -0.20143551272016036   0.0315401803298023
-2.813353308163847   -0.20143551272016036   0.0315401803298023
-2.813353308163847   -0.20143551272016036   0.0315401803298023
-2.813353308163847   -0.20143551272016036   0.0315401803298023
-1.7906130129674485   -0.0411841474487028   -0.011534219958595146
-1.7906130129674485   -0.0411841474487028   -0.011534219958595146
-1.7906130129674485   -0.0411841474487028   -0.011534219958595146
-1.7906130129674485   -0.0411841474487028   -0.011534219958595146
-1.8028547328215279   0.07278121219832379   0.037569846632870496
-1.8028547328215279   0.07278121219832379   0.037569846632870496
-1.8028547328215279   0.07278121219832379   0.037569846632870496
-1.8028547328215279   0.07278121219832379   0.037569846632870496
-2.8552951320257125   -0.1947020464469374   -0.03375203788712146
-2.8552951320257125   -0.1947020464469374   -0.03375203788712146
-2.8552951320257125   -0.1947020464469374   -0.03375203788712146
-2.8552951320257125   -0.1947020464469374   -0.03375203788712146
-2.224397471487384   -0.07592530829203353   -0.00875036828172207
-2.224397471487384   -0.07592530829203353   -0.00875036828172207
-2.224397471487384   -0.07592530829203353   -0.00875036828172207
-2.224397471487384   -0.07592530829203353   -0.00875036828172207
-2.8345992109766387   -0.13839712381417524   0.013422644725486488
-2.8345992109766387   -0.13839712381417524   0.013422644725486488
-2.8345992109766387   -0.13839712381417524   0.013422644725486488
-2.8345992109766387   -0.13839712381417524   0.013422644725486488
-1.8265529384824475   0.013474004953723306   -0.021613974427098004
-1.8265529384824475   0.013474004953723306   -0.021613974427098004
-1.8265529384824475   0.013474004953723306   -0.021613974427098004
-1.8265529384824475   0.013474004953723306   -0.021613974427098004
-1.8050861744186628   0.10373936272342243   0.04280175281987558
-1.8050861744186628   0.10373936272342243   0.04280175281987558
-1.8050861744186628   0.10373936272342243   0.04280175281987558
-1.8050861744186628   0.10373936272342243   0.04280175281987558
-2.8727195480130323   -0.17152903095362831   -0.044564591858016464
-2.8727195480130323   -0.17152903095362831   -0.044564591858016464
-2.8727195480130323   -0.17152903095362831   -0.044564591858016464
-2.8727195480130323   -0.17152903095362831   -0.044564591858016464
-2.2869663019382496   -0.050861780098812204   -0.02165554103456334
-2.2869663019382496   -0.050861780098812204   -0.02165554103456334
-2.2869663019382496   -0.050861780098812204   -0.02165554103456334
-2.2869663019382496   -0.050861780098812204   -0.02165554103456334
-2.8212130103987674   -0.08313211832053535   0.12457118358019131
-2.8212130103987674   -0.08313211832053535   0.12457118358019131
-2.8212130103987674   -0.08313211832053535   0.12457118358019131
-2.8212130103987674   -0.08313211832053535   0.12457118358019131
-1.835119777991682   0.036815384131574425   -0.04044228645335278
-1.835119777991682   0.036815384131574425   -0.04044228645335278
-1.835119777991682   0.036815384131574425   -0.04044228645335278
-1.835119777991682   0.036815384131574425   -0.04044228645335278
-1.7723455414273586   0.18071802361356892   0.0778238677286994
-1.7723455414273586   0.18071802361356892   0.0778238677286994
-1.7723455414273586   0.18071802361356892   0.0778238677286994
-1.7723455414273586   0.18071802361356892   0.0778238677286994
-2.793501310199453   -0.13847438773398701   -0.0729356323179132
-2.793501310199453   -0.13847438773398701   -0.0729356323179132
-2.793501310199453   -0.13847438773398701   -0.0729356323179132
-2.793501310199453   -0.13847438773398701   -0.0729356323179132
-2.1996334571012657   0.02043877181264342   0.04872241958936571
-2.1996334571012657   0.02043877181264342   0.04872241958936571
-2.1996334571012657   0.02043877181264342   0.04872241958936571
-2.1996334571012657   0.02043877181264342   0.04872241958936571
-1.8351339229817523   -0.24323390303331466   -0.03208901444550208
-1.8351339229817523   -0.24323390303331466   -0.03208901444550208
-1.8351339229817523   -0.24323390303331466   -0.03208901444550208
-1.8351339229817523   -0.24323390303331466   -0.03208901444550208
-0.8452675121520374   -0.018707473195847424   0.008991639358982104
-0.8452675121520374   -0.018707473195847424   0.008991639358982104
-0.8452675121520374   -0.018707473195847424   0.008991639358982104
-0.8452675121520374   -0.018707473195847424   0.008991639358982104
-0.8577282991744516   0.016323034632043987   0.012764145112312816
-0.8577282991744516   0.016323034632043987   0.012764145112312816
-0.8577282991744516   0.016323034632043987   0.012764145112312816
-0.8577282991744516   0.016323034632043987   0.012764145112312816
-1.8715555906704442   -0.17805610366994515   -0.05509712674344277
-1.8715555906704442   -0.17805610366994515   -0.05509712674344277
-1.8715555906704442   -0.17805610366994515   -0.05509712674344277
-1.8715555906704442   -0.17805610366994515   -0.05509712674344277
-1.3523776519401818   -0.10976382630125806   -0.03096686710606606
-1.3523776519401818   -0.10976382630125806   -0.03096686710606606
-1.3523776519401818   -0.10976382630125806   -0.03096686710606606
-1.3523776519401818   -0.10976382630125806   -0.03096686710606606
-1.8698091104854628   -0.19460843545859857   -0.029812394029888598
-1.8698091104854628   -0.19460843545859857   -0.029812394029888598
-1.8698091104854628   -0.19460843545859857   -0.029812394029888598
-1.8698091104854628   -0.19460843545859857   -0.029812394029888598
-0.856137784838912   0.036212360941218574   0.0008273904808436885
-0.856137784838912   0.036212360941218574   0.0008273904808436885
-0.856137784838912   0.036212360941218574   0.0008273904808436885
-0.856137784838912   0.036212360941218574   0.0008273904808436885
-0.8545736723455231   0.05959729480121609   0.017360550403469385
-0.8545736723455231   0.05959729480121609   0.017360550403469385
-0.8545736723455231   0.05959729480121609   0.017360550403469385
-0.8545736723455231   0.05959729480121609   0.017360550403469385
-1.8724163618563245   -0.13052363462699246   -0.05958618701801771
-1.8724163618563245   -0.13052363462699246   -0.05958618701801771
-1.8724163618563245   -0.13052363462699246   -0.05958618701801771
-1.8724163618563245   -0.13052363462699246   -0.05958618701801771
-1.3498335554320113   -0.06110344590138983   -0.014719381587520577
-1.3498335554320113   -0.06110344590138983   -0.014719381587520577
-1.3498335554320113   -0.06110344590138983   -0.014719381587520577
-1.3498335554320113   -0.06110344590138983   -0.014719381587520577
-1.8651078610078349   -0.1472459304103772   -0.006321386992185082
-1.8651078610078349   -0.1472459304103772   -0.006321386992185082
-1.8651078610078349   -0.1472459304103772   -0.006321386992185082
-1.8651078610078349   -0.1472459304103772   -0.006321386992185082
-0.8556868093916761   0.08251495438693962   -0.011122794413005732
-0.8556868093916761   0.08251495438693962   -0.011122794413005732
-0.8556868093916761   0.08251495438693962   -0.011122794413005732
-0.8556868093916761   0.08251495438693962   -0.011122794413005732
-0.840336109401412   0.10307466056321099   0.03490781452275868
-0.840336109401412   0.10307466056321099   0.03490781452275868
-0.840336109401412   0.10307466056321099   0.03490781452275868
-0.840336109401412   0.10307466056321099   0.03490781452275868
-1.852453451319461   -0.075604633477522   -0.06639302464072869
-1.852453451319461   -0.075604633477522   -0.06639302464072869
-1.852453451319461   -0.075604633477522   -0.06639302464072869
-1.852453451319461   -0.075604633477522   -0.06639302464072869
-1.344279152820102   -0.015057156137496308   0.006752411731850816
-1.344279152820102   -0.015057156137496308   0.006752411731850816
-1.344279152820102   -0.015057156137496308   0.006752411731850816
-1.344279152820102   -0.015057156137496308   0.006752411731850816
-0.8913627651707309   -0.20247061993082263   -0.037721478999516354
-0.8913627651707309   -0.20247061993082263   -0.037721478999516354
-0.8913627651707309   -0.20247061993082263   -0.037721478999516354
-0.8913627651707309   -0.20247061993082263   -0.037721478999516354
0.09278054624176481   0.02109392504405395   0.03472513348752268
0.09278054624176481   0.02109392504405395   0.03472513348752268
0.09278054624176481   0.02109392504405395   0.03472513348752268
0.09278054624176481   0.02109392504405395   0.03472513348752268
0.08849842358179463   0.051094921406825984   0.00276862080098194
0.08849842358179463   0.051094921406825984   0.00276862080098194
0.08849842358179463   0.051094921406825984   0.00276862080098194
0.08849842358179463   0.051094921406825984   0.00276862080098194
-0.8951940850770329   -0.13415797431808474   -0.02408377545046445
-0.8951940850770329   -0.13415797431808474   -0.02408377545046445
-0.8951940850770329   -0.13415797431808474   -0.02408377545046445
-0.8951940850770329   -0.13415797431808474   -0.02408377545046445
-0.40519936532183215   -0.06710492667070561   -0.01280130528016106
-0.40519936532183215   -0.06710492667070561   -0.01280130528016106
-0.40519936532183215   -0.06710492667070561   -0.01280130528016106
-0.40519936532183215   -0.06710492667070561   -0.01280130528016106
-0.9013848894585252   -0.15439551641386381   -0.034800255262147216
-0.9013848894585252   -0.15439551641386381   -0.034800255262147216
-0.9013848894585252   -0.15439551641386381   -0.034800255262147216
-0.9013848894585252   -0.15439551641386381   -0.034800255262147216
0.09813430887454257   0.07477754441385932   0.027265424257688253
0.09813430887454257   0.07477754441385932   0.027265424257688253
0.09813430887454257   0.07477754441385932   0.027265424257688253
0.09813430887454257   0.07477754441385932   0.027265424257688253
0.0954289353551737   0.09873224742279396   0.016147592956867237
0.0954289353551737   0.09873224742279396   0.016147592956867237
0.0954289353551737   0.09873224742279396   0.016147592956867237
0.0954289353551737   0.09873224742279396   0.016147592956867237
-0.8923580277581423   -0.08192066797263771   -0.030043263885773264
-0.8923580277581423   -0.08192066797263771   -0.030043263885773264
-0.8923580277581423   -0.08192066797263771   -0.030043263885773264
-0.8923580277581423   -0.08192066797263771   -0.030043263885773264
-0.3989121952221949   -0.01647528505948824   0.004783202702270749
-0.3989121952221949   -0.01647528505948824   0.004783202702270749
-0.3989121952221949   -0.01647528505948824   0.004783202702270749
-0.3989121952221949   -0.01647528505948824   0.004783202702270749
-0.8947455331930712   -0.10609371390403284   -0.01780774512902192
-0.8947455331930712   -0.10609371390403284   -0.01780774512902192
-0.8947455331930712   -0.10609371390403284   -0.01780774512902192
-0.8947455331930712   -0.10609371390403284   -0.01780774512902192
0.10152280007769403   0.12661165264178054   0.01873751135048152
0.10152280007769403   0.12661165264178054   0.01873751135048152
0.10152280007769403   0.12661165264178054   0.01873751135048152
0.10152280007769403   0.12661165264178054   0.01873751135048152
0.09759491056783681   0.15173235882698757   0.026590916115305504
0.09759491056783681   0.15173235882698757   0.026590916115305504
0.09759491056783681   0.15173235882698757   0.026590916115305504
0.09759491056783681   0.15173235882698757   0.026590916115305504
-0.8807164822994219   -0.026073057943443806   -0.037846331460631946
-0.8807164822994219   -0.026073057943443806   -0.037846331460631946
-0.8807164822994219   -0.026073057943443806   -0.037846331460631946
-0.8807164822994219   -0.026073057943443806   -0.037846331460631946
-0.38896354794428245   0.036471870426924735   0.02403380997280055
-0.38896354794428245   0.036471870426924735   0.02403380997280055
-0.38896354794428245   0.036471870426924735   0.02403380997280055
-0.38896354794428245   0.036471870426924735   0.02403380997280055
0.042676793729666325   -0.14840417881508908   -0.04629552521382674
0.042676793729666325   -0.14840417881508908   -0.04629552521382674
0.042676793729666325   -0.14840417881508908   -0.04629552521382674
0.042676793729666325   -0.14840417881508908   -0.04629552521382674
1.0621976944138007   0.07334588561064942   0.06371178880031295
1.0621976944138007   0.07334588561064942   0.06371178880031295
1.0621976944138007   0.07334588561064942   0.06371178880031295
1.0621976944138007   0.07334588561064942   0.06371178880031295
1.0608850176130231   0.09877767563093971   -0.010177959488468221
1.0608850176130231   0.09877767563093971   -0.010177959488468221
1.0608850176130231   0.09877767563093971   -0.010177959488468221
1.0608850176130231   0.09877767563093971   -0.010177959488468221
0.06115707456934144   -0.08918738083223776   0.006344177977779666
0.06115707456934144   -0.08918738083223776   0.006344177977779666
0.06115707456934144   -0.08918738083223776   0.006344177977779666
0.06115707456934144   -0.08918738083223776   0.006344177977779666
0.549871904491045   -0.01269546538308633   0.0011806450660197323
0.549871904491045   -0.01269546538308633   0.0011806450660197323
0.549871904491045   -0.01269546538308633   0.0011806450660197323
0.549871904491045   -0.01269546538308633   0.0011806450660197323
0.04912624471339834   -0.1084482978984385   -0.03454905423573433
0.04912624471339834   -0.1084482978984385   -0.03454905423573433
0.04912624471339834   -0.1084482978984385   -0.03454905423573433
0.04912624471339834   -0.1084482978984385   -0.03454905423573433
1.0791046266240267   0.1242273718521996   0.05547038934528113
1.0791046266240267   0.1242273718521996   0.05547038934528113
1.0791046266240267   0.1242273718521996   0.05547038934528113
1.0791046266240267   0.1242273718521996   0.05547038934528113
1.0692385600727374   0.14589019448763862   0.010802693039006082
1.0692385600727374   0.14589019448763862   0.010802693039006082
1.0692385600727374   0.14589019448763862   0.010802693039006082
1.0692385600727374   0.14589019448763862   0.010802693039006082
0.06332154240291597   -0.04250373871851509   -0.0031533856631123323
0.06332154240291597   -0.04250373871851509   -0.0031533856631123323
0.06332154240291597   -0.04250373871851509   -0.0031533856631123323
0.06332154240291597   -0.04250373871851509   -0.0031533856631123323
0.5571933658008454   0.03233971914300188   0.02279177671230289
0.5571933658008454   0.03233971914300188   0.02279177671230289
0.5571933658008454   0.03233971914300188   0.02279177671230289
0.5571933658008454   0.03233971914300188   0.02279177671230289
0.05456090978294337   -0.06424827639534954   -0.025212011086140608
0.05456090978294337   -0.06424827639534954   -0.025212011086140608
0.05456090978294337   -0.06424827639534954   -0.025212011086140608
0.05456090978294337   -0.06424827639534954   -0.025212011086140608
1.0824771635251476   0.1721127029969089   0.050773201791768294
1.0824771635251476   0.1721127029969089   0.050773201791768294
1.0824771635251476   0.1721127029969089   0.050773201791768294
1.0824771635251476   0.1721127029969089   0.050773201791768294
1.052058183958607   0.20026592402185334   0.022694023432283786
1.052058183958607   0.20026592402185334   0.022694023432283786
1.052058183958607   0.20026592402185334   0.022694023432283786
1.052058183958607   0.20026592402185334   0.022694023432283786
0.0627385980949594   0.015319476793606205   -0.011277764215700274
0.0627385980949594   0.015319476793606205   -0.011277764215700274
0.0627385980949594   0.015319476793606205   -0.011277764215700274
0.0627385980949594   0.015319476793606205   -0.011277764215700274
0.5654152162775359   0.08382688165675109   0.042793926808770394
0.5654152162775359   0.08382688165675109   0.042793926808770394
0.5654152162775359   0.08382688165675109   0.042793926808770394
0.5654152162775359   0.08382688165675109   0.042793926808770394
0.97854847458947   -0.1956563512427707   -0.08553207346792056
0.97854847458947   -0.1956563512427707   -0.08553207346792056
0.97854847458947   -0.1956563512427707   -0.08553207346792056
0.97854847458947   -0.1956563512427707   -0.08553207346792056
2.014703732938527   0.13307191909937677   0.06201598349065443
2.014703732938527   0.13307191909937677   0.06201598349065443
2.014703732938527   0.13307191909937677   0.06201598349065443
2.014703732938527   0.13307191909937677   0.06201598349065443
2.0374700245290764   0.06324122599108284   -0.12865676160441636
2.0374700245290764   0.06324122599108284   -0.12865676160441636
2.0374700245290764   0.06324122599108284   -0.12865676160441636
2.0374700245290764   0.06324122599108284   -0.12865676160441636
1.0425350769002601   -0.040216729664032114   0.03706674224266811
1.0425350769002601   -0.040216729664032114   0.03706674224266811
1.0425350769002601   -0.040216729664032114   0.03706674224266811
1.0425350769002601   -0.040216729664032114   0.03706674224266811
1.4428416516318732   -0.025146493738397835   -0.03605179901748555
1.4428416516318732   -0.025146493738397835   -0.03605179901748555
1.4428416516318732   -0.025146493738397835   -0.03605179901748555
1.4428416516318732   -0.025146493738397835   -0.03605179901748555
1.0060877258531116   -0.12865102496220437   -0.05673571769488733
1.0060877258531116   -0.12865102496220437   -0.05673571769488733
1.0060877258531116   -0.12865102496220437   -0.05673571769488733
1.0060877258531116   -0.12865102496220437   -0.05673571769488733
2.0924067160171913   0.1701648617302235   0.03910306009701499
2.0924067160171913   0.1701648617302235   0.03910306009701499
2.0924067160171913   0.1701648617302235   0.03910306009701499
2.0924067160171913   0.1701648617302235   0.03910306009701499
2.059872533523183   0.11507503778056954   -0.02906037084678624
2.059872533523183   0.11507503778056954   -0.02906037084678624
2.059872533523183   0.11507503778056954   -0.02906037084678624
2.059872533523183   0.11507503778056954   -0.02906037084678624
1.038327145753108   -0.01694466906014802   0.019080484988627466
1.038327145753108   -0.01694466906014802   0.019080484988627466
1.038327145753108   -0.01694466906014802   0.019080484988627466
1.038327145753108   -0.01694466906014802   0.019080484988627466
1.5183168636312343   0.03792267415457978   0.02493788975472662
1.5183168636312343   0.03792267415457978   0.02493788975472662
1.5183168636312343   0.03792267415457978   0.02493788975472662
1.5183168636312343   0.03792267415457978   0.02493788975472662
1.0090949270419791   -0.09839455405978748   -0.045630723567369566
1.0090949270419791   -0.09839455405978748   -0.045630723567369566
1.0090949270419791   -0.09839455405978748   -0.045630723567369566
1.0090949270419791   -0.09839455405978748   -0.045630723567369566
2.0866511889416794   0.19407135948757837   0.02583658453868823
2.0866511889416794   0.19407135948757837   0.02583658453868823
2.0866511889416794   0.19407135948757837   0.02583658453868823
2.0866511889416794   0.19407135948757837   0.02583658453868823
2.0563777666352006   0.17603072445529033   -0.044517826159674395
2.0563777666352006   0.17603072445529033   -0.044517826159674395
2.0563777666352006   0.17603072445529033   -0.044517826159674395
2.0563777666352006   0.17603072445529033   -0.044517826159674395
1.0169255825155796   0.036713829373757945   0.010583110865224496
1.0169255825155796   0.036713829373757945   0.010583110865224496
1.0169255825155796   0.036713829373757945   0.010583110865224496
1.0169255825155796   0.036713829373757945   0.010583110865224496
1.4794592777374966   0.06644092196197748   0.018453608210723435
1.4794592777374966   0.06644092196197748   0.018453608210723435
1.4794592777374966   0.06644092196197748   0.018453608210723435
1.4794592777374966   0.06644092196197748   0.018453608210723435
-2.2122657860199504   -0.10046771869458221   0.11370069686450202
-2.2122657860199504   -0.10046771869458221   0.11370069686450202
-2.2122657860199504   -0.10046771869458221   0.11370069686450202
-2.2122657860199504   -0.10046771869458221   0.11370069686450202
-1.4689174881397147   -0.05568824092874797   -0.029585433381431034
-1.4689174881397147   -0.05568824092874797   -0.029585433381431034
-1.4689174881397147   -0.05568824092874797   -0.029585433381431034
-1.4689174881397147   -0.05568824092874797   -0.029585433381431034
-1.416050968772914   0.11897937234901779   0.09541089283985625
-1.416050968772914   0.11897937234901779   0.09541089283985625
-1.416050968772914   0.11897937234901779   0.09541089283985625
-1.416050968772914   0.11897937234901779   0.09541089283985625
-2.2224888907492266   -0.15862819458480182   -0.04636936549992292
-2.2224888907492266   -0.15862819458480182   -0.04636936549992292
-2.2224888907492266   -0.15862819458480182   -0.04636936549992292
-2.2224888907492266   -0.15862819458480182   -0.04636936549992292
-1.7556068433640424   -0.027147657860445318   -0.0031555060472694824
-1.7556068433640424   -0.027147657860445318   -0.0031555060472694824
-1.7556068433640424   -0.027147657860445318   -0.0031555060472694824
-1.7556068433640424   -0.027147657860445318   -0.0031555060472694824
-2.1607125009606065   -0.023548529070680557   0.12743291792905698
-2.1607125009606065   -0.023548529070680557   0.12743291792905698
-2.1607125009606065   -0.023548529070680557   0.12743291792905698
-2.1607125009606065   -0.023548529070680557   0.12743291792905698
-1.4680957312225582   -0.006368665826127551   -0.03946488123321999
-1.4680957312225582   -0.006368665826127551   -0.03946488123321999
-1.4680957312225582   -0.006368665826127551   -0.03946488123321999
-1.4680957312225582   -0.006368665826127551   -0.03946488123321999
-1.4102990131612172   0.1475587461641858   0.08845375887923941
-1.4102990131612172   0.1475587461641858   0.08845375887923941
-1.4102990131612172   0.1475587461641858   0.08845375887923941
-1.4102990131612172   0.1475587461641858   0.08845375887923941
-2.1881296577048706   -0.13272480712866197   -0.06350050845546337
-2.1881296577048706   -0.13272480712866197   -0.06350050845546337
-2.1881296577048706   -0.13272480712866197   -0.06350050845546337
-2.1881296577048706   -0.13272480712866197   -0.06350050845546337
-1.7593952067622285   0.006431404042223365   0.020319562863782906
-1.7593952067622285   0.006431404042223365   0.020319562863782906
-1.7593952067622285   0.006431404042223365   0.020319562863782906
-1.7593952067622285   0.006431404042223365   0.020319562863782906
-2.130597520573007   0.0034128057675151813   0.08802256430767637
-2.130597520573007   0.0034128057675151813   0.08802256430767637
-2.130597520573007   0.0034128057675151813   0.08802256430767637
-2.130597520573007   0.0034128057675151813   0.08802256430767637
-1.4646234826387967   0.014628800922295015   -0.05023864326675212
-1.4646234826387967   0.014628800922295015   -0.05023864326675212
-1.4646234826387967   0.014628800922295015   -0.05023864326675212
-1.4646234826387967   0.014628800922295015   -0.05023864326675212
-1.4116847721668606   0.16651288949288878   0.07018421578387354
-1.4116847721668606   0.16651288949288878   0.07018421578387354
-1.4116847721668606   0.16651288949288878   0.07018421578387354
-1.4116847721668606   0.16651288949288878   0.07018421578387354
-2.1435133124060335   -0.10521706209958043   -0.08098809041674508
-2.1435133124060335   -0.10521706209958043   -0.08098809041674508
-2.1435133124060335   -0.10521706209958043   -0.08098809041674508
-2.1435133124060335   -0.10521706209958043   -0.08098809041674508
-1.7088724443764702   0.03649360745869068   0.04221035780194472
-1.7088724443764702   0.03649360745869068   0.04221035780194472
-1.7088724443764702   0.03649360745869068   0.04221035780194472
-1.7088724443764702   0.03649360745869068   0.04221035780194472
-1.4733550276731437   -0.13967964880610972   0.03221827682878478
-1.4733550276731437   -0.13967964880610972   0.03221827682878478
-1.4733550276731437   -0.13967964880610972   0.03221827682878478
-1.4733550276731437   -0.13967964880610972   0.03221827682878478
-0.7437904682474823   -0.026827238982229523   0.001438514029280323
-0.7437904682474823   -0.026827238982229523   0.001438514029280323
-0.7437904682474823   -0.026827238982229523   0.001438514029280323
-0.7437904682474823   -0.026827238982229523   0.001438514029280323
-0.7227340494349423   0.07309957836891456   0.051859742215353895
-0.7227340494349423   0.07309957836891456   0.051859742215353895
-0.7227340494349423   0.07309957836891456   0.051859742215353895
-0.7227340494349423   0.07309957836891456   0.051859742215353895
-1.4967934269104703   -0.13774921045757435   -0.05157281504134741
-1.4967934269104703   -0.13774921045757435   -0.05157281504134741
-1.4967934269104703   -0.13774921045757435   -0.05157281504134741
-1.4967934269104703   -0.13774921045757435   -0.05157281504134741
-1.1052193245814734   -0.05423430966374354   -0.022356304807435418
-1.1052193245814734   -0.05423430966374354   -0.022356304807435418
-1.1052193245814734   -0.05423430966374354   -0.022356304807435418
-1.1052193245814734   -0.05423430966374354   -0.022356304807435418
-1.4687332875420198   -0.08023040285575353   0.031209074199091004
-1.4687332875420198   -0.08023040285575353   0.031209074199091004
-1.4687332875420198   -0.08023040285575353   0.031209074199091004
-1.4687332875420198   -0.08023040285575353   0.031209074199091004
-0.7451048001668916   0.021270159403597333   -0.008164592479067388
-0.7451048001668916   0.021270159403597333   -0.008164592479067388
-0.7451048001668916   0.021270159403597333   -0.008164592479067388
-0.7451048001668916   0.021270159403597333   -0.008164592479067388
-0.7204584242438938   0.12075973789731037   0.04487273799106567
-0.7204584242438938   0.12075973789731037   0.04487273799106567
-0.7204584242438938   0.12075973789731037   0.04487273799106567
-0.7204584242438938   0.12075973789731037   0.04487273799106567
-1.4883312595591154   -0.09325872767563287   -0.060889999270432454
-1.4883312595591154   -0.09325872767563287   -0.060889999270432454
-1.4883312595591154   -0.09325872767563287   -0.060889999270432454
-1.4883312595591154   -0.09325872767563287   -0.060889999270432454
-1.0931687131617105   -0.006004728031966916   -5.936665141955538e-05
-1.0931687131617105   -0.006004728031966916   -5.936665141955538e-05
-1.0931687131617105   -0.006004728031966916   -5.936665141955538e-05
-1.0931687131617105   -0.006004728031966916   -5.936665141955538e-05
-1.4596973858925182   -0.031882061461036226   0.020902702847957033
-1.4596973858925182   -0.031882061461036226   0.020902702847957033
-1.4596973858925182   -0.031882061461036226   0.020902702847957033
-1.4596973858925182   -0.031882061461036226   0.020902702847957033
-0.7444593537794427   0.06401601581376473   -0.018388187603117168
-0.7444593537794427   0.06401601581376473   -0.018388187603117168
-0.7444593537794427   0.06401601581376473   -0.018388187603117168
-0.7444593537794427   0.06401601581376473   -0.018388187603117168
-0.7202579372520761   0.17083861676209117   0.033627712489944575
-0.7202579372520761   0.17083861676209117   0.033627712489944575
-0.7202579372520761   0.17083861676209117   0.033627712489944575
-0.7202579372520761   0.17083861676209117   0.033627712489944575
-1.4811810230157196   -0.0452568645341177   -0.06552728443341999
-1.4811810230157196   -0.0452568645341177   -0.06552728443341999
-1.4811810230157196   -0.0452568645341177   -0.06552728443341999
-1.4811810230157196   -0.0452568645341177   -0.06552728443341999
-1.0938959888122093   0.038216285706933   0.016978680402153695
-1.0938959888122093   0.038216285706933   0.016978680402153695
-1.0938959888122093   0.038216285706933   0.016978680402153695
-1.0938959888122093   0.038216285706933   0.016978680402153695
-0.7715198520835588   -0.15959859178765354   -0.004437052345683386
-0.7715198520835588   -0.15959859178765354   -0.004437052345683386
-0.7715198520835588   -0.15959859178765354   -0.004437052345683386
-0.7715198520835588   -0.15959859178765354   -0.004437052345683386
-0.025398335207427056   0.007980906386932572   0.03294974969838498
-0.025398335207427056   0.007980906386932572   0.03294974969838498
-0.025398335207427056   0.007980906386932572   0.03294974969838498
-0.025398335207427056   0.007980906386932572   0.03294974969838498
-0.028232856652175325   0.04719975003850459   0.015743617907624775
-0.028232856652175325   0.04719975003850459   0.015743617907624775
-0.028232856652175325   0.04719975003850459   0.015743617907624775
-0.028232856652175325   0.04719975003850459   0.015743617907624775
-0.7720513440190249   -0.10231578250630156   -0.01931136982984259
-0.7720513440190249   -0.10231578250630156   -0.01931136982984259
-0.7720513440190249   -0.10231578250630156   -0.01931136982984259
-0.7720513440190249   -0.10231578250630156   -0.01931136982984259
-0.40052364730938217   -0.05000903027219945   -0.012505479340369424
-0.40052364730938217   -0.05000903027219945   -0.012505479340369424
-0.40052364730938217   -0.05000903027219945   -0.012505479340369424
-0.40052364730938217   -0.05000903027219945   -0.012505479340369424
-0.7712204392109409   -0.10670084642826523   -0.010771781867458839
-0.7712204392109409   -0.10670084642826523   -0.010771781867458839
-0.7712204392109409   -0.10670084642826523   -0.010771781867458839
-0.7712204392109409   -0.10670084642826523   -0.010771781867458839
-0.024821925313563708   0.05582665010716394   0.024171374532023872
-0.024821925313563708   0.05582665010716394   0.024171374532023872
-0.024821925313563708   0.05582665010716394   0.024171374532023872
-0.024821925313563708   0.05582665010716394   0.024171374532023872
-0.02472724742336688   0.09912673093181133   0.0075629503016963785
-0.02472724742336688   0.09912673093181133   0.0075629503016963785
-0.02472724742336688   0.09912673093181133   0.0075629503016963785
-0.02472724742336688   0.09912673093181133   0.0075629503016963785
-0.7701229867662032   -0.05439006253626075   -0.0283002741869013
-0.7701229867662032   -0.05439006253626075   -0.0283002741869013
-0.7701229867662032   -0.05439006253626075   -0.0283002741869013
-0.7701229867662032   -0.05439006253626075   -0.0283002741869013
-0.39664593627862965   -0.00199086182047635   0.005509001620178183
-0.39664593627862965   -0.00199086182047635   0.005509001620178183
-0.39664593627862965   -0.00199086182047635   0.005509001620178183
-0.39664593627862965   -0.00199086182047635   0.005509001620178183
-0.7689634752061656   -0.05550971705806883   -0.0213830618649057
-0.7689634752061656   -0.05550971705806883   -0.0213830618649057
-0.7689634752061656   -0.05550971705806883   -0.0213830618649057
-0.7689634752061656   -0.05550971705806883   -0.0213830618649057
-0.022383996137523947   0.10374914829949995   0.014656789363223014
-0.022383996137523947   0.10374914829949995   0.014656789363223014
-0.022383996137523947   0.10374914829949995   0.014656789363223014
-0.022383996137523947   0.10374914829949995   0.014656789363223014
-0.023992369529303087   0.15260777112797036   -0.001166298873679944
-0.023992369529303087   0.15260777112797036   -0.001166298873679944
-0.023992369529303087   0.15260777112797036   -0.001166298873679944
-0.023992369529303087   0.15260777112797036   -0.001166298873679944
-0.7697566881907233   -0.005647139827562542   -0.03738028561363873
-0.7697566881907233   -0.005647139827562542   -0.03738028561363873
-0.7697566881907233   -0.005647139827562542   -0.03738028561363873
-0.7697566881907233   -0.005647139827562542   -0.03738028561363873
-0.39363742142438546   0.046072773814517326   0.022028404840610208
-0.39363742142438546   0.046072773814517326   0.022028404840610208
-0.39363742142438546   0.046072773814517326   0.022028404840610208
-0.39363742142438546   0.046072773814517326   0.022028404840610208
-0.0761732326388269   -0.17471618647856246   -0.03822764459311895
-0.0761732326388269   -0.17471618647856246   -0.03822764459311895
-0.0761732326388269   -0.17471618647856246   -0.03822764459311895
-0.0761732326388269   -0.17471618647856246   -0.03822764459311895
0.6903227953650422   0.04873384837468975   0.06263785002108782
0.6903227953650422   0.04873384837468975   0.06263785002108782
0.6903227953650422   0.04873384837468975   0.06263785002108782
0.6903227953650422   0.04873384837468975   0.06263785002108782
0.6677488480201873   0.0259299028565287   -0.02466117702923389
0.6677488480201873   0.0259299028565287   -0.02466117702923389
0.6677488480201873   0.0259299028565287   -0.02466117702923389
0.6677488480201873   0.0259299028565287   -0.02466117702923389
-0.05093386986534526   -0.06400679967427898   0.013445101554559032
-0.05093386986534526   -0.06400679967427898   0.013445101554559032
-0.05093386986534526   -0.06400679967427898   0.013445101554559032
-0.05093386986534526   -0.06400679967427898   0.013445101554559032
0.3033862210480044   -0.04039219023210555   -0.007047951696151997
0.3033862210480044   -0.04039219023210555   -0.007047951696151997
0.3033862210480044   -0.04039219023210555   -0.007047951696151997
0.3033862210480044   -0.04039219023210555   -0.007047951696151997
-0.07591408297423866   -0.12746916722445592   -0.04799359643973104
-0.07591408297423866   -0.12746916722445592   -0.04799359643973104
-0.07591408297423866   -0.12746916722445592   -0.04799359643973104
-0.07591408297423866   -0.12746916722445592   -0.04799359643973104
0.697553256951167   0.09421646622879198   0.05607430425340156
0.697553256951167   0.09421646622879198   0.05607430425340156
0.697553256951167   0.09421646622879198   0.05607430425340156
0.697553256951167   0.09421646622879198   0.05607430425340156
0.6785104507940577   0.07423535005636112   -0.03464685017988077
0.6785104507940577   0.07423535005636112   -0.03464685017988077
0.6785104507940577   0.07423535005636112   -0.03464685017988077
0.6785104507940577   0.07423535005636112   -0.03464685017988077
-0.049507918288385015   -0.021068765839341447   0.0038550927477593007
-0.049507918288385015   -0.021068765839341447   0.0038550927477593007
-0.049507918288385015   -0.021068765839341447   0.0038550927477593007
-0.049507918288385015   -0.021068765839341447   0.0038550927477593007
0.30602134798102776   0.003039496046351578   0.010848963425899503
0.30602134798102776   0.003039496046351578   0.010848963425899503
0.30602134798102776   0.003039496046351578   0.010848963425899503
0.30602134798102776   0.003039496046351578   0.010848963425899503
-0.07380207887226711   -0.08086223420260528   -0.057822241808387874
-0.07380207887226711   -0.08086223420260528   -0.057822241808387874
-0.07380207887226711   -0.08086223420260528   -0.057822241808387874
-0.07380207887226711   -0.08086223420260528   -0.057822241808387874
0.7080616046644281   0.13928581170611315   0.04805845752221908
0.7080616046644281   0.13928581170611315   0.04805845752221908
0.7080616046644281   0.13928581170611315   0.04805845752221908
0.7080616046644281   0.13928581170611315   0.04805845752221908
0.6851316628482407   0.13482286958208542   -0.036153865026577796
0.6851316628482407   0.13482286958208542   -0.036153865026577796
0.6851316628482407   0.13482286958208542   -0.036153865026577796
0.6851316628482407   0.13482286958208542   -0.036153865026577796
-0.04959828112412949   0.029123176311797432   -0.005711262031638598
-0.04959828112412949   0.029123176311797432   -0.005711262031638598
-0.04959828112412949   0.029123176311797432   -0.005711262031638598
-0.04959828112412949   0.029123176311797432   -0.005711262031638598
0.31656107457012095   0.05148533514801741   0.03210866447973001
0.31656107457012095   0.05148533514801741   0.03210866447973001
0.31656107457012095   0.05148533514801741   0.03210866447973001
0.31656107457012095   0.05148533514801741   0.03210866447973001
0.6184791309312523   -0.17345460229570078   -0.07439202147746678
0.6184791309312523   -0.17345460229570078   -0.07439202147746678
0.6184791309312523   -0.17345460229570078   -0.07439202147746678
0.6184791309312523   -0.17345460229570078   -0.07439202147746678
1.3593987946100947   0.10099349300598282   0.06959994670399129
1.3593987946100947   0.10099349300598282   0.06959994670399129
1.3593987946100947   0.10099349300598282   0.06959994670399129
1.3593987946100947   0.10099349300598282   0.06959994670399129
1.3487909130882212   -0.006182399723779264   -0.09901744424403636
1.3487909130882212   -0.006182399723779264   -0.09901744424403636
1.3487909130882212   -0.006182399723779264   -0.09901744424403636
1.3487909130882212   -0.006182399723779264   -0.09901744424403636
0.6739212553411881   -0.014566674924227169   0.04669743735653363
0.6739212553411881   -0.014566674924227169   0.04669743735653363
0.6739212553411881   -0.014566674924227169   0.04669743735653363
0.6739212553411881   -0.014566674924227169   0.04669743735653363
0.9516021176329045   -0.03378410942530166   -0.031182130231966233
0.9516021176329045   -0.03378410942530166   -0.031182130231966233
0.9516021176329045   -0.03378410942530166   -0.031182130231966233
0.9516021176329045   -0.03378410942530166   -0.031182130231966233
0.6190686965489788   -0.1506248004071413   -0.09150723112159663
0.6190686965489788   -0.1506248004071413   -0.09150723112159663
0.6190686965489788   -0.1506248004071413   -0.09150723112159663
0.6190686965489788   -0.1506248004071413   -0.09150723112159663
1.4075856346995106   0.13381788857821666   0.05495587551041504
1.4075856346995106   0.13381788857821666   0.05495587551041504
1.4075856346995106   0.13381788857821666   0.05495587551041504
1.4075856346995106   0.13381788857821666   0.05495587551041504
1.381766511748982   0.021370329709132385   -0.1327838871608443
1.381766511748982   0.021370329709132385   -0.1327838871608443
1.381766511748982   0.021370329709132385   -0.1327838871608443
1.381766511748982   0.021370329709132385   -0.1327838871608443
0.6788383784589033   0.006450085742941869   0.034778052457779554
0.6788383784589033   0.006450085742941869   0.034778052457779554
0.6788383784589033   0.006450085742941869   0.034778052457779554
0.6788383784589033   0.006450085742941869   0.034778052457779554
0.9945819675516385   -0.0040070840725789925   -0.00953486210333089
0.9945819675516385   -0.0040070840725789925   -0.00953486210333089
0.9945819675516385   -0.0040070840725789925   -0.00953486210333089
0.9945819675516385   -0.0040070840725789925   -0.00953486210333089
0.6260555657094173   -0.1231268893132953   -0.09955903623341822
0.6260555657094173   -0.1231268893132953   -0.09955903623341822
0.6260555657094173   -0.1231268893132953   -0.09955903623341822
0.6260555657094173   -0.1231268893132953   -0.09955903623341822
1.4432555290168956   0.1596535092838012   0.036378019604068425
1.4432555290168956   0.1596535092838012   0.036378019604068425
1.4432555290168956   0.1596535092838012   0.036378019604068425
1.4432555290168956   0.1596535092838012   0.036378019604068425
1.4341324180385495   0.09306488124730883   -0.12486846528999086
1.4341324180385495   0.09306488124730883   -0.12486846528999086
1.4341324180385495   0.09306488124730883   -0.12486846528999086
1.4341324180385495   0.09306488124730883   -0.12486846528999086
0.6810580811508133   0.052917087991758094   0.02538400807662436
0.6810580811508133   0.052917087991758094   0.02538400807662436
0.6810580811508133   0.052917087991758094   0.02538400807662436
0.6810580811508133   0.052917087991758094   0.02538400807662436
1.0018475190091096   0.030058063117352984   0.01440244575932182
1.0018475190091096   0.030058063117352984   0.01440244575932182
1.0018475190091096   0.030058063117352984   0.01440244575932182
1.0018475190091096   0.030058063117352984   0.01440244575932182
-1.5821227805222455   -0.051798243371334596   0.10306984678816679
-1.5821227805222455   -0.051798243371334596   0.10306984678816679
-1.5821227805222455   -0.051798243371334596   0.10306984678816679
-1.5821227805222455   -0.051798243371334596   0.10306984678816679
-1.106530536427779   -0.07380435580869002   -0.03895439561449769
-1.106530536427779   -0.07380435580869002   -0.03895439561449769
-1.106530536427779   -0.07380435580869002   -0.03895439561449769
-1.106530536427779   -0.07380435580869002   -0.03895439561449769
-1.0415761028898747   0.10440868172699011   0.08790222819968459
-1.0415761028898747   0.10440868172699011   0.08790222819968459
-1.0415761028898747   0.10440868172699011   0.08790222819968459
-1.0415761028898747   0.10440868172699011   0.08790222819968459
-1.5822509050314213   -0.13021441885295643   -0.05697550535233212
-1.5822509050314213   -0.13021441885295643   -0.05697550535233212
-1.5822509050314213   -0.13021441885295643   -0.05697550535233212
-1.5822509050314213   -0.13021441885295643   -0.05697550535233212
-1.2736865304599114   -0.020324377553526063   -0.0027190866563978205
-1.2736865304599114   -0.020324377553526063   -0.0027190866563978205
-1.2736865304599114   -0.020324377553526063   -0.0027190866563978205
-1.2736865304599114   -0.020324377553526063   -0.0027190866563978205
-1.523177177662551   0.010119803050275544   0.098058909588788
-1.523177177662551   0.010119803050275544   0.098058909588788
-1.523177177662551   0.010119803050275544   0.098058909588788
-1.523177177662551   0.010119803050275544   0.098058909588788
-1.0958457173066285   -0.03112142722412889   -0.047915734932956984
-1.0958457173066285   -0.03112142722412889   -0.047915734932956984
-1.0958457173066285   -0.03112142722412889   -0.047915734932956984
-1.0958457173066285   -0.03112142722412889   -0.047915734932956984
-1.0317708417248295   0.12610606637994703   0.07429504310754068
-1.0317708417248295   0.12610606637994703   0.07429504310754068
-1.0317708417248295   0.12610606637994703   0.07429504310754068
-1.0317708417248295   0.12610606637994703   0.07429504310754068
-1.5448608090931053   -0.10603111753409791   -0.07204033484942449
-1.5448608090931053   -0.10603111753409791   -0.07204033484942449
-1.5448608090931053   -0.10603111753409791   -0.07204033484942449
-1.5448608090931053   -0.10603111753409791   -0.07204033484942449
-1.2648255971386926   0.008299628938519044   0.013425304620071674
-1.2648255971386926   0.008299628938519044   0.013425304620071674
-1.2648255971386926   0.008299628938519044   0.013425304620071674
-1.2648255971386926   0.008299628938519044   0.013425304620071674
-1.4862852399660613   0.03608788063377655   0.07871851261791998
-1.4862852399660613   0.03608788063377655   0.07871851261791998
-1.4862852399660613   0.03608788063377655   0.07871851261791998
-1.4862852399660613   0.03608788063377655   0.07871851261791998
-1.0860013636135473   -0.011667884549594415   -0.05908361540649553
-1.0860013636135473   -0.011667884549594415   -0.05908361540649553
-1.0860013636135473   -0.011667884549594415   -0.05908361540649553
-1.0860013636135473   -0.011667884549594415   -0.05908361540649553
-1.0263396659488881   0.14720183047140792   0.06393272598105144
-1.0263396659488881   0.14720183047140792   0.06393272598105144
-1.0263396659488881   0.14720183047140792   0.06393272598105144
-1.0263396659488881   0.14720183047140792   0.06393272598105144
-1.4947651018435317   -0.07407343845088016   -0.08626122880415034
-1.4947651018435317   -0.07407343845088016   -0.08626122880415034
-1.4947651018435317   -0.07407343845088016   -0.08626122880415034
-1.4947651018435317   -0.07407343845088016   -0.08626122880415034
-1.2173932521540762   0.03510436914342735   0.036093806686964075
-1.2173932521540762   0.03510436914342735   0.036093806686964075
-1.2173932521540762   0.03510436914342735   0.036093806686964075
-1.2173932521540762   0.03510436914342735   0.036093806686964075
-1.0941489667441362   -0.0894640184070131   0.03861311540203166
-1.0941489667441362   -0.0894640184070131   0.03861311540203166
-1.0941489667441362   -0.0894640184070131   0.03861311540203166
-1.0941489667441362   -0.0894640184070131   0.03861311540203166
-0.6340677211958012   -0.04782669000904377   -0.006285489021859436
-0.6340677211958012   -0.04782669000904377   -0.006285489021859436
-0.6340677211958012   -0.04782669000904377   -0.006285489021859436
-0.6340677211958012   -0.04782669000904377   -0.006285489021859436
-0.6018599417006882   0.061031315645488   0.04739633026418264
-0.6018599417006882   0.061031315645488   0.04739633026418264
-0.6018599417006882   0.061031315645488   0.04739633026418264
-0.6018599417006882   0.061031315645488   0.04739633026418264
-1.1105846058411524   -0.10643938874523301   -0.04629221608448098
-1.1105846058411524   -0.10643938874523301   -0.04629221608448098
-1.1105846058411524   -0.10643938874523301   -0.04629221608448098
-1.1105846058411524   -0.10643938874523301   -0.04629221608448098
-0.856693330923182   -0.041801061211252905   -0.017453305073008525
-0.856693330923182   -0.041801061211252905   -0.017453305073008525
-0.856693330923182   -0.041801061211252905   -0.017453305073008525
-0.856693330923182   -0.041801061211252905   -0.017453305073008525
-1.0813336398309803   -0.038031704157648644   0.0315549293787914
-1.0813336398309803   -0.038031704157648644   0.0315549293787914
-1.0813336398309803   -0.038031704157648644   0.0315549293787914
-1.0813336398309803   -0.038031704157648644   0.0315549293787914
-0.6273595386292097   -0.0036249998604462597   -0.015445338872490035
-0.6273595386292097   -0.0036249998604462597   -0.015445338872490035
-0.6273595386292097   -0.0036249998604462597   -0.015445338872490035
-0.6273595386292097   -0.0036249998604462597   -0.015445338872490035
-0.594203372273688   0.10551789779094778   0.038865240777043425
-0.594203372273688   0.10551789779094778   0.038865240777043425
-0.594203372273688   0.10551789779094778   0.038865240777043425
-0.594203372273688   0.10551789779094778   0.038865240777043425
-1.0956477952589743   -0.06444316092052813   -0.054540497262706746
-1.0956477952589743   -0.06444316092052813   -0.054540497262706746
-1.0956477952589743   -0.06444316092052813   -0.054540497262706746
-1.0956477952589743   -0.06444316092052813   -0.054540497262706746
-0.8402456508177601   0.0019412102925515928   0.0013371495958068927
-0.8402456508177601   0.0019412102925515928   0.0013371495958068927
-0.8402456508177601   0.0019412102925515928   0.0013371495958068927
-0.8402456508177601   0.0019412102925515928   0.0013371495958068927
-1.0641828992562457   0.009514257170924217   0.028826564659483217
-1.0641828992562457   0.009514257170924217   0.028826564659483217
-1.0641828992562457   0.009514257170924217   0.028826564659483217
-1.0641828992562457   0.009514257170924217   0.028826564659483217
-0.6210096620088001   0.03621908596711276   -0.025867396074676356
-0.6210096620088001   0.03621908596711276   -0.025867396074676356
-0.6210096620088001   0.03621908596711276   -0.025867396074676356
-0.6210096620088001   0.03621908596711276   -0.025867396074676356
-0.5868061903109372   0.15290771591571775   0.03092078511097454
-0.5868061903109372   0.15290771591571775   0.03092078511097454
-0.5868061903109372   0.15290771591571775   0.03092078511097454
-0.5868061903109372   0.15290771591571775   0.03092078511097454
-1.0844628082402217   -0.019199022985243314   -0.06028213201896016
-1.0844628082402217   -0.019199022985243314   -0.06028213201896016
-1.0844628082402217   -0.019199022985243314   -0.06028213201896016
-1.0844628082402217   -0.019199022985243314   -0.06028213201896016
-0.833880067829885   0.043084716117642946   0.01922445864011152
-0.833880067829885   0.043084716117642946   0.01922445864011152
-0.833880067829885   0.043084716117642946   0.01922445864011152
-0.833880067829885   0.043084716117642946   0.01922445864011152
-0.6474856840540316   -0.12272242665539798   0.0015204333333367708
-0.6474856840540316   -0.12272242665539798   0.0015204333333367708
-0.6474856840540316   -0.12272242665539798   0.0015204333333367708
-0.6474856840540316   -0.12272242665539798   0.0015204333333367708
-0.16651818609251143   -0.0142335563604701   0.02640786716699044
-0.16651818609251143   -0.0142335563604701   0.02640786716699044
-0.16651818609251143   -0.0142335563604701   0.02640786716699044
-0.16651818609251143   -0.0142335563604701   0.02640786716699044
-0.16241332127675837   0.025275219009944457   0.009005615009121098
-0.16241332127675837   0.025275219009944457   0.009005615009121098
-0.16241332127675837   0.025275219009944457   0.009005615009121098
-0.16241332127675837   0.025275219009944457   0.009005615009121098
-0.6403816819832177   -0.0718317602712055   -0.012349295231774297
-0.6403816819832177   -0.0718317602712055   -0.012349295231774297
-0.6403816819832177   -0.0718317602712055   -0.012349295231774297
-0.6403816819832177   -0.0718317602712055   -0.012349295231774297
-0.40488697600459367   -0.043920523947565494   -0.012399645406300666
-0.40488697600459367   -0.043920523947565494   -0.012399645406300666
-0.40488697600459367   -0.043920523947565494   -0.012399645406300666
-0.40488697600459367   -0.043920523947565494   -0.012399645406300666
-0.6393396632203954   -0.07308780393198404   -0.005883157756884399
-0.6393396632203954   -0.07308780393198404   -0.005883157756884399
-0.6393396632203954   -0.07308780393198404   -0.005883157756884399
-0.6393396632203954   -0.07308780393198404   -0.005883157756884399
-0.15969459393132673   0.030292008778976913   0.017582461967246894
-0.15969459393132673   0.030292008778976913   0.017582461967246894
-0.15969459393132673   0.030292008778976913   0.017582461967246894
-0.15969459393132673   0.030292008778976913   0.017582461967246894
-0.15316876173175037   0.07513351328479251   0.002363379883912251
-0.15316876173175037   0.07513351328479251   0.002363379883912251
-0.15316876173175037   0.07513351328479251   0.002363379883912251
-0.15316876173175037   0.07513351328479251   0.002363379883912251
-0.6327179393325554   -0.026998064737729685   -0.021191631988615855
-0.6327179393325554   -0.026998064737729685   -0.021191631988615855
-0.6327179393325554   -0.026998064737729685   -0.021191631988615855
-0.6327179393325554   -0.026998064737729685   -0.021191631988615855
-0.3950135880496474   0.0008910874486729309   0.005306697458793353
-0.3950135880496474   0.0008910874486729309   0.005306697458793353
-0.3950135880496474   0.0008910874486729309   0.005306697458793353
-0.3950135880496474   0.0008910874486729309   0.005306697458793353
-0.6303680361957685   -0.02338921149439646   -0.01305096954801456
-0.6303680361957685   -0.02338921149439646   -0.01305096954801456
-0.6303680361957685   -0.02338921149439646   -0.01305096954801456
-0.6303680361957685   -0.02338921149439646   -0.01305096954801456
-0.15204644371171636   0.07499688119828554   0.008111602070590616
-0.15204644371171636   0.07499688119828554   0.008111602070590616
-0.15204644371171636   0.07499688119828554   0.008111602070590616
-0.15204644371171636   0.07499688119828554   0.008111602070590616
-0.14487800000550224   0.125714881998078   -0.0054488646706570346
-0.14487800000550224   0.125714881998078   -0.0054488646706570346
-0.14487800000550224   0.125714881998078   -0.0054488646706570346
-0.14487800000550224   0.125714881998078   -0.0054488646706570346
-0.625987661184536   0.01835663313495159   -0.030435486476256532
-0.625987661184536   0.01835663313495159   -0.030435486476256532
-0.625987661184536   0.01835663313495159   -0.030435486476256532
-0.625987661184536   0.01835663313495159   -0.030435486476256532
-0.3859985970792361   0.04591738820813342   0.022364953887042814
-0.3859985970792361   0.04591738820813342   0.022364953887042814
-0.3859985970792361   0.04591738820813342   0.022364953887042814
-0.3859985970792361   0.04591738820813342   0.022364953887042814
-0.20589923284869724   -0.14998692655596224   -0.03474399641844801
-0.20589923284869724   -0.14998692655596224   -0.03474399641844801
-0.20589923284869724   -0.14998692655596224   -0.03474399641844801
-0.20589923284869724   -0.14998692655596224   -0.03474399641844801
0.2949300253836081   0.023444795735707347   0.05727130820815257
0.2949300253836081   0.023444795735707347   0.05727130820815257
0.2949300253836081   0.023444795735707347   0.05727130820815257
0.2949300253836081   0.023444795735707347   0.05727130820815257
0.27447118035082935   -0.007990269243014998   -0.03187729650529569
0.27447118035082935   -0.007990269243014998   -0.03187729650529569
0.27447118035082935   -0.007990269243014998   -0.03187729650529569
0.27447118035082935   -0.007990269243014998   -0.03187729650529569
-0.17200228717873198   -0.03485146142720304   0.021187465936400515
-0.17200228717873198   -0.03485146142720304   0.021187465936400515
-0.17200228717873198   -0.03485146142720304   0.021187465936400515
-0.17200228717873198   -0.03485146142720304   0.021187465936400515
0.046007642542570254   -0.04117221727811597   -0.008822616682792522
0.046007642542570254   -0.04117221727811597   -0.008822616682792522
0.046007642542570254   -0.04117221727811597   -0.008822616682792522
0.046007642542570254   -0.04117221727811597   -0.008822616682792522
-0.19878238021141773   -0.10481534515437628   -0.04274911549985498
-0.19878238021141773   -0.10481534515437628   -0.04274911549985498
-0.19878238021141773   -0.10481534515437628   -0.04274911549985498
-0.19878238021141773   -0.10481534515437628   -0.04274911549985498
0.30572728952788697   0.06644963062853458   0.04996334950843897
0.30572728952788697   0.06644963062853458   0.04996334950843897
0.30572728952788697   0.06644963062853458   0.04996334950843897
0.30572728952788697   0.06644963062853458   0.04996334950843897
0.29166302512614156   0.03917187210681228   -0.03611266093599869
0.29166302512614156   0.03917187210681228   -0.03611266093599869
0.29166302512614156   0.03917187210681228   -0.03611266093599869
0.29166302512614156   0.03917187210681228   -0.03611266093599869
-0.16533032585005988   0.005243465624544676   0.011445606952613813
-0.16533032585005988   0.005243465624544676   0.011445606952613813
-0.16533032585005988   0.005243465624544676   0.011445606952613813
-0.16533032585005988   0.005243465624544676   0.011445606952613813
0.05514692715936507   -0.0005496637158257465   0.00918658001288963
0.05514692715936507   -0.0005496637158257465   0.00918658001288963
0.05514692715936507   -0.0005496637158257465   0.00918658001288963
0.05514692715936507   -0.0005496637158257465   0.00918658001288963
-0.19117416757287625   -0.06056588454431358   -0.05196425149261015
-0.19117416757287625   -0.06056588454431358   -0.05196425149261015
-0.19117416757287625   -0.06056588454431358   -0.05196425149261015
-0.19117416757287625   -0.06056588454431358   -0.05196425149261015
0.32138834991317133   0.10886270533988324   0.04282312976607534
0.32138834991317133   0.10886270533988324   0.04282312976607534
0.32138834991317133   0.10886270533988324   0.04282312976607534
0.32138834991317133   0.10886270533988324   0.04282312976607534
0.30550351685457666   0.09294137899757443   -0.04172204658145971
0.30550351685457666   0.09294137899757443   -0.04172204658145971
0.30550351685457666   0.09294137899757443   -0.04172204658145971
0.30550351685457666   0.09294137899757443   -0.04172204658145971
-0.15819880678257345   0.05148352518775108   0.0021784582543123085
-0.15819880678257345   0.05148352518775108   0.0021784582543123085
-0.15819880678257345   0.05148352518775108   0.0021784582543123085
-0.15819880678257345   0.05148352518775108   0.0021784582543123085
0.06928291762509237   0.04366189718305552   0.027842759801393384
0.06928291762509237   0.04366189718305552   0.027842759801393384
0.06928291762509237   0.04366189718305552   0.027842759801393384
0.06928291762509237   0.04366189718305552   0.027842759801393384
0.23476874566545852   -0.15155880421093323   -0.06853149043595275
0.23476874566545852   -0.15155880421093323   -0.06853149043595275
0.23476874566545852   -0.15155880421093323   -0.06853149043595275
0.23476874566545852   -0.15155880421093323   -0.06853149043595275
0.7053801767379033   0.0694910672826259   0.07411260872591106
0.7053801767379033   0.0694910672826259   0.07411260872591106
0.7053801767379033   0.0694910672826259   0.07411260872591106
0.7053801767379033   0.0694910672826259   0.07411260872591106
0.6983864596097462   -0.03705558887632726   -0.09021233667254042
0.6983864596097462   -0.03705558887632726   -0.09021233667254042
0.6983864596097462   -0.03705558887632726   -0.09021233667254042
0.6983864596097462   -0.03705558887632726   -0.09021233667254042
0.2960032497176887   0.012496489298464059   0.05529629178752006
0.2960032497176887   0.012496489298464059   0.05529629178752006
0.2960032497176887   0.012496489298464059   0.05529629178752006
0.2960032497176887   0.012496489298464059   0.05529629178752006
0.45843061677311225   -0.03128853867898408   -0.024164304756068872
0.45843061677311225   -0.03128853867898408   -0.024164304756068872
0.45843061677311225   -0.03128853867898408   -0.024164304756068872
0.45843061677311225   -0.03128853867898408   -0.024164304756068872
0.241335755598779   -0.12627683353810687   -0.07926785597045582
0.241335755598779   -0.12627683353810687   -0.07926785597045582
0.241335755598779   -0.12627683353810687   -0.07926785597045582
0.241335755598779   -0.12627683353810687   -0.07926785597045582
0.7576175962747074   0.1062813765062896   0.06260638126965987
0.7576175962747074   0.1062813765062896   0.06260638126965987
0.7576175962747074   0.1062813765062896   0.06260638126965987
0.7576175962747074   0.1062813765062896   0.06260638126965987
0.7363862446327828   -0.010630695372447901   -0.10817371929306419
0.7363862446327828   -0.010630695372447901   -0.10817371929306419
0.7363862446327828   -0.010630695372447901   -0.10817371929306419
0.7363862446327828   -0.010630695372447901   -0.10817371929306419
0.30604287622168386   0.031851604939191654   0.043106861709329765
0.30604287622168386   0.031851604939191654   0.043106861709329765
0.30604287622168386   0.031851604939191654   0.043106861709329765
0.30604287622168386   0.031851604939191654   0.043106861709329765
0.4968561793989599   -0.004653691618063394   -0.0029376662358119657
0.4968561793989599   -0.004653691618063394   -0.0029376662358119657
0.4968561793989599   -0.004653691618063394   -0.0029376662358119657
0.4968561793989599   -0.004653691618063394   -0.0029376662358119657
0.2518112514932314   -0.10429240128374687   -0.09190725570999225
0.2518112514932314   -0.10429240128374687   -0.09190725570999225
0.2518112514932314   -0.10429240128374687   -0.09190725570999225
0.2518112514932314   -0.10429240128374687   -0.09190725570999225
0.7953715169998904   0.1302669584891453   0.04585498868089168
0.7953715169998904   0.1302669584891453   0.04585498868089168
0.7953715169998904   0.1302669584891453   0.04585498868089168
0.7953715169998904   0.1302669584891453   0.04585498868089168
0.7947126257208268   0.04741556532089347   -0.11577814984772769
0.7947126257208268   0.04741556532089347   -0.11577814984772769
0.7947126257208268   0.04741556532089347   -0.11577814984772769
0.7947126257208268   0.04741556532089347   -0.11577814984772769
0.31631857474986336   0.07104832352259004   0.03424629836995433
0.31631857474986336   0.07104832352259004   0.03424629836995433
0.31631857474986336   0.07104832352259004   0.03424629836995433
0.31631857474986336   0.07104832352259004   0.03424629836995433
0.5159565667581945   0.02471910954882174   0.015313537218997537
0.5159565667581945   0.02471910954882174   0.015313537218997537
0.5159565667581945   0.02471910954882174   0.015313537218997537
0.5159565667581945   0.02471910954882174   0.015313537218997537
-0.9491963121714668   -0.016053096287998114   0.09246767773264973
-0.9491963121714668   -0.016053096287998114   0.09246767773264973
-0.9491963121714668   -0.016053096287998114   0.09246767773264973
-0.9491963121714668   -0.016053096287998114   0.09246767773264973
-0.7397831633556534   -0.09379636683168585   -0.045794570642647484
-0.7397831633556534   -0.09379636683168585   -0.045794570642647484
-0.7397831633556534   -0.09379636683168585   -0.045794570642647484
-0.7397831633556534   -0.09379636683168585   -0.045794570642647484
-0.669659076672579   0.0795158347801346   0.07908393445431106
-0.669659076672579   0.0795158347801346   0.07908393445431106
-0.669659076672579   0.0795158347801346   0.07908393445431106
-0.669659076672579   0.0795158347801346   0.07908393445431106
-0.945157023307159   -0.10293475109208887   -0.062312771166672554
-0.945157023307159   -0.10293475109208887   -0.062312771166672554
-0.945157023307159   -0.10293475109208887   -0.062312771166672554
-0.945157023307159   -0.10293475109208887   -0.062312771166672554
-0.7943090324024883   -0.021893154374990703   -0.011596437931905165
-0.7943090324024883   -0.021893154374990703   -0.011596437931905165
-0.7943090324024883   -0.021893154374990703   -0.011596437931905165
-0.7943090324024883   -0.021893154374990703   -0.011596437931905165
-0.8868503227005063   0.03793166236548945   0.08835431840901276
-0.8868503227005063   0.03793166236548945   0.08835431840901276
-0.8868503227005063   0.03793166236548945   0.08835431840901276
-0.8868503227005063   0.03793166236548945   0.08835431840901276
-0.7239203336630189   -0.05730513506122965   -0.05540138065651663
-0.7239203336630189   -0.05730513506122965   -0.05540138065651663
-0.7239203336630189   -0.05730513506122965   -0.05540138065651663
-0.7239203336630189   -0.05730513506122965   -0.05540138065651663
-0.6530125489704723   0.10012670655847306   0.06690052549079767
-0.6530125489704723   0.10012670655847306   0.06690052549079767
-0.6530125489704723   0.10012670655847306   0.06690052549079767
-0.6530125489704723   0.10012670655847306   0.06690052549079767
-0.901808677647081   -0.07958032773760074   -0.07787133638578614
-0.901808677647081   -0.07958032773760074   -0.07787133638578614
-0.901808677647081   -0.07958032773760074   -0.07787133638578614
-0.901808677647081   -0.07958032773760074   -0.07787133638578614
-0.7716495279190123   0.005092636806930145   0.005614419710363007
-0.7716495279190123   0.005092636806930145   0.005614419710363007
-0.7716495279190123   0.005092636806930145   0.005614419710363007
-0.7716495279190123   0.005092636806930145   0.005614419710363007
-0.8434493857723523   0.06294016095832278   0.07140463429192614
-0.8434493857723523   0.06294016095832278   0.07140463429192614
-0.8434493857723523   0.06294016095832278   0.07140463429192614
-0.8434493857723523   0.06294016095832278   0.07140463429192614
-0.7075404517020594   -0.03856239299430872   -0.06704988861434771
-0.7075404517020594   -0.03856239299430872   -0.06704988861434771
-0.7075404517020594   -0.03856239299430872   -0.06704988861434771
-0.7075404517020594   -0.03856239299430872   -0.06704988861434771
-0.6395189228041523   0.1257680552613405   0.05770006071757351
-0.6395189228041523   0.1257680552613405   0.05770006071757351
-0.6395189228041523   0.1257680552613405   0.05770006071757351
-0.6395189228041523   0.1257680552613405   0.05770006071757351
-0.8435666310502157   -0.042196418146002335   -0.09012483957521898
-0.8435666310502157   -0.042196418146002335   -0.09012483957521898
-0.8435666310502157   -0.042196418146002335   -0.09012483957521898
-0.8435666310502157   -0.042196418146002335   -0.09012483957521898
-0.7258904860551267   0.03168496013703756   0.02698119320681827
-0.7258904860551267   0.03168496013703756   0.02698119320681827
-0.7258904860551267   0.03168496013703756   0.02698119320681827
-0.7258904860551267   0.03168496013703756   0.02698119320681827
-0.713917602382184   -0.05382682913612147   0.043563696529135
-0.713917602382184   -0.05382682913612147   0.043563696529135
-0.713917602382184   -0.05382682913612147   0.043563696529135
-0.713917602382184   -0.05382682913612147   0.043563696529135
-0.5235836505079874   -0.07112270649194652   -0.013561893397379217
-0.5235836505079874   -0.07112270649194652   -0.013561893397379217
-0.5235836505079874   -0.07112270649194652   -0.013561893397379217
-0.5235836505079874   -0.07112270649194652   -0.013561893397379217
-0.4844586832079823   0.0361297607435479   0.040427608726222676
-0.4844586832079823   0.0361297607435479   0.040427608726222676
-0.4844586832079823   0.0361297607435479   0.040427608726222676
-0.4844586832079823   0.0361297607435479   0.040427608726222676
-0.7244124701197784   -0.07600503281033466   -0.03916216519120146
-0.7244124701197784   -0.07600503281033466   -0.03916216519120146
-0.7244124701197784   -0.07600503281033466   -0.03916216519120146
-0.7244124701197784   -0.07600503281033466   -0.03916216519120146
-0.6098905531854818   -0.037967152973438764   -0.016394417877589242
-0.6098905531854818   -0.037967152973438764   -0.016394417877589242
-0.6098905531854818   -0.037967152973438764   -0.016394417877589242
-0.6098905531854818   -0.037967152973438764   -0.016394417877589242
-0.6953062367957719   -0.006710398329631967   0.037074366948112926
-0.6953062367957719   -0.006710398329631967   0.037074366948112926
-0.6953062367957719   -0.006710398329631967   0.037074366948112926
-0.6953062367957719   -0.006710398329631967   0.037074366948112926
-0.5103019090347316   -0.029901866239900182   -0.022756893424075934
-0.5103019090347316   -0.029901866239900182   -0.022756893424075934
-0.5103019090347316   -0.029901866239900182   -0.022756893424075934
-0.5103019090347316   -0.029901866239900182   -0.022756893424075934
-0.47010062632929844   0.07804235523944233   0.032339914607469926
-0.47010062632929844   0.07804235523944233   0.032339914607469926
-0.47010062632929844   0.07804235523944233   0.032339914607469926
-0.47010062632929844   0.07804235523944233   0.032339914607469926
-0.7029324085771829   -0.03569108113097222   -0.04688098485329792
-0.7029324085771829   -0.03569108113097222   -0.04688098485329792
-0.7029324085771829   -0.03569108113097222   -0.04688098485329792
-0.7029324085771829   -0.03569108113097222   -0.04688098485329792
-0.5891457281781275   0.002462935546583195   0.001713978322943857
-0.5891457281781275   0.002462935546583195   0.001713978322943857
-0.5891457281781275   0.002462935546583195   0.001713978322943857
-0.5891457281781275   0.002462935546583195   0.001713978322943857
-0.6721186804753795   0.03789173032806603   0.03360484419666939
-0.6721186804753795   0.03789173032806603   0.03360484419666939
-0.6721186804753795   0.03789173032806603   0.03360484419666939
-0.6721186804753795   0.03789173032806603   0.03360484419666939
-0.49714726814110016   0.008226630070403251   -0.033077569282503314
-0.49714726814110016   0.008226630070403251   -0.033077569282503314
-0.49714726814110016   0.008226630070403251   -0.033077569282503314
-0.49714726814110016   0.008226630070403251   -0.033077569282503314
-0.45578896136167873   0.12351953975680051   0.024636834812685464
-0.45578896136167873   0.12351953975680051   0.024636834812685464
-0.45578896136167873   0.12351953975680051   0.024636834812685464
-0.45578896136167873   0.12351953975680051   0.024636834812685464
-0.6851881785269198   0.00832399395461872   -0.05320215658953431
-0.6851881785269198   0.00832399395461872   -0.05320215658953431
-0.6851881785269198   0.00832399395461872   -0.05320215658953431
-0.6851881785269198   0.00832399395461872   -0.05320215658953431
-0.5741384114442281   0.04207748573060599   0.019419107028524854
-0.5741384114442281   0.04207748573060599   0.019419107028524854
-0.5741384114442281   0.04207748573060599   0.019419107028524854
-0.5741384114442281   0.04207748573060599   0.019419107028524854
-0.5229736170768722   -0.08927758544790969   0.007643152714153192
-0.5229736170768722   -0.08927758544790969   0.007643152714153192
-0.5229736170768722   -0.08927758544790969   0.007643152714153192
-0.5229736170768722   -0.08927758544790969   0.007643152714153192
-0.310343415221044   -0.037445438532001094   0.019229676835343518
-0.310343415221044   -0.037445438532001094   0.019229676835343518
-0.310343415221044   -0.037445438532001094   0.019229676835343518
-0.310343415221044   -0.037445438532001094   0.019229676835343518
-0.29964203275664253   -0.0007166766232123145   0.0024864737816165453
-0.29964203275664253   -0.0007166766232123145   0.0024864737816165453
-0.29964203275664253   -0.0007166766232123145   0.0024864737816165453
-0.29964203275664253   -0.0007166766232123145   0.0024864737816165453
-0.5088278686597559   -0.04075196838312796   -0.00453658940596997
-0.5088278686597559   -0.04075196838312796   -0.00453658940596997
-0.5088278686597559   -0.04075196838312796   -0.00453658940596997
-0.5088278686597559   -0.04075196838312796   -0.00453658940596997
-0.4110984723300427   -0.040083129391029614   -0.011934012635059622
-0.4110984723300427   -0.040083129391029614   -0.011934012635059622
-0.4110984723300427   -0.040083129391029614   -0.011934012635059622
-0.4110984723300427   -0.040083129391029614   -0.011934012635059622
-0.5082262845584763   -0.04282245766370764   0.0005418203810043619
-0.5082262845584763   -0.04282245766370764   0.0005418203810043619
-0.5082262845584763   -0.04282245766370764   0.0005418203810043619
-0.5082262845584763   -0.04282245766370764   0.0005418203810043619
-0.296999067803754   0.00459836171152983   0.010386260211317059
-0.296999067803754   0.00459836171152983   0.010386260211317059
-0.296999067803754   0.00459836171152983   0.010386260211317059
-0.296999067803754   0.00459836171152983   0.010386260211317059
-0.28405100395069227   0.04615021289362685   -0.0041171792136962294
-0.28405100395069227   0.04615021289362685   -0.0041171792136962294
-0.28405100395069227   0.04615021289362685   -0.0041171792136962294
-0.28405100395069227   0.04615021289362685   -0.0041171792136962294
-0.4944441986710421   0.0018911552012899069   -0.01322674706310003
-0.4944441986710421   0.0018911552012899069   -0.01322674706310003
-0.4944441986710421   0.0018911552012899069   -0.01322674706310003
-0.4944441986710421   0.0018911552012899069   -0.01322674706310003
-0.3946554622776848   0.0020605912650421554   0.005623521804129922
-0.3946554622776848   0.0020605912650421554   0.005623521804129922
-0.3946554622776848   0.0020605912650421554   0.005623521804129922
-0.3946554622776848   0.0020605912650421554   0.005623521804129922
-0.4927315979262647   0.0039025102613886448   -0.006675098399314874
-0.4927315979262647   0.0039025102613886448   -0.006675098399314874
-0.4927315979262647   0.0039025102613886448   -0.006675098399314874
-0.4927315979262647   0.0039025102613886448   -0.006675098399314874
-0.28282965337367366   0.04707280915532917   0.0010669774096971514
-0.28282965337367366   0.04707280915532917   0.0010669774096971514
-0.28282965337367366   0.04707280915532917   0.0010669774096971514
-0.28282965337367366   0.04707280915532917   0.0010669774096971514
-0.26932553294615935   0.09344524757779915   -0.01165454250039527
-0.26932553294615935   0.09344524757779915   -0.01165454250039527
-0.26932553294615935   0.09344524757779915   -0.01165454250039527
-0.26932553294615935   0.09344524757779915   -0.01165454250039527
-0.4809496340433708   0.044863649698388824   -0.0225106385373611
-0.4809496340433708   0.044863649698388824   -0.0225106385373611
-0.4809496340433708   0.044863649698388824   -0.0225106385373611
-0.4809496340433708   0.044863649698388824   -0.0225106385373611
-0.3790993772752489   0.04435543052554779   0.02247481903594778
-0.3790993772752489   0.04435543052554779   0.02247481903594778
-0.3790993772752489   0.04435543052554779   0.02247481903594778
-0.3790993772752489   0.04435543052554779   0.02247481903594778
-0.3364550852366399   -0.12003442532075106   -0.02873968645389145
-0.3364550852366399   -0.12003442532075106   -0.02873968645389145
-0.3364550852366399   -0.12003442532075106   -0.02873968645389145
-0.3364550852366399   -0.12003442532075106   -0.02873968645389145
-0.10298802790200555   -0.0016858330729148836   0.05042718262060474
-0.10298802790200555   -0.0016858330729148836   0.05042718262060474
-0.10298802790200555   -0.0016858330729148836   0.05042718262060474
-0.10298802790200555   -0.0016858330729148836   0.05042718262060474
-0.1172253161367485   -0.03552427526531092   -0.036953574296122386
-0.1172253161367485   -0.03552427526531092   -0.036953574296122386
-0.1172253161367485   -0.03552427526531092   -0.036953574296122386
-0.1172253161367485   -0.03552427526531092   -0.036953574296122386
-0.2951450332431211   -0.004586371842765662   0.028841166568774425
-0.2951450332431211   -0.004586371842765662   0.028841166568774425
-0.2951450332431211   -0.004586371842765662   0.028841166568774425
-0.2951450332431211   -0.004586371842765662   0.028841166568774425
-0.21292740441077682   -0.03869072593267821   -0.008611028743870697
-0.21292740441077682   -0.03869072593267821   -0.008611028743870697
-0.21292740441077682   -0.03869072593267821   -0.008611028743870697
-0.21292740441077682   -0.03869072593267821   -0.008611028743870697
-0.3225581908150842   -0.07646861164042443   -0.03634238149338487
-0.3225581908150842   -0.07646861164042443   -0.03634238149338487
-0.3225581908150842   -0.07646861164042443   -0.03634238149338487
-0.3225581908150842   -0.07646861164042443   -0.03634238149338487
-0.0861760059732401   0.039994117123897825   0.04277458413221086
-0.0861760059732401   0.039994117123897825   0.04277458413221086
-0.0861760059732401   0.039994117123897825   0.04277458413221086
-0.0861760059732401   0.039994117123897825   0.04277458413221086
-0.09444766085316841   0.008811004056983915   -0.04159936588208148
-0.09444766085316841   0.008811004056983915   -0.04159936588208148
-0.09444766085316841   0.008811004056983915   -0.04159936588208148
-0.09444766085316841   0.008811004056983915   -0.04159936588208148
-0.2818701582940371   0.03370407682687603   0.019233185136330457
-0.2818701582940371   0.03370407682687603   0.019233185136330457
-0.2818701582940371   0.03370407682687603   0.019233185136330457
-0.2818701582940371   0.03370407682687603   0.019233185136330457
-0.19544531664228076   0.000552852630311032   0.009279179187203815
-0.19544531664228076   0.000552852630311032   0.009279179187203815
-0.19544531664228076   0.000552852630311032   0.009279179187203815
-0.19544531664228076   0.000552852630311032   0.009279179187203815
-0.30841347743594444   -0.03468179402701813   -0.04509753971931574
-0.30841347743594444   -0.03468179402701813   -0.04509753971931574
-0.30841347743594444   -0.03468179402701813   -0.04509753971931574
-0.30841347743594444   -0.03468179402701813   -0.04509753971931574
-0.06451972237423499   0.08058149424790355   0.036269836321665944
-0.06451972237423499   0.08058149424790355   0.036269836321665944
-0.06451972237423499   0.08058149424790355   0.036269836321665944
-0.06451972237423499   0.08058149424790355   0.036269836321665944
-0.07517873217134823   0.058332586370173425   -0.04659631044477053
-0.07517873217134823   0.058332586370173425   -0.04659631044477053
-0.07517873217134823   0.058332586370173425   -0.04659631044477053
-0.07517873217134823   0.058332586370173425   -0.04659631044477053
-0.2682805149186401   0.07704462662113519   0.00997116859386507
-0.2682805149186401   0.07704462662113519   0.00997116859386507
-0.2682805149186401   0.07704462662113519   0.00997116859386507
-0.2682805149186401   0.07704462662113519   0.00997116859386507
-0.1773385366411937   0.04147837487105402   0.027177954442215282
-0.1773385366411937   0.04147837487105402   0.027177954442215282
-0.1773385366411937   0.04147837487105402   0.027177954442215282
-0.1773385366411937   0.04147837487105402   0.027177954442215282
-0.1510434269644502   -0.12910275362994506   -0.06243289213459033
-0.1510434269644502   -0.12910275362994506   -0.06243289213459033
-0.1510434269644502   -0.12910275362994506   -0.06243289213459033
-0.1510434269644502   -0.12910275362994506   -0.06243289213459033
0.05398829617405502   0.03834289918073927   0.0768355771303587
0.05398829617405502   0.03834289918073927   0.0768355771303587
0.05398829617405502   0.03834289918073927   0.0768355771303587
0.05398829617405502   0.03834289918073927   0.0768355771303587
0.05442773668834015   -0.06340946897189705   -0.08265798653490615
0.05442773668834015   -0.06340946897189705   -0.08265798653490615
0.05442773668834015   -0.06340946897189705   -0.08265798653490615
0.05442773668834015   -0.06340946897189705   -0.08265798653490615
-0.08219204032050165   0.03980415230692702   0.0628843772128739
-0.08219204032050165   0.03980415230692702   0.0628843772128739
-0.08219204032050165   0.03980415230692702   0.0628843772128739
-0.08219204032050165   0.03980415230692702   0.0628843772128739
-0.03297918657439822   -0.027349556637535452   -0.014654290888737799
-0.03297918657439822   -0.027349556637535452   -0.014654290888737799
-0.03297918657439822   -0.027349556637535452   -0.014654290888737799
-0.03297918657439822   -0.027349556637535452   -0.014654290888737799
-0.13698734400646506   -0.0995154046549004   -0.07177258425511768
-0.13698734400646506   -0.0995154046549004   -0.07177258425511768
-0.13698734400646506   -0.0995154046549004   -0.07177258425511768
-0.13698734400646506   -0.0995154046549004   -0.07177258425511768
0.11311131677322964   0.07979836438885099   0.06755208052879322
0.11311131677322964   0.07979836438885099   0.06755208052879322
0.11311131677322964   0.07979836438885099   0.06755208052879322
0.11311131677322964   0.07979836438885099   0.06755208052879322
0.09800386838864923   -0.03801260092817013   -0.09817515979444447
0.09800386838864923   -0.03801260092817013   -0.09817515979444447
0.09800386838864923   -0.03801260092817013   -0.09817515979444447
0.09800386838864923   -0.03801260092817013   -0.09817515979444447
-0.0661584663535406   0.058231951701391275   0.05042565897165022
-0.0661584663535406   0.058231951701391275   0.05042565897165022
-0.0661584663535406   0.058231951701391275   0.05042565897165022
-0.0661584663535406   0.058231951701391275   0.05042565897165022
0.0028875761960921852   -0.0012278009351468122   0.004742310323906466
0.0028875761960921852   -0.0012278009351468122   0.004742310323906466
0.0028875761960921852   -0.0012278009351468122   0.004742310323906466
0.0028875761960921852   -0.0012278009351468122   0.004742310323906466
-0.12021260496781729   -0.07861956676686911   -0.08299351563147285
-0.12021260496781729   -0.07861956676686911   -0.08299351563147285
-0.12021260496781729   -0.07861956676686911   -0.08299351563147285
-0.12021260496781729   -0.07861956676686911   -0.08299351563147285
0.15594843010659115   0.10272934064375547   0.05080570722333946
0.15594843010659115   0.10272934064375547   0.05080570722333946
0.15594843010659115   0.10272934064375547   0.05080570722333946
0.15594843010659115   0.10272934064375547   0.05080570722333946
0.15903588568578292   0.01171814602066417   -0.10512190007562527
0.15903588568578292   0.01171814602066417   -0.10512190007562527
0.15903588568578292   0.01171814602066417   -0.10512190007562527
0.15903588568578292   0.01171814602066417   -0.10512190007562527
-0.05117680113084158   0.09076984117264571   0.0409760899552923
-0.05117680113084158   0.09076984117264571   0.0409760899552923
-0.05117680113084158   0.09076984117264571   0.0409760899552923
-0.05117680113084158   0.09076984117264571   0.0409760899552923
0.035144384759700886   0.02623338982219048   0.02368867177469344
0.035144384759700886   0.02623338982219048   0.02368867177469344
0.035144384759700886   0.02623338982219048   0.02368867177469344
0.035144384759700886   0.02623338982219048   0.02368867177469344
-0.31543980629691476   0.01778619083265645   0.08777486062032538
-0.31543980629691476   0.01778619083265645   0.08777486062032538
-0.31543980629691476   0.01778619083265645   0.08777486062032538
-0.31543980629691476   0.01778619083265645   0.08777486062032538
-0.3738038377403369   -0.1144872155491149   -0.05178619001524912
-0.3738038377403369   -0.1144872155491149   -0.05178619001524912
-0.3738038377403369   -0.1144872155491149   -0.05178619001524912
-0.3738038377403369   -0.1144872155491149   -0.05178619001524912
-0.2984342507908512   0.053249223637324095   0.07188432996411497
-0.2984342507908512   0.053249223637324095   0.07188432996411497
-0.2984342507908512   0.053249223637324095   0.07188432996411497
-0.2984342507908512   0.053249223637324095   0.07188432996411497
-0.3062816096087106   -0.0754489797522784   -0.06670800748496797
-0.3062816096087106   -0.0754489797522784   -0.06670800748496797
-0.3062816096087106   -0.0754489797522784   -0.06670800748496797
-0.3062816096087106   -0.0754489797522784   -0.06670800748496797
-0.31527370923129294   -0.024257286321540415   -0.023954481673241747
-0.31527370923129294   -0.024257286321540415   -0.023954481673241747
-0.31527370923129294   -0.024257286321540415   -0.023954481673241747
-0.31527370923129294   -0.024257286321540415   -0.023954481673241747
-0.24845421559756034   0.06522030103904883   0.0817596817794479
-0.24845421559756034   0.06522030103904883   0.0817596817794479
-0.24845421559756034   0.06522030103904883   0.0817596817794479
-0.24845421559756034   0.06522030103904883   0.0817596817794479
-0.352645927269609   -0.083804339621616   -0.06212048917072671
-0.352645927269609   -0.083804339621616   -0.06212048917072671
-0.352645927269609   -0.083804339621616   -0.06212048917072671
-0.352645927269609   -0.083804339621616   -0.06212048917072671
-0.2751240999228229   0.07343191010953719   0.060505275125675946
-0.2751240999228229   0.07343191010953719   0.060505275125675946
-0.2751240999228229   0.07343191010953719   0.060505275125675946
-0.2751240999228229   0.07343191010953719   0.060505275125675946
-0.25644033908197705   -0.05263992319091801   -0.08311626917777601
-0.25644033908197705   -0.05263992319091801   -0.08311626917777601
-0.25644033908197705   -0.05263992319091801   -0.08311626917777601
-0.25644033908197705   -0.05263992319091801   -0.08311626917777601
-0.27850225753251745   0.0015373211948089271   -0.00493297827190764
-0.27850225753251745   0.0015373211948089271   -0.00493297827190764
-0.27850225753251745   0.0015373211948089271   -0.00493297827190764
-0.27850225753251745   0.0015373211948089271   -0.00493297827190764
-0.198270265861099   0.08976704720323708   0.06532712653245148
-0.198270265861099   0.08976704720323708   0.06532712653245148
-0.198270265861099   0.08976704720323708   0.06532712653245148
-0.198270265861099   0.08976704720323708   0.06532712653245148
-0.32988179500163567   -0.06556268214255391   -0.07428860801629689
-0.32988179500163567   -0.06556268214255391   -0.07428860801629689
-0.32988179500163567   -0.06556268214255391   -0.07428860801629689
-0.32988179500163567   -0.06556268214255391   -0.07428860801629689
-0.253789901342291   0.10423587054366659   0.05225987416520103
-0.253789901342291   0.10423587054366659   0.05225987416520103
-0.253789901342291   0.10423587054366659   0.05225987416520103
-0.253789901342291   0.10423587054366659   0.05225987416520103
-0.18991567184509076   -0.009280878126969143   -0.09363873996723615
-0.18991567184509076   -0.009280878126969143   -0.09363873996723615
-0.18991567184509076   -0.009280878126969143   -0.09363873996723615
-0.18991567184509076   -0.009280878126969143   -0.09363873996723615
-0.23426950077579606   0.02847260854944013   0.015442911206077284
-0.23426950077579606   0.02847260854944013   0.015442911206077284
-0.23426950077579606   0.02847260854944013   0.015442911206077284
-0.23426950077579606   0.02847260854944013   0.015442911206077284
-0.3347135802294158   -0.02066728113225287   0.04984516312248666
-0.3347135802294158   -0.02066728113225287   0.04984516312248666
-0.3347135802294158   -0.02066728113225287   0.04984516312248666
-0.3347135802294158   -0.02066728113225287   0.04984516312248666
-0.4146972741878109   -0.0933807661178093   -0.02023461570528481
-0.4146972741878109   -0.0933807661178093   -0.02023461570528481
-0.4146972741878109   -0.0933807661178093   -0.02023461570528481
-0.4146972741878109   -0.0933807661178093   -0.02023461570528481
-0.36959292200380084   0.0094619464286151   0.03335318288756967
-0.36959292200380084   0.0094619464286151   0.03335318288756967
-0.36959292200380084   0.0094619464286151   0.03335318288756967
-0.36959292200380084   0.0094619464286151   0.03335318288756967
-0.33844165984264857   -0.044239316943043026   -0.030664174714497075
-0.33844165984264857   -0.044239316943043026   -0.030664174714497075
-0.33844165984264857   -0.044239316943043026   -0.030664174714497075
-0.33844165984264857   -0.044239316943043026   -0.030664174714497075
-0.36460797983097587   -0.03436182164471118   -0.016888523821510765
-0.36460797983097587   -0.03436182164471118   -0.016888523821510765
-0.36460797983097587   -0.03436182164471118   -0.016888523821510765
-0.36460797983097587   -0.03436182164471118   -0.016888523821510765
-0.3100806218623209   0.02339509127351777   0.04350660697057246
-0.3100806218623209   0.02339509127351777   0.04350660697057246
-0.3100806218623209   0.02339509127351777   0.04350660697057246
-0.3100806218623209   0.02339509127351777   0.04350660697057246
-0.39512296358463206   -0.055341465388446094   -0.02949361319952893
-0.39512296358463206   -0.055341465388446094   -0.02949361319952893
-0.39512296358463206   -0.055341465388446094   -0.02949361319952893
-0.39512296358463206   -0.055341465388446094   -0.02949361319952893
-0.3487738639657742   0.04960691930157106   0.02545047269800979
-0.3487738639657742   0.04960691930157106   0.02545047269800979
-0.3487738639657742   0.04960691930157106   0.02545047269800979
-0.3487738639657742   0.04960691930157106   0.02545047269800979
-0.3106289363645591   -0.005525644923389056   -0.03806135205007134
-0.3106289363645591   -0.005525644923389056   -0.03806135205007134
-0.3106289363645591   -0.005525644923389056   -0.03806135205007134
-0.3106289363645591   -0.005525644923389056   -0.03806135205007134
-0.33975175114190787   0.003117748143922669   0.0006744293931151106
-0.33975175114190787   0.003117748143922669   0.0006744293931151106
-0.33975175114190787   0.003117748143922669   0.0006744293931151106
-0.33975175114190787   0.003117748143922669   0.0006744293931151106
-0.2808899638887256   0.06592931488209894   0.03917855052360057
-0.2808899638887256   0.06592931488209894   0.03917855052360057
-0.2808899638887256   0.06592931488209894   0.03917855052360057
-0.2808899638887256   0.06592931488209894   0.03917855052360057
-0.3754955762096308   -0.018830780271942557   -0.03972038894776723
-0.3754955762096308   -0.018830780271942557   -0.03972038894776723
-0.3754955762096308   -0.018830780271942557   -0.03972038894776723
-0.3754955762096308   -0.018830780271942557   -0.03972038894776723
-0.3278552417935101   0.09401886938936908   0.017939283850807855
-0.3278552417935101   0.09401886938936908   0.017939283850807855
-0.3278552417935101   0.09401886938936908   0.017939283850807855
-0.3278552417935101   0.09401886938936908   0.017939283850807855
-0.2866127331561327   0.03741987071529351   -0.04503828507562681
-0.2866127331561327   0.03741987071529351   -0.04503828507562681
-0.2866127331561327   0.03741987071529351   -0.04503828507562681
-0.2866127331561327   0.03741987071529351   -0.04503828507562681
-0.3162539062771763   0.041799632684628746   0.018541443691754946
-0.3162539062771763   0.041799632684628746   0.018541443691754946
-0.3162539062771763   0.041799632684628746   0.018541443691754946
-0.3162539062771763   0.041799632684628746   0.018541443691754946
-0.40048336226250625   -0.05652377312223672   0.013977950925658223
-0.40048336226250625   -0.05652377312223672   0.013977950925658223
-0.40048336226250625   -0.05652377312223672   0.013977950925658223
-0.40048336226250625   -0.05652377312223672   0.013977950925658223
-0.4555026707533221   -0.05886085929601762   0.012250346280341237
-0.4555026707533221   -0.05886085929601762   0.012250346280341237
-0.4555026707533221   -0.05886085929601762   0.012250346280341237
-0.4555026707533221   -0.05886085929601762   0.012250346280341237
-0.43880085261638496   -0.02670186654242168   -0.004313096245809552
-0.43880085261638496   -0.02670186654242168   -0.004313096245809552
-0.43880085261638496   -0.02670186654242168   -0.004313096245809552
-0.43880085261638496   -0.02670186654242168   -0.004313096245809552
-0.37896588846251983   -0.008031264700621321   0.0039815617232109995
-0.37896588846251983   -0.008031264700621321   0.0039815617232109995
-0.37896588846251983   -0.008031264700621321   0.0039815617232109995
-0.37896588846251983   -0.008031264700621321   0.0039815617232109995
-0.41906556223223185   -0.035401359065896594   -0.01119713772543727
-0.41906556223223185   -0.035401359065896594   -0.01119713772543727
-0.41906556223223185   -0.035401359065896594   -0.01119713772543727
-0.41906556223223185   -0.035401359065896594   -0.01119713772543727
-0.3792830573909104   -0.012552331476699152   0.006916783857328513
-0.3792830573909104   -0.012552331476699152   0.006916783857328513
-0.3792830573909104   -0.012552331476699152   0.006916783857328513
-0.3792830573909104   -0.012552331476699152   0.006916783857328513
-0.43581571437665584   -0.019512830455000824   0.003423558865418865
-0.43581571437665584   -0.019512830455000824   0.003423558865418865
-0.43581571437665584   -0.019512830455000824   0.003423558865418865
-0.43581571437665584   -0.019512830455000824   0.003423558865418865
-0.41693659355833174   0.017847752270913786   -0.010951366827721697
-0.41693659355833174   0.017847752270913786   -0.010951366827721697
-0.41693659355833174   0.017847752270913786   -0.010951366827721697
-0.41693659355833174   0.017847752270913786   -0.010951366827721697
-0.35821719995437695   0.03240406621029665   -0.004563354153729361
-0.35821719995437695   0.03240406621029665   -0.004563354153729361
-0.35821719995437695   0.03240406621029665   -0.004563354153729361
-0.35821719995437695   0.03240406621029665   -0.004563354153729361
-0.3962280559618315   0.004429191344769767   0.0061388183711808784
-0.3962280559618315   0.004429191344769767   0.0061388183711808784
-0.3962280559618315   0.004429191344769767   0.0061388183711808784
-0.3962280559618315   0.004429191344769767   0.0061388183711808784
-0.357502629661943   0.03183960926623476   -0.00042604574750558163
-0.357502629661943   0.03183960926623476   -0.00042604574750558163
-0.357502629661943   0.03183960926623476   -0.00042604574750558163
-0.357502629661943   0.03183960926623476   -0.00042604574750558163
-0.4153247191804907   0.020738653885249397   -0.005782896552851878
-0.4153247191804907   0.020738653885249397   -0.005782896552851878
-0.4153247191804907   0.020738653885249397   -0.005782896552851878
-0.4153247191804907   0.020738653885249397   -0.005782896552851878
-0.3960016370775061   0.06266560475688225   -0.018448860210758714
-0.3960016370775061   0.06266560475688225   -0.018448860210758714
-0.3960016370775061   0.06266560475688225   -0.018448860210758714
-0.3960016370775061   0.06266560475688225   -0.018448860210758714
-0.3384340763885185   0.0730049276619124   -0.01394094739677379
-0.3384340763885185   0.0730049276619124   -0.01394094739677379
-0.3384340763885185   0.0730049276619124   -0.01394094739677379
-0.3384340763885185   0.0730049276619124   -0.01394094739677379
-0.3744424869758084   0.0443318418568274   0.022664062677288946
-0.3744424869758084   0.0443318418568274   0.022664062677288946
-0.3744424869758084   0.0443318418568274   0.022664062677288946
-0.3744424869758084   0.0443318418568274   0.022664062677288946
-0.4686412469531734   -0.08946882684188123   -0.022834567173059143
-0.4686412469531734   -0.08946882684188123   -0.022834567173059143
-0.4686412469531734   -0.08946882684188123   -0.022834567173059143
-0.4686412469531734   -0.08946882684188123   -0.022834567173059143
-0.49973088358666834   -0.025056002473707387   0.0433056605180482
-0.49973088358666834   -0.025056002473707387   0.0433056605180482
-0.49973088358666834   -0.025056002473707387   0.0433056605180482
-0.49973088358666834   -0.025056002473707387   0.0433056605180482
-0.5077162290869648   -0.061359481797545815   -0.042453187361313295
-0.5077162290869648   -0.061359481797545815   -0.042453187361313295
-0.5077162290869648   -0.061359481797545815   -0.042453187361313295
-0.5077162290869648   -0.061359481797545815   -0.042453187361313295
-0.4199284172764757   0.026841537563667653   0.03650567634764758
-0.4199284172764757   0.026841537563667653   0.03650567634764758
-0.4199284172764757   0.026841537563667653   0.03650567634764758
-0.4199284172764757   0.026841537563667653   0.03650567634764758
-0.47204329922165644   -0.03484315959168274   -0.007033135625481041
-0.47204329922165644   -0.03484315959168274   -0.007033135625481041
-0.47204329922165644   -0.03484315959168274   -0.007033135625481041
-0.47204329922165644   -0.03484315959168274   -0.007033135625481041
-0.4480140659203017   -0.04695384796126704   -0.030127181346551853
-0.4480140659203017   -0.04695384796126704   -0.030127181346551853
-0.4480140659203017   -0.04695384796126704   -0.030127181346551853
-0.4480140659203017   -0.04695384796126704   -0.030127181346551853
-0.47683285507507117   0.015233629095450688   0.03537057180515822
-0.47683285507507117   0.015233629095450688   0.03537057180515822
-0.47683285507507117   0.015233629095450688   0.03537057180515822
-0.47683285507507117   0.015233629095450688   0.03537057180515822
-0.47909080352700995   -0.019112634382967883   -0.047629725679916246
-0.47909080352700995   -0.019112634382967883   -0.047629725679916246
-0.47909080352700995   -0.019112634382967883   -0.047629725679916246
-0.47909080352700995   -0.019112634382967883   -0.047629725679916246
-0.4002321026098377   0.06331332739656313   0.02710551278909528
-0.4002321026098377   0.06331332739656313   0.02710551278909528
-0.4002321026098377   0.06331332739656313   0.02710551278909528
-0.4002321026098377   0.06331332739656313   0.02710551278909528
-0.446115113821074   0.003506744619277233   0.010858387959350149
-0.446115113821074   0.003506744619277233   0.010858387959350149
-0.446115113821074   0.003506744619277233   0.010858387959350149
-0.446115113821074   0.003506744619277233   0.010858387959350149
-0.4274482402433584   -0.006992121822203587   -0.03866972615974634
-0.4274482402433584   -0.006992121822203587   -0.03866972615974634
-0.4274482402433584   -0.006992121822203587   -0.03866972615974634
-0.4274482402433584   -0.006992121822203587   -0.03866972615974634
-0.4490471721509402   0.054020308578348095   0.029455488239122536
-0.4490471721509402   0.054020308578348095   0.029455488239122536
-0.4490471721509402   0.054020308578348095   0.029455488239122536
-0.4490471721509402   0.054020308578348095   0.029455488239122536
-0.45403710340699693   0.027446966101872264   -0.052260545514092704
-0.45403710340699693   0.027446966101872264   -0.052260545514092704
-0.45403710340699693   0.027446966101872264   -0.052260545514092704
-0.45403710340699693   0.027446966101872264   -0.052260545514092704
-0.3804812479270034   0.1039838528148678   0.01783483748376926
-0.3804812479270034   0.1039838528148678   0.01783483748376926
-0.3804812479270034   0.1039838528148678   0.01783483748376926
-0.3804812479270034   0.1039838528148678   0.01783483748376926
-0.4240669337911927   0.0415830575746228   0.027972775292983885
-0.4240669337911927   0.0415830575746228   0.027972775292983885
-0.4240669337911927   0.0415830575746228   0.027972775292983885
-0.4240669337911927   0.0415830575746228   0.027972775292983885
-0.5361064392907485   -0.10647398952792225   -0.05715413094814534
-0.5361064392907485   -0.10647398952792225   -0.05715413094814534
-0.5361064392907485   -0.10647398952792225   -0.05715413094814534
-0.5361064392907485   -0.10647398952792225   -0.05715413094814534
-0.5920711867888482   0.008412104963154213   0.07783244409729019
-0.5920711867888482   0.008412104963154213   0.07783244409729019
-0.5920711867888482   0.008412104963154213   0.07783244409729019
-0.5920711867888482   0.008412104963154213   0.07783244409729019
-0.5839765559559406   -0.08834877175947833   -0.07609572748368316
-0.5839765559559406   -0.08834877175947833   -0.07609572748368316
-0.5839765559559406   -0.08834877175947833   -0.07609572748368316
-0.5839765559559406   -0.08834877175947833   -0.07609572748368316
-0.4595794756071283   0.06710329635968369   0.06976780188063444
-0.4595794756071283   0.06710329635968369   0.06976780188063444
-0.4595794756071283   0.06710329635968369   0.06976780188063444
-0.4595794756071283   0.06710329635968369   0.06976780188063444
-0.5211948176604084   -0.022806181461780373   -0.0035475065189983883
-0.5211948176604084   -0.022806181461780373   -0.0035475065189983883
-0.5211948176604084   -0.022806181461780373   -0.0035475065189983883
-0.5211948176604084   -0.022806181461780373   -0.0035475065189983883
-0.5144828150528417   -0.07229999823313898   -0.06534560075511606
-0.5144828150528417   -0.07229999823313898   -0.06534560075511606
-0.5144828150528417   -0.07229999823313898   -0.06534560075511606
-0.5144828150528417   -0.07229999823313898   -0.06534560075511606
-0.5261153452355639   0.05401239410801609   0.0708491602507014
-0.5261153452355639   0.05401239410801609   0.0708491602507014
-0.5261153452355639   0.05401239410801609   0.0708491602507014
-0.5261153452355639   0.05401239410801609   0.0708491602507014
-0.5345961509530056   -0.06367763978300282   -0.0906846138508246
-0.5345961509530056   -0.06367763978300282   -0.0906846138508246
-0.5345961509530056   -0.06367763978300282   -0.0906846138508246
-0.5345961509530056   -0.06367763978300282   -0.0906846138508246
-0.4374260846039529   0.08448002872675833   0.05710120582564264
-0.4374260846039529   0.08448002872675833   0.05710120582564264
-0.4374260846039529   0.08448002872675833   0.05710120582564264
-0.4374260846039529   0.08448002872675833   0.05710120582564264
-0.48771029299990204   0.002968289472001409   0.013628460894243202
-0.48771029299990204   0.002968289472001409   0.013628460894243202
-0.48771029299990204   0.002968289472001409   0.013628460894243202
-0.48771029299990204   0.002968289472001409   0.013628460894243202
-0.4912592585925097   -0.05199188801568003   -0.07559274737470648
-0.4912592585925097   -0.05199188801568003   -0.07559274737470648
-0.4912592585925097   -0.05199188801568003   -0.07559274737470648
-0.4912592585925097   -0.05199188801568003   -0.07559274737470648
-0.477663825106632   0.07589342881725177   0.054405946780788875
-0.477663825106632   0.07589342881725177   0.054405946780788875
-0.477663825106632   0.07589342881725177   0.054405946780788875
-0.477663825106632   0.07589342881725177   0.054405946780788875
-0.4698264748014178   -0.020973270760350687   -0.09908979603908279
-0.4698264748014178   -0.020973270760350687   -0.09908979603908279
-0.4698264748014178   -0.020973270760350687   -0.09908979603908279
-0.4698264748014178   -0.020973270760350687   -0.09908979603908279
-0.417579204660751   0.11044241191459583   0.04703350240440993
-0.417579204660751   0.11044241191459583   0.04703350240440993
-0.417579204660751   0.11044241191459583   0.04703350240440993
-0.417579204660751   0.11044241191459583   0.04703350240440993
-0.442028798927096   0.028738027780162254   0.03349718071450544
-0.442028798927096   0.028738027780162254   0.03349718071450544
-0.442028798927096   0.028738027780162254   0.03349718071450544
-0.442028798927096   0.028738027780162254   0.03349718071450544
0.32425551724746376   0.052478891894630925   0.08498499221564876
0.32425551724746376   0.052478891894630925   0.08498499221564876
0.32425551724746376   0.052478891894630925   0.08498499221564876
0.32425551724746376   0.052478891894630925   0.08498499221564876
-0.008210152366143527   -0.13663525376083285   -0.05617562454487337
-0.008210152366143527   -0.13663525376083285   -0.05617562454487337
-0.008210152366143527   -0.13663525376083285   -0.05617562454487337
-0.008210152366143527   -0.13663525376083285   -0.05617562454487337
0.07226889444051111   0.02673737756323771   0.065673275043391
0.07226889444051111   0.02673737756323771   0.065673275043391
0.07226889444051111   0.02673737756323771   0.065673275043391
0.07226889444051111   0.02673737756323771   0.065673275043391
0.33846208552877277   -0.048054023866025114   -0.07028448906141199
0.33846208552877277   -0.048054023866025114   -0.07028448906141199
0.33846208552877277   -0.048054023866025114   -0.07028448906141199
0.33846208552877277   -0.048054023866025114   -0.07028448906141199
0.1654300949569349   -0.026618113421735375   -0.040446816465196364
0.1654300949569349   -0.026618113421735375   -0.040446816465196364
0.1654300949569349   -0.026618113421735375   -0.040446816465196364
0.1654300949569349   -0.026618113421735375   -0.040446816465196364
0.3962132998334152   0.09372926279358078   0.07668829580220221
0.3962132998334152   0.09372926279358078   0.07668829580220221
0.3962132998334152   0.09372926279358078   0.07668829580220221
0.3962132998334152   0.09372926279358078   0.07668829580220221
0.01806004388553625   -0.11150354534670952   -0.06713005482153608
0.01806004388553625   -0.11150354534670952   -0.06713005482153608
0.01806004388553625   -0.11150354534670952   -0.06713005482153608
0.01806004388553625   -0.11150354534670952   -0.06713005482153608
0.1016857278414981   0.046572797900516466   0.054821269355921215
0.1016857278414981   0.046572797900516466   0.054821269355921215
0.1016857278414981   0.046572797900516466   0.054821269355921215
0.1016857278414981   0.046572797900516466   0.054821269355921215
0.39468010361798855   -0.025643933300860774   -0.0879567607648694
0.39468010361798855   -0.025643933300860774   -0.0879567607648694
0.39468010361798855   -0.025643933300860774   -0.0879567607648694
0.39468010361798855   -0.025643933300860774   -0.0879567607648694
0.2161494451418835   -0.0018758218918876052   -0.01897823337282615
0.2161494451418835   -0.0018758218918876052   -0.01897823337282615
0.2161494451418835   -0.0018758218918876052   -0.01897823337282615
0.2161494451418835   -0.0018758218918876052   -0.01897823337282615
0.45307581617020726   0.11796844619512224   0.060409422500240964
0.45307581617020726   0.11796844619512224   0.060409422500240964
0.45307581617020726   0.11796844619512224   0.060409422500240964
0.45307581617020726   0.11796844619512224   0.060409422500240964
0.04675953090683675   -0.09357006597790922   -0.07966685143895985
0.04675953090683675   -0.09357006597790922   -0.07966685143895985
0.04675953090683675   -0.09357006597790922   -0.07966685143895985
0.04675953090683675   -0.09357006597790922   -0.07966685143895985
0.13023926114432235   0.08296612957566855   0.04744136555653922
0.13023926114432235   0.08296612957566855   0.04744136555653922
0.13023926114432235   0.08296612957566855   0.04744136555653922
0.13023926114432235   0.08296612957566855   0.04744136555653922
0.4692945518040522   0.02452223919467507   -0.09701132021403851
0.4692945518040522   0.02452223919467507   -0.09701132021403851
0.4692945518040522   0.02452223919467507   -0.09701132021403851
0.4692945518040522   0.02452223919467507   -0.09701132021403851
0.25878228418206567   0.025835494380676897   0.0013357258013263667
0.25878228418206567   0.025835494380676897   0.0013357258013263667
0.25878228418206567   0.025835494380676897   0.0013357258013263667
0.25878228418206567   0.025835494380676897   0.0013357258013263667
0.04469047935650995   0.014068469828014957   0.05762381047954621
0.04469047935650995   0.014068469828014957   0.05762381047954621
0.04469047935650995   0.014068469828014957   0.05762381047954621
0.04469047935650995   0.014068469828014957   0.05762381047954621
-0.3091163672599495   -0.1159771948917047   -0.02576505443856343
-0.3091163672599495   -0.1159771948917047   -0.02576505443856343
-0.3091163672599495   -0.1159771948917047   -0.02576505443856343
-0.3091163672599495   -0.1159771948917047   -0.02576505443856343
-0.2582893862858195   -0.01680354611359259   0.026362405875956806
-0.2582893862858195   -0.01680354611359259   0.026362405875956806
-0.2582893862858195   -0.01680354611359259   0.026362405875956806
-0.2582893862858195   -0.01680354611359259   0.026362405875956806
0.046995358689477545   -0.013457962139130461   -0.020499064009408676
0.046995358689477545   -0.013457962139130461   -0.020499064009408676
0.046995358689477545   -0.013457962139130461   -0.020499064009408676
0.046995358689477545   -0.013457962139130461   -0.020499064009408676
-0.12147123257001427   -0.03007214742748228   -0.019459522711530283
-0.12147123257001427   -0.03007214742748228   -0.019459522711530283
-0.12147123257001427   -0.03007214742748228   -0.019459522711530283
-0.12147123257001427   -0.03007214742748228   -0.019459522711530283
0.0749717971812905   0.05480103555562445   0.05112413075490129
0.0749717971812905   0.05480103555562445   0.05112413075490129
0.0749717971812905   0.05480103555562445   0.05112413075490129
0.0749717971812905   0.05480103555562445   0.05112413075490129
-0.28369020060678707   -0.08248691963748671   -0.034958292204986696
-0.28369020060678707   -0.08248691963748671   -0.034958292204986696
-0.28369020060678707   -0.08248691963748671   -0.034958292204986696
-0.28369020060678707   -0.08248691963748671   -0.034958292204986696
-0.23146067998991626   0.021647608417681756   0.01863665828063979
-0.23146067998991626   0.021647608417681756   0.01863665828063979
-0.23146067998991626   0.021647608417681756   0.01863665828063979
-0.23146067998991626   0.021647608417681756   0.01863665828063979
0.0804715527265623   0.02305852972145707   -0.027735338039698323
0.0804715527265623   0.02305852972145707   -0.027735338039698323
0.0804715527265623   0.02305852972145707   -0.027735338039698323
0.0804715527265623   0.02305852972145707   -0.027735338039698323
-0.09303790624138711   0.0038682649384706794   -0.002348651465101652
-0.09303790624138711   0.0038682649384706794   -0.002348651465101652
-0.09303790624138711   0.0038682649384706794   -0.002348651465101652
-0.09303790624138711   0.0038682649384706794   -0.002348651465101652
0.10962232159247787   0.09529357023358329   0.045783465777753274
0.10962232159247787   0.09529357023358329   0.045783465777753274
0.10962232159247787   0.09529357023358329   0.045783465777753274
0.10962232159247787   0.09529357023358329   0.045783465777753274
-0.25813409572214585   -0.04811007896075847   -0.0449727330020679
-0.25813409572214585   -0.04811007896075847   -0.0449727330020679
-0.25813409572214585   -0.04811007896075847   -0.0449727330020679
-0.25813409572214585   -0.04811007896075847   -0.0449727330020679
-0.20447496036420204   0.06510943785827736   0.01127177784736174
-0.20447496036420204   0.06510943785827736   0.01127177784736174
-0.20447496036420204   0.06510943785827736   0.01127177784736174
-0.20447496036420204   0.06510943785827736   0.01127177784736174
0.10996141494726673   0.06444227131851167   -0.03542400717158967
0.10996141494726673   0.06444227131851167   -0.03542400717158967
0.10996141494726673   0.06444227131851167   -0.03542400717158967
0.10996141494726673   0.06444227131851167   -0.03542400717158967
-0.06161638173360648   0.04131850347353613   0.015884936784101942
-0.06161638173360648   0.04131850347353613   0.015884936784101942
-0.06161638173360648   0.04131850347353613   0.015884936784101942
-0.06161638173360648   0.04131850347353613   0.015884936784101942
-0.28108363100588024   -0.02228569517881756   0.020707127118899667
-0.28108363100588024   -0.02228569517881756   0.020707127118899667
-0.28108363100588024   -0.02228569517881756   0.020707127118899667
-0.28108363100588024   -0.02228569517881756   0.020707127118899667
-0.6045884498265729   -0.08228811834064159   0.005372860185869599
-0.6045884498265729   -0.08228811834064159   0.005372860185869599
-0.6045884498265729   -0.08228811834064159   0.005372860185869599
-0.6045884498265729   -0.08228811834064159   0.005372860185869599
-0.581075617800028   -0.051529101215331594   -0.011397891512862749
-0.581075617800028   -0.051529101215331594   -0.011397891512862749
-0.581075617800028   -0.051529101215331594   -0.011397891512862749
-0.581075617800028   -0.051529101215331594   -0.011397891512862749
-0.25333493770648685   0.021453693507134525   0.012877409151896953
-0.25333493770648685   0.021453693507134525   0.012877409151896953
-0.25333493770648685   0.021453693507134525   0.012877409151896953
-0.25333493770648685   0.021453693507134525   0.012877409151896953
-0.4306498463511547   -0.030901838419110317   -0.011314027389178426
-0.4306498463511547   -0.030901838419110317   -0.011314027389178426
-0.4306498463511547   -0.030901838419110317   -0.011314027389178426
-0.4306498463511547   -0.030901838419110317   -0.011314027389178426
-0.2536777110307904   0.01896125470715427   0.013655981330359473
-0.2536777110307904   0.01896125470715427   0.013655981330359473
-0.2536777110307904   0.01896125470715427   0.013655981330359473
-0.2536777110307904   0.01896125470715427   0.013655981330359473
-0.5785263906007158   -0.0468302085403476   -0.0033506481912847844
-0.5785263906007158   -0.0468302085403476   -0.0033506481912847844
-0.5785263906007158   -0.0468302085403476   -0.0033506481912847844
-0.5785263906007158   -0.0468302085403476   -0.0033506481912847844
-0.552870067198862   -0.009198734926519736   -0.01792449259332616
-0.552870067198862   -0.009198734926519736   -0.01792449259332616
-0.552870067198862   -0.009198734926519736   -0.01792449259332616
-0.552870067198862   -0.009198734926519736   -0.01792449259332616
-0.22677090198785504   0.05900850438527564   0.004724652323352178
-0.22677090198785504   0.05900850438527564   0.004724652323352178
-0.22677090198785504   0.05900850438527564   0.004724652323352178
-0.22677090198785504   0.05900850438527564   0.004724652323352178
-0.4015321672159531   0.0062870034337752095   0.005918893783457991
-0.4015321672159531   0.0062870034337752095   0.005918893783457991
-0.4015321672159531   0.0062870034337752095   0.005918893783457991
-0.4015321672159531   0.0062870034337752095   0.005918893783457991
-0.2261014094271825   0.06096334920739959   0.0061172703045908605
-0.2261014094271825   0.06096334920739959   0.0061172703045908605
-0.2261014094271825   0.06096334920739959   0.0061172703045908605
-0.2261014094271825   0.06096334920739959   0.0061172703045908605
-0.5517783850848841   -0.00939240507399397   -0.012272411875966758
-0.5517783850848841   -0.00939240507399397   -0.012272411875966758
-0.5517783850848841   -0.00939240507399397   -0.012272411875966758
-0.5517783850848841   -0.00939240507399397   -0.012272411875966758
-0.5258041986248541   0.03324352921900539   -0.025377817374973348
-0.5258041986248541   0.03324352921900539   -0.025377817374973348
-0.5258041986248541   0.03324352921900539   -0.025377817374973348
-0.5258041986248541   0.03324352921900539   -0.025377817374973348
-0.20134815336118142   0.09667398288205455   -0.004658732161312414
-0.20134815336118142   0.09667398288205455   -0.004658732161312414
-0.20134815336118142   0.09667398288205455   -0.004658732161312414
-0.20134815336118142   0.09667398288205455   -0.004658732161312414
-0.3739280590683061   0.04337161918153118   0.022026752976907614
-0.3739280590683061   0.04337161918153118   0.022026752976907614
-0.3739280590683061   0.04337161918153118   0.022026752976907614
-0.3739280590683061   0.04337161918153118   0.022026752976907614
-0.6042970828756254   -0.05810171592926211   -0.017356707470768326
-0.6042970828756254   -0.05810171592926211   -0.017356707470768326
-0.6042970828756254   -0.05810171592926211   -0.017356707470768326
-0.6042970828756254   -0.05810171592926211   -0.017356707470768326
-0.8968346783178504   -0.05063108347596887   0.035957426721108264
-0.8968346783178504   -0.05063108347596887   0.035957426721108264
-0.8968346783178504   -0.05063108347596887   0.035957426721108264
-0.8968346783178504   -0.05063108347596887   0.035957426721108264
-0.8969879221268853   -0.08551917501561927   -0.04823838169837756
-0.8969879221268853   -0.08551917501561927   -0.04823838169837756
-0.8969879221268853   -0.08551917501561927   -0.04823838169837756
-0.8969879221268853   -0.08551917501561927   -0.04823838169837756
-0.5487562672956645   0.054727366194537136   0.043942393599086256
-0.5487562672956645   0.054727366194537136   0.043942393599086256
-0.5487562672956645   0.054727366194537136   0.043942393599086256
-0.5487562672956645   0.054727366194537136   0.043942393599086256
-0.73260607211434   -0.03128120978978827   -0.004751115577222964
-0.73260607211434   -0.03128120978978827   -0.004751115577222964
-0.73260607211434   -0.03128120978978827   -0.004751115577222964
-0.73260607211434   -0.03128120978978827   -0.004751115577222964
-0.5766515342878827   -0.016637946784696392   -0.02416862838276562
-0.5766515342878827   -0.016637946784696392   -0.02416862838276562
-0.5766515342878827   -0.016637946784696392   -0.02416862838276562
-0.5766515342878827   -0.016637946784696392   -0.02416862838276562
-0.8672724251781865   -0.01233363207990304   0.027153560109407344
-0.8672724251781865   -0.01233363207990304   0.027153560109407344
-0.8672724251781865   -0.01233363207990304   0.027153560109407344
-0.8672724251781865   -0.01233363207990304   0.027153560109407344
-0.8616803628079859   -0.04513183157602971   -0.053672021875720795
-0.8616803628079859   -0.04513183157602971   -0.053672021875720795
-0.8616803628079859   -0.04513183157602971   -0.053672021875720795
-0.8616803628079859   -0.04513183157602971   -0.053672021875720795
-0.5226692949342254   0.08891151762771247   0.0349691161756253
-0.5226692949342254   0.08891151762771247   0.0349691161756253
-0.5226692949342254   0.08891151762771247   0.0349691161756253
-0.5226692949342254   0.08891151762771247   0.0349691161756253
-0.6977179188894258   0.006202124970119044   0.012999595941411556
-0.6977179188894258   0.006202124970119044   0.012999595941411556
-0.6977179188894258   0.006202124970119044   0.012999595941411556
-0.6977179188894258   0.006202124970119044   0.012999595941411556
-0.5496413124757394   0.02151207673726399   -0.03249153064149871
-0.5496413124757394   0.02151207673726399   -0.03249153064149871
-0.5496413124757394   0.02151207673726399   -0.03249153064149871
-0.5496413124757394   0.02151207673726399   -0.03249153064149871
-0.8326604484833767   0.024315506097513595   0.021980212073782188
-0.8326604484833767   0.024315506097513595   0.021980212073782188
-0.8326604484833767   0.024315506097513595   0.021980212073782188
-0.8326604484833767   0.024315506097513595   0.021980212073782188
-0.8300895136017249   -0.00105851684392827   -0.05776874513548968
-0.8300895136017249   -0.00105851684392827   -0.05776874513548968
-0.8300895136017249   -0.00105851684392827   -0.05776874513548968
-0.8300895136017249   -0.00105851684392827   -0.05776874513548968
-0.496852545850942   0.12669394893997626   0.025930026773615708
-0.496852545850942   0.12669394893997626   0.025930026773615708
-0.496852545850942   0.12669394893997626   0.025930026773615708
-0.496852545850942   0.12669394893997626   0.025930026773615708
-0.6715489381205115   0.04118503617432667   0.028916188545606035
-0.6715489381205115   0.04118503617432667   0.028916188545606035
-0.6715489381205115   0.04118503617432667   0.028916188545606035
-0.6715489381205115   0.04118503617432667   0.028916188545606035
-0.9211324712877565   -0.08349930423080322   -0.052663317373588606
-0.9211324712877565   -0.08349930423080322   -0.052663317373588606
-0.9211324712877565   -0.08349930423080322   -0.052663317373588606
-0.9211324712877565   -0.08349930423080322   -0.052663317373588606
-1.2298216265943573   -0.02146185051500843   0.07775860783473168
-1.2298216265943573   -0.02146185051500843   0.07775860783473168
-1.2298216265943573   -0.02146185051500843   0.07775860783473168
-1.2298216265943573   -0.02146185051500843   0.07775860783473168
-1.2124893277182032   -0.11147807859884815   -0.07022922080098054
-1.2124893277182032   -0.11147807859884815   -0.07022922080098054
-1.2124893277182032   -0.11147807859884815   -0.07022922080098054
-1.2124893277182032   -0.11147807859884815   -0.07022922080098054
-0.836417087263992   0.09244121331116367   0.07665540428930563
-0.836417087263992   0.09244121331116367   0.07665540428930563
-0.836417087263992   0.09244121331116367   0.07665540428930563
-0.836417087263992   0.09244121331116367   0.07665540428930563
-1.0047168103308268   -0.017806148085298068   0.00827755412489152
-1.0047168103308268   -0.017806148085298068   0.00827755412489152
-1.0047168103308268   -0.017806148085298068   0.00827755412489152
-1.0047168103308268   -0.017806148085298068   0.00827755412489152
-0.8911637763972987   -0.04507874148973606   -0.05955808657632463
-0.8911637763972987   -0.04507874148973606   -0.05955808657632463
-0.8911637763972987   -0.04507874148973606   -0.05955808657632463
-0.8911637763972987   -0.04507874148973606   -0.05955808657632463
-1.1560933576407335   0.02769115714620146   0.0725813938412976
-1.1560933576407335   0.02769115714620146   0.0725813938412976
-1.1560933576407335   0.02769115714620146   0.0725813938412976
-1.1560933576407335   0.02769115714620146   0.0725813938412976
-1.1566952842566816   -0.08750824337910518   -0.08357095505094635
-1.1566952842566816   -0.08750824337910518   -0.08357095505094635
-1.1566952842566816   -0.08750824337910518   -0.08357095505094635
-1.1566952842566816   -0.08750824337910518   -0.08357095505094635
-0.8076425123117364   0.10819927494234505   0.06318612408714623
-0.8076425123117364   0.10819927494234505   0.06318612408714623
-0.8076425123117364   0.10819927494234505   0.06318612408714623
-0.8076425123117364   0.10819927494234505   0.06318612408714623
-0.9729805466645721   0.0073378410006145756   0.02262231037481731
-0.9729805466645721   0.0073378410006145756   0.02262231037481731
-0.9729805466645721   0.0073378410006145756   0.02262231037481731
-0.9729805466645721   0.0073378410006145756   0.02262231037481731
-0.860742361954021   -0.025355198120635747   -0.06875865106129041
-0.860742361954021   -0.025355198120635747   -0.06875865106129041
-0.860742361954021   -0.025355198120635747   -0.06875865106129041
-0.860742361954021   -0.025355198120635747   -0.06875865106129041
-1.1015756117959548   0.04806605250232268   0.056453111371252626
-1.1015756117959548   0.04806605250232268   0.056453111371252626
-1.1015756117959548   0.04806605250232268   0.056453111371252626
-1.1015756117959548   0.04806605250232268   0.056453111371252626
-1.0880040551043022   -0.05168480797025171   -0.09317774657624588
-1.0880040551043022   -0.05168480797025171   -0.09317774657624588
-1.0880040551043022   -0.05168480797025171   -0.09317774657624588
-1.0880040551043022   -0.05168480797025171   -0.09317774657624588
-0.7823420940960475   0.1272742115143534   0.052635624034615996
-0.7823420940960475   0.1272742115143534   0.052635624034615996
-0.7823420940960475   0.1272742115143534   0.052635624034615996
-0.7823420940960475   0.1272742115143534   0.052635624034615996
-0.9138092861373995   0.03090893207869641   0.04280646176906041
-0.9138092861373995   0.03090893207869641   0.04280646176906041
-0.9138092861373995   0.03090893207869641   0.04280646176906041
-0.9138092861373995   0.03090893207869641   0.04280646176906041
0.9779469967414025   0.08882912558386957   0.08498912307109288
0.9779469967414025   0.08882912558386957   0.08498912307109288
0.9779469967414025   0.08882912558386957   0.08498912307109288
0.9779469967414025   0.08882912558386957   0.08498912307109288
0.35835788073925856   -0.1628809531403912   -0.05595072160779647
0.35835788073925856   -0.1628809531403912   -0.05595072160779647
0.35835788073925856   -0.1628809531403912   -0.05595072160779647
0.35835788073925856   -0.1628809531403912   -0.05595072160779647
0.44276536954007867   -0.0009032949310145838   0.06116587160233473
0.44276536954007867   -0.0009032949310145838   0.06116587160233473
0.44276536954007867   -0.0009032949310145838   0.06116587160233473
0.44276536954007867   -0.0009032949310145838   0.06116587160233473
0.9958412510009143   -0.022830074275080242   -0.07142026936380091
0.9958412510009143   -0.022830074275080242   -0.07142026936380091
0.9958412510009143   -0.022830074275080242   -0.07142026936380091
0.9958412510009143   -0.022830074275080242   -0.07142026936380091
0.6510543983057707   -0.02954691238433732   -0.06293247527582622
0.6510543983057707   -0.02954691238433732   -0.06293247527582622
0.6510543983057707   -0.02954691238433732   -0.06293247527582622
0.6510543983057707   -0.02954691238433732   -0.06293247527582622
1.054253261368606   0.1239358756284469   0.07387383257111488
1.054253261368606   0.1239358756284469   0.07387383257111488
1.054253261368606   0.1239358756284469   0.07387383257111488
1.054253261368606   0.1239358756284469   0.07387383257111488
0.3884813597996746   -0.14354124420725484   -0.06761622782343424
0.3884813597996746   -0.14354124420725484   -0.06761622782343424
0.3884813597996746   -0.14354124420725484   -0.06761622782343424
0.3884813597996746   -0.14354124420725484   -0.06761622782343424
0.47613363535384756   0.01832833302872748   0.05045103914721283
0.47613363535384756   0.01832833302872748   0.05045103914721283
0.47613363535384756   0.01832833302872748   0.05045103914721283
0.47613363535384756   0.01832833302872748   0.05045103914721283
1.0565891698772225   -0.0009669061179878868   -0.09000195125197498
1.0565891698772225   -0.0009669061179878868   -0.09000195125197498
1.0565891698772225   -0.0009669061179878868   -0.09000195125197498
1.0565891698772225   -0.0009669061179878868   -0.09000195125197498
0.7144575130545004   -0.005922360603421467   -0.038096540840781144
0.7144575130545004   -0.005922360603421467   -0.038096540840781144
0.7144575130545004   -0.005922360603421467   -0.038096540840781144
0.7144575130545004   -0.005922360603421467   -0.038096540840781144
1.1156579125332233   0.14751495984763774   0.056859896062388254
1.1156579125332233   0.14751495984763774   0.056859896062388254
1.1156579125332233   0.14751495984763774   0.056859896062388254
1.1156579125332233   0.14751495984763774   0.056859896062388254
0.4214629218159629   -0.12575550381878386   -0.07881869169469528
0.4214629218159629   -0.12575550381878386   -0.07881869169469528
0.4214629218159629   -0.12575550381878386   -0.07881869169469528
0.4214629218159629   -0.12575550381878386   -0.07881869169469528
0.5094541638417969   0.06070171178516093   0.04372643070064619
0.5094541638417969   0.06070171178516093   0.04372643070064619
0.5094541638417969   0.06070171178516093   0.04372643070064619
0.5094541638417969   0.06070171178516093   0.04372643070064619
1.1363447261545354   0.05605639216276745   -0.09709806876346105
1.1363447261545354   0.05605639216276745   -0.09709806876346105
1.1363447261545354   0.05605639216276745   -0.09709806876346105
1.1363447261545354   0.05605639216276745   -0.09709806876346105
0.7536658259530037   0.022801997516828626   -0.0165935542244263
0.7536658259530037   0.022801997516828626   -0.0165935542244263
0.7536658259530037   0.022801997516828626   -0.0165935542244263
0.7536658259530037   0.022801997516828626   -0.0165935542244263
0.42563594691225287   0.049698341711503086   0.0678603144052731
0.42563594691225287   0.049698341711503086   0.0678603144052731
0.42563594691225287   0.049698341711503086   0.0678603144052731
0.42563594691225287   0.049698341711503086   0.0678603144052731
-0.2070343388140505   -0.15196363946940833   -0.029298080555940853
-0.2070343388140505   -0.15196363946940833   -0.029298080555940853
-0.2070343388140505   -0.15196363946940833   -0.029298080555940853
-0.2070343388140505   -0.15196363946940833   -0.029298080555940853
-0.1489407823662077   -0.04442945546320896   0.02057961042588408
-0.1489407823662077   -0.04442945546320896   0.02057961042588408
-0.1489407823662077   -0.04442945546320896   0.02057961042588408
-0.1489407823662077   -0.04442945546320896   0.02057961042588408
0.4291150348882869   0.0010283363018980113   -0.009017432889532963
0.4291150348882869   0.0010283363018980113   -0.009017432889532963
0.4291150348882869   0.0010283363018980113   -0.009017432889532963
0.4291150348882869   0.0010283363018980113   -0.009017432889532963
0.11909660414212667   -0.032189862201526157   -0.026839013888941506
0.11909660414212667   -0.032189862201526157   -0.026839013888941506
0.11909660414212667   -0.032189862201526157   -0.026839013888941506
0.11909660414212667   -0.032189862201526157   -0.026839013888941506
0.4599035670052248   0.08534517093775965   0.06060839305929468
0.4599035670052248   0.08534517093775965   0.06060839305929468
0.4599035670052248   0.08534517093775965   0.06060839305929468
0.4599035670052248   0.08534517093775965   0.06060839305929468
-0.17724803447934473   -0.12626501009526978   -0.039121095507740226
-0.17724803447934473   -0.12626501009526978   -0.039121095507740226
-0.17724803447934473   -0.12626501009526978   -0.039121095507740226
-0.17724803447934473   -0.12626501009526978   -0.039121095507740226
-0.11785011056743291   -0.008455534774285145   0.013016002775524442
-0.11785011056743291   -0.008455534774285145   0.013016002775524442
-0.11785011056743291   -0.008455534774285145   0.013016002775524442
-0.11785011056743291   -0.008455534774285145   0.013016002775524442
0.46568079081452396   0.03331936854861621   -0.01680421906929015
0.46568079081452396   0.03331936854861621   -0.01680421906929015
0.46568079081452396   0.03331936854861621   -0.01680421906929015
0.46568079081452396   0.03331936854861621   -0.01680421906929015
0.14914408653083802   -0.0037561803474953914   -0.010676477033550813
0.14914408653083802   -0.0037561803474953914   -0.010676477033550813
0.14914408653083802   -0.0037561803474953914   -0.010676477033550813
0.14914408653083802   -0.0037561803474953914   -0.010676477033550813
0.4976993294538825   0.12281060100840313   0.05379724166771178
0.4976993294538825   0.12281060100840313   0.05379724166771178
0.4976993294538825   0.12281060100840313   0.05379724166771178
0.4976993294538825   0.12281060100840313   0.05379724166771178
-0.14738090521795671   -0.09545902324524821   -0.04763448200613156
-0.14738090521795671   -0.09545902324524821   -0.04763448200613156
-0.14738090521795671   -0.09545902324524821   -0.04763448200613156
-0.14738090521795671   -0.09545902324524821   -0.04763448200613156
-0.08715431028495724   0.03320101633528838   0.005485443144579192
-0.08715431028495724   0.03320101633528838   0.005485443144579192
-0.08715431028495724   0.03320101633528838   0.005485443144579192
-0.08715431028495724   0.03320101633528838   0.005485443144579192
0.4981220308871594   0.07175270569110585   -0.023985227978478046
0.4981220308871594   0.07175270569110585   -0.023985227978478046
0.4981220308871594   0.07175270569110585   -0.023985227978478046
0.4981220308871594   0.07175270569110585   -0.023985227978478046
0.18622297201917135   0.031097424028703198   0.008187960119262289
0.18622297201917135   0.031097424028703198   0.008187960119262289
0.18622297201917135   0.031097424028703198   0.008187960119262289
0.18622297201917135   0.031097424028703198   0.008187960119262289
-0.16286647823795664   0.010747683759120039   0.028829899096000092
-0.16286647823795664   0.010747683759120039   0.028829899096000092
-0.16286647823795664   0.010747683759120039   0.028829899096000092
-0.16286647823795664   0.010747683759120039   0.028829899096000092
-0.761195051663218   -0.13413946575245939   -0.0038464002624041503
-0.761195051663218   -0.13413946575245939   -0.0038464002624041503
-0.761195051663218   -0.13413946575245939   -0.0038464002624041503
-0.761195051663218   -0.13413946575245939   -0.0038464002624041503
-0.7243112046096464   -0.07889568242125028   -0.017893203586867586
-0.7243112046096464   -0.07889568242125028   -0.017893203586867586
-0.7243112046096464   -0.07889568242125028   -0.017893203586867586
-0.7243112046096464   -0.07889568242125028   -0.017893203586867586
-0.13637230074826706   0.019804590084401368   0.01918797296797701
-0.13637230074826706   0.019804590084401368   0.01918797296797701
-0.13637230074826706   0.019804590084401368   0.01918797296797701
-0.13637230074826706   0.019804590084401368   0.01918797296797701
-0.44697328666138914   -0.04126066851294285   -0.016750234388791044
-0.44697328666138914   -0.04126066851294285   -0.016750234388791044
-0.44697328666138914   -0.04126066851294285   -0.016750234388791044
-0.44697328666138914   -0.04126066851294285   -0.016750234388791044
-0.13023914510362508   0.04785753204370426   0.021800809231883884
-0.13023914510362508   0.04785753204370426   0.021800809231883884
-0.13023914510362508   0.04785753204370426   0.021800809231883884
-0.13023914510362508   0.04785753204370426   0.021800809231883884
-0.7287919298780942   -0.10529619400435908   -0.013896318345997997
-0.7287919298780942   -0.10529619400435908   -0.013896318345997997
-0.7287919298780942   -0.10529619400435908   -0.013896318345997997
-0.7287919298780942   -0.10529619400435908   -0.013896318345997997
-0.6900479215741249   -0.03942667972108366   -0.02417424862211305
-0.6900479215741249   -0.03942667972108366   -0.02417424862211305
-0.6900479215741249   -0.03942667972108366   -0.02417424862211305
-0.6900479215741249   -0.03942667972108366   -0.02417424862211305
-0.10610900347767241   0.05242190894866457   0.010844094501381102
-0.10610900347767241   0.05242190894866457   0.010844094501381102
-0.10610900347767241   0.05242190894866457   0.010844094501381102
-0.10610900347767241   0.05242190894866457   0.010844094501381102
-0.41241771035666647   -0.008235180031319386   -0.0002596467543724071
-0.41241771035666647   -0.008235180031319386   -0.0002596467543724071
-0.41241771035666647   -0.008235180031319386   -0.0002596467543724071
-0.41241771035666647   -0.008235180031319386   -0.0002596467543724071
-0.09870971122723228   0.08644025417764917   0.013822210524597107
-0.09870971122723228   0.08644025417764917   0.013822210524597107
-0.09870971122723228   0.08644025417764917   0.013822210524597107
-0.09870971122723228   0.08644025417764917   0.013822210524597107
-0.6959113474595392   -0.07190915858504246   -0.021008899185225832
-0.6959113474595392   -0.07190915858504246   -0.021008899185225832
-0.6959113474595392   -0.07190915858504246   -0.021008899185225832
-0.6959113474595392   -0.07190915858504246   -0.021008899185225832
-0.6581560242066649   -9.347561654649006e-05   -0.03168815380883417
-0.6581560242066649   -9.347561654649006e-05   -0.03168815380883417
-0.6581560242066649   -9.347561654649006e-05   -0.03168815380883417
-0.6581560242066649   -9.347561654649006e-05   -0.03168815380883417
-0.0772160853926221   0.08573941444463182   0.0026381694969113655
-0.0772160853926221   0.08573941444463182   0.0026381694969113655
-0.0772160853926221   0.08573941444463182   0.0026381694969113655
-0.0772160853926221   0.08573941444463182   0.0026381694969113655
-0.38067050172424305   0.024664968054959033   0.015434384046414035
-0.38067050172424305   0.024664968054959033   0.015434384046414035
-0.38067050172424305   0.024664968054959033   0.015434384046414035
-0.38067050172424305   0.024664968054959033   0.015434384046414035
-0.7416941592161927   -0.029075621463171053   -0.01140578231656026
-0.7416941592161927   -0.029075621463171053   -0.01140578231656026
-0.7416941592161927   -0.029075621463171053   -0.01140578231656026
-0.7416941592161927   -0.029075621463171053   -0.01140578231656026
-1.3025559725251303   -0.10861011592333769   0.025243153648827857
-1.3025559725251303   -0.10861011592333769   0.025243153648827857
-1.3025559725251303   -0.10861011592333769   0.025243153648827857
-1.3025559725251303   -0.10861011592333769   0.025243153648827857
-1.2845316755384943   -0.11198681810355368   -0.05385311964853828
-1.2845316755384943   -0.11198681810355368   -0.05385311964853828
-1.2845316755384943   -0.11198681810355368   -0.05385311964853828
-1.2845316755384943   -0.11198681810355368   -0.05385311964853828
-0.6852162211573154   0.05042397688689548   0.04826205436664656
-0.6852162211573154   0.05042397688689548   0.04826205436664656
-0.6852162211573154   0.05042397688689548   0.04826205436664656
-0.6852162211573154   0.05042397688689548   0.04826205436664656
-0.9965563332810445   -0.04352140038904492   -0.005833730243843448
-0.9965563332810445   -0.04352140038904492   -0.005833730243843448
-0.9965563332810445   -0.04352140038904492   -0.005833730243843448
-0.9965563332810445   -0.04352140038904492   -0.005833730243843448
-0.7062230269614763   0.010979946656754197   -0.01732794442401655
-0.7062230269614763   0.010979946656754197   -0.01732794442401655
-0.7062230269614763   0.010979946656754197   -0.01732794442401655
-0.7062230269614763   0.010979946656754197   -0.01732794442401655
-1.2634539344628175   -0.07247185260189498   0.01202062022819643
-1.2634539344628175   -0.07247185260189498   0.01202062022819643
-1.2634539344628175   -0.07247185260189498   0.01202062022819643
-1.2634539344628175   -0.07247185260189498   0.01202062022819643
-1.2397777440108484   -0.07341682382392295   -0.05956414200592898
-1.2397777440108484   -0.07341682382392295   -0.05956414200592898
-1.2397777440108484   -0.07341682382392295   -0.05956414200592898
-1.2397777440108484   -0.07341682382392295   -0.05956414200592898
-0.6533078552325168   0.08153305665071717   0.03856634671413272
-0.6533078552325168   0.08153305665071717   0.03856634671413272
-0.6533078552325168   0.08153305665071717   0.03856634671413272
-0.6533078552325168   0.08153305665071717   0.03856634671413272
-0.9510481688333738   -0.007013775488031032   0.010697111114625908
-0.9510481688333738   -0.007013775488031032   0.010697111114625908
-0.9510481688333738   -0.007013775488031032   0.010697111114625908
-0.9510481688333738   -0.007013775488031032   0.010697111114625908
-0.6730271233574177   0.046788951046681265   -0.025285888306338405
-0.6730271233574177   0.046788951046681265   -0.025285888306338405
-0.6730271233574177   0.046788951046681265   -0.025285888306338405
-0.6730271233574177   0.046788951046681265   -0.025285888306338405
-1.2190295998643055   -0.0376438421982456   0.0084035971011076
-1.2190295998643055   -0.0376438421982456   0.0084035971011076
-1.2190295998643055   -0.0376438421982456   0.0084035971011076
-1.2190295998643055   -0.0376438421982456   0.0084035971011076
-1.1997577268297825   -0.03159745997241181   -0.06262183680948405
-1.1997577268297825   -0.03159745997241181   -0.06262183680948405
-1.1997577268297825   -0.03159745997241181   -0.06262183680948405
-1.1997577268297825   -0.03159745997241181   -0.06262183680948405
-0.6224033872318702   0.11575585905940136   0.03122569638919674
-0.6224033872318702   0.11575585905940136   0.03122569638919674
-0.6224033872318702   0.11575585905940136   0.03122569638919674
-0.6224033872318702   0.11575585905940136   0.03122569638919674
-0.92020723734621   0.024209479093173614   0.02496192516725359
-0.92020723734621   0.024209479093173614   0.02496192516725359
-0.92020723734621   0.024209479093173614   0.02496192516725359
-0.92020723734621   0.024209479093173614   0.02496192516725359
-1.3080913855455893   -0.06239694112296823   -0.0486470862538356
-1.3080913855455893   -0.06239694112296823   -0.0486470862538356
-1.3080913855455893   -0.06239694112296823   -0.0486470862538356
-1.3080913855455893   -0.06239694112296823   -0.0486470862538356
-1.8640397914208624   -0.06717290207891691   0.08432044777900274
-1.8640397914208624   -0.06717290207891691   0.08432044777900274
-1.8640397914208624   -0.06717290207891691   0.08432044777900274
-1.8640397914208624   -0.06717290207891691   0.08432044777900274
-1.8279811721007386   -0.13408215702787019   -0.06439736256911695
-1.8279811721007386   -0.13408215702787019   -0.06439736256911695
-1.8279811721007386   -0.13408215702787019   -0.06439736256911695
-1.8279811721007386   -0.13408215702787019   -0.06439736256911695
-1.2133528213321334   0.1043737718396806   0.0856805614400309
-1.2133528213321334   0.1043737718396806   0.0856805614400309
-1.2133528213321334   0.1043737718396806   0.0856805614400309
-1.2133528213321334   0.1043737718396806   0.0856805614400309
-1.4844817232866732   -0.018355783541762483   0.017128773325061075
-1.4844817232866732   -0.018355783541762483   0.017128773325061075
-1.4844817232866732   -0.018355783541762483   0.017128773325061075
-1.4844817232866732   -0.018355783541762483   0.017128773325061075
-1.2661073418014415   -0.019642976889636954   -0.05407529217718658
-1.2661073418014415   -0.019642976889636954   -0.05407529217718658
-1.2661073418014415   -0.019642976889636954   -0.05407529217718658
-1.2661073418014415   -0.019642976889636954   -0.05407529217718658
-1.7743684840738787   -0.009207240741012257   0.07879116127831189
-1.7743684840738787   -0.009207240741012257   0.07879116127831189
-1.7743684840738787   -0.009207240741012257   0.07879116127831189
-1.7743684840738787   -0.009207240741012257   0.07879116127831189
-1.760316979237001   -0.11013870379330853   -0.07582930266585715
-1.760316979237001   -0.11013870379330853   -0.07582930266585715
-1.760316979237001   -0.11013870379330853   -0.07582930266585715
-1.760316979237001   -0.11013870379330853   -0.07582930266585715
-1.175776971801459   0.11914375994687215   0.06787913527022153
-1.175776971801459   0.11914375994687215   0.06787913527022153
-1.175776971801459   0.11914375994687215   0.06787913527022153
-1.175776971801459   0.11914375994687215   0.06787913527022153
-1.4494463473877661   0.007773713238421243   0.03090644946447446
-1.4494463473877661   0.007773713238421243   0.03090644946447446
-1.4494463473877661   0.007773713238421243   0.03090644946447446
-1.4494463473877661   0.007773713238421243   0.03090644946447446
-1.2255517917336916   -0.00032503887357410166   -0.06152616557049452
-1.2255517917336916   -0.00032503887357410166   -0.06152616557049452
-1.2255517917336916   -0.00032503887357410166   -0.06152616557049452
-1.2255517917336916   -0.00032503887357410166   -0.06152616557049452
-1.7096893571649023   0.010182897166998772   0.05698720673429773
-1.7096893571649023   0.010182897166998772   0.05698720673429773
-1.7096893571649023   0.010182897166998772   0.05698720673429773
-1.7096893571649023   0.010182897166998772   0.05698720673429773
-1.6863970746103136   -0.08134248722274962   -0.08639288913663284
-1.6863970746103136   -0.08134248722274962   -0.08639288913663284
-1.6863970746103136   -0.08134248722274962   -0.08639288913663284
-1.6863970746103136   -0.08134248722274962   -0.08639288913663284
-1.1427359057640911   0.13308225348813402   0.05780755505842637
-1.1427359057640911   0.13308225348813402   0.05780755505842637
-1.1427359057640911   0.13308225348813402   0.05780755505842637
-1.1427359057640911   0.13308225348813402   0.05780755505842637
-1.3749254595036062   0.02951142482362784   0.051693213210092584
-1.3749254595036062   0.02951142482362784   0.051693213210092584
-1.3749254595036062   0.02951142482362784   0.051693213210092584
-1.3749254595036062   0.02951142482362784   0.051693213210092584
1.6434378218776011   0.12276894931473656   0.08721884952949982
1.6434378218776011   0.12276894931473656   0.08721884952949982
1.6434378218776011   0.12276894931473656   0.08721884952949982
1.6434378218776011   0.12276894931473656   0.08721884952949982
0.7251978431758461   -0.19383993610308445   -0.0400136724493671
0.7251978431758461   -0.19383993610308445   -0.0400136724493671
0.7251978431758461   -0.19383993610308445   -0.0400136724493671
0.7251978431758461   -0.19383993610308445   -0.0400136724493671
0.8088531546635224   -0.033957015529970325   0.05993312069914048
0.8088531546635224   -0.033957015529970325   0.05993312069914048
0.8088531546635224   -0.033957015529970325   0.05993312069914048
0.8088531546635224   -0.033957015529970325   0.05993312069914048
1.6617033424103558   -0.0033447156361728347   -0.06276301481891775
1.6617033424103558   -0.0033447156361728347   -0.06276301481891775
1.6617033424103558   -0.0033447156361728347   -0.06276301481891775
1.6617033424103558   -0.0033447156361728347   -0.06276301481891775
1.1389236846322073   -0.034649584629385166   -0.08919002220072293
1.1389236846322073   -0.034649584629385166   -0.08919002220072293
1.1389236846322073   -0.034649584629385166   -0.08919002220072293
1.1389236846322073   -0.034649584629385166   -0.08919002220072293
1.719683022055328   0.15081705613542848   0.07297361163432864
1.719683022055328   0.15081705613542848   0.07297361163432864
1.719683022055328   0.15081705613542848   0.07297361163432864
1.719683022055328   0.15081705613542848   0.07297361163432864
0.7564385943792121   -0.18255366794091063   -0.05354302831146318
0.7564385943792121   -0.18255366794091063   -0.05354302831146318
0.7564385943792121   -0.18255366794091063   -0.05354302831146318
0.7564385943792121   -0.18255366794091063   -0.05354302831146318
0.8416194954069333   -0.016267209514330416   0.048466206236601625
0.8416194954069333   -0.016267209514330416   0.048466206236601625
0.8416194954069333   -0.016267209514330416   0.048466206236601625
0.8416194954069333   -0.016267209514330416   0.048466206236601625
1.7188854554214288   0.016166180163815824   -0.078453556328852
1.7188854554214288   0.016166180163815824   -0.078453556328852
1.7188854554214288   0.016166180163815824   -0.078453556328852
1.7188854554214288   0.016166180163815824   -0.078453556328852
1.2106786069005653   -0.013786248965799885   -0.06064915576514561
1.2106786069005653   -0.013786248965799885   -0.06064915576514561
1.2106786069005653   -0.013786248965799885   -0.06064915576514561
1.2106786069005653   -0.013786248965799885   -0.06064915576514561
1.776530300096607   0.17184089968204597   0.05409594752880968
1.776530300096607   0.17184089968204597   0.05409594752880968
1.776530300096607   0.17184089968204597   0.05409594752880968
1.776530300096607   0.17184089968204597   0.05409594752880968
0.7888483845936771   -0.16706819517063842   -0.06458836217337156
0.7888483845936771   -0.16706819517063842   -0.06458836217337156
0.7888483845936771   -0.16706819517063842   -0.06458836217337156
0.7888483845936771   -0.16706819517063842   -0.06458836217337156
0.8712951767656386   0.030964445884861802   0.04249174923596899
0.8712951767656386   0.030964445884861802   0.04249174923596899
0.8712951767656386   0.030964445884861802   0.04249174923596899
0.8712951767656386   0.030964445884861802   0.04249174923596899
1.7892115145368817   0.07324334180085484   -0.08216844171797953
1.7892115145368817   0.07324334180085484   -0.08216844171797953
1.7892115145368817   0.07324334180085484   -0.08216844171797953
1.7892115145368817   0.07324334180085484   -0.08216844171797953
1.2376134720659344   0.014282309031714235   -0.040875750181109186
1.2376134720659344   0.014282309031714235   -0.040875750181109186
1.2376134720659344   0.014282309031714235   -0.040875750181109186
1.2376134720659344   0.014282309031714235   -0.040875750181109186
0.8022586102284365   0.07170384316031322   0.07974638355018002
0.8022586102284365   0.07170384316031322   0.07974638355018002
0.8022586102284365   0.07170384316031322   0.07974638355018002
0.8022586102284365   0.07170384316031322   0.07974638355018002
-0.09866921452056718   -0.23895524858894773   -0.022768157936174677
-0.09866921452056718   -0.23895524858894773   -0.022768157936174677
-0.09866921452056718   -0.23895524858894773   -0.022768157936174677
-0.09866921452056718   -0.23895524858894773   -0.022768157936174677
-0.02656590650243326   -0.08423614441488185   0.020341104917287894
-0.02656590650243326   -0.08423614441488185   0.020341104917287894
-0.02656590650243326   -0.08423614441488185   0.020341104917287894
-0.02656590650243326   -0.08423614441488185   0.020341104917287894
0.7955337279756848   -0.04453543333436363   0.003914405064345587
0.7955337279756848   -0.04453543333436363   0.003914405064345587
0.7955337279756848   -0.04453543333436363   0.003914405064345587
0.7955337279756848   -0.04453543333436363   0.003914405064345587
0.3581665283259553   -0.06674154439291095   -0.04256472799488896
0.3581665283259553   -0.06674154439291095   -0.04256472799488896
0.3581665283259553   -0.06674154439291095   -0.04256472799488896
0.3581665283259553   -0.06674154439291095   -0.04256472799488896
0.8375100831886052   0.09863581841565487   0.07062492937893305
0.8375100831886052   0.09863581841565487   0.07062492937893305
0.8375100831886052   0.09863581841565487   0.07062492937893305
0.8375100831886052   0.09863581841565487   0.07062492937893305
-0.06561505895891356   -0.2244801934084596   -0.034660608371535895
-0.06561505895891356   -0.2244801934084596   -0.034660608371535895
-0.06561505895891356   -0.2244801934084596   -0.034660608371535895
-0.06561505895891356   -0.2244801934084596   -0.034660608371535895
0.006849693897547575   -0.052599704774565215   0.012431511231779144
0.006849693897547575   -0.052599704774565215   0.012431511231779144
0.006849693897547575   -0.052599704774565215   0.012431511231779144
0.006849693897547575   -0.052599704774565215   0.012431511231779144
0.8297412752414435   -0.020683621295285143   -0.0065084828098925865
0.8297412752414435   -0.020683621295285143   -0.0065084828098925865
0.8297412752414435   -0.020683621295285143   -0.0065084828098925865
0.8297412752414435   -0.020683621295285143   -0.0065084828098925865
0.3872128038683837   -0.047322223613986955   -0.027602643769023966
0.3872128038683837   -0.047322223613986955   -0.027602643769023966
0.3872128038683837   -0.047322223613986955   -0.027602643769023966
0.3872128038683837   -0.047322223613986955   -0.027602643769023966
0.8739729619875986   0.1309432604351738   0.06302306919042337
0.8739729619875986   0.1309432604351738   0.06302306919042337
0.8739729619875986   0.1309432604351738   0.06302306919042337
0.8739729619875986   0.1309432604351738   0.06302306919042337
-0.03564569132359466   -0.2024902849800012   -0.050154834668496004
-0.03564569132359466   -0.2024902849800012   -0.050154834668496004
-0.03564569132359466   -0.2024902849800012   -0.050154834668496004
-0.03564569132359466   -0.2024902849800012   -0.050154834668496004
0.03307668572121569   -0.015572447479413288   0.004434351334869902
0.03307668572121569   -0.015572447479413288   0.004434351334869902
0.03307668572121569   -0.015572447479413288   0.004434351334869902
0.03307668572121569   -0.015572447479413288   0.004434351334869902
0.855363029544079   0.009722710968484344   -0.015927251955467417
0.855363029544079   0.009722710968484344   -0.015927251955467417
0.855363029544079   0.009722710968484344   -0.015927251955467417
0.855363029544079   0.009722710968484344   -0.015927251955467417
0.4227346228665872   -0.01828503641875831   -0.011565499785321093
0.4227346228665872   -0.01828503641875831   -0.011565499785321093
0.4227346228665872   -0.01828503641875831   -0.011565499785321093
0.4227346228665872   -0.01828503641875831   -0.011565499785321093
-0.034424386980209665   0.01990341122663014   0.039597319950035015
-0.034424386980209665   0.01990341122663014   0.039597319950035015
-0.034424386980209665   0.01990341122663014   0.039597319950035015
-0.034424386980209665   0.01990341122663014   0.039597319950035015
-0.9162003219489666   -0.30001559104685166   -0.018344170311723758
-0.9162003219489666   -0.30001559104685166   -0.018344170311723758
-0.9162003219489666   -0.30001559104685166   -0.018344170311723758
-0.9162003219489666   -0.30001559104685166   -0.018344170311723758
-0.8431967889833079   -0.1292517427827089   -0.01926920313247204
-0.8431967889833079   -0.1292517427827089   -0.01926920313247204
-0.8431967889833079   -0.1292517427827089   -0.01926920313247204
-0.8431967889833079   -0.1292517427827089   -0.01926920313247204
-0.03095551408709253   -0.10367392440766676   0.01783084698677645
-0.03095551408709253   -0.10367392440766676   0.01783084698677645
-0.03095551408709253   -0.10367392440766676   0.01783084698677645
-0.03095551408709253   -0.10367392440766676   0.01783084698677645
-0.45828043864508083   -0.12138642352792461   -0.03803913630020531
-0.45828043864508083   -0.12138642352792461   -0.03803913630020531
-0.45828043864508083   -0.12138642352792461   -0.03803913630020531
-0.45828043864508083   -0.12138642352792461   -0.03803913630020531
0.0026876040655511597   0.05021123260169603   0.03216128074063211
0.0026876040655511597   0.05021123260169603   0.03216128074063211
0.0026876040655511597   0.05021123260169603   0.03216128074063211
0.0026876040655511597   0.05021123260169603   0.03216128074063211
-0.8747280935829495   -0.28102508623905925   -0.025152382674329135
-0.8747280935829495   -0.28102508623905925   -0.025152382674329135
-0.8747280935829495   -0.28102508623905925   -0.025152382674329135
-0.8747280935829495   -0.28102508623905925   -0.025152382674329135
-0.8017553653316363   -0.09412722463498296   -0.0262552115628312
-0.8017553653316363   -0.09412722463498296   -0.0262552115628312
-0.8017553653316363   -0.09412722463498296   -0.0262552115628312
-0.8017553653316363   -0.09412722463498296   -0.0262552115628312
0.00018057069474954404   -0.08075697149805405   0.007243161941277831
0.00018057069474954404   -0.08075697149805405   0.007243161941277831
0.00018057069474954404   -0.08075697149805405   0.007243161941277831
0.00018057069474954404   -0.08075697149805405   0.007243161941277831
-0.41805101490603874   -0.09614273690244068   -0.021143249831901138
-0.41805101490603874   -0.09614273690244068   -0.021143249831901138
-0.41805101490603874   -0.09614273690244068   -0.021143249831901138
-0.41805101490603874   -0.09614273690244068   -0.021143249831901138
0.03665047912634399   0.08381011090784879   0.02502562169334721
0.03665047912634399   0.08381011090784879   0.02502562169334721
0.03665047912634399   0.08381011090784879   0.02502562169334721
0.03665047912634399   0.08381011090784879   0.02502562169334721
-0.8382504563887169   -0.25871948966638125   -0.04413840181683022
-0.8382504563887169   -0.25871948966638125   -0.04413840181683022
-0.8382504563887169   -0.25871948966638125   -0.04413840181683022
-0.8382504563887169   -0.25871948966638125   -0.04413840181683022
-0.7724729787709352   -0.06065362174635443   -0.034070118079768216
-0.7724729787709352   -0.06065362174635443   -0.034070118079768216
-0.7724729787709352   -0.06065362174635443   -0.034070118079768216
-0.7724729787709352   -0.06065362174635443   -0.034070118079768216
0.020632639576880704   -0.062464346144848026   -0.010893980721370294
0.020632639576880704   -0.062464346144848026   -0.010893980721370294
0.020632639576880704   -0.062464346144848026   -0.010893980721370294
0.020632639576880704   -0.062464346144848026   -0.010893980721370294
-0.38854096507928526   -0.07260920264911364   -0.010579861741752085
-0.38854096507928526   -0.07260920264911364   -0.010579861741752085
-0.38854096507928526   -0.07260920264911364   -0.010579861741752085
-0.38854096507928526   -0.07260920264911364   -0.010579861741752085
-0.8577890354545404   -0.024971687513563157   -0.0013316413728893944
-0.8577890354545404   -0.024971687513563157   -0.0013316413728893944
-0.8577890354545404   -0.024971687513563157   -0.0013316413728893944
-0.8577890354545404   -0.024971687513563157   -0.0013316413728893944
-1.7373895896609644   -0.32255271431135846   -0.014784383374513587
-1.7373895896609644   -0.32255271431135846   -0.014784383374513587
-1.7373895896609644   -0.32255271431135846   -0.014784383374513587
-1.7373895896609644   -0.32255271431135846   -0.014784383374513587
-1.6589240493011739   -0.16544967429119584   -0.05739837337995164
-1.6589240493011739   -0.16544967429119584   -0.05739837337995164
-1.6589240493011739   -0.16544967429119584   -0.05739837337995164
-1.6589240493011739   -0.16544967429119584   -0.05739837337995164
-0.8274559821720688   -0.10768727309334877   0.037870361234355596
-0.8274559821720688   -0.10768727309334877   0.037870361234355596
-0.8274559821720688   -0.10768727309334877   0.037870361234355596
-0.8274559821720688   -0.10768727309334877   0.037870361234355596
-1.2592451087502978   -0.14586180245966268   -0.026820200604636652
-1.2592451087502978   -0.14586180245966268   -0.026820200604636652
-1.2592451087502978   -0.14586180245966268   -0.026820200604636652
-1.2592451087502978   -0.14586180245966268   -0.026820200604636652
-0.8120095229237664   0.014079985447316479   -0.00666460106479734
-0.8120095229237664   0.014079985447316479   -0.00666460106479734
-0.8120095229237664   0.014079985447316479   -0.00666460106479734
-0.8120095229237664   0.014079985447316479   -0.00666460106479734
-1.6750588049723039   -0.2879052292546861   -0.015616596772096189
-1.6750588049723039   -0.2879052292546861   -0.015616596772096189
-1.6750588049723039   -0.2879052292546861   -0.015616596772096189
-1.6750588049723039   -0.2879052292546861   -0.015616596772096189
-1.5997031870013212   -0.12875651145592001   -0.06648616205031013
-1.5997031870013212   -0.12875651145592001   -0.06648616205031013
-1.5997031870013212   -0.12875651145592001   -0.06648616205031013
-1.5997031870013212   -0.12875651145592001   -0.06648616205031013
-0.7871970626698233   -0.08012480303737582   0.03253388014863279
-0.7871970626698233   -0.08012480303737582   0.03253388014863279
-0.7871970626698233   -0.08012480303737582   0.03253388014863279
-0.7871970626698233   -0.08012480303737582   0.03253388014863279
-1.1984150733747578   -0.11065904163724377   -0.008852574926128287
-1.1984150733747578   -0.11065904163724377   -0.008852574926128287
-1.1984150733747578   -0.11065904163724377   -0.008852574926128287
-1.1984150733747578   -0.11065904163724377   -0.008852574926128287
-0.7704663755528316   0.048000488152567494   -0.011937975456362333
-0.7704663755528316   0.048000488152567494   -0.011937975456362333
-0.7704663755528316   0.048000488152567494   -0.011937975456362333
-0.7704663755528316   0.048000488152567494   -0.011937975456362333
-1.6193038377012625   -0.25975176622881246   -0.033494160777111176
-1.6193038377012625   -0.25975176622881246   -0.033494160777111176
-1.6193038377012625   -0.25975176622881246   -0.033494160777111176
-1.6193038377012625   -0.25975176622881246   -0.033494160777111176
-1.55162462321203   -0.09005297420857061   -0.06859723397050312
-1.55162462321203   -0.09005297420857061   -0.06859723397050312
-1.55162462321203   -0.09005297420857061   -0.06859723397050312
-1.55162462321203   -0.09005297420857061   -0.06859723397050312
-0.7640641730713723   -0.06260205342351294   0.00992234209521236
-0.7640641730713723   -0.06260205342351294   0.00992234209521236
-0.7640641730713723   -0.06260205342351294   0.00992234209521236
-0.7640641730713723   -0.06260205342351294   0.00992234209521236
-1.1647755615808253   -0.08919240997408162   -0.002997280684017972
-1.1647755615808253   -0.08919240997408162   -0.002997280684017972
-1.1647755615808253   -0.08919240997408162   -0.002997280684017972
-1.1647755615808253   -0.08919240997408162   -0.002997280684017972
-1.6898448173631038   -0.05760053671873322   -0.042012699477837506
-1.6898448173631038   -0.05760053671873322   -0.042012699477837506
-1.6898448173631038   -0.05760053671873322   -0.042012699477837506
-1.6898448173631038   -0.05760053671873322   -0.042012699477837506
-2.5480109130705917   -0.21781137358393893   0.09664169814263147
-2.5480109130705917   -0.21781137358393893   0.09664169814263147
-2.5480109130705917   -0.21781137358393893   0.09664169814263147
-2.5480109130705917   -0.21781137358393893   0.09664169814263147
-2.4601941445375872   -0.17336018080742482   -0.05614787859004232
-2.4601941445375872   -0.17336018080742482   -0.05614787859004232
-2.4601941445375872   -0.17336018080742482   -0.05614787859004232
-2.4601941445375872   -0.17336018080742482   -0.05614787859004232
-1.587522258980459   0.045384398590462394   0.08877650534195092
-1.587522258980459   0.045384398590462394   0.08877650534195092
-1.587522258980459   0.045384398590462394   0.08877650534195092
-1.587522258980459   0.045384398590462394   0.08877650534195092
-1.9787527489020829   -0.06843420683162282   0.00930635412018524
-1.9787527489020829   -0.06843420683162282   0.00930635412018524
-1.9787527489020829   -0.06843420683162282   0.00930635412018524
-1.9787527489020829   -0.06843420683162282   0.00930635412018524
-1.6245288215579299   -0.004309935237067741   -0.046561973717852936
-1.6245288215579299   -0.004309935237067741   -0.046561973717852936
-1.6245288215579299   -0.004309935237067741   -0.046561973717852936
-1.6245288215579299   -0.004309935237067741   -0.046561973717852936
-2.417217898593612   -0.11769616361339685   0.10306933393580747
-2.417217898593612   -0.11769616361339685   0.10306933393580747
-2.417217898593612   -0.11769616361339685   0.10306933393580747
-2.417217898593612   -0.11769616361339685   0.10306933393580747
-2.3660097755865452   -0.14585183087436765   -0.0668660150508917
-2.3660097755865452   -0.14585183087436765   -0.0668660150508917
-2.3660097755865452   -0.14585183087436765   -0.0668660150508917
-2.3660097755865452   -0.14585183087436765   -0.0668660150508917
-1.5289407040439866   0.07281806001328256   0.08575168126716097
-1.5289407040439866   0.07281806001328256   0.08575168126716097
-1.5289407040439866   0.07281806001328256   0.08575168126716097
-1.5289407040439866   0.07281806001328256   0.08575168126716097
-1.9230075197719874   -0.027607335612437778   0.03936620424975988
-1.9230075197719874   -0.027607335612437778   0.03936620424975988
-1.9230075197719874   -0.027607335612437778   0.03936620424975988
-1.9230075197719874   -0.027607335612437778   0.03936620424975988
-1.5672658323426574   0.017215817285007318   -0.0502717174979045
-1.5672658323426574   0.017215817285007318   -0.0502717174979045
-1.5672658323426574   0.017215817285007318   -0.0502717174979045
-1.5672658323426574   0.017215817285007318   -0.0502717174979045
-2.3264870576765193   -0.08905199853472828   0.07394774215957796
-2.3264870576765193   -0.08905199853472828   0.07394774215957796
-2.3264870576765193   -0.08905199853472828   0.07394774215957796
-2.3264870576765193   -0.08905199853472828   0.07394774215957796
-2.2686196526690448   -0.11981572215055009   -0.08079857623004051
-2.2686196526690448   -0.11981572215055009   -0.08079857623004051
-2.2686196526690448   -0.11981572215055009   -0.08079857623004051
-2.2686196526690448   -0.11981572215055009   -0.08079857623004051
-1.4854745765768016   0.10573165025293824   0.06636837474413117
-1.4854745765768016   0.10573165025293824   0.06636837474413117
-1.4854745765768016   0.10573165025293824   0.06636837474413117
-1.4854745765768016   0.10573165025293824   0.06636837474413117
-1.8183745720820643   0.007312210514058781   0.06943236431346973
-1.8183745720820643   0.007312210514058781   0.06943236431346973
-1.8183745720820643   0.007312210514058781   0.06943236431346973
-1.8183745720820643   0.007312210514058781   0.06943236431346973
2.2454670858013697   0.134529564905414   0.08156458996760163
2.2454670858013697   0.134529564905414   0.08156458996760163
2.2454670858013697   0.134529564905414   0.08156458996760163
2.2454670858013697   0.134529564905414   0.08156458996760163
1.07075080068105   -0.20072586457142405   0.018415684155394005
1.07075080068105   -0.20072586457142405   0.018415684155394005
1.07075080068105   -0.20072586457142405   0.018415684155394005
1.07075080068105   -0.20072586457142405   0.018415684155394005
1.1299864227127476   -0.08457613591269236   0.06279680349609243
1.1299864227127476   -0.08457613591269236   0.06279680349609243
1.1299864227127476   -0.08457613591269236   0.06279680349609243
1.1299864227127476   -0.08457613591269236   0.06279680349609243
2.257392964728161   0.01884749654003781   -0.018010067228389354
2.257392964728161   0.01884749654003781   -0.018010067228389354
2.257392964728161   0.01884749654003781   -0.018010067228389354
2.257392964728161   0.01884749654003781   -0.018010067228389354
1.5788917512552583   -0.04321362654224209   -0.10502837376042136
1.5788917512552583   -0.04321362654224209   -0.10502837376042136
1.5788917512552583   -0.04321362654224209   -0.10502837376042136
1.5788917512552583   -0.04321362654224209   -0.10502837376042136
2.300084791906379   0.1497862418894692   0.06451032331326875
2.300084791906379   0.1497862418894692   0.06451032331326875
2.300084791906379   0.1497862418894692   0.06451032331326875
2.300084791906379   0.1497862418894692   0.06451032331326875
1.0975494406772979   -0.20526003611935567   0.021295793525506396
1.0975494406772979   -0.20526003611935567   0.021295793525506396
1.0975494406772979   -0.20526003611935567   0.021295793525506396
1.0975494406772979   -0.20526003611935567   0.021295793525506396
1.1524612460929138   -0.07186823261690106   0.0477985890960783
1.1524612460929138   -0.07186823261690106   0.0477985890960783
1.1524612460929138   -0.07186823261690106   0.0477985890960783
1.1524612460929138   -0.07186823261690106   0.0477985890960783
2.2970584919756383   0.033180971787148794   -0.005366883730315367
2.2970584919756383   0.033180971787148794   -0.005366883730315367
2.2970584919756383   0.033180971787148794   -0.005366883730315367
2.2970584919756383   0.033180971787148794   -0.005366883730315367
1.6441324273585733   -0.034197486594617243   -0.0717182892932509
1.6441324273585733   -0.034197486594617243   -0.0717182892932509
1.6441324273585733   -0.034197486594617243   -0.0717182892932509
1.6441324273585733   -0.034197486594617243   -0.0717182892932509
2.333167523560239   0.16365429521109637   0.044704950768740245
2.333167523560239   0.16365429521109637   0.044704950768740245
2.333167523560239   0.16365429521109637   0.044704950768740245
2.333167523560239   0.16365429521109637   0.044704950768740245
1.123486081192456   -0.19520768935670557   0.026262221333594835
1.123486081192456   -0.19520768935670557   0.026262221333594835
1.123486081192456   -0.19520768935670557   0.026262221333594835
1.123486081192456   -0.19520768935670557   0.026262221333594835
1.1855207347159233   -0.022322058794492006   0.0436953351263062
1.1855207347159233   -0.022322058794492006   0.0436953351263062
1.1855207347159233   -0.022322058794492006   0.0436953351263062
1.1855207347159233   -0.022322058794492006   0.0436953351263062
2.3382866147756936   0.06596309818761709   -0.0007255208863255896
2.3382866147756936   0.06596309818761709   -0.0007255208863255896
2.3382866147756936   0.06596309818761709   -0.0007255208863255896
2.3382866147756936   0.06596309818761709   -0.0007255208863255896
1.6523345141759351   -0.015837186747994114   -0.05356485192899656
1.6523345141759351   -0.015837186747994114   -0.05356485192899656
1.6523345141759351   -0.015837186747994114   -0.05356485192899656
1.6523345141759351   -0.015837186747994114   -0.05356485192899656
1.129971755304307   0.02840457958609438   0.08539001311416164
1.129971755304307   0.02840457958609438   0.08539001311416164
1.129971755304307   0.02840457958609438   0.08539001311416164
1.129971755304307   0.02840457958609438   0.08539001311416164
0.06019975059664688   -0.40023481467504085   0.04123833466044115
0.06019975059664688   -0.40023481467504085   0.04123833466044115
0.06019975059664688   -0.40023481467504085   0.04123833466044115
0.06019975059664688   -0.40023481467504085   0.04123833466044115
0.1374540638831701   -0.16925493507632866   0.0383965604470966
0.1374540638831701   -0.16925493507632866   0.0383965604470966
0.1374540638831701   -0.16925493507632866   0.0383965604470966
0.1374540638831701   -0.16925493507632866   0.0383965604470966
1.1009414497112489   -0.19300265358318452   0.025998456159081695
1.1009414497112489   -0.19300265358318452   0.025998456159081695
1.1009414497112489   -0.19300265358318452   0.025998456159081695
1.1009414497112489   -0.19300265358318452   0.025998456159081695
0.587400039742689   -0.17964154817824432   -0.06726010502370189
0.587400039742689   -0.17964154817824432   -0.06726010502370189
0.587400039742689   -0.17964154817824432   -0.06726010502370189
0.587400039742689   -0.17964154817824432   -0.06726010502370189
1.1568400231229885   0.041200565507615056   0.07128810412699649
1.1568400231229885   0.041200565507615056   0.07128810412699649
1.1568400231229885   0.041200565507615056   0.07128810412699649
1.1568400231229885   0.041200565507615056   0.07128810412699649
0.09631156177906204   -0.38870208285948304   0.05213119770971454
0.09631156177906204   -0.38870208285948304   0.05213119770971454
0.09631156177906204   -0.38870208285948304   0.05213119770971454
0.09631156177906204   -0.38870208285948304   0.05213119770971454
0.16853560184002483   -0.1460520280412517   0.027855156861693355
0.16853560184002483   -0.1460520280412517   0.027855156861693355
0.16853560184002483   -0.1460520280412517   0.027855156861693355
0.16853560184002483   -0.1460520280412517   0.027855156861693355
1.1275360384781663   -0.18086733492009172   0.032171653325532165
1.1275360384781663   -0.18086733492009172   0.032171653325532165
1.1275360384781663   -0.18086733492009172   0.032171653325532165
1.1275360384781663   -0.18086733492009172   0.032171653325532165
0.6138795918083316   -0.1707726171609909   -0.03362948005338401
0.6138795918083316   -0.1707726171609909   -0.03362948005338401
0.6138795918083316   -0.1707726171609909   -0.03362948005338401
0.6138795918083316   -0.1707726171609909   -0.03362948005338401
1.1818961442635418   0.06305834878132388   0.060046498550993074
1.1818961442635418   0.06305834878132388   0.060046498550993074
1.1818961442635418   0.06305834878132388   0.060046498550993074
1.1818961442635418   0.06305834878132388   0.060046498550993074
0.12837370603339532   -0.37577950176391134   0.05677315155120531
0.12837370603339532   -0.37577950176391134   0.05677315155120531
0.12837370603339532   -0.37577950176391134   0.05677315155120531
0.12837370603339532   -0.37577950176391134   0.05677315155120531
0.21622744416052747   -0.11122436024194451   0.018472977375939767
0.21622744416052747   -0.11122436024194451   0.018472977375939767
0.21622744416052747   -0.11122436024194451   0.018472977375939767
0.21622744416052747   -0.11122436024194451   0.018472977375939767
1.1566543699645084   -0.16241330365383166   0.039454756228579274
1.1566543699645084   -0.16241330365383166   0.039454756228579274
1.1566543699645084   -0.16241330365383166   0.039454756228579274
1.1566543699645084   -0.16241330365383166   0.039454756228579274
0.6602343365424995   -0.14926566755831472   0.005499636775721059
0.6602343365424995   -0.14926566755831472   0.005499636775721059
0.6602343365424995   -0.14926566755831472   0.005499636775721059
0.6602343365424995   -0.14926566755831472   0.005499636775721059
0.12767950791368946   -0.07657527474821088   0.05497758131882401
0.12767950791368946   -0.07657527474821088   0.05497758131882401
0.12767950791368946   -0.07657527474821088   0.05497758131882401
0.12767950791368946   -0.07657527474821088   0.05497758131882401
-0.9587855474483951   -0.687780696121599   0.05963965833432722
-0.9587855474483951   -0.687780696121599   0.05963965833432722
-0.9587855474483951   -0.687780696121599   0.05963965833432722
-0.9587855474483951   -0.687780696121599   0.05963965833432722
-0.836596671749578   -0.26755457265625227   0.004068763406273081
-0.836596671749578   -0.26755457265625227   0.004068763406273081
-0.836596671749578   -0.26755457265625227   0.004068763406273081
-0.836596671749578   -0.26755457265625227   0.004068763406273081
0.06792269469722262   -0.5011209224787757   0.022605701919810095
0.06792269469722262   -0.5011209224787757   0.022605701919810095
0.06792269469722262   -0.5011209224787757   0.022605701919810095
0.06792269469722262   -0.5011209224787757   0.022605701919810095
-0.41253297849124837   -0.38601173873848427   -0.08071353277085623
-0.41253297849124837   -0.38601173873848427   -0.08071353277085623
-0.41253297849124837   -0.38601173873848427   -0.08071353277085623
-0.41253297849124837   -0.38601173873848427   -0.08071353277085623
0.16022566843066954   -0.06033660639983629   0.04333625450810539
0.16022566843066954   -0.06033660639983629   0.04333625450810539
0.16022566843066954   -0.06033660639983629   0.04333625450810539
0.16022566843066954   -0.06033660639983629   0.04333625450810539
-0.9075611485485385   -0.687000391800694   0.0686921985559183
-0.9075611485485385   -0.687000391800694   0.0686921985559183
-0.9075611485485385   -0.687000391800694   0.0686921985559183
-0.9075611485485385   -0.687000391800694   0.0686921985559183
-0.7894684357408162   -0.24011926244276388   8.071365335581004e-05
-0.7894684357408162   -0.24011926244276388   8.071365335581004e-05
-0.7894684357408162   -0.24011926244276388   8.071365335581004e-05
-0.7894684357408162   -0.24011926244276388   8.071365335581004e-05
0.10068374362288368   -0.490168510763033   0.032712348497768884
0.10068374362288368   -0.490168510763033   0.032712348497768884
0.10068374362288368   -0.490168510763033   0.032712348497768884
0.10068374362288368   -0.490168510763033   0.032712348497768884
-0.3648146103802744   -0.3729012060310342   -0.030138458125099993
-0.3648146103802744   -0.3729012060310342   -0.030138458125099993
-0.3648146103802744   -0.3729012060310342   -0.030138458125099993
-0.3648146103802744   -0.3729012060310342   -0.030138458125099993
0.18998070746408263   -0.03869987095359098   0.027728527894321495
0.18998070746408263   -0.03869987095359098   0.027728527894321495
0.18998070746408263   -0.03869987095359098   0.027728527894321495
0.18998070746408263   -0.03869987095359098   0.027728527894321495
-0.8594901778834902   -0.6723126805536788   0.08216542105091407
-0.8594901778834902   -0.6723126805536788   0.08216542105091407
-0.8594901778834902   -0.6723126805536788   0.08216542105091407
-0.8594901778834902   -0.6723126805536788   0.08216542105091407
-0.7117025008734136   -0.20850995900701214   -0.008786904581896515
-0.7117025008734136   -0.20850995900701214   -0.008786904581896515
-0.7117025008734136   -0.20850995900701214   -0.008786904581896515
-0.7117025008734136   -0.20850995900701214   -0.008786904581896515
0.15182836730240798   -0.4594722927619971   0.0447255256053907
0.15182836730240798   -0.4594722927619971   0.0447255256053907
0.15182836730240798   -0.4594722927619971   0.0447255256053907
0.15182836730240798   -0.4594722927619971   0.0447255256053907
-0.30287162790465866   -0.3434451748391191   0.02283674366575525
-0.30287162790465866   -0.3434451748391191   0.02283674366575525
-0.30287162790465866   -0.3434451748391191   0.02283674366575525
-0.30287162790465866   -0.3434451748391191   0.02283674366575525
-0.8555134074946052   -0.13798055733904202   0.026200219320709664
-0.8555134074946052   -0.13798055733904202   0.026200219320709664
-0.8555134074946052   -0.13798055733904202   0.026200219320709664
-0.8555134074946052   -0.13798055733904202   0.026200219320709664
-2.1345759067316705   -1.071039141609754   -0.050732462219540725
-2.1345759067316705   -1.071039141609754   -0.050732462219540725
-2.1345759067316705   -1.071039141609754   -0.050732462219540725
-2.1345759067316705   -1.071039141609754   -0.050732462219540725
-1.932874026453857   -0.3481448955945353   -0.05899970698972752
-1.932874026453857   -0.3481448955945353   -0.05899970698972752
-1.932874026453857   -0.3481448955945353   -0.05899970698972752
-1.932874026453857   -0.3481448955945353   -0.05899970698972752
-0.959523263440225   -0.8959725183862455   0.01785375068303119
-0.959523263440225   -0.8959725183862455   0.01785375068303119
-0.959523263440225   -0.8959725183862455   0.01785375068303119
-0.959523263440225   -0.8959725183862455   0.01785375068303119
-1.4689499255855076   -0.6334815118547044   -0.08475538562593486
-1.4689499255855076   -0.6334815118547044   -0.08475538562593486
-1.4689499255855076   -0.6334815118547044   -0.08475538562593486
-1.4689499255855076   -0.6334815118547044   -0.08475538562593486
-0.7998249820039093   -0.10471718117577287   0.02508982065413694
-0.7998249820039093   -0.10471718117577287   0.02508982065413694
-0.7998249820039093   -0.10471718117577287   0.02508982065413694
-0.7998249820039093   -0.10471718117577287   0.02508982065413694
-2.0877842792192354   -1.1346122041340707   -0.04708366227708394
-2.0877842792192354   -1.1346122041340707   -0.04708366227708394
-2.0877842792192354   -1.1346122041340707   -0.04708366227708394
-2.0877842792192354   -1.1346122041340707   -0.04708366227708394
-1.870167692392649   -0.31524705280490967   -0.06010673896621069
-1.870167692392649   -0.31524705280490967   -0.06010673896621069
-1.870167692392649   -0.31524705280490967   -0.06010673896621069
-1.870167692392649   -0.31524705280490967   -0.06010673896621069
-0.9138544733013517   -0.8890019571313117   0.02703322053923135
-0.9138544733013517   -0.8890019571313117   0.02703322053923135
-0.9138544733013517   -0.8890019571313117   0.02703322053923135
-0.9138544733013517   -0.8890019571313117   0.02703322053923135
-1.4031967386375264   -0.6164351111850277   -0.059577016494716056
-1.4031967386375264   -0.6164351111850277   -0.059577016494716056
-1.4031967386375264   -0.6164351111850277   -0.059577016494716056
-1.4031967386375264   -0.6164351111850277   -0.059577016494716056
-0.7554943008529696   -0.07860383464480492   0.008435960294633726
-0.7554943008529696   -0.07860383464480492   0.008435960294633726
-0.7554943008529696   -0.07860383464480492   0.008435960294633726
-0.7554943008529696   -0.07860383464480492   0.008435960294633726
-2.0284774068314473   -1.1255947172818304   -0.0413076466832667
-2.0284774068314473   -1.1255947172818304   -0.0413076466832667
-2.0284774068314473   -1.1255947172818304   -0.0413076466832667
-2.0284774068314473   -1.1255947172818304   -0.0413076466832667
-1.7723768951600103   -0.27987578131760693   -0.06813357528661959
-1.7723768951600103   -0.27987578131760693   -0.06813357528661959
-1.7723768951600103   -0.27987578131760693   -0.06813357528661959
-1.7723768951600103   -0.27987578131760693   -0.06813357528661959
-0.8150550730061127   -0.7996455853245975   0.06558586107220507
-0.8150550730061127   -0.7996455853245975   0.06558586107220507
-0.8150550730061127   -0.7996455853245975   0.06558586107220507
-0.8150550730061127   -0.7996455853245975   0.06558586107220507
-1.3298045273660173   -0.5589013543392694   -0.03330099845400632
-1.3298045273660173   -0.5589013543392694   -0.03330099845400632
-1.3298045273660173   -0.5589013543392694   -0.03330099845400632
-1.3298045273660173   -0.5589013543392694   -0.03330099845400632
-1.9364499436226783   -0.11754656414979114   -0.01359522413454299
-1.9364499436226783   -0.11754656414979114   -0.01359522413454299
-1.9364499436226783   -0.11754656414979114   -0.01359522413454299
-1.9364499436226783   -0.11754656414979114   -0.01359522413454299
-3.4185795099603555   -0.6767439169183732   0.03485992536848981
-3.4185795099603555   -0.6767439169183732   0.03485992536848981
-3.4185795099603555   -0.6767439169183732   0.03485992536848981
-3.4185795099603555   -0.6767439169183732   0.03485992536848981
-3.2838045561914613   -0.3260607427844445   -0.07216690432164272
-3.2838045561914613   -0.3260607427844445   -0.07216690432164272
-3.2838045561914613   -0.3260607427844445   -0.07216690432164272
-3.2838045561914613   -0.3260607427844445   -0.07216690432164272
-1.893163854527573   -0.3502929329134051   0.14169918996054776
-1.893163854527573   -0.3502929329134051   0.14169918996054776
-1.893163854527573   -0.3502929329134051   0.14169918996054776
-1.893163854527573   -0.3502929329134051   0.14169918996054776
-2.5263116559966625   -0.39263134824310897   0.03633194752570823
-2.5263116559966625   -0.39263134824310897   0.03633194752570823
-2.5263116559966625   -0.39263134824310897   0.03633194752570823
-2.5263116559966625   -0.39263134824310897   0.03633194752570823
-1.856575184543482   -0.026092971830832312   0.0004425787984389251
-1.856575184543482   -0.026092971830832312   0.0004425787984389251
-1.856575184543482   -0.026092971830832312   0.0004425787984389251
-1.856575184543482   -0.026092971830832312   0.0004425787984389251
-3.33326100496871   -0.6631284826601777   0.017618591667821537
-3.33326100496871   -0.6631284826601777   0.017618591667821537
-3.33326100496871   -0.6631284826601777   0.017618591667821537
-3.33326100496871   -0.6631284826601777   0.017618591667821537
-3.2094669570109957   -0.2987560164984759   -0.09159244832468354
-3.2094669570109957   -0.2987560164984759   -0.09159244832468354
-3.2094669570109957   -0.2987560164984759   -0.09159244832468354
-3.2094669570109957   -0.2987560164984759   -0.09159244832468354
-1.828608917155593   -0.332694805456903   0.16513488987107805
-1.828608917155593   -0.332694805456903   0.16513488987107805
-1.828608917155593   -0.332694805456903   0.16513488987107805
-1.828608917155593   -0.332694805456903   0.16513488987107805
-2.4869908866160375   -0.32331697686893063   0.03489697384897829
-2.4869908866160375   -0.32331697686893063   0.03489697384897829
-2.4869908866160375   -0.32331697686893063   0.03489697384897829
-2.4869908866160375   -0.32331697686893063   0.03489697384897829
-1.7990596976600413   -0.0019323654874678353   -0.017881452620597968
-1.7990596976600413   -0.0019323654874678353   -0.017881452620597968
-1.7990596976600413   -0.0019323654874678353   -0.017881452620597968
-1.7990596976600413   -0.0019323654874678353   -0.017881452620597968
-3.243768978717985   -0.6342712586793533   0.07241268532121903
-3.243768978717985   -0.6342712586793533   0.07241268532121903
-3.243768978717985   -0.6342712586793533   0.07241268532121903
-3.243768978717985   -0.6342712586793533   0.07241268532121903
-3.0551089893533065   -0.24193974598432882   -0.10235419366569885
-3.0551089893533065   -0.24193974598432882   -0.10235419366569885
-3.0551089893533065   -0.24193974598432882   -0.10235419366569885
-3.0551089893533065   -0.24193974598432882   -0.10235419366569885
-1.7282203658936899   -0.30924117936104967   0.18201446908844177
-1.7282203658936899   -0.30924117936104967   0.18201446908844177
-1.7282203658936899   -0.30924117936104967   0.18201446908844177
-1.7282203658936899   -0.30924117936104967   0.18201446908844177
-2.337863822383413   -0.2471387883815506   0.07140298041238102
-2.337863822383413   -0.2471387883815506   0.07140298041238102
-2.337863822383413   -0.2471387883815506   0.07140298041238102
-2.337863822383413   -0.2471387883815506   0.07140298041238102
2.4594424279578395   0.08026603049454456   0.03468353220844762
2.4594424279578395   0.08026603049454456   0.03468353220844762
2.4594424279578395   0.08026603049454456   0.03468353220844762
2.4594424279578395   0.08026603049454456   0.03468353220844762
1.2562909119802241   -0.06596271250049213   0.025658509466627982
1.2562909119802241   -0.06596271250049213   0.025658509466627982
1.2562909119802241   -0.06596271250049213   0.025658509466627982
1.2562909119802241   -0.06596271250049213   0.025658509466627982
1.207045325299437   -0.1775584015639145   0.050308081680573324
1.207045325299437   -0.1775584015639145   0.050308081680573324
1.207045325299437   -0.1775584015639145   0.050308081680573324
1.207045325299437   -0.1775584015639145   0.050308081680573324
2.4415684518860417   0.13758893473357203   0.01861895256952134
2.4415684518860417   0.13758893473357203   0.01861895256952134
2.4415684518860417   0.13758893473357203   0.01861895256952134
2.4415684518860417   0.13758893473357203   0.01861895256952134
1.7429608394906435   -0.024838650370469395   -0.06433188141341516
1.7429608394906435   -0.024838650370469395   -0.06433188141341516
1.7429608394906435   -0.024838650370469395   -0.06433188141341516
1.7429608394906435   -0.024838650370469395   -0.06433188141341516
2.428017677294139   0.06188771280635663   0.026566301537226417
2.428017677294139   0.06188771280635663   0.026566301537226417
2.428017677294139   0.06188771280635663   0.026566301537226417
2.428017677294139   0.06188771280635663   0.026566301537226417
1.21655749341732   -0.10589578611071798   0.026206306816792646
1.21655749341732   -0.10589578611071798   0.026206306816792646
1.21655749341732   -0.10589578611071798   0.026206306816792646
1.21655749341732   -0.10589578611071798   0.026206306816792646
1.1756688422343635   -0.18169713041967178   0.04163225497685634
1.1756688422343635   -0.18169713041967178   0.04163225497685634
1.1756688422343635   -0.18169713041967178   0.04163225497685634
1.1756688422343635   -0.18169713041967178   0.04163225497685634
2.4128729944653866   0.13158645937467855   0.03213365473982367
2.4128729944653866   0.13158645937467855   0.03213365473982367
2.4128729944653866   0.13158645937467855   0.03213365473982367
2.4128729944653866   0.13158645937467855   0.03213365473982367
1.7376362194939168   -0.03427089057439642   -0.07455274510677987
1.7376362194939168   -0.03427089057439642   -0.07455274510677987
1.7376362194939168   -0.03427089057439642   -0.07455274510677987
1.7376362194939168   -0.03427089057439642   -0.07455274510677987
2.3927175203414084   0.054978919087746825   0.007963824406843359
2.3927175203414084   0.054978919087746825   0.007963824406843359
2.3927175203414084   0.054978919087746825   0.007963824406843359
2.3927175203414084   0.054978919087746825   0.007963824406843359
1.188582414518979   -0.11233149197209635   0.03683447795235677
1.188582414518979   -0.11233149197209635   0.03683447795235677
1.188582414518979   -0.11233149197209635   0.03683447795235677
1.188582414518979   -0.11233149197209635   0.03683447795235677
1.1425502775301828   -0.16584973478096227   0.03594665151628805
1.1425502775301828   -0.16584973478096227   0.03594665151628805
1.1425502775301828   -0.16584973478096227   0.03594665151628805
1.1425502775301828   -0.16584973478096227   0.03594665151628805
2.3686348641890653   0.13295407540054005   0.04614141809101718
2.3686348641890653   0.13295407540054005   0.04614141809101718
2.3686348641890653   0.13295407540054005   0.04614141809101718
2.3686348641890653   0.13295407540054005   0.04614141809101718
1.6722252311875754   -0.03458020411457147   -0.10073222878695084
1.6722252311875754   -0.03458020411457147   -0.10073222878695084
1.6722252311875754   -0.03458020411457147   -0.10073222878695084
1.6722252311875754   -0.03458020411457147   -0.10073222878695084
1.2448042432097222   -0.15925757705149085   0.06152003016511588
1.2448042432097222   -0.15925757705149085   0.06152003016511588
1.2448042432097222   -0.15925757705149085   0.06152003016511588
1.2448042432097222   -0.15925757705149085   0.06152003016511588
0.24299235667844155   -0.14826076052130552   0.013324360094133486
0.24299235667844155   -0.14826076052130552   0.013324360094133486
0.24299235667844155   -0.14826076052130552   0.013324360094133486
0.24299235667844155   -0.14826076052130552   0.013324360094133486
0.158083578372765   -0.37354323588807375   0.06615341597305817
0.158083578372765   -0.37354323588807375   0.06615341597305817
0.158083578372765   -0.37354323588807375   0.06615341597305817
0.158083578372765   -0.37354323588807375   0.06615341597305817
1.2516491037048934   0.04820490152690132   0.047563670617040504
1.2516491037048934   0.04820490152690132   0.047563670617040504
1.2516491037048934   0.04820490152690132   0.047563670617040504
1.2516491037048934   0.04820490152690132   0.047563670617040504
0.7132543457014858   -0.15884564979821494   -0.00271437147757346
0.7132543457014858   -0.15884564979821494   -0.00271437147757346
0.7132543457014858   -0.15884564979821494   -0.00271437147757346
0.7132543457014858   -0.15884564979821494   -0.00271437147757346
1.2095635652669696   -0.1661747880941607   0.05151566804847976
1.2095635652669696   -0.1661747880941607   0.05151566804847976
1.2095635652669696   -0.1661747880941607   0.05151566804847976
1.2095635652669696   -0.1661747880941607   0.05151566804847976
0.1895429059272815   -0.16978975715042982   0.01969657500799693
0.1895429059272815   -0.16978975715042982   0.01969657500799693
0.1895429059272815   -0.16978975715042982   0.01969657500799693
0.1895429059272815   -0.16978975715042982   0.01969657500799693
0.12007246631379657   -0.3769475218545422   0.059234290817649624
0.12007246631379657   -0.3769475218545422   0.059234290817649624
0.12007246631379657   -0.3769475218545422   0.059234290817649624
0.12007246631379657   -0.3769475218545422   0.059234290817649624
1.2227112214110731   0.0387756756692037   0.05637134477152758
1.2227112214110731   0.0387756756692037   0.05637134477152758
1.2227112214110731   0.0387756756692037   0.05637134477152758
1.2227112214110731   0.0387756756692037   0.05637134477152758
0.6616487659817976   -0.1693222164775072   -0.03425798034749919
0.6616487659817976   -0.1693222164775072   -0.03425798034749919
0.6616487659817976   -0.1693222164775072   -0.03425798034749919
0.6616487659817976   -0.1693222164775072   -0.03425798034749919
1.1784791497159246   -0.16859642578720907   0.04258308775218707
1.1784791497159246   -0.16859642578720907   0.04258308775218707
1.1784791497159246   -0.16859642578720907   0.04258308775218707
1.1784791497159246   -0.16859642578720907   0.04258308775218707
0.15275882268333965   -0.18112113572373661   0.026839686534559384
0.15275882268333965   -0.18112113572373661   0.026839686534559384
0.15275882268333965   -0.18112113572373661   0.026839686534559384
0.15275882268333965   -0.18112113572373661   0.026839686534559384
0.07753330532083641   -0.37685028487081973   0.046390914787311055
0.07753330532083641   -0.37685028487081973   0.046390914787311055
0.07753330532083641   -0.37685028487081973   0.046390914787311055
0.07753330532083641   -0.37685028487081973   0.046390914787311055
1.1898698041582711   0.039280246334281455   0.06741430354149006
1.1898698041582711   0.039280246334281455   0.06741430354149006
1.1898698041582711   0.039280246334281455   0.06741430354149006
1.1898698041582711   0.039280246334281455   0.06741430354149006
0.63009081720054   -0.1680925549462226   -0.061105925383588305
0.63009081720054   -0.1680925549462226   -0.061105925383588305
0.63009081720054   -0.1680925549462226   -0.061105925383588305
0.63009081720054   -0.1680925549462226   -0.061105925383588305
0.18922566006467834   -0.4590503024875401   0.05528041899154834
0.18922566006467834   -0.4590503024875401   0.05528041899154834
0.18922566006467834   -0.4590503024875401   0.05528041899154834
0.18922566006467834   -0.4590503024875401   0.05528041899154834
-0.7310497919271871   -0.2302381553211021   0.0009518370197516522
-0.7310497919271871   -0.2302381553211021   0.0009518370197516522
-0.7310497919271871   -0.2302381553211021   0.0009518370197516522
-0.7310497919271871   -0.2302381553211021   0.0009518370197516522
-0.8846640351521163   -0.6809951966968882   0.07582106067852512
-0.8846640351521163   -0.6809951966968882   0.07582106067852512
-0.8846640351521163   -0.6809951966968882   0.07582106067852512
-0.8846640351521163   -0.6809951966968882   0.07582106067852512
0.21768996978325952   -0.03939491473491743   0.0300370518723747
0.21768996978325952   -0.03939491473491743   0.0300370518723747
0.21768996978325952   -0.03939491473491743   0.0300370518723747
0.21768996978325952   -0.03939491473491743   0.0300370518723747
-0.29813189582285893   -0.34746129979633766   0.013036366885554193
-0.29813189582285893   -0.34746129979633766   0.013036366885554193
-0.29813189582285893   -0.34746129979633766   0.013036366885554193
-0.29813189582285893   -0.34746129979633766   0.013036366885554193
0.13045246376296912   -0.48520432303532285   0.03965893007132801
0.13045246376296912   -0.48520432303532285   0.03965893007132801
0.13045246376296912   -0.48520432303532285   0.03965893007132801
0.13045246376296912   -0.48520432303532285   0.03965893007132801
-0.8122848025589456   -0.25004406182361344   0.006766088771099837
-0.8122848025589456   -0.25004406182361344   0.006766088771099837
-0.8122848025589456   -0.25004406182361344   0.006766088771099837
-0.8122848025589456   -0.25004406182361344   0.006766088771099837
-0.9376323518493879   -0.692040200318608   0.06166999619216562
-0.9376323518493879   -0.692040200318608   0.06166999619216562
-0.9376323518493879   -0.692040200318608   0.06166999619216562
-0.9376323518493879   -0.692040200318608   0.06166999619216562
0.1820798074668896   -0.049865360014526655   0.042188834743099174
0.1820798074668896   -0.049865360014526655   0.042188834743099174
0.1820798074668896   -0.049865360014526655   0.042188834743099174
0.1820798074668896   -0.049865360014526655   0.042188834743099174
-0.364308617074875   -0.3686479174525287   -0.031181193064898166
-0.364308617074875   -0.3686479174525287   -0.031181193064898166
-0.364308617074875   -0.3686479174525287   -0.031181193064898166
-0.364308617074875   -0.3686479174525287   -0.031181193064898166
0.08996306433190127   -0.4937559704250476   0.025495729478678453
0.08996306433190127   -0.4937559704250476   0.025495729478678453
0.08996306433190127   -0.4937559704250476   0.025495729478678453
0.08996306433190127   -0.4937559704250476   0.025495729478678453
-0.8631706648552543   -0.2658046460489431   0.007742876893160753
-0.8631706648552543   -0.2658046460489431   0.007742876893160753
-0.8631706648552543   -0.2658046460489431   0.007742876893160753
-0.8631706648552543   -0.2658046460489431   0.007742876893160753
-0.995008943072434   -0.6873750199304911   0.05204920013776285
-0.995008943072434   -0.6873750199304911   0.05204920013776285
-0.995008943072434   -0.6873750199304911   0.05204920013776285
-0.995008943072434   -0.6873750199304911   0.05204920013776285
0.14245230422794805   -0.05572248794681186   0.04985811239886524
0.14245230422794805   -0.05572248794681186   0.04985811239886524
0.14245230422794805   -0.05572248794681186   0.04985811239886524
0.14245230422794805   -0.05572248794681186   0.04985811239886524
-0.41797993802481426   -0.3767257113312133   -0.07531011708416428
-0.41797993802481426   -0.3767257113312133   -0.07531011708416428
-0.41797993802481426   -0.3767257113312133   -0.07531011708416428
-0.41797993802481426   -0.3767257113312133   -0.07531011708416428
-0.8293874093996824   -0.7867081923601773   0.0657337866963541
-0.8293874093996824   -0.7867081923601773   0.0657337866963541
-0.8293874093996824   -0.7867081923601773   0.0657337866963541
-0.8293874093996824   -0.7867081923601773   0.0657337866963541
-1.839111158185349   -0.28670338844614457   -0.04269079805875227
-1.839111158185349   -0.28670338844614457   -0.04269079805875227
-1.839111158185349   -0.28670338844614457   -0.04269079805875227
-1.839111158185349   -0.28670338844614457   -0.04269079805875227
-2.1075073624712775   -1.141002368060588   -0.05931139865762891
-2.1075073624712775   -1.141002368060588   -0.05931139865762891
-2.1075073624712775   -1.141002368060588   -0.05931139865762891
-2.1075073624712775   -1.141002368060588   -0.05931139865762891
-0.7714127816711072   -0.0648706156237576   0.025952747010436525
-0.7714127816711072   -0.0648706156237576   0.025952747010436525
-0.7714127816711072   -0.0648706156237576   0.025952747010436525
-0.7714127816711072   -0.0648706156237576   0.025952747010436525
-1.3736026344101022   -0.5478002030264333   -0.0474101347542744
-1.3736026344101022   -0.5478002030264333   -0.0474101347542744
-1.3736026344101022   -0.5478002030264333   -0.0474101347542744
-1.3736026344101022   -0.5478002030264333   -0.0474101347542744
-0.9373752613896714   -0.8907164346283072   0.02198616742216908
-0.9373752613896714   -0.8907164346283072   0.02198616742216908
-0.9373752613896714   -0.8907164346283072   0.02198616742216908
-0.9373752613896714   -0.8907164346283072   0.02198616742216908
-1.9372570687618331   -0.3108687350651576   -0.038193563105837644
-1.9372570687618331   -0.3108687350651576   -0.038193563105837644
-1.9372570687618331   -0.3108687350651576   -0.038193563105837644
-1.9372570687618331   -0.3108687350651576   -0.038193563105837644
-2.1704858747743083   -1.159453322547923   -0.06859220507086905
-2.1704858747743083   -1.159453322547923   -0.06859220507086905
-2.1704858747743083   -1.159453322547923   -0.06859220507086905
-2.1704858747743083   -1.159453322547923   -0.06859220507086905
-0.8202062133824705   -0.08202510896915087   0.038785597177287384
-0.8202062133824705   -0.08202510896915087   0.038785597177287384
-0.8202062133824705   -0.08202510896915087   0.038785597177287384
-0.8202062133824705   -0.08202510896915087   0.038785597177287384
-1.4505374380908935   -0.6068302267061554   -0.06688503504279202
-1.4505374380908935   -0.6068302267061554   -0.06688503504279202
-1.4505374380908935   -0.6068302267061554   -0.06688503504279202
-1.4505374380908935   -0.6068302267061554   -0.06688503504279202
-0.9914847105380356   -0.908217540167028   0.0085855425973336
-0.9914847105380356   -0.908217540167028   0.0085855425973336
-0.9914847105380356   -0.908217540167028   0.0085855425973336
-0.9914847105380356   -0.908217540167028   0.0085855425973336
-1.999413977538737   -0.3334674912700434   -0.03921855017090836
-1.999413977538737   -0.3334674912700434   -0.03921855017090836
-1.999413977538737   -0.3334674912700434   -0.03921855017090836
-1.999413977538737   -0.3334674912700434   -0.03921855017090836
-2.224231651803687   -1.1100687330654408   -0.07735329883443662
-2.224231651803687   -1.1100687330654408   -0.07735329883443662
-2.224231651803687   -1.1100687330654408   -0.07735329883443662
-2.224231651803687   -1.1100687330654408   -0.07735329883443662
-0.8820139808914966   -0.10623845981979528   0.035887450931741116
-0.8820139808914966   -0.10623845981979528   0.035887450931741116
-0.8820139808914966   -0.10623845981979528   0.035887450931741116
-0.8820139808914966   -0.10623845981979528   0.035887450931741116
-1.5213368467469621   -0.626999552312385   -0.0854506617512487
-1.5213368467469621   -0.626999552312385   -0.0854506617512487
-1.5213368467469621   -0.626999552312385   -0.0854506617512487
-1.5213368467469621   -0.626999552312385   -0.0854506617512487
-1.8062607600246412   -0.32856715928767244   0.16342496358627917
-1.8062607600246412   -0.32856715928767244   0.16342496358627917
-1.8062607600246412   -0.32856715928767244   0.16342496358627917
-1.8062607600246412   -0.32856715928767244   0.16342496358627917
-3.1831592711878502   -0.23848138704303584   -0.05680467684883832
-3.1831592711878502   -0.23848138704303584   -0.05680467684883832
-3.1831592711878502   -0.23848138704303584   -0.05680467684883832
-3.1831592711878502   -0.23848138704303584   -0.05680467684883832
-3.3784807939223342   -0.6667192379088679   0.04488460437799513
-3.3784807939223342   -0.6667192379088679   0.04488460437799513
-3.3784807939223342   -0.6667192379088679   0.04488460437799513
-3.3784807939223342   -0.6667192379088679   0.04488460437799513
-1.8589333269762436   0.026559137403865896   0.015997273353070898
-1.8589333269762436   0.026559137403865896   0.015997273353070898
-1.8589333269762436   0.026559137403865896   0.015997273353070898
-1.8589333269762436   0.026559137403865896   0.015997273353070898
-2.434945703022481   -0.23422295927539738   0.04899924971176653
-2.434945703022481   -0.23422295927539738   0.04899924971176653
-2.434945703022481   -0.23422295927539738   0.04899924971176653
-2.434945703022481   -0.23422295927539738   0.04899924971176653
-1.9089952228102602   -0.3527913818705698   0.14503831345741125
-1.9089952228102602   -0.3527913818705698   0.14503831345741125
-1.9089952228102602   -0.3527913818705698   0.14503831345741125
-1.9089952228102602   -0.3527913818705698   0.14503831345741125
-3.319823979829609   -0.2787738003757208   -0.0497767626914971
-3.319823979829609   -0.2787738003757208   -0.0497767626914971
-3.319823979829609   -0.2787738003757208   -0.0497767626914971
-3.319823979829609   -0.2787738003757208   -0.0497767626914971
-3.4615311968735156   -0.695196030636379   -0.014448956308379834
-3.4615311968735156   -0.695196030636379   -0.014448956308379834
-3.4615311968735156   -0.695196030636379   -0.014448956308379834
-3.4615311968735156   -0.695196030636379   -0.014448956308379834
-1.917527469395668   0.007350329578304893   0.029396169696087063
-1.917527469395668   0.007350329578304893   0.029396169696087063
-1.917527469395668   0.007350329578304893   0.029396169696087063
-1.917527469395668   0.007350329578304893   0.029396169696087063
-2.5810151900842477   -0.30930433156029713   0.020239930708114952
-2.5810151900842477   -0.30930433156029713   0.020239930708114952
-2.5810151900842477   -0.30930433156029713   0.020239930708114952
-2.5810151900842477   -0.30930433156029713   0.020239930708114952
-1.9750000830174441   -0.3709361086419885   0.12031953980750165
-1.9750000830174441   -0.3709361086419885   0.12031953980750165
-1.9750000830174441   -0.3709361086419885   0.12031953980750165
-1.9750000830174441   -0.3709361086419885   0.12031953980750165
-3.3868499700690764   -0.29970097923341293   -0.03653787368909421
-3.3868499700690764   -0.29970097923341293   -0.03653787368909421
-3.3868499700690764   -0.29970097923341293   -0.03653787368909421
-3.3868499700690764   -0.29970097923341293   -0.03653787368909421
-3.533957225249811   -0.7068183203123097   -0.00013437631173740527
-3.533957225249811   -0.7068183203123097   -0.00013437631173740527
-3.533957225249811   -0.7068183203123097   -0.00013437631173740527
-3.533957225249811   -0.7068183203123097   -0.00013437631173740527
-1.9997735413995623   -0.07711209599182683   0.011980616112571382
-1.9997735413995623   -0.07711209599182683   0.011980616112571382
-1.9997735413995623   -0.07711209599182683   0.011980616112571382
-1.9997735413995623   -0.07711209599182683   0.011980616112571382
-2.6127228001998626   -0.37382296462685305   0.031970185800496494
-2.6127228001998626   -0.37382296462685305   0.031970185800496494
-2.6127228001998626   -0.37382296462685305   0.031970185800496494
-2.6127228001998626   -0.37382296462685305   0.031970185800496494
2.1525681485209773   0.09877213948363706   -0.04694446715347855
2.1525681485209773   0.09877213948363706   -0.04694446715347855
2.1525681485209773   0.09877213948363706   -0.04694446715347855
2.1525681485209773   0.09877213948363706   -0.04694446715347855
1.0839281495985822   -0.021549709032493647   0.02317879686061361
1.0839281495985822   -0.021549709032493647   0.02317879686061361
1.0839281495985822   -0.021549709032493647   0.02317879686061361
1.0839281495985822   -0.021549709032493647   0.02317879686061361
1.0147181859798613   -0.15978917459190126   -0.041421328151726444
1.0147181859798613   -0.15978917459190126   -0.041421328151726444
1.0147181859798613   -0.15978917459190126   -0.041421328151726444
1.0147181859798613   -0.15978917459190126   -0.041421328151726444
2.127573755861601   0.15551925980663533   0.02711896863144088
2.127573755861601   0.15551925980663533   0.02711896863144088
2.127573755861601   0.15551925980663533   0.02711896863144088
2.127573755861601   0.15551925980663533   0.02711896863144088
1.5111017004778335   0.003701331135108177   -0.05837824191082629
1.5111017004778335   0.003701331135108177   -0.05837824191082629
1.5111017004778335   0.003701331135108177   -0.05837824191082629
1.5111017004778335   0.003701331135108177   -0.05837824191082629
2.0924937940306134   0.054581580421022236   -0.047343161137861384
2.0924937940306134   0.054581580421022236   -0.047343161137861384
2.0924937940306134   0.054581580421022236   -0.047343161137861384
2.0924937940306134   0.054581580421022236   -0.047343161137861384
1.0478428482245952   -0.06080679479253903   0.025219603272574234
1.0478428482245952   -0.06080679479253903   0.025219603272574234
1.0478428482245952   -0.06080679479253903   0.025219603272574234
1.0478428482245952   -0.06080679479253903   0.025219603272574234
0.9774634995370681   -0.16875920573581765   -0.03418517588427766
0.9774634995370681   -0.16875920573581765   -0.03418517588427766
0.9774634995370681   -0.16875920573581765   -0.03418517588427766
0.9774634995370681   -0.16875920573581765   -0.03418517588427766
2.075800383114084   0.14282559383035343   0.03958867845089978
2.075800383114084   0.14282559383035343   0.03958867845089978
2.075800383114084   0.14282559383035343   0.03958867845089978
2.075800383114084   0.14282559383035343   0.03958867845089978
1.4906432300211563   -0.015203461959780729   -0.06977043387638966
1.4906432300211563   -0.015203461959780729   -0.06977043387638966
1.4906432300211563   -0.015203461959780729   -0.06977043387638966
1.4906432300211563   -0.015203461959780729   -0.06977043387638966
2.0404663539827963   0.0431893547126323   -0.03744522808781735
2.0404663539827963   0.0431893547126323   -0.03744522808781735
2.0404663539827963   0.0431893547126323   -0.03744522808781735
2.0404663539827963   0.0431893547126323   -0.03744522808781735
1.0100930879396566   -0.07182740734678555   0.032030967739632266
1.0100930879396566   -0.07182740734678555   0.032030967739632266
1.0100930879396566   -0.07182740734678555   0.032030967739632266
1.0100930879396566   -0.07182740734678555   0.032030967739632266
0.9413652103326013   -0.16641319988233738   -0.02342530446696768
0.9413652103326013   -0.16641319988233738   -0.02342530446696768
0.9413652103326013   -0.16641319988233738   -0.02342530446696768
0.9413652103326013   -0.16641319988233738   -0.02342530446696768
2.0116800692025323   0.1341046127419871   0.05145920239495136
2.0116800692025323   0.1341046127419871   0.05145920239495136
2.0116800692025323   0.1341046127419871   0.05145920239495136
2.0116800692025323   0.1341046127419871   0.05145920239495136
1.4167151556639415   -0.02655133622391792   -0.09169361691232585
1.4167151556639415   -0.02655133622391792   -0.09169361691232585
1.4167151556639415   -0.02655133622391792   -0.09169361691232585
1.4167151556639415   -0.02655133622391792   -0.09169361691232585
1.0895772482851949   0.02030521836121099   0.009569362899962713
1.0895772482851949   0.02030521836121099   0.009569362899962713
1.0895772482851949   0.02030521836121099   0.009569362899962713
1.0895772482851949   0.02030521836121099   0.009569362899962713
0.10569915481151254   -0.06511829339541936   -0.0023800222443265996
0.10569915481151254   -0.06511829339541936   -0.0023800222443265996
0.10569915481151254   -0.06511829339541936   -0.0023800222443265996
0.10569915481151254   -0.06511829339541936   -0.0023800222443265996
0.04048442688526743   -0.2115060236588334   -0.039826278492006914
0.04048442688526743   -0.2115060236588334   -0.039826278492006914
0.04048442688526743   -0.2115060236588334   -0.039826278492006914
0.04048442688526743   -0.2115060236588334   -0.039826278492006914
1.0909211641152288   0.125764205302301   0.054040182630901885
1.0909211641152288   0.125764205302301   0.054040182630901885
1.0909211641152288   0.125764205302301   0.054040182630901885
1.0909211641152288   0.125764205302301   0.054040182630901885
0.5709942832564328   -0.02985160750154947   -0.02270420927053285
0.5709942832564328   -0.02985160750154947   -0.02270420927053285
0.5709942832564328   -0.02985160750154947   -0.02270420927053285
0.5709942832564328   -0.02985160750154947   -0.02270420927053285
1.0589659605923156   0.003467677370588229   0.016560692948053013
1.0589659605923156   0.003467677370588229   0.016560692948053013
1.0589659605923156   0.003467677370588229   0.016560692948053013
1.0589659605923156   0.003467677370588229   0.016560692948053013
0.0736453552586124   -0.08800377087668815   0.002476110592572609
0.0736453552586124   -0.08800377087668815   0.002476110592572609
0.0736453552586124   -0.08800377087668815   0.002476110592572609
0.0736453552586124   -0.08800377087668815   0.002476110592572609
0.004563859066746723   -0.22166283577162457   -0.027673850088348974
0.004563859066746723   -0.22166283577162457   -0.027673850088348974
0.004563859066746723   -0.22166283577162457   -0.027673850088348974
0.004563859066746723   -0.22166283577162457   -0.027673850088348974
1.0514836882998   0.10753952662286786   0.059617035570696586
1.0514836882998   0.10753952662286786   0.059617035570696586
1.0514836882998   0.10753952662286786   0.059617035570696586
1.0514836882998   0.10753952662286786   0.059617035570696586
0.5296869301999451   -0.046612191504260145   -0.0321474919515934
0.5296869301999451   -0.046612191504260145   -0.0321474919515934
0.5296869301999451   -0.046612191504260145   -0.0321474919515934
0.5296869301999451   -0.046612191504260145   -0.0321474919515934
1.0213202664777792   -0.007924078045889071   0.02426353112935753
1.0213202664777792   -0.007924078045889071   0.02426353112935753
1.0213202664777792   -0.007924078045889071   0.02426353112935753
1.0213202664777792   -0.007924078045889071   0.02426353112935753
0.03455277411958699   -0.10637373787205712   0.006981627276284888
0.03455277411958699   -0.10637373787205712   0.006981627276284888
0.03455277411958699   -0.10637373787205712   0.006981627276284888
0.03455277411958699   -0.10637373787205712   0.006981627276284888
-0.03400818434962914   -0.2227459475219313   -0.01883867723167331
-0.03400818434962914   -0.2227459475219313   -0.01883867723167331
-0.03400818434962914   -0.2227459475219313   -0.01883867723167331
-0.03400818434962914   -0.2227459475219313   -0.01883867723167331
1.0116956106744899   0.09591378633682232   0.06589971102331976
1.0116956106744899   0.09591378633682232   0.06589971102331976
1.0116956106744899   0.09591378633682232   0.06589971102331976
1.0116956106744899   0.09591378633682232   0.06589971102331976
0.49731214408786567   -0.05334624769185081   -0.040283372596043025
0.49731214408786567   -0.05334624769185081   -0.040283372596043025
0.49731214408786567   -0.05334624769185081   -0.040283372596043025
0.49731214408786567   -0.05334624769185081   -0.040283372596043025
0.1074874300780384   -0.06202705515452557   0.0034701158474088473
0.1074874300780384   -0.06202705515452557   0.0034701158474088473
0.1074874300780384   -0.06202705515452557   0.0034701158474088473
0.1074874300780384   -0.06202705515452557   0.0034701158474088473
-0.8397695894642269   -0.09711340770867523   -0.02643952485933625
-0.8397695894642269   -0.09711340770867523   -0.02643952485933625
-0.8397695894642269   -0.09711340770867523   -0.02643952485933625
-0.8397695894642269   -0.09711340770867523   -0.02643952485933625
-0.9122695846292503   -0.2804615980033149   -0.045336810057102814
-0.9122695846292503   -0.2804615980033149   -0.045336810057102814
-0.9122695846292503   -0.2804615980033149   -0.045336810057102814
-0.9122695846292503   -0.2804615980033149   -0.045336810057102814
0.11535226537731044   0.09202719313454824   0.030979697174826494
0.11535226537731044   0.09202719313454824   0.030979697174826494
0.11535226537731044   0.09202719313454824   0.030979697174826494
0.11535226537731044   0.09202719313454824   0.030979697174826494
-0.3834440746152178   -0.0827287902063074   -0.022556788749883778
-0.3834440746152178   -0.0827287902063074   -0.022556788749883778
-0.3834440746152178   -0.0827287902063074   -0.022556788749883778
-0.3834440746152178   -0.0827287902063074   -0.022556788749883778
0.08050254873564565   -0.06924012324892084   0.017998430349971558
0.08050254873564565   -0.06924012324892084   0.017998430349971558
0.08050254873564565   -0.06924012324892084   0.017998430349971558
0.08050254873564565   -0.06924012324892084   0.017998430349971558
-0.8747582965874395   -0.11653271021969984   -0.021709257631663963
-0.8747582965874395   -0.11653271021969984   -0.021709257631663963
-0.8747582965874395   -0.11653271021969984   -0.021709257631663963
-0.8747582965874395   -0.11653271021969984   -0.021709257631663963
-0.9544017830381091   -0.2915928583918213   -0.029967066638375197
-0.9544017830381091   -0.2915928583918213   -0.029967066638375197
-0.9544017830381091   -0.2915928583918213   -0.029967066638375197
-0.9544017830381091   -0.2915928583918213   -0.029967066638375197
0.07594153884141985   0.07251300960743365   0.03503870340595846
0.07594153884141985   0.07251300960743365   0.03503870340595846
0.07594153884141985   0.07251300960743365   0.03503870340595846
0.07594153884141985   0.07251300960743365   0.03503870340595846
-0.4182915291751271   -0.09436828307911097   -0.027063349716163587
-0.4182915291751271   -0.09436828307911097   -0.027063349716163587
-0.4182915291751271   -0.09436828307911097   -0.027063349716163587
-0.4182915291751271   -0.09436828307911097   -0.027063349716163587
0.043199401566966694   -0.08109250234575485   0.024933528986881146
0.043199401566966694   -0.08109250234575485   0.024933528986881146
0.043199401566966694   -0.08109250234575485   0.024933528986881146
0.043199401566966694   -0.08109250234575485   0.024933528986881146
-0.9211052433566808   -0.13743294403165884   -0.017644282591403472
-0.9211052433566808   -0.13743294403165884   -0.017644282591403472
-0.9211052433566808   -0.13743294403165884   -0.017644282591403472
-0.9211052433566808   -0.13743294403165884   -0.017644282591403472
-1.0011596760920387   -0.2997451101244542   -0.026643018169298347
-1.0011596760920387   -0.2997451101244542   -0.026643018169298347
-1.0011596760920387   -0.2997451101244542   -0.026643018169298347
-1.0011596760920387   -0.2997451101244542   -0.026643018169298347
0.03331412566277722   0.055848566790910714   0.039178358517516505
0.03331412566277722   0.055848566790910714   0.039178358517516505
0.03331412566277722   0.055848566790910714   0.039178358517516505
0.03331412566277722   0.055848566790910714   0.039178358517516505
-0.4635744199661931   -0.10830465410525601   -0.03790927774705429
-0.4635744199661931   -0.10830465410525601   -0.03790927774705429
-0.4635744199661931   -0.10830465410525601   -0.03790927774705429
-0.4635744199661931   -0.10830465410525601   -0.03790927774705429
-0.8270471062584414   -0.07311710146401673   0.01317658492491787
-0.8270471062584414   -0.07311710146401673   0.01317658492491787
-0.8270471062584414   -0.07311710146401673   0.01317658492491787
-0.8270471062584414   -0.07311710146401673   0.01317658492491787
-1.7622598785145638   -0.11363878717251386   -0.04665835598684903
-1.7622598785145638   -0.11363878717251386   -0.04665835598684903
-1.7622598785145638   -0.11363878717251386   -0.04665835598684903
-1.7622598785145638   -0.11363878717251386   -0.04665835598684903
-1.8446995264217911   -0.2937625758118167   -0.04522030917917512
-1.8446995264217911   -0.2937625758118167   -0.04522030917917512
-1.8446995264217911   -0.2937625758118167   -0.04522030917917512
-1.8446995264217911   -0.2937625758118167   -0.04522030917917512
-0.8313242042105111   0.07021355025010034   0.00871494378316201
-0.8313242042105111   0.07021355025010034   0.00871494378316201
-0.8313242042105111   0.07021355025010034   0.00871494378316201
-0.8313242042105111   0.07021355025010034   0.00871494378316201
-1.305473733842582   -0.09782013749634783   -0.01899463859326138
-1.305473733842582   -0.09782013749634783   -0.01899463859326138
-1.305473733842582   -0.09782013749634783   -0.01899463859326138
-1.305473733842582   -0.09782013749634783   -0.01899463859326138
-0.8569406553090759   -0.08083124337112452   0.031677481911570785
-0.8569406553090759   -0.08083124337112452   0.031677481911570785
-0.8569406553090759   -0.08083124337112452   0.031677481911570785
-0.8569406553090759   -0.08083124337112452   0.031677481911570785
-1.813855819479925   -0.1374905263472917   -0.047273823934384535
-1.813855819479925   -0.1374905263472917   -0.047273823934384535
-1.813855819479925   -0.1374905263472917   -0.047273823934384535
-1.813855819479925   -0.1374905263472917   -0.047273823934384535
-1.9030074377924266   -0.3126838034024839   -0.031706650579421625
-1.9030074377924266   -0.3126838034024839   -0.031706650579421625
-1.9030074377924266   -0.3126838034024839   -0.031706650579421625
-1.9030074377924266   -0.3126838034024839   -0.031706650579421625
-0.878185829866749   0.0488400525584852   0.01067978826811116
-0.878185829866749   0.0488400525584852   0.01067978826811116
-0.878185829866749   0.0488400525584852   0.01067978826811116
-0.878185829866749   0.0488400525584852   0.01067978826811116
-1.3423927343850772   -0.10832963990134184   -0.019071278664819315
-1.3423927343850772   -0.10832963990134184   -0.019071278664819315
-1.3423927343850772   -0.10832963990134184   -0.019071278664819315
-1.3423927343850772   -0.10832963990134184   -0.019071278664819315
-0.9034895107728845   -0.09986550051959008   0.032866936815505315
-0.9034895107728845   -0.09986550051959008   0.032866936815505315
-0.9034895107728845   -0.09986550051959008   0.032866936815505315
-0.9034895107728845   -0.09986550051959008   0.032866936815505315
-1.8742022675074057   -0.16047676094552352   -0.03988784161127585
-1.8742022675074057   -0.16047676094552352   -0.03988784161127585
-1.8742022675074057   -0.16047676094552352   -0.03988784161127585
-1.8742022675074057   -0.16047676094552352   -0.03988784161127585
-1.9690024488182032   -0.3376064508604616   -0.033964036344883736
-1.9690024488182032   -0.3376064508604616   -0.033964036344883736
-1.9690024488182032   -0.3376064508604616   -0.033964036344883736
-1.9690024488182032   -0.3376064508604616   -0.033964036344883736
-0.9288268022219535   0.022481872178983592   0.012794368877670478
-0.9288268022219535   0.022481872178983592   0.012794368877670478
-0.9288268022219535   0.022481872178983592   0.012794368877670478
-0.9288268022219535   0.022481872178983592   0.012794368877670478
-1.4077852676937885   -0.13384761643461945   -0.03095069975122422
-1.4077852676937885   -0.13384761643461945   -0.03095069975122422
-1.4077852676937885   -0.13384761643461945   -0.03095069975122422
-1.4077852676937885   -0.13384761643461945   -0.03095069975122422
-1.7024495238052582   0.08064368656722576   0.058110943819939184
-1.7024495238052582   0.08064368656722576   0.058110943819939184
-1.7024495238052582   0.08064368656722576   0.058110943819939184
-1.7024495238052582   0.08064368656722576   0.058110943819939184
-2.6399274751483603   -0.13155305364312886   -0.03565594448136322
-2.6399274751483603   -0.13155305364312886   -0.03565594448136322
-2.6399274751483603   -0.13155305364312886   -0.03565594448136322
-2.6399274751483603   -0.13155305364312886   -0.03565594448136322
-2.7051573021672453   -0.13394449315851104   0.0597030957321877
-2.7051573021672453   -0.13394449315851104   0.0597030957321877
-2.7051573021672453   -0.13394449315851104   0.0597030957321877
-2.7051573021672453   -0.13394449315851104   0.0597030957321877
-1.768839844157697   0.05463509834202879   -0.014319572012565604
-1.768839844157697   0.05463509834202879   -0.014319572012565604
-1.768839844157697   0.05463509834202879   -0.014319572012565604
-1.768839844157697   0.05463509834202879   -0.014319572012565604
-2.101390269794913   0.0016613695104903403   0.05329909963263518
-2.101390269794913   0.0016613695104903403   0.05329909963263518
-2.101390269794913   0.0016613695104903403   0.05329909963263518
-2.101390269794913   0.0016613695104903403   0.05329909963263518
-1.7502871810850855   0.05975390020831206   0.07332494148420508
-1.7502871810850855   0.05975390020831206   0.07332494148420508
-1.7502871810850855   0.05975390020831206   0.07332494148420508
-1.7502871810850855   0.05975390020831206   0.07332494148420508
-2.722498232278023   -0.1378515620629714   -0.023094485917240823
-2.722498232278023   -0.1378515620629714   -0.023094485917240823
-2.722498232278023   -0.1378515620629714   -0.023094485917240823
-2.722498232278023   -0.1378515620629714   -0.023094485917240823
-2.787534954006714   -0.15629504247237164   0.08117679405375024
-2.787534954006714   -0.15629504247237164   0.08117679405375024
-2.787534954006714   -0.15629504247237164   0.08117679405375024
-2.787534954006714   -0.15629504247237164   0.08117679405375024
-1.8292306693765314   0.03945339728483549   -0.014960009187280396
-1.8292306693765314   0.03945339728483549   -0.014960009187280396
-1.8292306693765314   0.03945339728483549   -0.014960009187280396
-1.8292306693765314   0.03945339728483549   -0.014960009187280396
-2.207512661173942   -0.024513483239183675   0.02902077013820001
-2.207512661173942   -0.024513483239183675   0.02902077013820001
-2.207512661173942   -0.024513483239183675   0.02902077013820001
-2.207512661173942   -0.024513483239183675   0.02902077013820001
-1.8122730707986388   0.03698187629658073   0.07229950469043685
-1.8122730707986388   0.03698187629658073   0.07229950469043685
-1.8122730707986388   0.03698187629658073   0.07229950469043685
-1.8122730707986388   0.03698187629658073   0.07229950469043685
-2.807685759448449   -0.15701672834795927   -0.018855547279336568
-2.807685759448449   -0.15701672834795927   -0.018855547279336568
-2.807685759448449   -0.15701672834795927   -0.018855547279336568
-2.807685759448449   -0.15701672834795927   -0.018855547279336568
-2.9046062808486734   -0.24635891156647688   0.0705792776883712
-2.9046062808486734   -0.24635891156647688   0.0705792776883712
-2.9046062808486734   -0.24635891156647688   0.0705792776883712
-2.9046062808486734   -0.24635891156647688   0.0705792776883712
-1.8988565347854016   -0.006764645136334291   -0.014076271905038074
-1.8988565347854016   -0.006764645136334291   -0.014076271905038074
-1.8988565347854016   -0.006764645136334291   -0.014076271905038074
-1.8988565347854016   -0.006764645136334291   -0.014076271905038074
-2.2529323575013662   -0.05743056674788144   0.007605641816058564
-2.2529323575013662   -0.05743056674788144   0.007605641816058564
-2.2529323575013662   -0.05743056674788144   0.007605641816058564
-2.2529323575013662   -0.05743056674788144   0.007605641816058564
1.7426501377493666   0.09308854982820186   -0.06235189698669305
1.7426501377493666   0.09308854982820186   -0.06235189698669305
1.7426501377493666   0.09308854982820186   -0.06235189698669305
1.7426501377493666   0.09308854982820186   -0.06235189698669305
0.8642703953470887   -0.0006381045900144267   0.02265620156893927
0.8642703953470887   -0.0006381045900144267   0.02265620156893927
0.8642703953470887   -0.0006381045900144267   0.02265620156893927
0.8642703953470887   -0.0006381045900144267   0.02265620156893927
0.7896633444942972   -0.12891610485817723   -0.057147443325379715
0.7896633444942972   -0.12891610485817723   -0.057147443325379715
0.7896633444942972   -0.12891610485817723   -0.057147443325379715
0.7896633444942972   -0.12891610485817723   -0.057147443325379715
1.7097097504516223   0.1410298915008983   0.028405718212986437
1.7097097504516223   0.1410298915008983   0.028405718212986437
1.7097097504516223   0.1410298915008983   0.028405718212986437
1.7097097504516223   0.1410298915008983   0.028405718212986437
1.210576280368558   0.010704180478244008   -0.03983423956315928
1.210576280368558   0.010704180478244008   -0.03983423956315928
1.210576280368558   0.010704180478244008   -0.03983423956315928
1.210576280368558   0.010704180478244008   -0.03983423956315928
1.6732596422237287   0.04722471422305918   -0.06003964564862932
1.6732596422237287   0.04722471422305918   -0.06003964564862932
1.6732596422237287   0.04722471422305918   -0.06003964564862932
1.6732596422237287   0.04722471422305918   -0.06003964564862932
0.8245464581556171   -0.03667792214691182   0.025029942269940937
0.8245464581556171   -0.03667792214691182   0.025029942269940937
0.8245464581556171   -0.03667792214691182   0.025029942269940937
0.8245464581556171   -0.03667792214691182   0.025029942269940937
0.7523458124142429   -0.1397153593604088   -0.04966151680307018
0.7523458124142429   -0.1397153593604088   -0.04966151680307018
0.7523458124142429   -0.1397153593604088   -0.04966151680307018
0.7523458124142429   -0.1397153593604088   -0.04966151680307018
1.653884066406245   0.12619808179869424   0.03880516246485374
1.653884066406245   0.12619808179869424   0.03880516246485374
1.653884066406245   0.12619808179869424   0.03880516246485374
1.653884066406245   0.12619808179869424   0.03880516246485374
1.1812944428915333   -0.008734000444709678   -0.052398833462987585
1.1812944428915333   -0.008734000444709678   -0.052398833462987585
1.1812944428915333   -0.008734000444709678   -0.052398833462987585
1.1812944428915333   -0.008734000444709678   -0.052398833462987585
1.6182176993715343   0.0339380026747233   -0.047266593584701005
1.6182176993715343   0.0339380026747233   -0.047266593584701005
1.6182176993715343   0.0339380026747233   -0.047266593584701005
1.6182176993715343   0.0339380026747233   -0.047266593584701005
0.7866104682708779   -0.04885699141451036   0.030803394534197975
0.7866104682708779   -0.04885699141451036   0.030803394534197975
0.7866104682708779   -0.04885699141451036   0.030803394534197975
0.7866104682708779   -0.04885699141451036   0.030803394534197975
0.7182600318827099   -0.1429846537515081   -0.040567092752702344
0.7182600318827099   -0.1429846537515081   -0.040567092752702344
0.7182600318827099   -0.1429846537515081   -0.040567092752702344
0.7182600318827099   -0.1429846537515081   -0.040567092752702344
1.590949228589732   0.1131436586426059   0.04826097395214131
1.590949228589732   0.1131436586426059   0.04826097395214131
1.590949228589732   0.1131436586426059   0.04826097395214131
1.590949228589732   0.1131436586426059   0.04826097395214131
1.1133128639011634   -0.022141895341343365   -0.07119980836091766
1.1133128639011634   -0.022141895341343365   -0.07119980836091766
1.1133128639011634   -0.022141895341343365   -0.07119980836091766
1.1133128639011634   -0.022141895341343365   -0.07119980836091766
0.878996692401043   0.0909559458509093   0.004693636397786367
0.878996692401043   0.0909559458509093   0.004693636397786367
0.878996692401043   0.0909559458509093   0.004693636397786367
0.878996692401043   0.0909559458509093   0.004693636397786367
0.030589653752002205   -0.028622339447545744   -0.0035201824871332445
0.030589653752002205   -0.028622339447545744   -0.0035201824871332445
0.030589653752002205   -0.028622339447545744   -0.0035201824871332445
0.030589653752002205   -0.028622339447545744   -0.0035201824871332445
-0.025642986748391796   -0.116126687262563   -0.0388501293297362
-0.025642986748391796   -0.116126687262563   -0.0388501293297362
-0.025642986748391796   -0.116126687262563   -0.0388501293297362
-0.025642986748391796   -0.116126687262563   -0.0388501293297362
0.861980624643057   0.12766415351174437   0.04785869904848469
0.861980624643057   0.12766415351174437   0.04785869904848469
0.861980624643057   0.12766415351174437   0.04785869904848469
0.861980624643057   0.12766415351174437   0.04785869904848469
0.42968285349553725   0.01818180403264942   -0.0049448897425120285
0.42968285349553725   0.01818180403264942   -0.0049448897425120285
0.42968285349553725   0.01818180403264942   -0.0049448897425120285
0.42968285349553725   0.01818180403264942   -0.0049448897425120285
0.8422468180731298   0.06716005292483995   0.009693766785756938
0.8422468180731298   0.06716005292483995   0.009693766785756938
0.8422468180731298   0.06716005292483995   0.009693766785756938
0.8422468180731298   0.06716005292483995   0.009693766785756938
-0.005560743662483953   -0.05527415015967729   0.0007085489969172951
-0.005560743662483953   -0.05527415015967729   0.0007085489969172951
-0.005560743662483953   -0.05527415015967729   0.0007085489969172951
-0.005560743662483953   -0.05527415015967729   0.0007085489969172951
-0.06099452437696931   -0.13359348464423587   -0.0335698080880525
-0.06099452437696931   -0.13359348464423587   -0.0335698080880525
-0.06099452437696931   -0.13359348464423587   -0.0335698080880525
-0.06099452437696931   -0.13359348464423587   -0.0335698080880525
0.8219362155651726   0.10560971784160583   0.052965421749555576
0.8219362155651726   0.10560971784160583   0.052965421749555576
0.8219362155651726   0.10560971784160583   0.052965421749555576
0.8219362155651726   0.10560971784160583   0.052965421749555576
0.38652692596827837   -0.003543139248666588   -0.017293878175460506
0.38652692596827837   -0.003543139248666588   -0.017293878175460506
0.38652692596827837   -0.003543139248666588   -0.017293878175460506
0.38652692596827837   -0.003543139248666588   -0.017293878175460506
0.8029394344604392   0.04885459629529745   0.014736637772205408
0.8029394344604392   0.04885459629529745   0.014736637772205408
0.8029394344604392   0.04885459629529745   0.014736637772205408
0.8029394344604392   0.04885459629529745   0.014736637772205408
-0.041962981679750225   -0.07680360150544037   0.004798022259247428
-0.041962981679750225   -0.07680360150544037   0.004798022259247428
-0.041962981679750225   -0.07680360150544037   0.004798022259247428
-0.041962981679750225   -0.07680360150544037   0.004798022259247428
-0.0959918211273782   -0.14413974069578606   -0.026680492337853936
-0.0959918211273782   -0.14413974069578606   -0.026680492337853936
-0.0959918211273782   -0.14413974069578606   -0.026680492337853936
-0.0959918211273782   -0.14413974069578606   -0.026680492337853936
0.7838512607358   0.08698453870928816   0.05741985905194211
0.7838512607358   0.08698453870928816   0.05741985905194211
0.7838512607358   0.08698453870928816   0.05741985905194211
0.7838512607358   0.08698453870928816   0.05741985905194211
0.3545762955351183   -0.017474434765382754   -0.026407692498958548
0.3545762955351183   -0.017474434765382754   -0.026407692498958548
0.3545762955351183   -0.017474434765382754   -0.026407692498958548
0.3545762955351183   -0.017474434765382754   -0.026407692498958548
0.05936245921784561   0.09195434006542845   0.01976716532910957
0.05936245921784561   0.09195434006542845   0.01976716532910957
0.05936245921784561   0.09195434006542845   0.01976716532910957
0.05936245921784561   0.09195434006542845   0.01976716532910957
-0.7771550847996668   -0.050189378123326606   -0.026753908677479926
-0.7771550847996668   -0.050189378123326606   -0.026753908677479926
-0.7771550847996668   -0.050189378123326606   -0.026753908677479926
-0.7771550847996668   -0.050189378123326606   -0.026753908677479926
-0.8210280566161816   -0.10635262296741034   -0.02453906134147422
-0.8210280566161816   -0.10635262296741034   -0.02453906134147422
-0.8210280566161816   -0.10635262296741034   -0.02453906134147422
-0.8210280566161816   -0.10635262296741034   -0.02453906134147422
0.03089174964484559   0.10452680066078594   0.02317006471310177
0.03089174964484559   0.10452680066078594   0.02317006471310177
0.03089174964484559   0.10452680066078594   0.02317006471310177
0.03089174964484559   0.10452680066078594   0.02317006471310177
-0.376511675441835   0.011768714926922455   0.0014163169344983267
-0.376511675441835   0.011768714926922455   0.0014163169344983267
-0.376511675441835   0.011768714926922455   0.0014163169344983267
-0.376511675441835   0.011768714926922455   0.0014163169344983267
0.02486613906127244   0.07270649243964977   0.024862320016372202
0.02486613906127244   0.07270649243964977   0.024862320016372202
0.02486613906127244   0.07270649243964977   0.024862320016372202
0.02486613906127244   0.07270649243964977   0.024862320016372202
-0.814039454325194   -0.07356932303885969   -0.022379349815086755
-0.814039454325194   -0.07356932303885969   -0.022379349815086755
-0.814039454325194   -0.07356932303885969   -0.022379349815086755
-0.814039454325194   -0.07356932303885969   -0.022379349815086755
-0.8589685462542986   -0.12554760541365484   -0.02035428660382678
-0.8589685462542986   -0.12554760541365484   -0.02035428660382678
-0.8589685462542986   -0.12554760541365484   -0.02035428660382678
-0.8589685462542986   -0.12554760541365484   -0.02035428660382678
-0.00556849699092947   0.08183751319562264   0.02812933100228818
-0.00556849699092947   0.08183751319562264   0.02812933100228818
-0.00556849699092947   0.08183751319562264   0.02812933100228818
-0.00556849699092947   0.08183751319562264   0.02812933100228818
-0.41285866554657236   -0.007000970331864642   -0.007873633064860119
-0.41285866554657236   -0.007000970331864642   -0.007873633064860119
-0.41285866554657236   -0.007000970331864642   -0.007873633064860119
-0.41285866554657236   -0.007000970331864642   -0.007873633064860119
-0.01071796726036379   0.054181055230027565   0.03003843762071167
-0.01071796726036379   0.054181055230027565   0.03003843762071167
-0.01071796726036379   0.054181055230027565   0.03003843762071167
-0.01071796726036379   0.054181055230027565   0.03003843762071167
-0.8529899972634575   -0.09706206872666248   -0.01894707833660946
-0.8529899972634575   -0.09706206872666248   -0.01894707833660946
-0.8529899972634575   -0.09706206872666248   -0.01894707833660946
-0.8529899972634575   -0.09706206872666248   -0.01894707833660946
-0.8966558497227832   -0.14066110729309939   -0.013400036516912085
-0.8966558497227832   -0.14066110729309939   -0.013400036516912085
-0.8966558497227832   -0.14066110729309939   -0.013400036516912085
-0.8966558497227832   -0.14066110729309939   -0.013400036516912085
-0.04333985357841767   0.060463530442134206   0.031976074269028466
-0.04333985357841767   0.060463530442134206   0.031976074269028466
-0.04333985357841767   0.060463530442134206   0.031976074269028466
-0.04333985357841767   0.060463530442134206   0.031976074269028466
-0.45196620697882495   -0.026090989940231527   -0.018020803574444216
-0.45196620697882495   -0.026090989940231527   -0.018020803574444216
-0.45196620697882495   -0.026090989940231527   -0.018020803574444216
-0.45196620697882495   -0.026090989940231527   -0.018020803574444216
-0.7327732709597309   0.10881946834632261   0.036146314052561745
-0.7327732709597309   0.10881946834632261   0.036146314052561745
-0.7327732709597309   0.10881946834632261   0.036146314052561745
-0.7327732709597309   0.10881946834632261   0.036146314052561745
-1.5578472688437965   -0.06906130359255752   -0.04387164934770259
-1.5578472688437965   -0.06906130359255752   -0.04387164934770259
-1.5578472688437965   -0.06906130359255752   -0.04387164934770259
-1.5578472688437965   -0.06906130359255752   -0.04387164934770259
-1.5920618230156787   -0.08505745808133236   -0.00690247906883415
-1.5920618230156787   -0.08505745808133236   -0.00690247906883415
-1.5920618230156787   -0.08505745808133236   -0.00690247906883415
-1.5920618230156787   -0.08505745808133236   -0.00690247906883415
-0.779313997528142   0.07902202227486246   -0.001343411143537157
-0.779313997528142   0.07902202227486246   -0.001343411143537157
-0.779313997528142   0.07902202227486246   -0.001343411143537157
-0.779313997528142   0.07902202227486246   -0.001343411143537157
-1.1570842228084866   0.012027520179907714   0.008420034214186897
-1.1570842228084866   0.012027520179907714   0.008420034214186897
-1.1570842228084866   0.012027520179907714   0.008420034214186897
-1.1570842228084866   0.012027520179907714   0.008420034214186897
-0.7689207035978595   0.08906689814378821   0.04057818263894966
-0.7689207035978595   0.08906689814378821   0.04057818263894966
-0.7689207035978595   0.08906689814378821   0.04057818263894966
-0.7689207035978595   0.08906689814378821   0.04057818263894966
-1.601141343307548   -0.09378856031184696   -0.04356897829767804
-1.601141343307548   -0.09378856031184696   -0.04356897829767804
-1.601141343307548   -0.09378856031184696   -0.04356897829767804
-1.601141343307548   -0.09378856031184696   -0.04356897829767804
-1.6387905123656121   -0.1066347635867941   -0.006089609959422433
-1.6387905123656121   -0.1066347635867941   -0.006089609959422433
-1.6387905123656121   -0.1066347635867941   -0.006089609959422433
-1.6387905123656121   -0.1066347635867941   -0.006089609959422433
-0.8176988138934824   0.057370105756313045   0.0030766640302908807
-0.8176988138934824   0.057370105756313045   0.0030766640302908807
-0.8176988138934824   0.057370105756313045   0.0030766640302908807
-0.8176988138934824   0.057370105756313045   0.0030766640302908807
-1.1898373600998546   -0.005163514601114305   0.0007959923488486537
-1.1898373600998546   -0.005163514601114305   0.0007959923488486537
-1.1898373600998546   -0.005163514601114305   0.0007959923488486537
-1.1898373600998546   -0.005163514601114305   0.0007959923488486537
-0.8063189043440931   0.07045561959675345   0.046890697936796503
-0.8063189043440931   0.07045561959675345   0.046890697936796503
-0.8063189043440931   0.07045561959675345   0.046890697936796503
-0.8063189043440931   0.07045561959675345   0.046890697936796503
-1.6475099867111198   -0.1170598422233555   -0.039261903050414444
-1.6475099867111198   -0.1170598422233555   -0.039261903050414444
-1.6475099867111198   -0.1170598422233555   -0.039261903050414444
-1.6475099867111198   -0.1170598422233555   -0.039261903050414444
-1.6818243601695098   -0.12972905705934176   0.00473728063353885
-1.6818243601695098   -0.12972905705934176   0.00473728063353885
-1.6818243601695098   -0.12972905705934176   0.00473728063353885
-1.6818243601695098   -0.12972905705934176   0.00473728063353885
-0.8583760198486342   0.03162489555755085   0.005713110003197866
-0.8583760198486342   0.03162489555755085   0.005713110003197866
-0.8583760198486342   0.03162489555755085   0.005713110003197866
-0.8583760198486342   0.03162489555755085   0.005713110003197866
-1.2408624846064864   -0.02924159684959568   -0.009435865635192851
-1.2408624846064864   -0.02924159684959568   -0.009435865635192851
-1.2408624846064864   -0.02924159684959568   -0.009435865635192851
-1.2408624846064864   -0.02924159684959568   -0.009435865635192851
-1.5024882515526594   0.11319867222948266   0.05066346128593194
-1.5024882515526594   0.11319867222948266   0.05066346128593194
-1.5024882515526594   0.11319867222948266   0.05066346128593194
-1.5024882515526594   0.11319867222948266   0.05066346128593194
-2.2993791255349056   -0.10632254495663812   -0.04056823522395238
-2.2993791255349056   -0.10632254495663812   -0.04056823522395238
-2.2993791255349056   -0.10632254495663812   -0.04056823522395238
-2.2993791255349056   -0.10632254495663812   -0.04056823522395238
-2.3311190041115464   -0.04632661162010726   0.043151038130603184
-2.3311190041115464   -0.04632661162010726   0.043151038130603184
-2.3311190041115464   -0.04632661162010726   0.043151038130603184
-2.3311190041115464   -0.04632661162010726   0.043151038130603184
-1.5688070453059717   0.04713774609999455   -0.022823794701626446
-1.5688070453059717   0.04713774609999455   -0.022823794701626446
-1.5688070453059717   0.04713774609999455   -0.022823794701626446
-1.5688070453059717   0.04713774609999455   -0.022823794701626446
-1.8403919043689598   0.02362936553519207   0.042212787543538174
-1.8403919043689598   0.02362936553519207   0.042212787543538174
-1.8403919043689598   0.02362936553519207   0.042212787543538174
-1.8403919043689598   0.02362936553519207   0.042212787543538174
-1.5390046987598398   0.11510931554159515   0.05821636858740904
-1.5390046987598398   0.11510931554159515   0.05821636858740904
-1.5390046987598398   0.11510931554159515   0.05821636858740904
-1.5390046987598398   0.11510931554159515   0.05821636858740904
-2.3591614907028067   -0.1125383211068331   -0.030849685338929303
-2.3591614907028067   -0.1125383211068331   -0.030849685338929303
-2.3591614907028067   -0.1125383211068331   -0.030849685338929303
-2.3591614907028067   -0.1125383211068331   -0.030849685338929303
-2.389149981093898   -0.057613924869527156   0.059622691758272964
-2.389149981093898   -0.057613924869527156   0.059622691758272964
-2.389149981093898   -0.057613924869527156   0.059622691758272964
-2.389149981093898   -0.057613924869527156   0.059622691758272964
-1.6133708220090632   0.034692700176782   -0.020318621940254467
-1.6133708220090632   0.034692700176782   -0.020318621940254467
-1.6133708220090632   0.034692700176782   -0.020318621940254467
-1.6133708220090632   0.034692700176782   -0.020318621940254467
-1.9200676861021375   0.011642214331303746   0.02704794887490118
-1.9200676861021375   0.011642214331303746   0.02704794887490118
-1.9200676861021375   0.011642214331303746   0.02704794887490118
-1.9200676861021375   0.011642214331303746   0.02704794887490118
-1.5804564037634945   0.10665790511480072   0.0722882643495704
-1.5804564037634945   0.10665790511480072   0.0722882643495704
-1.5804564037634945   0.10665790511480072   0.0722882643495704
-1.5804564037634945   0.10665790511480072   0.0722882643495704
-2.4203676552248985   -0.12788238569298005   -0.026197218073229722
-2.4203676552248985   -0.12788238569298005   -0.026197218073229722
-2.4203676552248985   -0.12788238569298005   -0.026197218073229722
-2.4203676552248985   -0.12788238569298005   -0.026197218073229722
-2.467853994634251   -0.1058813046400936   0.05933789042507545
-2.467853994634251   -0.1058813046400936   0.05933789042507545
-2.467853994634251   -0.1058813046400936   0.05933789042507545
-2.467853994634251   -0.1058813046400936   0.05933789042507545
-1.6611439971650268   -0.0025110205890540027   -0.019078940814334436
-1.6611439971650268   -0.0025110205890540027   -0.019078940814334436
-1.6611439971650268   -0.0025110205890540027   -0.019078940814334436
-1.6611439971650268   -0.0025110205890540027   -0.019078940814334436
-1.943479366390872   -0.0055608703064646825   0.021979135295847302
-1.943479366390872   -0.0055608703064646825   0.021979135295847302
-1.943479366390872   -0.0055608703064646825   0.021979135295847302
-1.943479366390872   -0.0055608703064646825   0.021979135295847302
1.3193299416282425   0.07319512498130698   -0.06323719685560739
1.3193299416282425   0.07319512498130698   -0.06323719685560739
1.3193299416282425   0.07319512498130698   -0.06323719685560739
1.3193299416282425   0.07319512498130698   -0.06323719685560739
0.6276516621911407   0.01282536604797671   0.024166873531126974
0.6276516621911407   0.01282536604797671   0.024166873531126974
0.6276516621911407   0.01282536604797671   0.024166873531126974
0.6276516621911407   0.01282536604797671   0.024166873531126974
0.5573668894636261   -0.10712416674713363   -0.060021712039177104
0.5573668894636261   -0.10712416674713363   -0.060021712039177104
0.5573668894636261   -0.10712416674713363   -0.060021712039177104
0.5573668894636261   -0.10712416674713363   -0.060021712039177104
1.290605628866535   0.12139376808342953   0.02987553327712166
1.290605628866535   0.12139376808342953   0.02987553327712166
1.290605628866535   0.12139376808342953   0.02987553327712166
1.290605628866535   0.12139376808342953   0.02987553327712166
0.8997404123076346   0.012177443243814645   -0.026599384542963782
0.8997404123076346   0.012177443243814645   -0.026599384542963782
0.8997404123076346   0.012177443243814645   -0.026599384542963782
0.8997404123076346   0.012177443243814645   -0.026599384542963782
1.2548896124915396   0.03243547013616596   -0.059746250650592685
1.2548896124915396   0.03243547013616596   -0.059746250650592685
1.2548896124915396   0.03243547013616596   -0.059746250650592685
1.2548896124915396   0.03243547013616596   -0.059746250650592685
0.5923772764323316   -0.018871498206160797   0.026777554263373686
0.5923772764323316   -0.018871498206160797   0.026777554263373686
0.5923772764323316   -0.018871498206160797   0.026777554263373686
0.5923772764323316   -0.018871498206160797   0.026777554263373686
0.524520762624933   -0.1176703478457308   -0.05117368197595931
0.524520762624933   -0.1176703478457308   -0.05117368197595931
0.524520762624933   -0.1176703478457308   -0.05117368197595931
0.524520762624933   -0.1176703478457308   -0.05117368197595931
1.2395363067876097   0.10632844755840024   0.03926330267804189
1.2395363067876097   0.10632844755840024   0.03926330267804189
1.2395363067876097   0.10632844755840024   0.03926330267804189
1.2395363067876097   0.10632844755840024   0.03926330267804189
0.8702605076215872   -0.00608848912087237   -0.037418684884433756
0.8702605076215872   -0.00608848912087237   -0.037418684884433756
0.8702605076215872   -0.00608848912087237   -0.037418684884433756
0.8702605076215872   -0.00608848912087237   -0.037418684884433756
1.2046595720809514   0.01902813815108101   -0.04782006144791898
1.2046595720809514   0.01902813815108101   -0.04782006144791898
1.2046595720809514   0.01902813815108101   -0.04782006144791898
1.2046595720809514   0.01902813815108101   -0.04782006144791898
0.5585111697580115   -0.03125636601198997   0.032364371855689
0.5585111697580115   -0.03125636601198997   0.032364371855689
0.5585111697580115   -0.03125636601198997   0.032364371855689
0.5585111697580115   -0.03125636601198997   0.032364371855689
0.49490747844244504   -0.12423963250728864   -0.04261373165004424
0.49490747844244504   -0.12423963250728864   -0.04261373165004424
0.49490747844244504   -0.12423963250728864   -0.04261373165004424
0.49490747844244504   -0.12423963250728864   -0.04261373165004424
1.1819566822704013   0.08996487433284492   0.046617702050740416
1.1819566822704013   0.08996487433284492   0.046617702050740416
1.1819566822704013   0.08996487433284492   0.046617702050740416
1.1819566822704013   0.08996487433284492   0.046617702050740416
0.8122237323406097   -0.01991681291451089   -0.05338709433179745
0.8122237323406097   -0.01991681291451089   -0.05338709433179745
0.8122237323406097   -0.01991681291451089   -0.05338709433179745
0.8122237323406097   -0.01991681291451089   -0.05338709433179745
0.6380295463384068   0.0927883396918654   -0.003906679376420787
0.6380295463384068   0.0927883396918654   -0.003906679376420787
0.6380295463384068   0.0927883396918654   -0.003906679376420787
0.6380295463384068   0.0927883396918654   -0.003906679376420787
-0.0414256132730245   -0.008878986786701659   -0.0002586019188642392
-0.0414256132730245   -0.008878986786701659   -0.0002586019188642392
-0.0414256132730245   -0.008878986786701659   -0.0002586019188642392
-0.0414256132730245   -0.008878986786701659   -0.0002586019188642392
-0.09093592840368994   -0.08011569074276506   -0.03812396917731554
-0.09093592840368994   -0.08011569074276506   -0.03812396917731554
-0.09093592840368994   -0.08011569074276506   -0.03812396917731554
-0.09093592840368994   -0.08011569074276506   -0.03812396917731554
0.6213371424872137   0.11030540829239777   0.042399978039225794
0.6213371424872137   0.11030540829239777   0.042399978039225794
0.6213371424872137   0.11030540829239777   0.042399978039225794
0.6213371424872137   0.11030540829239777   0.042399978039225794
0.2774131325945287   0.02725055856791802   0.001960237252932406
0.2774131325945287   0.02725055856791802   0.001960237252932406
0.2774131325945287   0.02725055856791802   0.001960237252932406
0.2774131325945287   0.02725055856791802   0.001960237252932406
0.604537995756996   0.06695484871745326   0.0017548039630901104
0.604537995756996   0.06695484871745326   0.0017548039630901104
0.604537995756996   0.06695484871745326   0.0017548039630901104
0.604537995756996   0.06695484871745326   0.0017548039630901104
-0.07384786870699836   -0.03647621820134529   0.003676856764722582
-0.07384786870699836   -0.03647621820134529   0.003676856764722582
-0.07384786870699836   -0.03647621820134529   0.003676856764722582
-0.07384786870699836   -0.03647621820134529   0.003676856764722582
-0.12187688161033969   -0.10004787047453273   -0.03150942265562494
-0.12187688161033969   -0.10004787047453273   -0.03150942265562494
-0.12187688161033969   -0.10004787047453273   -0.03150942265562494
-0.12187688161033969   -0.10004787047453273   -0.03150942265562494
0.5848662961945226   0.08652831680767539   0.04635532121857912
0.5848662961945226   0.08652831680767539   0.04635532121857912
0.5848662961945226   0.08652831680767539   0.04635532121857912
0.5848662961945226   0.08652831680767539   0.04635532121857912
0.23930372715361722   0.0037466713856774414   -0.009842377932041693
0.23930372715361722   0.0037466713856774414   -0.009842377932041693
0.23930372715361722   0.0037466713856774414   -0.009842377932041693
0.23930372715361722   0.0037466713856774414   -0.009842377932041693
0.5686223233051857   0.0455721747963434   0.006091598783230297
0.5686223233051857   0.0455721747963434   0.006091598783230297
0.5686223233051857   0.0455721747963434   0.006091598783230297
0.5686223233051857   0.0455721747963434   0.006091598783230297
-0.1058664735793552   -0.05932529332155254   0.007820040346317211
-0.1058664735793552   -0.05932529332155254   0.007820040346317211
-0.1058664735793552   -0.05932529332155254   0.007820040346317211
-0.1058664735793552   -0.05932529332155254   0.007820040346317211
-0.15241651178282026   -0.11681185447591669   -0.025294334355461842
-0.15241651178282026   -0.11681185447591669   -0.025294334355461842
-0.15241651178282026   -0.11681185447591669   -0.025294334355461842
-0.15241651178282026   -0.11681185447591669   -0.025294334355461842
0.5511937870650003   0.06452167536329717   0.0500565035921442
0.5511937870650003   0.06452167536329717   0.0500565035921442
0.5511937870650003   0.06452167536329717   0.0500565035921442
0.5511937870650003   0.06452167536329717   0.0500565035921442
0.21003912760989607   -0.014097805063922081   -0.01968460987573875
0.21003912760989607   -0.014097805063922081   -0.01968460987573875
0.21003912760989607   -0.014097805063922081   -0.01968460987573875
0.21003912760989607   -0.014097805063922081   -0.01968460987573875
-0.014364890806546404   0.1107938726134653   0.015372151013359241
-0.014364890806546404   0.1107938726134653   0.015372151013359241
-0.014364890806546404   0.1107938726134653   0.015372151013359241
-0.014364890806546404   0.1107938726134653   0.015372151013359241
-0.6962379998125825   -0.03005949807711547   -0.02309516639305314
-0.6962379998125825   -0.03005949807711547   -0.02309516639305314
-0.6962379998125825   -0.03005949807711547   -0.02309516639305314
-0.6962379998125825   -0.03005949807711547   -0.02309516639305314
-0.7281497342194145   -0.05551927254379091   -0.018018817445522348
-0.7281497342194145   -0.05551927254379091   -0.018018817445522348
-0.7281497342194145   -0.05551927254379091   -0.018018817445522348
-0.7281497342194145   -0.05551927254379091   -0.018018817445522348
-0.04577734921152116   0.08908865649165512   0.018464579549108167
-0.04577734921152116   0.08908865649165512   0.018464579549108167
-0.04577734921152116   0.08908865649165512   0.018464579549108167
-0.04577734921152116   0.08908865649165512   0.018464579549108167
-0.37025402436785015   0.028772967165574023   0.007265722275831839
-0.37025402436785015   0.028772967165574023   0.007265722275831839
-0.37025402436785015   0.028772967165574023   0.007265722275831839
-0.37025402436785015   0.028772967165574023   0.007265722275831839
-0.04515611670226369   0.08901257847179489   0.021646820115255788
-0.04515611670226369   0.08901257847179489   0.021646820115255788
-0.04515611670226369   0.08901257847179489   0.021646820115255788
-0.04515611670226369   0.08901257847179489   0.021646820115255788
-0.7281724107528844   -0.05484463854814299   -0.018806834108519136
-0.7281724107528844   -0.05484463854814299   -0.018806834108519136
-0.7281724107528844   -0.05484463854814299   -0.018806834108519136
-0.7281724107528844   -0.05484463854814299   -0.018806834108519136
-0.7598416102687922   -0.07709183222876484   -0.012244282841786656
-0.7598416102687922   -0.07709183222876484   -0.012244282841786656
-0.7598416102687922   -0.07709183222876484   -0.012244282841786656
-0.7598416102687922   -0.07709183222876484   -0.012244282841786656
-0.07803325517352644   0.06460484661852192   0.02305599243539041
-0.07803325517352644   0.06460484661852192   0.02305599243539041
-0.07803325517352644   0.06460484661852192   0.02305599243539041
-0.07803325517352644   0.06460484661852192   0.02305599243539041
-0.4022719884552625   0.007500700418141465   -0.002314923134719267
-0.4022719884552625   0.007500700418141465   -0.002314923134719267
-0.4022719884552625   0.007500700418141465   -0.002314923134719267
-0.4022719884552625   0.007500700418141465   -0.002314923134719267
-0.07677361295766644   0.0673020281903834   0.02665702194282894
-0.07677361295766644   0.0673020281903834   0.02665702194282894
-0.07677361295766644   0.0673020281903834   0.02665702194282894
-0.07677361295766644   0.0673020281903834   0.02665702194282894
-0.7609237106428242   -0.07961147195879831   -0.015135144981913068
-0.7609237106428242   -0.07961147195879831   -0.015135144981913068
-0.7609237106428242   -0.07961147195879831   -0.015135144981913068
-0.7609237106428242   -0.07961147195879831   -0.015135144981913068
-0.7911637140261475   -0.09680243551039638   -0.006529895045894622
-0.7911637140261475   -0.09680243551039638   -0.006529895045894622
-0.7911637140261475   -0.09680243551039638   -0.006529895045894622
-0.7911637140261475   -0.09680243551039638   -0.006529895045894622
-0.1104183973922529   0.040924724061178114   0.026959659060283803
-0.1104183973922529   0.040924724061178114   0.026959659060283803
-0.1104183973922529   0.040924724061178114   0.026959659060283803
-0.1104183973922529   0.040924724061178114   0.026959659060283803
-0.4357541372110433   -0.013952254751819743   -0.012982368604577216
-0.4357541372110433   -0.013952254751819743   -0.012982368604577216
-0.4357541372110433   -0.013952254751819743   -0.012982368604577216
-0.4357541372110433   -0.013952254751819743   -0.012982368604577216
-0.6534530010337022   0.12728828810320578   0.033482041321019465
-0.6534530010337022   0.12728828810320578   0.033482041321019465
-0.6534530010337022   0.12728828810320578   0.033482041321019465
-0.6534530010337022   0.12728828810320578   0.033482041321019465
-1.335906717336241   -0.05168430980883082   -0.04166778343899431
-1.335906717336241   -0.05168430980883082   -0.04166778343899431
-1.335906717336241   -0.05168430980883082   -0.04166778343899431
-1.335906717336241   -0.05168430980883082   -0.04166778343899431
-1.353353523582966   -0.03473888398208319   0.003891583626558434
-1.353353523582966   -0.03473888398208319   0.003891583626558434
-1.353353523582966   -0.03473888398208319   0.003891583626558434
-1.353353523582966   -0.03473888398208319   0.003891583626558434
-0.7017295296987744   0.0639537544739662   -0.005390821860075196
-0.7017295296987744   0.0639537544739662   -0.005390821860075196
-0.7017295296987744   0.0639537544739662   -0.005390821860075196
-0.7017295296987744   0.0639537544739662   -0.005390821860075196
-1.0045522899169665   0.027492787933505153   0.012316261968835798
-1.0045522899169665   0.027492787933505153   0.012316261968835798
-1.0045522899169665   0.027492787933505153   0.012316261968835798
-1.0045522899169665   0.027492787933505153   0.012316261968835798
-0.6842979320053536   0.10619841818694839   0.03952250289404294
-0.6842979320053536   0.10619841818694839   0.03952250289404294
-0.6842979320053536   0.10619841818694839   0.03952250289404294
-0.6842979320053536   0.10619841818694839   0.03952250289404294
-1.3706196329742937   -0.07681805939296271   -0.04035978791920078
-1.3706196329742937   -0.07681805939296271   -0.04035978791920078
-1.3706196329742937   -0.07681805939296271   -0.04035978791920078
-1.3706196329742937   -0.07681805939296271   -0.04035978791920078
-1.3902550460477305   -0.056545077955483   0.006056977625559061
-1.3902550460477305   -0.056545077955483   0.006056977625559061
-1.3902550460477305   -0.056545077955483   0.006056977625559061
-1.3902550460477305   -0.056545077955483   0.006056977625559061
-0.7338627023551945   0.04127865768066402   -0.0007202331832193432
-0.7338627023551945   0.04127865768066402   -0.0007202331832193432
-0.7338627023551945   0.04127865768066402   -0.0007202331832193432
-0.7338627023551945   0.04127865768066402   -0.0007202331832193432
-1.0316550778044036   0.00850225866141735   0.003395477480690731
-1.0316550778044036   0.00850225866141735   0.003395477480690731
-1.0316550778044036   0.00850225866141735   0.003395477480690731
-1.0316550778044036   0.00850225866141735   0.003395477480690731
-0.7157054662301015   0.08618530292292689   0.04515930219997926
-0.7157054662301015   0.08618530292292689   0.04515930219997926
-0.7157054662301015   0.08618530292292689   0.04515930219997926
-0.7157054662301015   0.08618530292292689   0.04515930219997926
-1.407476218744617   -0.10051565976953997   -0.036078304044816684
-1.407476218744617   -0.10051565976953997   -0.036078304044816684
-1.407476218744617   -0.10051565976953997   -0.036078304044816684
-1.407476218744617   -0.10051565976953997   -0.036078304044816684
-1.423734436634165   -0.08000872366485962   0.012903430676676389
-1.423734436634165   -0.08000872366485962   0.012903430676676389
-1.423734436634165   -0.08000872366485962   0.012903430676676389
-1.423734436634165   -0.08000872366485962   0.012903430676676389
-0.7668947648630033   0.01534956391135639   0.002662851348082043
-0.7668947648630033   0.01534956391135639   0.002662851348082043
-0.7668947648630033   0.01534956391135639   0.002662851348082043
-0.7668947648630033   0.01534956391135639   0.002662851348082043
-1.072867230960632   -0.015285364048595651   -0.007919563521786972
-1.072867230960632   -0.015285364048595651   -0.007919563521786972
-1.072867230960632   -0.015285364048595651   -0.007919563521786972
-1.072867230960632   -0.015285364048595651   -0.007919563521786972
-1.2849356117811115   0.11415040978706287   0.04735302474075852
-1.2849356117811115   0.11415040978706287   0.04735302474075852
-1.2849356117811115   0.11415040978706287   0.04735302474075852
-1.2849356117811115   0.11415040978706287   0.04735302474075852
-1.9439027634368138   -0.08965086716577114   -0.04600078146876857
-1.9439027634368138   -0.08965086716577114   -0.04600078146876857
-1.9439027634368138   -0.08965086716577114   -0.04600078146876857
-1.9439027634368138   -0.08965086716577114   -0.04600078146876857
-1.9656353035631187   -0.018931394769557797   0.043658759207820225
-1.9656353035631187   -0.018931394769557797   0.043658759207820225
-1.9656353035631187   -0.018931394769557797   0.043658759207820225
-1.9656353035631187   -0.018931394769557797   0.043658759207820225
-1.3461501784491199   0.03212419917792425   -0.02695477386421828
-1.3461501784491199   0.03212419917792425   -0.02695477386421828
-1.3461501784491199   0.03212419917792425   -0.02695477386421828
-1.3461501784491199   0.03212419917792425   -0.02695477386421828
-1.5628418153325536   0.025731080312859922   0.038227193080450486
-1.5628418153325536   0.025731080312859922   0.038227193080450486
-1.5628418153325536   0.025731080312859922   0.038227193080450486
-1.5628418153325536   0.025731080312859922   0.038227193080450486
-1.3132931493110338   0.1139134987001108   0.055541072304017156
-1.3132931493110338   0.1139134987001108   0.055541072304017156
-1.3132931493110338   0.1139134987001108   0.055541072304017156
-1.3132931493110338   0.1139134987001108   0.055541072304017156
-1.9979338073229258   -0.10016216891345397   -0.036602985447303546
-1.9979338073229258   -0.10016216891345397   -0.036602985447303546
-1.9979338073229258   -0.10016216891345397   -0.036602985447303546
-1.9979338073229258   -0.10016216891345397   -0.036602985447303546
-2.0139337075439174   -0.030432755665919686   0.05461698438102977
-2.0139337075439174   -0.030432755665919686   0.05461698438102977
-2.0139337075439174   -0.030432755665919686   0.05461698438102977
-2.0139337075439174   -0.030432755665919686   0.05461698438102977
-1.3808394254763583   0.01969178088996587   -0.023101778363027986
-1.3808394254763583   0.01969178088996587   -0.023101778363027986
-1.3808394254763583   0.01969178088996587   -0.023101778363027986
-1.3808394254763583   0.01969178088996587   -0.023101778363027986
-1.6302023339770257   0.012887857653200496   0.023191790500523113
-1.6302023339770257   0.012887857653200496   0.023191790500523113
-1.6302023339770257   0.012887857653200496   0.023191790500523113
-1.6302023339770257   0.012887857653200496   0.023191790500523113
-1.3459852922844011   0.10533805350593528   0.06552261498078818
-1.3459852922844011   0.10533805350593528   0.06552261498078818
-1.3459852922844011   0.10533805350593528   0.06552261498078818
-1.3459852922844011   0.10533805350593528   0.06552261498078818
-2.047870107247385   -0.11516129479339643   -0.03033647500881312
-2.047870107247385   -0.11516129479339643   -0.03033647500881312
-2.047870107247385   -0.11516129479339643   -0.03033647500881312
-2.047870107247385   -0.11516129479339643   -0.03033647500881312
-2.0776758517554685   -0.07126883270043022   0.05366385321916463
-2.0776758517554685   -0.07126883270043022   0.05366385321916463
-2.0776758517554685   -0.07126883270043022   0.05366385321916463
-2.0776758517554685   -0.07126883270043022   0.05366385321916463
-1.4174599678853925   -0.0148008561043802   -0.02093209313993981
-1.4174599678853925   -0.0148008561043802   -0.02093209313993981
-1.4174599678853925   -0.0148008561043802   -0.02093209313993981
-1.4174599678853925   -0.0148008561043802   -0.02093209313993981
-1.6477124584045257   -0.0030624610251202555   0.018151622158646935
-1.6477124584045257   -0.0030624610251202555   0.018151622158646935
-1.6477124584045257   -0.0030624610251202555   0.018151622158646935
-1.6477124584045257   -0.0030624610251202555   0.018151622158646935
0.9046791497090733   0.051124776678256934   -0.061363560835404486
0.9046791497090733   0.051124776678256934   -0.061363560835404486
0.9046791497090733   0.051124776678256934   -0.061363560835404486
0.9046791497090733   0.051124776678256934   -0.061363560835404486
0.3864388660259193   0.024911505414593235   0.02637748180916272
0.3864388660259193   0.024911505414593235   0.02637748180916272
0.3864388660259193   0.024911505414593235   0.02637748180916272
0.3864388660259193   0.024911505414593235   0.02637748180916272
0.32315882700651827   -0.08951047113237164   -0.05719886094186718
0.32315882700651827   -0.08951047113237164   -0.05719886094186718
0.32315882700651827   -0.08951047113237164   -0.05719886094186718
0.32315882700651827   -0.08951047113237164   -0.05719886094186718
0.8833305197983581   0.1029303602994681   0.03204326280135231
0.8833305197983581   0.1029303602994681   0.03204326280135231
0.8833305197983581   0.1029303602994681   0.03204326280135231
0.8833305197983581   0.1029303602994681   0.03204326280135231
0.5913289473404192   0.013124729772171648   -0.01616053863770874
0.5913289473404192   0.013124729772171648   -0.01616053863770874
0.5913289473404192   0.013124729772171648   -0.01616053863770874
0.5913289473404192   0.013124729772171648   -0.01616053863770874
0.8479808522712003   0.015448969334952406   -0.05722368386992913
0.8479808522712003   0.015448969334952406   -0.05722368386992913
0.8479808522712003   0.015448969334952406   -0.05722368386992913
0.8479808522712003   0.015448969334952406   -0.05722368386992913
0.3578447173987805   -0.002692857302751747   0.029412977189830717
0.3578447173987805   -0.002692857302751747   0.029412977189830717
0.3578447173987805   -0.002692857302751747   0.029412977189830717
0.3578447173987805   -0.002692857302751747   0.029412977189830717
0.29619273576709126   -0.09992701877812525   -0.048670457984067265
0.29619273576709126   -0.09992701877812525   -0.048670457984067265
0.29619273576709126   -0.09992701877812525   -0.048670457984067265
0.29619273576709126   -0.09992701877812525   -0.048670457984067265
0.8389718774157897   0.08815264682636675   0.04127309729093523
0.8389718774157897   0.08815264682636675   0.04127309729093523
0.8389718774157897   0.08815264682636675   0.04127309729093523
0.8389718774157897   0.08815264682636675   0.04127309729093523
0.5633953768399032   -0.00404236768330242   -0.02637547107171938
0.5633953768399032   -0.00404236768330242   -0.02637547107171938
0.5633953768399032   -0.00404236768330242   -0.02637547107171938
0.5633953768399032   -0.00404236768330242   -0.02637547107171938
0.8042080085457455   0.002109506106528214   -0.0465031063394541
0.8042080085457455   0.002109506106528214   -0.0465031063394541
0.8042080085457455   0.002109506106528214   -0.0465031063394541
0.8042080085457455   0.002109506106528214   -0.0465031063394541
0.3299797195738542   -0.014860763121568615   0.03519820539319383
0.3299797195738542   -0.014860763121568615   0.03519820539319383
0.3299797195738542   -0.014860763121568615   0.03519820539319383
0.3299797195738542   -0.014860763121568615   0.03519820539319383
0.2720807602635318   -0.1094457685904571   -0.040559590558900356
0.2720807602635318   -0.1094457685904571   -0.040559590558900356
0.2720807602635318   -0.1094457685904571   -0.040559590558900356
0.2720807602635318   -0.1094457685904571   -0.040559590558900356
0.7872018840087278   0.06868557507731567   0.047087877990903845
0.7872018840087278   0.06868557507731567   0.047087877990903845
0.7872018840087278   0.06868557507731567   0.047087877990903845
0.7872018840087278   0.06868557507731567   0.047087877990903845
0.5162989772201009   -0.018150062527397565   -0.040374683078406776
0.5162989772201009   -0.018150062527397565   -0.040374683078406776
0.5162989772201009   -0.018150062527397565   -0.040374683078406776
0.5162989772201009   -0.018150062527397565   -0.040374683078406776
0.38895933290545676   0.07502332263086889   -0.011132001009431375
0.38895933290545676   0.07502332263086889   -0.011132001009431375
0.38895933290545676   0.07502332263086889   -0.011132001009431375
0.38895933290545676   0.07502332263086889   -0.011132001009431375
-0.11970303545028901   0.006620336198875219   0.003621808576295309
-0.11970303545028901   0.006620336198875219   0.003621808576295309
-0.11970303545028901   0.006620336198875219   0.003621808576295309
-0.11970303545028901   0.006620336198875219   0.003621808576295309
-0.1629631498495478   -0.06207573766475556   -0.035205459409779295
-0.1629631498495478   -0.06207573766475556   -0.035205459409779295
-0.1629631498495478   -0.06207573766475556   -0.035205459409779295
-0.1629631498495478   -0.06207573766475556   -0.035205459409779295
0.37810010295864765   0.0902246829780209   0.037772364708393916
0.37810010295864765   0.0902246829780209   0.037772364708393916
0.37810010295864765   0.0902246829780209   0.037772364708393916
0.37810010295864765   0.0902246829780209   0.037772364708393916
0.11843951607611053   0.02611711396737269   0.004535128117509536
0.11843951607611053   0.02611711396737269   0.004535128117509536
0.11843951607611053   0.02611711396737269   0.004535128117509536
0.11843951607611053   0.02611711396737269   0.004535128117509536
0.3610103212474233   0.04855806355222047   -0.006009924421931703
0.3610103212474233   0.04855806355222047   -0.006009924421931703
0.3610103212474233   0.04855806355222047   -0.006009924421931703
0.3610103212474233   0.04855806355222047   -0.006009924421931703
-0.14612397283296275   -0.020659722933574667   0.007574410941965105
-0.14612397283296275   -0.020659722933574667   0.007574410941965105
-0.14612397283296275   -0.020659722933574667   0.007574410941965105
-0.14612397283296275   -0.020659722933574667   0.007574410941965105
-0.18804667633528044   -0.0830196605897229   -0.028471593238609354
-0.18804667633528044   -0.0830196605897229   -0.028471593238609354
-0.18804667633528044   -0.0830196605897229   -0.028471593238609354
-0.18804667633528044   -0.0830196605897229   -0.028471593238609354
0.34734025049111344   0.06607453465756144   0.04106556220035995
0.34734025049111344   0.06607453465756144   0.04106556220035995
0.34734025049111344   0.06607453465756144   0.04106556220035995
0.34734025049111344   0.06607453465756144   0.04106556220035995
0.08752301207448986   0.0024555523160543907   -0.006831573463442902
0.08752301207448986   0.0024555523160543907   -0.006831573463442902
0.08752301207448986   0.0024555523160543907   -0.006831573463442902
0.08752301207448986   0.0024555523160543907   -0.006831573463442902
0.3307906469193506   0.02610044875728773   -0.0017083697581872503
0.3307906469193506   0.02610044875728773   -0.0017083697581872503
0.3307906469193506   0.02610044875728773   -0.0017083697581872503
0.3307906469193506   0.02610044875728773   -0.0017083697581872503
-0.17213353711967305   -0.04368203904560639   0.011756481295307307
-0.17213353711967305   -0.04368203904560639   0.011756481295307307
-0.17213353711967305   -0.04368203904560639   0.011756481295307307
-0.17213353711967305   -0.04368203904560639   0.011756481295307307
-0.21279907598523856   -0.10273800235342627   -0.022249021941234202
-0.21279907598523856   -0.10273800235342627   -0.022249021941234202
-0.21279907598523856   -0.10273800235342627   -0.022249021941234202
-0.21279907598523856   -0.10273800235342627   -0.022249021941234202
0.31958198128031473   0.04284161297980419   0.04465913295476049
0.31958198128031473   0.04284161297980419   0.04465913295476049
0.31958198128031473   0.04284161297980419   0.04465913295476049
0.31958198128031473   0.04284161297980419   0.04465913295476049
0.06267559147563236   -0.017214059152098945   -0.016880615717929072
0.06267559147563236   -0.017214059152098945   -0.016880615717929072
0.06267559147563236   -0.017214059152098945   -0.016880615717929072
0.06267559147563236   -0.017214059152098945   -0.016880615717929072
-0.10094344565672123   0.09535538731772382   0.008684706425281897
-0.10094344565672123   0.09535538731772382   0.008684706425281897
-0.10094344565672123   0.09535538731772382   0.008684706425281897
-0.10094344565672123   0.09535538731772382   0.008684706425281897
-0.6183621069795368   -0.015472799431893391   -0.018786813989706816
-0.6183621069795368   -0.015472799431893391   -0.018786813989706816
-0.6183621069795368   -0.015472799431893391   -0.018786813989706816
-0.6183621069795368   -0.015472799431893391   -0.018786813989706816
-0.6431008545659731   -0.036833466702831816   -0.01382253106887452
-0.6431008545659731   -0.036833466702831816   -0.01382253106887452
-0.6431008545659731   -0.036833466702831816   -0.01382253106887452
-0.6431008545659731   -0.036833466702831816   -0.01382253106887452
-0.1268197147235065   0.06880131089482933   0.014634667660842246
-0.1268197147235065   0.06880131089482933   0.014634667660842246
-0.1268197147235065   0.06880131089482933   0.014634667660842246
-0.1268197147235065   0.06880131089482933   0.014634667660842246
-0.3714015984580704   0.027533751774781914   0.00733220741235352
-0.3714015984580704   0.027533751774781914   0.00733220741235352
-0.3714015984580704   0.027533751774781914   0.00733220741235352
-0.3714015984580704   0.027533751774781914   0.00733220741235352
-0.12603743254667618   0.07234433483563926   0.015003054604183934
-0.12603743254667618   0.07234433483563926   0.015003054604183934
-0.12603743254667618   0.07234433483563926   0.015003054604183934
-0.12603743254667618   0.07234433483563926   0.015003054604183934
-0.643951460232309   -0.04044481413315751   -0.014464211970228187
-0.643951460232309   -0.04044481413315751   -0.014464211970228187
-0.643951460232309   -0.04044481413315751   -0.014464211970228187
-0.643951460232309   -0.04044481413315751   -0.014464211970228187
-0.6684419206271919   -0.05965254857712454   -0.00782231808917655
-0.6684419206271919   -0.05965254857712454   -0.00782231808917655
-0.6684419206271919   -0.05965254857712454   -0.00782231808917655
-0.6684419206271919   -0.05965254857712454   -0.00782231808917655
-0.1531404549785629   0.04394732821307644   0.019092524742175293
-0.1531404549785629   0.04394732821307644   0.019092524742175293
-0.1531404549785629   0.04394732821307644   0.019092524742175293
-0.1531404549785629   0.04394732821307644   0.019092524742175293
-0.39745616185390265   0.005324287083224757   -0.0024435804862280065
-0.39745616185390265   0.005324287083224757   -0.0024435804862280065
-0.39745616185390265   0.005324287083224757   -0.0024435804862280065
-0.39745616185390265   0.005324287083224757   -0.0024435804862280065
-0.15181528038494585   0.04930865689485611   0.020357069028480813
-0.15181528038494585   0.04930865689485611   0.020357069028480813
-0.15181528038494585   0.04930865689485611   0.020357069028480813
-0.15181528038494585   0.04930865689485611   0.020357069028480813
-0.6701686736986564   -0.06541545573675178   -0.010693176286872268
-0.6701686736986564   -0.06541545573675178   -0.010693176286872268
-0.6701686736986564   -0.06541545573675178   -0.010693176286872268
-0.6701686736986564   -0.06541545573675178   -0.010693176286872268
-0.6933588939383021   -0.08145342136451902   -0.0019905715221527967
-0.6933588939383021   -0.08145342136451902   -0.0019905715221527967
-0.6933588939383021   -0.08145342136451902   -0.0019905715221527967
-0.6933588939383021   -0.08145342136451902   -0.0019905715221527967
-0.17923614471765914   0.019796053715334494   0.023031578327898268
-0.17923614471765914   0.019796053715334494   0.023031578327898268
-0.17923614471765914   0.019796053715334494   0.023031578327898268
-0.17923614471765914   0.019796053715334494   0.023031578327898268
-0.4245815367137405   -0.016910931322115186   -0.013038540399389328
-0.4245815367137405   -0.016910931322115186   -0.013038540399389328
-0.4245815367137405   -0.016910931322115186   -0.013038540399389328
-0.4245815367137405   -0.016910931322115186   -0.013038540399389328
-0.5833460593471533   0.11277125285405087   0.028049371886265557
-0.5833460593471533   0.11277125285405087   0.028049371886265557
-0.5833460593471533   0.11277125285405087   0.028049371886265557
-0.5833460593471533   0.11277125285405087   0.028049371886265557
-1.1080907352510054   -0.037436217858965726   -0.03827452101673941
-1.1080907352510054   -0.037436217858965726   -0.03827452101673941
-1.1080907352510054   -0.037436217858965726   -0.03827452101673941
-1.1080907352510054   -0.037436217858965726   -0.03827452101673941
-1.117395084851201   -0.016278032479737414   0.009115798523833124
-1.117395084851201   -0.016278032479737414   0.009115798523833124
-1.117395084851201   -0.016278032479737414   0.009115798523833124
-1.117395084851201   -0.016278032479737414   0.009115798523833124
-0.6256419150504849   0.04482242960269722   -0.008183729796977957
-0.6256419150504849   0.04482242960269722   -0.008183729796977957
-0.6256419150504849   0.04482242960269722   -0.008183729796977957
-0.6256419150504849   0.04482242960269722   -0.008183729796977957
-0.8535351537395948   0.02622643831958868   0.010654311087129241
-0.8535351537395948   0.02622643831958868   0.010654311087129241
-0.8535351537395948   0.02622643831958868   0.010654311087129241
-0.8535351537395948   0.02622643831958868   0.010654311087129241
-0.6079733943080846   0.0906495055230554   0.03433179799468089
-0.6079733943080846   0.0906495055230554   0.03433179799468089
-0.6079733943080846   0.0906495055230554   0.03433179799468089
-0.6079733943080846   0.0906495055230554   0.03433179799468089
-1.135832039974898   -0.06287354278139112   -0.03647346679300642
-1.135832039974898   -0.06287354278139112   -0.03647346679300642
-1.135832039974898   -0.06287354278139112   -0.03647346679300642
-1.135832039974898   -0.06287354278139112   -0.03647346679300642
-1.1472636332156296   -0.03887758028391064   0.011899507854342434
-1.1472636332156296   -0.03887758028391064   0.011899507854342434
-1.1472636332156296   -0.03887758028391064   0.011899507854342434
-1.1472636332156296   -0.03887758028391064   0.011899507854342434
-0.6512532152070832   0.021920217143981846   -0.0034515567097555405
-0.6512532152070832   0.021920217143981846   -0.0034515567097555405
-0.6512532152070832   0.021920217143981846   -0.0034515567097555405
-0.6512532152070832   0.021920217143981846   -0.0034515567097555405
-0.8754887916180704   0.006076758791332876   0.0008504657194522147
-0.8754887916180704   0.006076758791332876   0.0008504657194522147
-0.8754887916180704   0.006076758791332876   0.0008504657194522147
-0.8754887916180704   0.006076758791332876   0.0008504657194522147
-0.6329501813469348   0.06966831205496327   0.04031551768001712
-0.6329501813469348   0.06966831205496327   0.04031551768001712
-0.6329501813469348   0.06966831205496327   0.04031551768001712
-0.6329501813469348   0.06966831205496327   0.04031551768001712
-1.1656318360540923   -0.0866908441731967   -0.03212824244870038
-1.1656318360540923   -0.0866908441731967   -0.03212824244870038
-1.1656318360540923   -0.0866908441731967   -0.03212824244870038
-1.1656318360540923   -0.0866908441731967   -0.03212824244870038
-1.1738653371333303   -0.062945541631308   0.018157895905087082
-1.1738653371333303   -0.062945541631308   0.018157895905087082
-1.1738653371333303   -0.062945541631308   0.018157895905087082
-1.1738653371333303   -0.062945541631308   0.018157895905087082
-0.6773108793650889   -0.0034711614565073323   0.00026724143588975624
-0.6773108793650889   -0.0034711614565073323   0.00026724143588975624
-0.6773108793650889   -0.0034711614565073323   0.00026724143588975624
-0.6773108793650889   -0.0034711614565073323   0.00026724143588975624
-0.9083879944077161   -0.01728875882053274   -0.010519782521823631
-0.9083879944077161   -0.01728875882053274   -0.010519782521823631
-0.9083879944077161   -0.01728875882053274   -0.010519782521823631
-0.9083879944077161   -0.01728875882053274   -0.010519782521823631
-1.0632261350272478   0.10450588938209365   0.044106372860989174
-1.0632261350272478   0.10450588938209365   0.044106372860989174
-1.0632261350272478   0.10450588938209365   0.044106372860989174
-1.0632261350272478   0.10450588938209365   0.044106372860989174
-1.5684834647388384   -0.07217194327533738   -0.04978363246685941
-1.5684834647388384   -0.07217194327533738   -0.04978363246685941
-1.5684834647388384   -0.07217194327533738   -0.04978363246685941
-1.5684834647388384   -0.07217194327533738   -0.04978363246685941
-1.5836971567611098   -0.0012501448455466968   0.043720484330417156
-1.5836971567611098   -0.0012501448455466968   0.043720484330417156
-1.5836971567611098   -0.0012501448455466968   0.043720484330417156
-1.5836971567611098   -0.0012501448455466968   0.043720484330417156
-1.1189058995310273   0.015195002454916728   -0.029911309809967285
-1.1189058995310273   0.015195002454916728   -0.029911309809967285
-1.1189058995310273   0.015195002454916728   -0.029911309809967285
-1.1189058995310273   0.015195002454916728   -0.029911309809967285
-1.2749168413498044   0.024303615563913805   0.03223781502361056
-1.2749168413498044   0.024303615563913805   0.03223781502361056
-1.2749168413498044   0.024303615563913805   0.03223781502361056
-1.2749168413498044   0.024303615563913805   0.03223781502361056
-1.085549336679233   0.10004051973794381   0.052025987165992674
-1.085549336679233   0.10004051973794381   0.052025987165992674
-1.085549336679233   0.10004051973794381   0.052025987165992674
-1.085549336679233   0.10004051973794381   0.052025987165992674
-1.6177086584672715   -0.08675060098293597   -0.040836568062986606
-1.6177086584672715   -0.08675060098293597   -0.040836568062986606
-1.6177086584672715   -0.08675060098293597   -0.040836568062986606
-1.6177086584672715   -0.08675060098293597   -0.040836568062986606
-1.625884586539571   -0.013676080366312016   0.05510407641879542
-1.625884586539571   -0.013676080366312016   0.05510407641879542
-1.625884586539571   -0.013676080366312016   0.05510407641879542
-1.625884586539571   -0.013676080366312016   0.05510407641879542
-1.1464395593494316   0.002635465844194773   -0.02549316894279595
-1.1464395593494316   0.002635465844194773   -0.02549316894279595
-1.1464395593494316   0.002635465844194773   -0.02549316894279595
-1.1464395593494316   0.002635465844194773   -0.02549316894279595
-1.33174558446691   0.010014579832222592   0.016835369316001478
-1.33174558446691   0.010014579832222592   0.016835369316001478
-1.33174558446691   0.010014579832222592   0.016835369316001478
-1.33174558446691   0.010014579832222592   0.016835369316001478
-1.1115199948897239   0.090436705433242   0.061303413766718357
-1.1115199948897239   0.090436705433242   0.061303413766718357
-1.1115199948897239   0.090436705433242   0.061303413766718357
-1.1115199948897239   0.090436705433242   0.061303413766718357
-1.6612777419079723   -0.1019509108640489   -0.0335868699254737
-1.6612777419079723   -0.1019509108640489   -0.0335868699254737
-1.6612777419079723   -0.1019509108640489   -0.0335868699254737
-1.6612777419079723   -0.1019509108640489   -0.0335868699254737
-1.6823229568789666   -0.05252707548999708   0.05529979892554994
-1.6823229568789666   -0.05252707548999708   0.05529979892554994
-1.6823229568789666   -0.05252707548999708   0.05529979892554994
-1.6823229568789666   -0.05252707548999708   0.05529979892554994
-1.1752435859042938   -0.029138721664126094   -0.02254016791692689
-1.1752435859042938   -0.029138721664126094   -0.02254016791692689
-1.1752435859042938   -0.029138721664126094   -0.02254016791692689
-1.1752435859042938   -0.029138721664126094   -0.02254016791692689
-1.3479172141635454   -0.006271924171125376   0.00949127894036532
-1.3479172141635454   -0.006271924171125376   0.00949127894036532
-1.3479172141635454   -0.006271924171125376   0.00949127894036532
-1.3479172141635454   -0.006271924171125376   0.00949127894036532
0.4964499106008868   0.029640033070986546   -0.05999092448383826
0.4964499106008868   0.029640033070986546   -0.05999092448383826
0.4964499106008868   0.029640033070986546   -0.05999092448383826
0.4964499106008868   0.029640033070986546   -0.05999092448383826
0.14396821183321196   0.03611047708058   0.028726895023746767
0.14396821183321196   0.03611047708058   0.028726895023746767
0.14396821183321196   0.03611047708058   0.028726895023746767
0.14396821183321196   0.03611047708058   0.028726895023746767
0.08810616627219227   -0.07310149459473761   -0.05289165814344905
0.08810616627219227   -0.07310149459473761   -0.05289165814344905
0.08810616627219227   -0.07310149459473761   -0.05289165814344905
0.08810616627219227   -0.07310149459473761   -0.05289165814344905
0.48267919449850494   0.0848753225533974   0.034565393676830355
0.48267919449850494   0.0848753225533974   0.034565393676830355
0.48267919449850494   0.0848753225533974   0.034565393676830355
0.48267919449850494   0.0848753225533974   0.034565393676830355
0.28509794463111937   0.01414660432307007   -0.006607481594915145
0.28509794463111937   0.01414660432307007   -0.006607481594915145
0.28509794463111937   0.01414660432307007   -0.006607481594915145
0.28509794463111937   0.01414660432307007   -0.006607481594915145
0.4474633336755161   -0.001649539218605861   -0.05498904866611419
0.4474633336755161   -0.001649539218605861   -0.05498904866611419
0.4474633336755161   -0.001649539218605861   -0.05498904866611419
0.4474633336755161   -0.001649539218605861   -0.05498904866611419
0.12222280056642244   0.012324140648506485   0.0322658780844583
0.12222280056642244   0.012324140648506485   0.0322658780844583
0.12222280056642244   0.012324140648506485   0.0322658780844583
0.12222280056642244   0.012324140648506485   0.0322658780844583
0.06701325224661292   -0.08347567348088945   -0.04490987907623034
0.06701325224661292   -0.08347567348088945   -0.04490987907623034
0.06701325224661292   -0.08347567348088945   -0.04490987907623034
0.06701325224661292   -0.08347567348088945   -0.04490987907623034
0.44476545890401226   0.0705582502390027   0.04438737413231885
0.44476545890401226   0.0705582502390027   0.04438737413231885
0.44476545890401226   0.0705582502390027   0.04438737413231885
0.44476545890401226   0.0705582502390027   0.04438737413231885
0.2585903214347141   -0.002050967435327719   -0.01712712833764197
0.2585903214347141   -0.002050967435327719   -0.01712712833764197
0.2585903214347141   -0.002050967435327719   -0.01712712833764197
0.2585903214347141   -0.002050967435327719   -0.01712712833764197
0.409755381716031   -0.014971853404574798   -0.04513290816401383
0.409755381716031   -0.014971853404574798   -0.04513290816401383
0.409755381716031   -0.014971853404574798   -0.04513290816401383
0.409755381716031   -0.014971853404574798   -0.04513290816401383
0.10055263206856604   0.0005837327966492188   0.03872761375599768
0.10055263206856604   0.0005837327966492188   0.03872761375599768
0.10055263206856604   0.0005837327966492188   0.03872761375599768
0.10055263206856604   0.0005837327966492188   0.03872761375599768
0.048149776030925434   -0.0960224460985847   -0.03740011991079553
0.048149776030925434   -0.0960224460985847   -0.03740011991079553
0.048149776030925434   -0.0960224460985847   -0.03740011991079553
0.048149776030925434   -0.0960224460985847   -0.03740011991079553
0.3978266239975343   0.047632255742094   0.04926724826743749
0.3978266239975343   0.047632255742094   0.04926724826743749
0.3978266239975343   0.047632255742094   0.04926724826743749
0.3978266239975343   0.047632255742094   0.04926724826743749
0.2220368952095391   -0.01649023097832908   -0.02997292155012219
0.2220368952095391   -0.01649023097832908   -0.02997292155012219
0.2220368952095391   -0.01649023097832908   -0.02997292155012219
0.2220368952095391   -0.01649023097832908   -0.02997292155012219
0.13831859409559272   0.05401513089670892   -0.01742584748047927
0.13831859409559272   0.05401513089670892   -0.01742584748047927
0.13831859409559272   0.05401513089670892   -0.01742584748047927
0.13831859409559272   0.05401513089670892   -0.01742584748047927
-0.2026370827569685   0.017499012859459734   0.007001011109890622
-0.2026370827569685   0.017499012859459734   0.007001011109890622
-0.2026370827569685   0.017499012859459734   0.007001011109890622
-0.2026370827569685   0.017499012859459734   0.007001011109890622
-0.23861721117579698   -0.04684403286694079   -0.03085390038196988
-0.23861721117579698   -0.04684403286694079   -0.03085390038196988
-0.23861721117579698   -0.04684403286694079   -0.03085390038196988
-0.23861721117579698   -0.04684403286694079   -0.03085390038196988
0.13327090696980112   0.06705434342909052   0.032776207320767664
0.13327090696980112   0.06705434342909052   0.032776207320767664
0.13327090696980112   0.06705434342909052   0.032776207320767664
0.13327090696980112   0.06705434342909052   0.032776207320767664
-0.04360110461306502   0.021965331594882374   0.00554909736839768
-0.04360110461306502   0.021965331594882374   0.00554909736839768
-0.04360110461306502   0.021965331594882374   0.00554909736839768
-0.04360110461306502   0.021965331594882374   0.00554909736839768
0.1162922171929354   0.02774671104693153   -0.012809609181402027
0.1162922171929354   0.02774671104693153   -0.012809609181402027
0.1162922171929354   0.02774671104693153   -0.012809609181402027
0.1162922171929354   0.02774671104693153   -0.012809609181402027
-0.22257452677405262   -0.008472405859892937   0.010987894619704144
-0.22257452677405262   -0.008472405859892937   0.010987894619704144
-0.22257452677405262   -0.008472405859892937   0.010987894619704144
-0.22257452677405262   -0.008472405859892937   0.010987894619704144
-0.25748751884856774   -0.06793479415139062   -0.024153312504719082
-0.25748751884856774   -0.06793479415139062   -0.024153312504719082
-0.25748751884856774   -0.06793479415139062   -0.024153312504719082
-0.25748751884856774   -0.06793479415139062   -0.024153312504719082
0.10851195957594369   0.04337425194406058   0.03573373214547452
0.10851195957594369   0.04337425194406058   0.03573373214547452
0.10851195957594369   0.04337425194406058   0.03573373214547452
0.10851195957594369   0.04337425194406058   0.03573373214547452
-0.06691042171843077   -0.0007720788409185421   -0.005345057815060144
-0.06691042171843077   -0.0007720788409185421   -0.005345057815060144
-0.06691042171843077   -0.0007720788409185421   -0.005345057815060144
-0.06691042171843077   -0.0007720788409185421   -0.005345057815060144
0.09203589923726062   0.0051217403716086445   -0.00839405797548982
0.09203589923726062   0.0051217403716086445   -0.00839405797548982
0.09203589923726062   0.0051217403716086445   -0.00839405797548982
0.09203589923726062   0.0051217403716086445   -0.00839405797548982
-0.2422227924360376   -0.030893616505101355   0.015129141911646138
-0.2422227924360376   -0.030893616505101355   0.015129141911646138
-0.2422227924360376   -0.030893616505101355   0.015129141911646138
-0.2422227924360376   -0.030893616505101355   0.015129141911646138
-0.2762144134410151   -0.08886890602853546   -0.018097067365546532
-0.2762144134410151   -0.08886890602853546   -0.018097067365546532
-0.2762144134410151   -0.08886890602853546   -0.018097067365546532
-0.2762144134410151   -0.08886890602853546   -0.018097067365546532
0.08683437453308265   0.020111009009861326   0.039889417491544565
0.08683437453308265   0.020111009009861326   0.039889417491544565
0.08683437453308265   0.020111009009861326   0.039889417491544565
0.08683437453308265   0.020111009009861326   0.039889417491544565
-0.08709451264730529   -0.021147231554264925   -0.015637307610572422
-0.08709451264730529   -0.021147231554264925   -0.015637307610572422
-0.08709451264730529   -0.021147231554264925   -0.015637307610572422
-0.08709451264730529   -0.021147231554264925   -0.015637307610572422
-0.19220917139300592   0.07403588886765565   0.0026036919215076254
-0.19220917139300592   0.07403588886765565   0.0026036919215076254
-0.19220917139300592   0.07403588886765565   0.0026036919215076254
-0.19220917139300592   0.07403588886765565   0.0026036919215076254
-0.5446641713831969   -0.006424995662574456   -0.014952608458492622
-0.5446641713831969   -0.006424995662574456   -0.014952608458492622
-0.5446641713831969   -0.006424995662574456   -0.014952608458492622
-0.5446641713831969   -0.006424995662574456   -0.014952608458492622
-0.561656189300685   -0.022878262152381548   -0.008926722998033695
-0.561656189300685   -0.022878262152381548   -0.008926722998033695
-0.561656189300685   -0.022878262152381548   -0.008926722998033695
-0.561656189300685   -0.022878262152381548   -0.008926722998033695
-0.21216645617630508   0.0441337565786782   0.010422085169867
-0.21216645617630508   0.0441337565786782   0.010422085169867
-0.21216645617630508   0.0441337565786782   0.010422085169867
-0.21216645617630508   0.0441337565786782   0.010422085169867
-0.37678027015403154   0.021752825962056258   0.005757737474227281
-0.37678027015403154   0.021752825962056258   0.005757737474227281
-0.37678027015403154   0.021752825962056258   0.005757737474227281
-0.37678027015403154   0.021752825962056258   0.005757737474227281
-0.211150285472618   0.050779668555196236   0.008857026711788236
-0.211150285472618   0.050779668555196236   0.008857026711788236
-0.211150285472618   0.050779668555196236   0.008857026711788236
-0.211150285472618   0.050779668555196236   0.008857026711788236
-0.5634916390742252   -0.030343453198748205   -0.010638780819375668
-0.5634916390742252   -0.030343453198748205   -0.010638780819375668
-0.5634916390742252   -0.030343453198748205   -0.010638780819375668
-0.5634916390742252   -0.030343453198748205   -0.010638780819375668
-0.5804435676181366   -0.04590263894523508   -0.0028541984098084602
-0.5804435676181366   -0.04590263894523508   -0.0028541984098084602
-0.5804435676181366   -0.04590263894523508   -0.0028541984098084602
-0.5804435676181366   -0.04590263894523508   -0.0028541984098084602
-0.23208560634640057   0.020117746647927592   0.014803709206798462
-0.23208560634640057   0.020117746647927592   0.014803709206798462
-0.23208560634640057   0.020117746647927592   0.014803709206798462
-0.23208560634640057   0.020117746647927592   0.014803709206798462
-0.3963828008271833   -0.00011257655092464236   -0.004010551488739453
-0.3963828008271833   -0.00011257655092464236   -0.004010551488739453
-0.3963828008271833   -0.00011257655092464236   -0.004010551488739453
-0.3963828008271833   -0.00011257655092464236   -0.004010551488739453
-0.2307230775779635   0.027465932236786908   0.014268167460128267
-0.2307230775779635   0.027465932236786908   0.014268167460128267
-0.2307230775779635   0.027465932236786908   0.014268167460128267
-0.2307230775779635   0.027465932236786908   0.014268167460128267
-0.5829709452205638   -0.05441567336807876   -0.006978051999100655
-0.5829709452205638   -0.05441567336807876   -0.006978051999100655
-0.5829709452205638   -0.05441567336807876   -0.006978051999100655
-0.5829709452205638   -0.05441567336807876   -0.006978051999100655
-0.5988719478167355   -0.06813288600280007   0.0030226828363018893
-0.5988719478167355   -0.06813288600280007   0.0030226828363018893
-0.5988719478167355   -0.06813288600280007   0.0030226828363018893
-0.5988719478167355   -0.06813288600280007   0.0030226828363018893
-0.25166174091716315   -0.003018905242719111   0.018816294467897086
-0.25166174091716315   -0.003018905242719111   0.018816294467897086
-0.25166174091716315   -0.003018905242719111   0.018816294467897086
-0.25166174091716315   -0.003018905242719111   0.018816294467897086
-0.4170065878245457   -0.022031033412465997   -0.014615728161703676
-0.4170065878245457   -0.022031033412465997   -0.014615728161703676
-0.4170065878245457   -0.022031033412465997   -0.014615728161703676
-0.4170065878245457   -0.022031033412465997   -0.014615728161703676
-0.5171493337635475   0.09303856953109134   0.023158014446087977
-0.5171493337635475   0.09303856953109134   0.023158014446087977
-0.5171493337635475   0.09303856953109134   0.023158014446087977
-0.5171493337635475   0.09303856953109134   0.023158014446087977
-0.8791502189401197   -0.026041483291953882   -0.03414693323861759
-0.8791502189401197   -0.026041483291953882   -0.03414693323861759
-0.8791502189401197   -0.026041483291953882   -0.03414693323861759
-0.8791502189401197   -0.026041483291953882   -0.03414693323861759
-0.8808341131428173   -0.0017150569385784853   0.014321035588976017
-0.8808341131428173   -0.0017150569385784853   0.014321035588976017
-0.8808341131428173   -0.0017150569385784853   0.014321035588976017
-0.8808341131428173   -0.0017150569385784853   0.014321035588976017
-0.5529160870314386   0.022677932209529017   -0.01078240601372027
-0.5529160870314386   0.022677932209529017   -0.01078240601372027
-0.5529160870314386   0.022677932209529017   -0.01078240601372027
-0.5529160870314386   0.022677932209529017   -0.01078240601372027
-0.7039161717282957   0.02195081693100634   0.007589134893165067
-0.7039161717282957   0.02195081693100634   0.007589134893165067
-0.7039161717282957   0.02195081693100634   0.007589134893165067
-0.7039161717282957   0.02195081693100634   0.007589134893165067
-0.5353272687798202   0.07040835692250623   0.029431260531402326
-0.5353272687798202   0.07040835692250623   0.029431260531402326
-0.5353272687798202   0.07040835692250623   0.029431260531402326
-0.5353272687798202   0.07040835692250623   0.029431260531402326
-0.8999967496491854   -0.05101929990631024   -0.032187903975139154
-0.8999967496491854   -0.05101929990631024   -0.032187903975139154
-0.8999967496491854   -0.05101929990631024   -0.032187903975139154
-0.8999967496491854   -0.05101929990631024   -0.032187903975139154
-0.9039613454796871   -0.024412522329284037   0.01759287619645756
-0.9039613454796871   -0.024412522329284037   0.01759287619645756
-0.9039613454796871   -0.024412522329284037   0.01759287619645756
-0.9039613454796871   -0.024412522329284037   0.01759287619645756
-0.5718022158513419   0.000568439178309843   -0.006118517699387621
-0.5718022158513419   0.000568439178309843   -0.006118517699387621
-0.5718022158513419   0.000568439178309843   -0.006118517699387621
-0.5718022158513419   0.000568439178309843   -0.006118517699387621
-0.7205825738344311   0.0015692109385185837   -0.002653339585105448
-0.7205825738344311   0.0015692109385185837   -0.002653339585105448
-0.7205825738344311   0.0015692109385185837   -0.002653339585105448
-0.7205825738344311   0.0015692109385185837   -0.002653339585105448
-0.5537455498502596   0.04921559321181401   0.03551765827252027
-0.5537455498502596   0.04921559321181401   0.03551765827252027
-0.5537455498502596   0.04921559321181401   0.03551765827252027
-0.5537455498502596   0.04921559321181401   0.03551765827252027
-0.9229989547415578   -0.07404061962357897   -0.027967072818615837
-0.9229989547415578   -0.07404061962357897   -0.027967072818615837
-0.9229989547415578   -0.07404061962357897   -0.027967072818615837
-0.9229989547415578   -0.07404061962357897   -0.027967072818615837
-0.9239430534498959   -0.048064070811761395   0.023934868744426366
-0.9239430534498959   -0.048064070811761395   0.023934868744426366
-0.9239430534498959   -0.048064070811761395   0.023934868744426366
-0.9239430534498959   -0.048064070811761395   0.023934868744426366
-0.5909237318158215   -0.02306970709783257   -0.002299416064103124
-0.5909237318158215   -0.02306970709783257   -0.002299416064103124
-0.5909237318158215   -0.02306970709783257   -0.002299416064103124
-0.5909237318158215   -0.02306970709783257   -0.002299416064103124
-0.7453494937125315   -0.020626272096992387   -0.013811518037252661
-0.7453494937125315   -0.020626272096992387   -0.013811518037252661
-0.7453494937125315   -0.020626272096992387   -0.013811518037252661
-0.7453494937125315   -0.020626272096992387   -0.013811518037252661
-0.8405938324347153   0.09156784406512669   0.041025671931337854
-0.8405938324347153   0.09156784406512669   0.041025671931337854
-0.8405938324347153   0.09156784406512669   0.041025671931337854
-0.8405938324347153   0.09156784406512669   0.041025671931337854
-1.1827135778392774   -0.05439049914099958   -0.05188854201200746
-1.1827135778392774   -0.05439049914099958   -0.05188854201200746
-1.1827135778392774   -0.05439049914099958   -0.05188854201200746
-1.1827135778392774   -0.05439049914099958   -0.05188854201200746
-1.191397241688404   0.015304787651139407   0.04312895832852284
-1.191397241688404   0.015304787651139407   0.04312895832852284
-1.191397241688404   0.015304787651139407   0.04312895832852284
-1.191397241688404   0.015304787651139407   0.04312895832852284
-0.8902455506664328   -0.002744588368504469   -0.031706620599190334
-0.8902455506664328   -0.002744588368504469   -0.031706620599190334
-0.8902455506664328   -0.002744588368504469   -0.031706620599190334
-0.8902455506664328   -0.002744588368504469   -0.031706620599190334
-0.9821451780584582   0.021999013080305496   0.023754581133756475
-0.9821451780584582   0.021999013080305496   0.023754581133756475
-0.9821451780584582   0.021999013080305496   0.023754581133756475
-0.9821451780584582   0.021999013080305496   0.023754581133756475
-0.8569986503917263   0.08326281060494961   0.048520481800896076
-0.8569986503917263   0.08326281060494961   0.048520481800896076
-0.8569986503917263   0.08326281060494961   0.048520481800896076
-0.8569986503917263   0.08326281060494961   0.048520481800896076
-1.226318523348579   -0.07237699270778167   -0.043795669613430295
-1.226318523348579   -0.07237699270778167   -0.043795669613430295
-1.226318523348579   -0.07237699270778167   -0.043795669613430295
-1.226318523348579   -0.07237699270778167   -0.043795669613430295
-1.2274086538276576   0.0025572826556388706   0.05508500959265035
-1.2274086538276576   0.0025572826556388706   0.05508500959265035
-1.2274086538276576   0.0025572826556388706   0.05508500959265035
-1.2274086538276576   0.0025572826556388706   0.05508500959265035
-0.9110562182401983   -0.015081726852764876   -0.027212283082632682
-0.9110562182401983   -0.015081726852764876   -0.027212283082632682
-0.9110562182401983   -0.015081726852764876   -0.027212283082632682
-0.9110562182401983   -0.015081726852764876   -0.027212283082632682
-1.0281434788218244   0.006918491590414189   0.008524930189264951
-1.0281434788218244   0.006918491590414189   0.008524930189264951
-1.0281434788218244   0.006918491590414189   0.008524930189264951
-1.0281434788218244   0.006918491590414189   0.008524930189264951
-0.8763975999758563   0.07328525648727746   0.057713824899042046
-0.8763975999758563   0.07328525648727746   0.057713824899042046
-0.8763975999758563   0.07328525648727746   0.057713824899042046
-0.8763975999758563   0.07328525648727746   0.057713824899042046
-1.263653062339667   -0.08739549093206972   -0.03618425937968808
-1.263653062339667   -0.08739549093206972   -0.03618425937968808
-1.263653062339667   -0.08739549093206972   -0.03618425937968808
-1.263653062339667   -0.08739549093206972   -0.03618425937968808
-1.2772148447371465   -0.03364766824063645   0.05688635803337392
-1.2772148447371465   -0.03364766824063645   0.05688635803337392
-1.2772148447371465   -0.03364766824063645   0.05688635803337392
-1.2772148447371465   -0.03364766824063645   0.05688635803337392
-0.9325287358989898   -0.04332725765619491   -0.023730356656625415
-0.9325287358989898   -0.04332725765619491   -0.023730356656625415
-0.9325287358989898   -0.04332725765619491   -0.023730356656625415
-0.9325287358989898   -0.04332725765619491   -0.023730356656625415
-1.0431829736884146   -0.009111116900435812   -0.0005433129280217608
-1.0431829736884146   -0.009111116900435812   -0.0005433129280217608
-1.0431829736884146   -0.009111116900435812   -0.0005433129280217608
-1.0431829736884146   -0.009111116900435812   -0.0005433129280217608
0.08831697122208818   0.007269194641443247   -0.059828276560843933
0.08831697122208818   0.007269194641443247   -0.059828276560843933
0.08831697122208818   0.007269194641443247   -0.059828276560843933
0.08831697122208818   0.007269194641443247   -0.059828276560843933
-0.09810158163961367   0.044886913687717446   0.030613145263529307
-0.09810158163961367   0.044886913687717446   0.030613145263529307
-0.09810158163961367   0.044886913687717446   0.030613145263529307
-0.09810158163961367   0.044886913687717446   0.030613145263529307
-0.14685694797444687   -0.057580240778478134   -0.04817628050959547
-0.14685694797444687   -0.057580240778478134   -0.04817628050959547
-0.14685694797444687   -0.057580240778478134   -0.04817628050959547
-0.14685694797444687   -0.057580240778478134   -0.04817628050959547
0.0809296442912402   0.0632991012635509   0.03759693646111801
0.0809296442912402   0.0632991012635509   0.03759693646111801
0.0809296442912402   0.0632991012635509   0.03759693646111801
0.0809296442912402   0.0632991012635509   0.03759693646111801
-0.020925360651175815   0.01388995449157277   0.005204253764283069
-0.020925360651175815   0.01388995449157277   0.005204253764283069
-0.020925360651175815   0.01388995449157277   0.005204253764283069
-0.020925360651175815   0.01388995449157277   0.005204253764283069
0.04604188450201997   -0.020061475354626775   -0.053481285866805506
0.04604188450201997   -0.020061475354626775   -0.053481285866805506
0.04604188450201997   -0.020061475354626775   -0.053481285866805506
0.04604188450201997   -0.020061475354626775   -0.053481285866805506
-0.114032866102625   0.023716657922301175   0.03464723014873455
-0.114032866102625   0.023716657922301175   0.03464723014873455
-0.114032866102625   0.023716657922301175   0.03464723014873455
-0.114032866102625   0.023716657922301175   0.03464723014873455
-0.1629180818664096   -0.0680222479665699   -0.04083157612512223
-0.1629180818664096   -0.0680222479665699   -0.04083157612512223
-0.1629180818664096   -0.0680222479665699   -0.04083157612512223
-0.1629180818664096   -0.0680222479665699   -0.04083157612512223
0.04785504425606234   0.049113878948384336   0.05155751129366026
0.04785504425606234   0.049113878948384336   0.05155751129366026
0.04785504425606234   0.049113878948384336   0.05155751129366026
0.04785504425606234   0.049113878948384336   0.05155751129366026
-0.047036006546912396   -0.0017535176985409712   -0.006861190104204088
-0.047036006546912396   -0.0017535176985409712   -0.006861190104204088
-0.047036006546912396   -0.0017535176985409712   -0.006861190104204088
-0.047036006546912396   -0.0017535176985409712   -0.006861190104204088
0.012162839106074044   -0.03366472970718464   -0.04412490580071031
0.012162839106074044   -0.03366472970718464   -0.04412490580071031
0.012162839106074044   -0.03366472970718464   -0.04412490580071031
0.012162839106074044   -0.03366472970718464   -0.04412490580071031
-0.13008892569078087   0.011893311714644705   0.04339864507180533
-0.13008892569078087   0.011893311714644705   0.04339864507180533
-0.13008892569078087   0.011893311714644705   0.04339864507180533
-0.13008892569078087   0.011893311714644705   0.04339864507180533
-0.1776291471649578   -0.08408067278530518   -0.03384162320709702
-0.1776291471649578   -0.08408067278530518   -0.03384162320709702
-0.1776291471649578   -0.08408067278530518   -0.03384162320709702
-0.1776291471649578   -0.08408067278530518   -0.03384162320709702
0.0019223859308084108   0.019374155573237996   0.058773627472576404
0.0019223859308084108   0.019374155573237996   0.058773627472576404
0.0019223859308084108   0.019374155573237996   0.058773627472576404
0.0019223859308084108   0.019374155573237996   0.058773627472576404
-0.07505640113523505   -0.017507551112571743   -0.020769563858524846
-0.07505640113523505   -0.017507551112571743   -0.020769563858524846
-0.07505640113523505   -0.017507551112571743   -0.020769563858524846
-0.07505640113523505   -0.017507551112571743   -0.020769563858524846
-0.11207471924710756   0.029448464601841043   -0.023814093688063778
-0.11207471924710756   0.029448464601841043   -0.023814093688063778
-0.11207471924710756   0.029448464601841043   -0.023814093688063778
-0.11207471924710756   0.029448464601841043   -0.023814093688063778
-0.28670014392313453   0.012058545432583404   0.007994995084590058
-0.28670014392313453   0.012058545432583404   0.007994995084590058
-0.28670014392313453   0.012058545432583404   0.007994995084590058
-0.28670014392313453   0.012058545432583404   0.007994995084590058
-0.31184700428456325   -0.03353399524941661   -0.02504757481740359
-0.31184700428456325   -0.03353399524941661   -0.02504757481740359
-0.31184700428456325   -0.03353399524941661   -0.02504757481740359
-0.31184700428456325   -0.03353399524941661   -0.02504757481740359
-0.11521154670713293   0.02854726294667835   0.02392322210181763
-0.11521154670713293   0.02854726294667835   0.02392322210181763
-0.11521154670713293   0.02854726294667835   0.02392322210181763
-0.11521154670713293   0.02854726294667835   0.02392322210181763
-0.20603442220118473   0.008547442254968465   0.004550381192844217
-0.20603442220118473   0.008547442254968465   0.004550381192844217
-0.20603442220118473   0.008547442254968465   0.004550381192844217
-0.20603442220118473   0.008547442254968465   0.004550381192844217
-0.1287836567930218   0.00417514678015235   -0.01956521216110023
-0.1287836567930218   0.00417514678015235   -0.01956521216110023
-0.1287836567930218   0.00417514678015235   -0.01956521216110023
-0.1287836567930218   0.00417514678015235   -0.01956521216110023
-0.2999682141120536   -0.01085519899627043   0.0116675797919944
-0.2999682141120536   -0.01085519899627043   0.0116675797919944
-0.2999682141120536   -0.01085519899627043   0.0116675797919944
-0.2999682141120536   -0.01085519899627043   0.0116675797919944
-0.32434962765029385   -0.054040980007292794   -0.018480840385024074
-0.32434962765029385   -0.054040980007292794   -0.018480840385024074
-0.32434962765029385   -0.054040980007292794   -0.018480840385024074
-0.32434962765029385   -0.054040980007292794   -0.018480840385024074
-0.134575339565933   0.005887069615897248   0.02697281779479216
-0.134575339565933   0.005887069615897248   0.02697281779479216
-0.134575339565933   0.005887069615897248   0.02697281779479216
-0.134575339565933   0.005887069615897248   0.02697281779479216
-0.22182889797846844   -0.012028688247304506   -0.005771715907151143
-0.22182889797846844   -0.012028688247304506   -0.005771715907151143
-0.22182889797846844   -0.012028688247304506   -0.005771715907151143
-0.22182889797846844   -0.012028688247304506   -0.005771715907151143
-0.1476566149470978   -0.017929589407224354   -0.01461690008790866
-0.1476566149470978   -0.017929589407224354   -0.01461690008790866
-0.1476566149470978   -0.017929589407224354   -0.01461690008790866
-0.1476566149470978   -0.017929589407224354   -0.01461690008790866
-0.31308585066674816   -0.03204181938178485   0.01583888390719676
-0.31308585066674816   -0.03204181938178485   0.01583888390719676
-0.31308585066674816   -0.03204181938178485   0.01583888390719676
-0.31308585066674816   -0.03204181938178485   0.01583888390719676
-0.33693468270416826   -0.07515373802508707   -0.012665260445977145
-0.33693468270416826   -0.07515373802508707   -0.012665260445977145
-0.33693468270416826   -0.07515373802508707   -0.012665260445977145
-0.33693468270416826   -0.07515373802508707   -0.012665260445977145
-0.15076849888028293   -0.0170859355500039   0.0334668809809752
-0.15076849888028293   -0.0170859355500039   0.0334668809809752
-0.15076849888028293   -0.0170859355500039   0.0334668809809752
-0.15076849888028293   -0.0170859355500039   0.0334668809809752
-0.2376117584568917   -0.03239186775831049   -0.01627242102075366
-0.2376117584568917   -0.03239186775831049   -0.01627242102075366
-0.2376117584568917   -0.03239186775831049   -0.01627242102075366
-0.2376117584568917   -0.03239186775831049   -0.01627242102075366
-0.2814767840864225   0.04869755952385468   -0.00252721982312119
-0.2814767840864225   0.04869755952385468   -0.00252721982312119
-0.2814767840864225   0.04869755952385468   -0.00252721982312119
-0.2814767840864225   0.04869755952385468   -0.00252721982312119
-0.4736253759289058   -0.016209429299111178   -0.013374084995932834
-0.4736253759289058   -0.016209429299111178   -0.013374084995932834
-0.4736253759289058   -0.016209429299111178   -0.013374084995932834
-0.4736253759289058   -0.016209429299111178   -0.013374084995932834
-0.4785971670712112   -0.011799629507277434   -0.0028141343650357094
-0.4785971670712112   -0.011799629507277434   -0.0028141343650357094
-0.4785971670712112   -0.011799629507277434   -0.0028141343650357094
-0.4785971670712112   -0.011799629507277434   -0.0028141343650357094
-0.2988551171027938   0.002687978733234883   0.0036898871087885053
-0.2988551171027938   0.002687978733234883   0.0036898871087885053
-0.2988551171027938   0.002687978733234883   0.0036898871087885053
-0.2988551171027938   0.002687978733234883   0.0036898871087885053
-0.3823389436213646   0.005472367670591158   0.0015423065248272132
-0.3823389436213646   0.005472367670591158   0.0015423065248272132
-0.3823389436213646   0.005472367670591158   0.0015423065248272132
-0.3823389436213646   0.005472367670591158   0.0015423065248272132
-0.29412301365509125   0.02638808722088405   0.0036502958596518163
-0.29412301365509125   0.02638808722088405   0.0036502958596518163
-0.29412301365509125   0.02638808722088405   0.0036502958596518163
-0.29412301365509125   0.02638808722088405   0.0036502958596518163
-0.48495781244030467   -0.03712827991631762   -0.009288710801463044
-0.48495781244030467   -0.03712827991631762   -0.009288710801463044
-0.48495781244030467   -0.03712827991631762   -0.009288710801463044
-0.48495781244030467   -0.03712827991631762   -0.009288710801463044
-0.4903191635360249   -0.03383002671432085   0.0032983995851498457
-0.4903191635360249   -0.03383002671432085   0.0032983995851498457
-0.4903191635360249   -0.03383002671432085   0.0032983995851498457
-0.4903191635360249   -0.03383002671432085   0.0032983995851498457
-0.31211580985008525   -0.018968193195763303   0.007615461804489503
-0.31211580985008525   -0.018968193195763303   0.007615461804489503
-0.31211580985008525   -0.018968193195763303   0.007615461804489503
-0.31211580985008525   -0.018968193195763303   0.007615461804489503
-0.39504768455963396   -0.014563466302384712   -0.007937983915925546
-0.39504768455963396   -0.014563466302384712   -0.007937983915925546
-0.39504768455963396   -0.014563466302384712   -0.007937983915925546
-0.39504768455963396   -0.014563466302384712   -0.007937983915925546
-0.3072373623643317   0.003945462342072187   0.009094043695421834
-0.3072373623643317   0.003945462342072187   0.009094043695421834
-0.3072373623643317   0.003945462342072187   0.009094043695421834
-0.3072373623643317   0.003945462342072187   0.009094043695421834
-0.497160767024533   -0.05870683825491088   -0.00603280631680066
-0.497160767024533   -0.05870683825491088   -0.00603280631680066
-0.497160767024533   -0.05870683825491088   -0.00603280631680066
-0.497160767024533   -0.05870683825491088   -0.00603280631680066
-0.5017360406498571   -0.0549652201719918   0.009159019554258295
-0.5017360406498571   -0.0549652201719918   0.009159019554258295
-0.5017360406498571   -0.0549652201719918   0.009159019554258295
-0.5017360406498571   -0.0549652201719918   0.009159019554258295
-0.3248483892096898   -0.03940189256136735   0.012014361562691929
-0.3248483892096898   -0.03940189256136735   0.012014361562691929
-0.3248483892096898   -0.03940189256136735   0.012014361562691929
-0.3248483892096898   -0.03940189256136735   0.012014361562691929
-0.40872335877592336   -0.03472491421280159   -0.018239089146224886
-0.40872335877592336   -0.03472491421280159   -0.018239089146224886
-0.40872335877592336   -0.03472491421280159   -0.018239089146224886
-0.40872335877592336   -0.03472491421280159   -0.018239089146224886
-0.4497087556069813   0.0705634279044339   0.019436159410152525
-0.4497087556069813   0.0705634279044339   0.019436159410152525
-0.4497087556069813   0.0705634279044339   0.019436159410152525
-0.4497087556069813   0.0705634279044339   0.019436159410152525
-0.6531373444661113   -0.026942208703754286   -0.030010136534255567
-0.6531373444661113   -0.026942208703754286   -0.030010136534255567
-0.6531373444661113   -0.026942208703754286   -0.030010136534255567
-0.6531373444661113   -0.026942208703754286   -0.030010136534255567
-0.644355445779861   0.010573547159320323   0.020135027483689366
-0.644355445779861   0.010573547159320323   0.020135027483689366
-0.644355445779861   0.010573547159320323   0.020135027483689366
-0.644355445779861   0.010573547159320323   0.020135027483689366
-0.48025073842627175   -0.009520290843360257   -0.013361329804255837
-0.48025073842627175   -0.009520290843360257   -0.013361329804255837
-0.48025073842627175   -0.009520290843360257   -0.013361329804255837
-0.48025073842627175   -0.009520290843360257   -0.013361329804255837
-0.5549412910461327   0.01124904083741747   0.002660579081950963
-0.5549412910461327   0.01124904083741747   0.002660579081950963
-0.5549412910461327   0.01124904083741747   0.002660579081950963
-0.5549412910461327   0.01124904083741747   0.002660579081950963
-0.460875496870339   0.04836787405908029   0.02562671307296724
-0.460875496870339   0.04836787405908029   0.02562671307296724
-0.460875496870339   0.04836787405908029   0.02562671307296724
-0.460875496870339   0.04836787405908029   0.02562671307296724
-0.6661086872146156   -0.049692617621943394   -0.02836501490882769
-0.6661086872146156   -0.049692617621943394   -0.02836501490882769
-0.6661086872146156   -0.049692617621943394   -0.02836501490882769
-0.6661086872146156   -0.049692617621943394   -0.02836501490882769
-0.6600679089149177   -0.011104844858256524   0.023780755181325497
-0.6600679089149177   -0.011104844858256524   0.023780755181325497
-0.6600679089149177   -0.011104844858256524   0.023780755181325497
-0.6600679089149177   -0.011104844858256524   0.023780755181325497
-0.4918715585409336   -0.02920649842949083   -0.009087103724223652
-0.4918715585409336   -0.02920649842949083   -0.009087103724223652
-0.4918715585409336   -0.02920649842949083   -0.009087103724223652
-0.4918715585409336   -0.02920649842949083   -0.009087103724223652
-0.5656157864392598   -0.0080588942367045   -0.007616306793380961
-0.5656157864392598   -0.0080588942367045   -0.007616306793380961
-0.5656157864392598   -0.0080588942367045   -0.007616306793380961
-0.5656157864392598   -0.0080588942367045   -0.007616306793380961
-0.47227763745380136   0.02802688254507185   0.03164912073688196
-0.47227763745380136   0.02802688254507185   0.03164912073688196
-0.47227763745380136   0.02802688254507185   0.03164912073688196
-0.47227763745380136   0.02802688254507185   0.03164912073688196
-0.6815396395845947   -0.07021603541537069   -0.02446670760996171
-0.6815396395845947   -0.07021603541537069   -0.02446670760996171
-0.6815396395845947   -0.07021603541537069   -0.02446670760996171
-0.6815396395845947   -0.07021603541537069   -0.02446670760996171
-0.6728414008097757   -0.03293629719303276   0.03028530245385018
-0.6728414008097757   -0.03293629719303276   0.03028530245385018
-0.6728414008097757   -0.03293629719303276   0.03028530245385018
-0.6728414008097757   -0.03293629719303276   0.03028530245385018
-0.5035341596691418   -0.04935889876618793   -0.00543789694797767
-0.5035341596691418   -0.04935889876618793   -0.00543789694797767
-0.5035341596691418   -0.04935889876618793   -0.00543789694797767
-0.5035341596691418   -0.04935889876618793   -0.00543789694797767
-0.5816783359323365   -0.02774426233424626   -0.018145947560085612
-0.5816783359323365   -0.02774426233424626   -0.018145947560085612
-0.5816783359323365   -0.02774426233424626   -0.018145947560085612
-0.5816783359323365   -0.02774426233424626   -0.018145947560085612
-0.6187683804547174   0.07646228641842157   0.03843018840053833
-0.6187683804547174   0.07646228641842157   0.03843018840053833
-0.6187683804547174   0.07646228641842157   0.03843018840053833
-0.6187683804547174   0.07646228641842157   0.03843018840053833
-0.7960216573543422   -0.03978762790022933   -0.05023295211376107
-0.7960216573543422   -0.03978762790022933   -0.05023295211376107
-0.7960216573543422   -0.03978762790022933   -0.05023295211376107
-0.7960216573543422   -0.03978762790022933   -0.05023295211376107
-0.7966360433267666   0.030791302253137254   0.04236332516932129
-0.7966360433267666   0.030791302253137254   0.04236332516932129
-0.7966360433267666   0.030791302253137254   0.04236332516932129
-0.7966360433267666   0.030791302253137254   0.04236332516932129
-0.6611535919277244   -0.022547676508739734   -0.030734479587575657
-0.6611535919277244   -0.022547676508739734   -0.030734479587575657
-0.6611535919277244   -0.022547676508739734   -0.030734479587575657
-0.6611535919277244   -0.022547676508739734   -0.030734479587575657
-0.6891015702804356   0.018172542352875104   0.013301005121797688
-0.6891015702804356   0.018172542352875104   0.013301005121797688
-0.6891015702804356   0.018172542352875104   0.013301005121797688
-0.6891015702804356   0.018172542352875104   0.013301005121797688
-0.6284243030592369   0.06502820243500151   0.045336085811112876
-0.6284243030592369   0.06502820243500151   0.045336085811112876
-0.6284243030592369   0.06502820243500151   0.045336085811112876
-0.6284243030592369   0.06502820243500151   0.045336085811112876
-0.831834302671142   -0.05925354716649059   -0.04358312213291244
-0.831834302671142   -0.05925354716649059   -0.04358312213291244
-0.831834302671142   -0.05925354716649059   -0.04358312213291244
-0.831834302671142   -0.05925354716649059   -0.04358312213291244
-0.8252159341162274   0.018446704107786566   0.05458958759615365
-0.8252159341162274   0.018446704107786566   0.05458958759615365
-0.8252159341162274   0.018446704107786566   0.05458958759615365
-0.8252159341162274   0.018446704107786566   0.05458958759615365
-0.6747617582448132   -0.03386352561328171   -0.026929810713134703
-0.6747617582448132   -0.03386352561328171   -0.026929810713134703
-0.6747617582448132   -0.03386352561328171   -0.026929810713134703
-0.6747617582448132   -0.03386352561328171   -0.026929810713134703
-0.7231092760612992   0.003159160011591   -0.0009473593592276772
-0.7231092760612992   0.003159160011591   -0.0009473593592276772
-0.7231092760612992   0.003159160011591   -0.0009473593592276772
-0.7231092760612992   0.003159160011591   -0.0009473593592276772
-0.6406665412366426   0.05531267908946175   0.054370069624975356
-0.6406665412366426   0.05531267908946175   0.054370069624975356
-0.6406665412366426   0.05531267908946175   0.054370069624975356
-0.6406665412366426   0.05531267908946175   0.054370069624975356
-0.8618287228054327   -0.07324707227598631   -0.036780579466069
-0.8618287228054327   -0.07324707227598631   -0.036780579466069
-0.8618287228054327   -0.07324707227598631   -0.036780579466069
-0.8618287228054327   -0.07324707227598631   -0.036780579466069
-0.8674664668709441   -0.014023230144965204   0.05772751187147741
-0.8674664668709441   -0.014023230144965204   0.05772751187147741
-0.8674664668709441   -0.014023230144965204   0.05772751187147741
-0.8674664668709441   -0.014023230144965204   0.05772751187147741
-0.6884247147249825   -0.05730587396688204   -0.023261690348341506
-0.6884247147249825   -0.05730587396688204   -0.023261690348341506
-0.6884247147249825   -0.05730587396688204   -0.023261690348341506
-0.6884247147249825   -0.05730587396688204   -0.023261690348341506
-0.7361853576352575   -0.011708408879491011   -0.011067718478085561
-0.7361853576352575   -0.011708408879491011   -0.011067718478085561
-0.7361853576352575   -0.011708408879491011   -0.011067718478085561
-0.7361853576352575   -0.011708408879491011   -0.011067718478085561
-0.33916608569565415   -0.02215106472290701   -0.06351224273355245
-0.33916608569565415   -0.02215106472290701   -0.06351224273355245
-0.33916608569565415   -0.02215106472290701   -0.06351224273355245
-0.33916608569565415   -0.02215106472290701   -0.06351224273355245
-0.33518072048350966   0.04867504361581641   0.028580316222017486
-0.33518072048350966   0.04867504361581641   0.028580316222017486
-0.33518072048350966   0.04867504361581641   0.028580316222017486
-0.33518072048350966   0.04867504361581641   0.028580316222017486
-0.37706606836771145   -0.044427974504572684   -0.043042729720548276
-0.37706606836771145   -0.044427974504572684   -0.043042729720548276
-0.37706606836771145   -0.044427974504572684   -0.043042729720548276
-0.37706606836771145   -0.044427974504572684   -0.043042729720548276
-0.34614470671533326   0.025356212249534618   0.042968200376805855
-0.34614470671533326   0.025356212249534618   0.042968200376805855
-0.34614470671533326   0.025356212249534618   0.042968200376805855
-0.34614470671533326   0.025356212249534618   0.042968200376805855
-0.33185346584261777   0.008181667447491756   0.02915750245988669
-0.33185346584261777   0.008181667447491756   0.02915750245988669
-0.33185346584261777   0.008181667447491756   0.02915750245988669
-0.33185346584261777   0.008181667447491756   0.02915750245988669
-0.37985579033237854   -0.04701964503764951   -0.053211360421234644
-0.37985579033237854   -0.04701964503764951   -0.053211360421234644
-0.37985579033237854   -0.04701964503764951   -0.053211360421234644
-0.37985579033237854   -0.04701964503764951   -0.053211360421234644
-0.34754808966183737   0.023754777871435442   0.03636441143281407
-0.34754808966183737   0.023754777871435442   0.03636441143281407
-0.34754808966183737   0.023754777871435442   0.03636441143281407
-0.34754808966183737   0.023754777871435442   0.03636441143281407
-0.3896587249957911   -0.05598399146206671   -0.03641807150677224
-0.3896587249957911   -0.05598399146206671   -0.03641807150677224
-0.3896587249957911   -0.05598399146206671   -0.03641807150677224
-0.3896587249957911   -0.05598399146206671   -0.03641807150677224
-0.3786382391108557   0.009618735451385668   0.07985268595428041
-0.3786382391108557   0.009618735451385668   0.07985268595428041
-0.3786382391108557   0.009618735451385668   0.07985268595428041
-0.3786382391108557   0.009618735451385668   0.07985268595428041
-0.3618202937809131   -0.011673998484797596   0.011645414845665496
-0.3618202937809131   -0.011673998484797596   0.011645414845665496
-0.3618202937809131   -0.011673998484797596   0.011645414845665496
-0.3618202937809131   -0.011673998484797596   0.011645414845665496
-0.41732900182159555   -0.06252575912956618   -0.04145663301846512
-0.41732900182159555   -0.06252575912956618   -0.04145663301846512
-0.41732900182159555   -0.06252575912956618   -0.04145663301846512
-0.41732900182159555   -0.06252575912956618   -0.04145663301846512
-0.3608843870450538   0.006244078358882826   0.045225548425964344
-0.3608843870450538   0.006244078358882826   0.045225548425964344
-0.3608843870450538   0.006244078358882826   0.045225548425964344
-0.3608843870450538   0.006244078358882826   0.045225548425964344
-0.3999656465207045   -0.07848880072812658   -0.028653121582733643
-0.3999656465207045   -0.07848880072812658   -0.028653121582733643
-0.3999656465207045   -0.07848880072812658   -0.028653121582733643
-0.3999656465207045   -0.07848880072812658   -0.028653121582733643
-0.429151734685093   -0.04238761023911214   0.07473411526866455
-0.429151734685093   -0.04238761023911214   0.07473411526866455
-0.429151734685093   -0.04238761023911214   0.07473411526866455
-0.429151734685093   -0.04238761023911214   0.07473411526866455
-0.387755853710616   -0.03514972627203614   -0.016086407265726944
-0.387755853710616   -0.03514972627203614   -0.016086407265726944
-0.387755853710616   -0.03514972627203614   -0.016086407265726944
-0.387755853710616   -0.03514972627203614   -0.016086407265726944
-0.3592976432639157   -0.01060483688777046   -0.032724417176428794
-0.3592976432639157   -0.01060483688777046   -0.032724417176428794
-0.3592976432639157   -0.01060483688777046   -0.032724417176428794
-0.3592976432639157   -0.01060483688777046   -0.032724417176428794
-0.36378733158872684   -0.04468085589145397   -0.00190130133993055
-0.36378733158872684   -0.04468085589145397   -0.00190130133993055
-0.36378733158872684   -0.04468085589145397   -0.00190130133993055
-0.36378733158872684   -0.04468085589145397   -0.00190130133993055
-0.3664008203582325   -0.029736047980931567   -0.01630405888513234
-0.3664008203582325   -0.029736047980931567   -0.01630405888513234
-0.3664008203582325   -0.029736047980931567   -0.01630405888513234
-0.3664008203582325   -0.029736047980931567   -0.01630405888513234
-0.37186826040487586   -0.060824553271270065   -0.0006571111396730537
-0.37186826040487586   -0.060824553271270065   -0.0006571111396730537
-0.37186826040487586   -0.060824553271270065   -0.0006571111396730537
-0.37186826040487586   -0.060824553271270065   -0.0006571111396730537
-0.3622311539751206   -0.038044080483866476   -0.0013215157062616747
-0.3622311539751206   -0.038044080483866476   -0.0013215157062616747
-0.3622311539751206   -0.038044080483866476   -0.0013215157062616747
-0.3622311539751206   -0.038044080483866476   -0.0013215157062616747
-0.37188119734394637   -0.03323381785192276   -0.028312531254374516
-0.37188119734394637   -0.03323381785192276   -0.028312531254374516
-0.37188119734394637   -0.03323381785192276   -0.028312531254374516
-0.37188119734394637   -0.03323381785192276   -0.028312531254374516
-0.368723394839168   -0.059662294820285094   0.0020093155495438794
-0.368723394839168   -0.059662294820285094   0.0020093155495438794
-0.368723394839168   -0.059662294820285094   0.0020093155495438794
-0.368723394839168   -0.059662294820285094   0.0020093155495438794
-0.3725150076336212   -0.049197474353352054   -0.010510233983735446
-0.3725150076336212   -0.049197474353352054   -0.010510233983735446
-0.3725150076336212   -0.049197474353352054   -0.010510233983735446
-0.3725150076336212   -0.049197474353352054   -0.010510233983735446
-0.38529910359828673   -0.07888934087712876   0.00828538489581135
-0.38529910359828673   -0.07888934087712876   0.00828538489581135
-0.38529910359828673   -0.07888934087712876   0.00828538489581135
-0.38529910359828673   -0.07888934087712876   0.00828538489581135
-0.37051992453057075   -0.05376058101193926   -0.010326490478977692
-0.37051992453057075   -0.05376058101193926   -0.010326490478977692
-0.37051992453057075   -0.05376058101193926   -0.010326490478977692
-0.37051992453057075   -0.05376058101193926   -0.010326490478977692
-0.3861855299363725   -0.054030624626253736   -0.021005463045492542
-0.3861855299363725   -0.054030624626253736   -0.021005463045492542
-0.3861855299363725   -0.054030624626253736   -0.021005463045492542
-0.3861855299363725   -0.054030624626253736   -0.021005463045492542
-0.3746158769426563   -0.07704348625134924   0.006831431369078629
-0.3746158769426563   -0.07704348625134924   0.006831431369078629
-0.3746158769426563   -0.07704348625134924   0.006831431369078629
-0.3746158769426563   -0.07704348625134924   0.006831431369078629
-0.377999412858792   -0.07017977861757474   -0.0047714203783699016
-0.377999412858792   -0.07017977861757474   -0.0047714203783699016
-0.377999412858792   -0.07017977861757474   -0.0047714203783699016
-0.377999412858792   -0.07017977861757474   -0.0047714203783699016
-0.39557258514007804   -0.10184642378576078   0.01666980837803078
-0.39557258514007804   -0.10184642378576078   0.01666980837803078
-0.39557258514007804   -0.10184642378576078   0.01666980837803078
-0.39557258514007804   -0.10184642378576078   0.01666980837803078
-0.3819372258284055   -0.0727606867727999   -0.021787104055537097
-0.3819372258284055   -0.0727606867727999   -0.021787104055537097
-0.3819372258284055   -0.0727606867727999   -0.021787104055537097
-0.3819372258284055   -0.0727606867727999   -0.021787104055537097
-0.3538249508059016   0.009226185051021116   -0.005996438368275615
-0.3538249508059016   0.009226185051021116   -0.005996438368275615
-0.3538249508059016   0.009226185051021116   -0.005996438368275615
-0.3538249508059016   0.009226185051021116   -0.005996438368275615
-0.3999948723982893   -0.0759345414087466   -0.019163149762965417
-0.3999948723982893   -0.0759345414087466   -0.019163149762965417
-0.3999948723982893   -0.0759345414087466   -0.019163149762965417
-0.3999948723982893   -0.0759345414087466   -0.019163149762965417
-0.383631287351501   -0.013991571898323119   0.005068304199705744
-0.383631287351501   -0.013991571898323119   0.005068304199705744
-0.383631287351501   -0.013991571898323119   0.005068304199705744
-0.383631287351501   -0.013991571898323119   0.005068304199705744
-0.3759955085362694   -0.08217231850424996   -0.011841229251998162
-0.3759955085362694   -0.08217231850424996   -0.011841229251998162
-0.3759955085362694   -0.08217231850424996   -0.011841229251998162
-0.3759955085362694   -0.08217231850424996   -0.011841229251998162
-0.378097477897125   -0.04200642464042252   -0.008576146010132887
-0.378097477897125   -0.04200642464042252   -0.008576146010132887
-0.378097477897125   -0.04200642464042252   -0.008576146010132887
-0.378097477897125   -0.04200642464042252   -0.008576146010132887
-0.3592271968873288   -0.010132343789782408   -3.964572176283834e-05
-0.3592271968873288   -0.010132343789782408   -3.964572176283834e-05
-0.3592271968873288   -0.010132343789782408   -3.964572176283834e-05
-0.3592271968873288   -0.010132343789782408   -3.964572176283834e-05
-0.4025193770449843   -0.0881513246573334   -0.015212391508700499
-0.4025193770449843   -0.0881513246573334   -0.015212391508700499
-0.4025193770449843   -0.0881513246573334   -0.015212391508700499
-0.4025193770449843   -0.0881513246573334   -0.015212391508700499
-0.38801694847393625   -0.03350676009001727   0.01082376595707071
-0.38801694847393625   -0.03350676009001727   0.01082376595707071
-0.38801694847393625   -0.03350676009001727   0.01082376595707071
-0.38801694847393625   -0.03350676009001727   0.01082376595707071
-0.3817179763737094   -0.09755450853685696   -0.008168043500678865
-0.3817179763737094   -0.09755450853685696   -0.008168043500678865
-0.3817179763737094   -0.09755450853685696   -0.008168043500678865
-0.3817179763737094   -0.09755450853685696   -0.008168043500678865
-0.3827586030564302   -0.05687473266561321   -0.016297633127209082
-0.3827586030564302   -0.05687473266561321   -0.016297633127209082
-0.3827586030564302   -0.05687473266561321   -0.016297633127209082
-0.3827586030564302   -0.05687473266561321   -0.016297633127209082
-0.36541599153737486   -0.02999487288773675   0.005782245031881232
-0.36541599153737486   -0.02999487288773675   0.005782245031881232
-0.36541599153737486   -0.02999487288773675   0.005782245031881232
-0.36541599153737486   -0.02999487288773675   0.005782245031881232
-0.4066868376449803   -0.10343430007384183   -0.01259813991433229
-0.4066868376449803   -0.10343430007384183   -0.01259813991433229
-0.4066868376449803   -0.10343430007384183   -0.01259813991433229
-0.4066868376449803   -0.10343430007384183   -0.01259813991433229
-0.3915826934744399   -0.05186124012293297   0.016451928019613905
-0.3915826934744399   -0.05186124012293297   0.016451928019613905
-0.3915826934744399   -0.05186124012293297   0.016451928019613905
-0.3915826934744399   -0.05186124012293297   0.016451928019613905
-0.3859716708122399   -0.11231788217384656   -0.002494606589337478
-0.3859716708122399   -0.11231788217384656   -0.002494606589337478
-0.3859716708122399   -0.11231788217384656   -0.002494606589337478
-0.3859716708122399   -0.11231788217384656   -0.002494606589337478
-0.3883174081622578   -0.07242594593615355   -0.02478186460496273
-0.3883174081622578   -0.07242594593615355   -0.02478186460496273
-0.3883174081622578   -0.07242594593615355   -0.02478186460496273
-0.3883174081622578   -0.07242594593615355   -0.02478186460496273
-0.36933921475272163   0.039546303297500016   0.018634293758626238
-0.36933921475272163   0.039546303297500016   0.018634293758626238
-0.36933921475272163   0.039546303297500016   0.018634293758626238
-0.36933921475272163   0.039546303297500016   0.018634293758626238
-0.436263607764968   -0.056607123563701775   -0.026692307221067624
-0.436263607764968   -0.056607123563701775   -0.026692307221067624
-0.436263607764968   -0.056607123563701775   -0.026692307221067624
-0.436263607764968   -0.056607123563701775   -0.026692307221067624
-0.4126958856776073   0.011829442770898979   0.025832485518375897
-0.4126958856776073   0.011829442770898979   0.025832485518375897
-0.4126958856776073   0.011829442770898979   0.025832485518375897
-0.4126958856776073   0.011829442770898979   0.025832485518375897
-0.39773441876592264   -0.06326231167998553   -0.016176613090740068
-0.39773441876592264   -0.06326231167998553   -0.016176613090740068
-0.39773441876592264   -0.06326231167998553   -0.016176613090740068
-0.39773441876592264   -0.06326231167998553   -0.016176613090740068
-0.40397829331991214   -0.016697276420601218   -0.005122325568553823
-0.40397829331991214   -0.016697276420601218   -0.005122325568553823
-0.40397829331991214   -0.016697276420601218   -0.005122325568553823
-0.40397829331991214   -0.016697276420601218   -0.005122325568553823
-0.37307108465958605   0.019469545852511178   0.024408199908446254
-0.37307108465958605   0.019469545852511178   0.024408199908446254
-0.37307108465958605   0.019469545852511178   0.024408199908446254
-0.37307108465958605   0.019469545852511178   0.024408199908446254
-0.44017319495024815   -0.07371638992790708   -0.026008228146022293
-0.44017319495024815   -0.07371638992790708   -0.026008228146022293
-0.44017319495024815   -0.07371638992790708   -0.026008228146022293
-0.44017319495024815   -0.07371638992790708   -0.026008228146022293
-0.42031940831145337   -0.007221223707824312   0.029287119654628754
-0.42031940831145337   -0.007221223707824312   0.029287119654628754
-0.42031940831145337   -0.007221223707824312   0.029287119654628754
-0.42031940831145337   -0.007221223707824312   0.029287119654628754
-0.401548223002525   -0.07745955917262379   -0.012879807603266727
-0.401548223002525   -0.07745955917262379   -0.012879807603266727
-0.401548223002525   -0.07745955917262379   -0.012879807603266727
-0.401548223002525   -0.07745955917262379   -0.012879807603266727
-0.40781295836868553   -0.032810871540699844   -0.014177132901672712
-0.40781295836868553   -0.032810871540699844   -0.014177132901672712
-0.40781295836868553   -0.032810871540699844   -0.014177132901672712
-0.40781295836868553   -0.032810871540699844   -0.014177132901672712
-0.3771654027296536   0.0015559169960848024   0.03001881759237454
-0.3771654027296536   0.0015559169960848024   0.03001881759237454
-0.3771654027296536   0.0015559169960848024   0.03001881759237454
-0.3771654027296536   0.0015559169960848024   0.03001881759237454
-0.44714085414350463   -0.08867532543571396   -0.023366007777738014
-0.44714085414350463   -0.08867532543571396   -0.023366007777738014
-0.44714085414350463   -0.08867532543571396   -0.023366007777738014
-0.44714085414350463   -0.08867532543571396   -0.023366007777738014
-0.42535581213980084   -0.02549270508157278   0.035714723945757046
-0.42535581213980084   -0.02549270508157278   0.035714723945757046
-0.42535581213980084   -0.02549270508157278   0.035714723945757046
-0.42535581213980084   -0.02549270508157278   0.035714723945757046
-0.40482111188366793   -0.09171939116846485   -0.009882012980994344
-0.40482111188366793   -0.09171939116846485   -0.009882012980994344
-0.40482111188366793   -0.09171939116846485   -0.009882012980994344
-0.40482111188366793   -0.09171939116846485   -0.009882012980994344
-0.4145402995889505   -0.047994491831610295   -0.022948851210434353
-0.4145402995889505   -0.047994491831610295   -0.022948851210434353
-0.4145402995889505   -0.047994491831610295   -0.022948851210434353
-0.4145402995889505   -0.047994491831610295   -0.022948851210434353
-0.4008182828719281   0.056737563462581464   0.03718963021784823
-0.4008182828719281   0.056737563462581464   0.03718963021784823
-0.4008182828719281   0.056737563462581464   0.03718963021784823
-0.4008182828719281   0.056737563462581464   0.03718963021784823
-0.428076966474255   -0.03415139831195173   -0.03869111060938464
-0.428076966474255   -0.03415139831195173   -0.03869111060938464
-0.428076966474255   -0.03415139831195173   -0.03869111060938464
-0.428076966474255   -0.03415139831195173   -0.03869111060938464
-0.4184197402622037   0.04041143866543957   0.041327244617800026
-0.4184197402622037   0.04041143866543957   0.041327244617800026
-0.4184197402622037   0.04041143866543957   0.041327244617800026
-0.4184197402622037   0.04041143866543957   0.041327244617800026
-0.43374090533807097   -0.043914023325085885   -0.02364914668796505
-0.43374090533807097   -0.043914023325085885   -0.02364914668796505
-0.43374090533807097   -0.043914023325085885   -0.02364914668796505
-0.43374090533807097   -0.043914023325085885   -0.02364914668796505
-0.4059827330625212   0.010157204257916247   0.001551770473495126
-0.4059827330625212   0.010157204257916247   0.001551770473495126
-0.4059827330625212   0.010157204257916247   0.001551770473495126
-0.4059827330625212   0.010157204257916247   0.001551770473495126
-0.40285775041362015   0.04385742386119615   0.042995180747999316
-0.40285775041362015   0.04385742386119615   0.042995180747999316
-0.40285775041362015   0.04385742386119615   0.042995180747999316
-0.40285775041362015   0.04385742386119615   0.042995180747999316
-0.4515937516763422   -0.0496508650105289   -0.034480508776908884
-0.4515937516763422   -0.0496508650105289   -0.034480508776908884
-0.4515937516763422   -0.0496508650105289   -0.034480508776908884
-0.4515937516763422   -0.0496508650105289   -0.034480508776908884
-0.43684924256674923   0.029747770342927943   0.053214153389849625
-0.43684924256674923   0.029747770342927943   0.053214153389849625
-0.43684924256674923   0.029747770342927943   0.053214153389849625
-0.43684924256674923   0.029747770342927943   0.053214153389849625
-0.43950278106398155   -0.05226675036054061   -0.02158421745529588
-0.43950278106398155   -0.05226675036054061   -0.02158421745529588
-0.43950278106398155   -0.05226675036054061   -0.02158421745529588
-0.43950278106398155   -0.05226675036054061   -0.02158421745529588
-0.4258300033348063   -0.002766310380220502   -0.009125928190024116
-0.4258300033348063   -0.002766310380220502   -0.009125928190024116
-0.4258300033348063   -0.002766310380220502   -0.009125928190024116
-0.4258300033348063   -0.002766310380220502   -0.009125928190024116
-0.4073808706763643   0.03529194238956948   0.05146664173267243
-0.4073808706763643   0.03529194238956948   0.05146664173267243
-0.4073808706763643   0.03529194238956948   0.05146664173267243
-0.4073808706763643   0.03529194238956948   0.05146664173267243
-0.4719582669040298   -0.0607980363568493   -0.031785161596791005
-0.4719582669040298   -0.0607980363568493   -0.031785161596791005
-0.4719582669040298   -0.0607980363568493   -0.031785161596791005
-0.4719582669040298   -0.0607980363568493   -0.031785161596791005
-0.4693843752532567   0.0025271592677542226   0.056863136353114116
-0.4693843752532567   0.0025271592677542226   0.056863136353114116
-0.4693843752532567   0.0025271592677542226   0.056863136353114116
-0.4693843752532567   0.0025271592677542226   0.056863136353114116
-0.4447573255681466   -0.06802609275168418   -0.018759455525860457
-0.4447573255681466   -0.06802609275168418   -0.018759455525860457
-0.4447573255681466   -0.06802609275168418   -0.018759455525860457
-0.4447573255681466   -0.06802609275168418   -0.018759455525860457
-0.435243519425519   -0.014652660807618206   -0.01876270660304942
-0.435243519425519   -0.014652660807618206   -0.01876270660304942
-0.435243519425519   -0.014652660807618206   -0.01876270660304942
-0.435243519425519   -0.014652660807618206   -0.01876270660304942
-0.862825794544825   -0.07881029830067714   -0.08120131929913495
-0.862825794544825   -0.07881029830067714   -0.08120131929913495
-0.862825794544825   -0.07881029830067714   -0.08120131929913495
-0.862825794544825   -0.07881029830067714   -0.08120131929913495
-0.546877766472011   0.0468650035182014   0.019157346581372144
-0.546877766472011   0.0468650035182014   0.019157346581372144
-0.546877766472011   0.0468650035182014   0.019157346581372144
-0.546877766472011   0.0468650035182014   0.019157346581372144
-0.5742091653944966   -0.03608582901909152   -0.036177547287161486
-0.5742091653944966   -0.03608582901909152   -0.036177547287161486
-0.5742091653944966   -0.03608582901909152   -0.036177547287161486
-0.5742091653944966   -0.03608582901909152   -0.036177547287161486
-0.9170722999838855   -0.10302395473013085   0.0911130605916711
-0.9170722999838855   -0.10302395473013085   0.0911130605916711
-0.9170722999838855   -0.10302395473013085   0.0911130605916711
-0.9170722999838855   -0.10302395473013085   0.0911130605916711
-0.6667861747181381   -0.0252822268584246   0.08830430105428477
-0.6667861747181381   -0.0252822268584246   0.08830430105428477
-0.6667861747181381   -0.0252822268584246   0.08830430105428477
-0.6667861747181381   -0.0252822268584246   0.08830430105428477
-0.9497534401170461   -0.11585207788918339   -0.059464516915071326
-0.9497534401170461   -0.11585207788918339   -0.059464516915071326
-0.9497534401170461   -0.11585207788918339   -0.059464516915071326
-0.9497534401170461   -0.11585207788918339   -0.059464516915071326
-0.5645050596636499   -0.04623474026235158   0.022491892610331916
-0.5645050596636499   -0.04623474026235158   0.022491892610331916
-0.5645050596636499   -0.04623474026235158   0.022491892610331916
-0.5645050596636499   -0.04623474026235158   0.022491892610331916
-0.5829113233800506   -0.05239401746909636   -0.025937994378934758
-0.5829113233800506   -0.05239401746909636   -0.025937994378934758
-0.5829113233800506   -0.05239401746909636   -0.025937994378934758
-0.5829113233800506   -0.05239401746909636   -0.025937994378934758
-0.9461082203476897   -0.14399377553156237   0.0023312407481342196
-0.9461082203476897   -0.14399377553156237   0.0023312407481342196
-0.9461082203476897   -0.14399377553156237   0.0023312407481342196
-0.9461082203476897   -0.14399377553156237   0.0023312407481342196
-0.7380327106388656   -0.08688913926387451   0.020374949464887118
-0.7380327106388656   -0.08688913926387451   0.020374949464887118
-0.7380327106388656   -0.08688913926387451   0.020374949464887118
-0.7380327106388656   -0.08688913926387451   0.020374949464887118
-0.9535236175632824   -0.1308973180018603   -0.047842202859522766
-0.9535236175632824   -0.1308973180018603   -0.047842202859522766
-0.9535236175632824   -0.1308973180018603   -0.047842202859522766
-0.9535236175632824   -0.1308973180018603   -0.047842202859522766
-0.5824671940255159   -0.0724617428598558   -0.0036496222155066177
-0.5824671940255159   -0.0724617428598558   -0.0036496222155066177
-0.5824671940255159   -0.0724617428598558   -0.0036496222155066177
-0.5824671940255159   -0.0724617428598558   -0.0036496222155066177
-0.5832023853360578   -0.09191868417066727   -0.018870603738146252
-0.5832023853360578   -0.09191868417066727   -0.018870603738146252
-0.5832023853360578   -0.09191868417066727   -0.018870603738146252
-0.5832023853360578   -0.09191868417066727   -0.018870603738146252
-0.96856154502359   -0.2199726733047546   0.01455498566077134
-0.96856154502359   -0.2199726733047546   0.01455498566077134
-0.96856154502359   -0.2199726733047546   0.01455498566077134
-0.96856154502359   -0.2199726733047546   0.01455498566077134
-0.7371134182421213   -0.11946673100975977   0.0014950074451559126
-0.7371134182421213   -0.11946673100975977   0.0014950074451559126
-0.7371134182421213   -0.11946673100975977   0.0014950074451559126
-0.7371134182421213   -0.11946673100975977   0.0014950074451559126
-0.590552951021631   -0.10010369503312458   -0.052249877615394826
-0.590552951021631   -0.10010369503312458   -0.052249877615394826
-0.590552951021631   -0.10010369503312458   -0.052249877615394826
-0.590552951021631   -0.10010369503312458   -0.052249877615394826
-0.40540673223299917   -0.26162835809686724   -0.049069107658219806
-0.40540673223299917   -0.26162835809686724   -0.049069107658219806
-0.40540673223299917   -0.26162835809686724   -0.049069107658219806
-0.40540673223299917   -0.26162835809686724   -0.049069107658219806
-0.3561135435241359   -0.058154439767637234   -0.00306126050224892
-0.3561135435241359   -0.058154439767637234   -0.00306126050224892
-0.3561135435241359   -0.058154439767637234   -0.00306126050224892
-0.3561135435241359   -0.058154439767637234   -0.00306126050224892
-0.6276563795130752   -0.27760672514055396   -0.061892721758591764
-0.6276563795130752   -0.27760672514055396   -0.061892721758591764
-0.6276563795130752   -0.27760672514055396   -0.061892721758591764
-0.6276563795130752   -0.27760672514055396   -0.061892721758591764
-0.4891812570844548   -0.1850922811201529   -0.014249299874278261
-0.4891812570844548   -0.1850922811201529   -0.014249299874278261
-0.4891812570844548   -0.1850922811201529   -0.014249299874278261
-0.4891812570844548   -0.1850922811201529   -0.014249299874278261
-0.5900617682512365   -0.11219759227549803   -0.039328798314452254
-0.5900617682512365   -0.11219759227549803   -0.039328798314452254
-0.5900617682512365   -0.11219759227549803   -0.039328798314452254
-0.5900617682512365   -0.11219759227549803   -0.039328798314452254
-0.39610225418701417   -0.22595767203373307   -0.035201581550548304
-0.39610225418701417   -0.22595767203373307   -0.035201581550548304
-0.39610225418701417   -0.22595767203373307   -0.035201581550548304
-0.39610225418701417   -0.22595767203373307   -0.035201581550548304
-0.3600449275934014   -0.0753750927737116   0.0006024494080117977
-0.3600449275934014   -0.0753750927737116   0.0006024494080117977
-0.3600449275934014   -0.0753750927737116   0.0006024494080117977
-0.3600449275934014   -0.0753750927737116   0.0006024494080117977
-0.6297887509713129   -0.27616771017134756   -0.036551439632999866
-0.6297887509713129   -0.27616771017134756   -0.036551439632999866
-0.6297887509713129   -0.27616771017134756   -0.036551439632999866
-0.6297887509713129   -0.27616771017134756   -0.036551439632999866
-0.4836679443246433   -0.17350013856246582   -0.0151375877326505
-0.4836679443246433   -0.17350013856246582   -0.0151375877326505
-0.4836679443246433   -0.17350013856246582   -0.0151375877326505
-0.4836679443246433   -0.17350013856246582   -0.0151375877326505
-0.5989757419486702   -0.12917713872049458   -0.029476965970634178
-0.5989757419486702   -0.12917713872049458   -0.029476965970634178
-0.5989757419486702   -0.12917713872049458   -0.029476965970634178
-0.5989757419486702   -0.12917713872049458   -0.029476965970634178
-0.39580648449544636   -0.22731421210396657   -0.026266215771961685
-0.39580648449544636   -0.22731421210396657   -0.026266215771961685
-0.39580648449544636   -0.22731421210396657   -0.026266215771961685
-0.39580648449544636   -0.22731421210396657   -0.026266215771961685
-0.3597674558675682   -0.09685145524999139   0.00583952178436789
-0.3597674558675682   -0.09685145524999139   0.00583952178436789
-0.3597674558675682   -0.09685145524999139   0.00583952178436789
-0.3597674558675682   -0.09685145524999139   0.00583952178436789
-0.6280933672060605   -0.2808014074826581   -0.05444278977617598
-0.6280933672060605   -0.2808014074826581   -0.05444278977617598
-0.6280933672060605   -0.2808014074826581   -0.05444278977617598
-0.6280933672060605   -0.2808014074826581   -0.05444278977617598
-0.49082854299651607   -0.1866492961092121   -0.028106925159297882
-0.49082854299651607   -0.1866492961092121   -0.028106925159297882
-0.49082854299651607   -0.1866492961092121   -0.028106925159297882
-0.49082854299651607   -0.1866492961092121   -0.028106925159297882
-0.35704987698564356   -0.06441295856440515   -0.004500230953903893
-0.35704987698564356   -0.06441295856440515   -0.004500230953903893
-0.35704987698564356   -0.06441295856440515   -0.004500230953903893
-0.35704987698564356   -0.06441295856440515   -0.004500230953903893
-0.2990895910065161   -0.20009096778857327   -0.03454230469696959
-0.2990895910065161   -0.20009096778857327   -0.03454230469696959
-0.2990895910065161   -0.20009096778857327   -0.03454230469696959
-0.2990895910065161   -0.20009096778857327   -0.03454230469696959
-0.25773141865639854   -0.05339163002546223   0.01379812326206952
-0.25773141865639854   -0.05339163002546223   0.01379812326206952
-0.25773141865639854   -0.05339163002546223   0.01379812326206952
-0.25773141865639854   -0.05339163002546223   0.01379812326206952
-0.3950341148021669   -0.21762470342280424   -0.03819385323724098
-0.3950341148021669   -0.21762470342280424   -0.03819385323724098
-0.3950341148021669   -0.21762470342280424   -0.03819385323724098
-0.3950341148021669   -0.21762470342280424   -0.03819385323724098
-0.3257788871642813   -0.135765539829485   -0.015944519065010467
-0.3257788871642813   -0.135765539829485   -0.015944519065010467
-0.3257788871642813   -0.135765539829485   -0.015944519065010467
-0.3257788871642813   -0.135765539829485   -0.015944519065010467
-0.35900003648494266   -0.07627884271530812   0.000630677641384252
-0.35900003648494266   -0.07627884271530812   0.000630677641384252
-0.35900003648494266   -0.07627884271530812   0.000630677641384252
-0.35900003648494266   -0.07627884271530812   0.000630677641384252
-0.2958839985358267   -0.19685599229516101   -0.03350041386536505
-0.2958839985358267   -0.19685599229516101   -0.03350041386536505
-0.2958839985358267   -0.19685599229516101   -0.03350041386536505
-0.2958839985358267   -0.19685599229516101   -0.03350041386536505
-0.2576976446396998   -0.0675420724053694   0.017873805422749307
-0.2576976446396998   -0.0675420724053694   0.017873805422749307
-0.2576976446396998   -0.0675420724053694   0.017873805422749307
-0.2576976446396998   -0.0675420724053694   0.017873805422749307
-0.3961526705575461   -0.22107602314043248   -0.03423533504599467
-0.3961526705575461   -0.22107602314043248   -0.03423533504599467
-0.3961526705575461   -0.22107602314043248   -0.03423533504599467
-0.3961526705575461   -0.22107602314043248   -0.03423533504599467
-0.3250897287675372   -0.14110447898186823   -0.02068777802810235
-0.3250897287675372   -0.14110447898186823   -0.02068777802810235
-0.3250897287675372   -0.14110447898186823   -0.02068777802810235
-0.3250897287675372   -0.14110447898186823   -0.02068777802810235
-0.3618821100653173   -0.09062119810008282   0.006662642374799821
-0.3618821100653173   -0.09062119810008282   0.006662642374799821
-0.3618821100653173   -0.09062119810008282   0.006662642374799821
-0.3618821100653173   -0.09062119810008282   0.006662642374799821
-0.2931314433258746   -0.1991601356396651   -0.027677124773829234
-0.2931314433258746   -0.1991601356396651   -0.027677124773829234
-0.2931314433258746   -0.1991601356396651   -0.027677124773829234
-0.2931314433258746   -0.1991601356396651   -0.027677124773829234
-0.254521235066838   -0.08106719331633934   0.022308401952796666
-0.254521235066838   -0.08106719331633934   0.022308401952796666
-0.254521235066838   -0.08106719331633934   0.022308401952796666
-0.254521235066838   -0.08106719331633934   0.022308401952796666
-0.39128537270283975   -0.22391863887444827   -0.02468287876753679
-0.39128537270283975   -0.22391863887444827   -0.02468287876753679
-0.39128537270283975   -0.22391863887444827   -0.02468287876753679
-0.39128537270283975   -0.22391863887444827   -0.02468287876753679
-0.3239770650737942   -0.14811836194842426   -0.023961850631767787
-0.3239770650737942   -0.14811836194842426   -0.023961850631767787
-0.3239770650737942   -0.14811836194842426   -0.023961850631767787
-0.3239770650737942   -0.14811836194842426   -0.023961850631767787
-0.24906804266824273   -0.008945546049147393   0.024420015254963737
-0.24906804266824273   -0.008945546049147393   0.024420015254963737
-0.24906804266824273   -0.008945546049147393   0.024420015254963737
-0.24906804266824273   -0.008945546049147393   0.024420015254963737
-0.23509036386287654   -0.10583200610863694   -0.02063996253666466
-0.23509036386287654   -0.10583200610863694   -0.02063996253666466
-0.23509036386287654   -0.10583200610863694   -0.02063996253666466
-0.23509036386287654   -0.10583200610863694   -0.02063996253666466
-0.20258606309852706   -0.01533790900350648   0.02829704462425961
-0.20258606309852706   -0.01533790900350648   0.02829704462425961
-0.20258606309852706   -0.01533790900350648   0.02829704462425961
-0.20258606309852706   -0.01533790900350648   0.02829704462425961
-0.27722438783222453   -0.12242273511510512   -0.014635617527417828
-0.27722438783222453   -0.12242273511510512   -0.014635617527417828
-0.27722438783222453   -0.12242273511510512   -0.014635617527417828
-0.27722438783222453   -0.12242273511510512   -0.014635617527417828
-0.24179994732346002   -0.06255812025095583   -0.008643573475204318
-0.24179994732346002   -0.06255812025095583   -0.008643573475204318
-0.24179994732346002   -0.06255812025095583   -0.008643573475204318
-0.24179994732346002   -0.06255812025095583   -0.008643573475204318
-0.24911367380326938   -0.024669830474046906   0.028165047976299783
-0.24911367380326938   -0.024669830474046906   0.028165047976299783
-0.24911367380326938   -0.024669830474046906   0.028165047976299783
-0.24911367380326938   -0.024669830474046906   0.028165047976299783
-0.23294595566346496   -0.11533999218054743   -0.023500335023388885
-0.23294595566346496   -0.11533999218054743   -0.023500335023388885
-0.23294595566346496   -0.11533999218054743   -0.023500335023388885
-0.23294595566346496   -0.11533999218054743   -0.023500335023388885
-0.20276007246457   -0.02904420070525055   0.030408834195644434
-0.20276007246457   -0.02904420070525055   0.030408834195644434
-0.20276007246457   -0.02904420070525055   0.030408834195644434
-0.20276007246457   -0.02904420070525055   0.030408834195644434
-0.2770051414936373   -0.12987692271201723   -0.016328828540298514
-0.2770051414936373   -0.12987692271201723   -0.016328828540298514
-0.2770051414936373   -0.12987692271201723   -0.016328828540298514
-0.2770051414936373   -0.12987692271201723   -0.016328828540298514
-0.2406311082373011   -0.07357442675333131   -0.01466158832321658
-0.2406311082373011   -0.07357442675333131   -0.01466158832321658
-0.2406311082373011   -0.07357442675333131   -0.01466158832321658
-0.2406311082373011   -0.07357442675333131   -0.01466158832321658
-0.24894550844297883   -0.03795380994988951   0.03204622395085845
-0.24894550844297883   -0.03795380994988951   0.03204622395085845
-0.24894550844297883   -0.03795380994988951   0.03204622395085845
-0.24894550844297883   -0.03795380994988951   0.03204622395085845
-0.2321812330991494   -0.1223288410513017   -0.023412328631208953
-0.2321812330991494   -0.1223288410513017   -0.023412328631208953
-0.2321812330991494   -0.1223288410513017   -0.023412328631208953
-0.2321812330991494   -0.1223288410513017   -0.023412328631208953
-0.20089603561115676   -0.04191080116103007   0.03523586078366842
-0.20089603561115676   -0.04191080116103007   0.03523586078366842
-0.20089603561115676   -0.04191080116103007   0.03523586078366842
-0.20089603561115676   -0.04191080116103007   0.03523586078366842
-0.2724737315081736   -0.13733976523988728   -0.011181508330333718
-0.2724737315081736   -0.13733976523988728   -0.011181508330333718
-0.2724737315081736   -0.13733976523988728   -0.011181508330333718
-0.2724737315081736   -0.13733976523988728   -0.011181508330333718
-0.2397698291553805   -0.08303061958857491   -0.0188313207249451
-0.2397698291553805   -0.08303061958857491   -0.0188313207249451
-0.2397698291553805   -0.08303061958857491   -0.0188313207249451
-0.2397698291553805   -0.08303061958857491   -0.0188313207249451
-0.1966943956627293   0.0274707603694285   0.03803711198600615
-0.1966943956627293   0.0274707603694285   0.03803711198600615
-0.1966943956627293   0.0274707603694285   0.03803711198600615
-0.1966943956627293   0.0274707603694285   0.03803711198600615
-0.13012805002675565   -0.03474112299023972   -0.01266673650743348
-0.13012805002675565   -0.03474112299023972   -0.01266673650743348
-0.13012805002675565   -0.03474112299023972   -0.01266673650743348
-0.13012805002675565   -0.03474112299023972   -0.01266673650743348
-0.11342401019152956   0.03238868448304745   0.03754749720616028
-0.11342401019152956   0.03238868448304745   0.03754749720616028
-0.11342401019152956   0.03238868448304745   0.03754749720616028
-0.11342401019152956   0.03238868448304745   0.03754749720616028
-0.2171556289468848   -0.05333506607441392   -0.006553627546621799
-0.2171556289468848   -0.05333506607441392   -0.006553627546621799
-0.2171556289468848   -0.05333506607441392   -0.006553627546621799
-0.2171556289468848   -0.05333506607441392   -0.006553627546621799
-0.16211766389772697   -0.003386100173001172   -0.006903377677265753
-0.16211766389772697   -0.003386100173001172   -0.006903377677265753
-0.16211766389772697   -0.003386100173001172   -0.006903377677265753
-0.16211766389772697   -0.003386100173001172   -0.006903377677265753
-0.1934383013836058   0.01717992970206003   0.04151801449329939
-0.1934383013836058   0.01717992970206003   0.04151801449329939
-0.1934383013836058   0.01717992970206003   0.04151801449329939
-0.1934383013836058   0.01717992970206003   0.04151801449329939
-0.13736315876653005   -0.03834813230514797   -0.01141142888064682
-0.13736315876653005   -0.03834813230514797   -0.01141142888064682
-0.13736315876653005   -0.03834813230514797   -0.01141142888064682
-0.13736315876653005   -0.03834813230514797   -0.01141142888064682
-0.11835493780157169   0.025728278315657015   0.0472430826632824
-0.11835493780157169   0.025728278315657015   0.0472430826632824
-0.11835493780157169   0.025728278315657015   0.0472430826632824
-0.11835493780157169   0.025728278315657015   0.0472430826632824
-0.21606694615064456   -0.056761000212719466   -0.008408734727259315
-0.21606694615064456   -0.056761000212719466   -0.008408734727259315
-0.21606694615064456   -0.056761000212719466   -0.008408734727259315
-0.21606694615064456   -0.056761000212719466   -0.008408734727259315
-0.16683796642789245   -0.010662473804121251   -0.009701990730621418
-0.16683796642789245   -0.010662473804121251   -0.009701990730621418
-0.16683796642789245   -0.010662473804121251   -0.009701990730621418
-0.16683796642789245   -0.010662473804121251   -0.009701990730621418
-0.19121781088032624   0.011268562874643472   0.04780737853696924
-0.19121781088032624   0.011268562874643472   0.04780737853696924
-0.19121781088032624   0.011268562874643472   0.04780737853696924
-0.19121781088032624   0.011268562874643472   0.04780737853696924
-0.1449052081688415   -0.044002419868654864   -0.01577757098873935
-0.1449052081688415   -0.044002419868654864   -0.01577757098873935
-0.1449052081688415   -0.044002419868654864   -0.01577757098873935
-0.1449052081688415   -0.044002419868654864   -0.01577757098873935
-0.13545304660929655   0.007418491762461486   0.04915918808601781
-0.13545304660929655   0.007418491762461486   0.04915918808601781
-0.13545304660929655   0.007418491762461486   0.04915918808601781
-0.13545304660929655   0.007418491762461486   0.04915918808601781
-0.21293391456730174   -0.05980603203625599   -0.007058303121830464
-0.21293391456730174   -0.05980603203625599   -0.007058303121830464
-0.21293391456730174   -0.05980603203625599   -0.007058303121830464
-0.21293391456730174   -0.05980603203625599   -0.007058303121830464
-0.16907489400092926   -0.01591164111630385   -0.014261252882171942
-0.16907489400092926   -0.01591164111630385   -0.014261252882171942
-0.16907489400092926   -0.01591164111630385   -0.014261252882171942
-0.16907489400092926   -0.01591164111630385   -0.014261252882171942
-2.032944768118583   -0.2879908276512856   -0.16905480761949826
-2.032944768118583   -0.2879908276512856   -0.16905480761949826
-2.032944768118583   -0.2879908276512856   -0.16905480761949826
-2.032944768118583   -0.2879908276512856   -0.16905480761949826
-0.7054155377513522   -1.109277145555836   -0.1323372360741488
-0.7054155377513522   -1.109277145555836   -0.1323372360741488
-0.7054155377513522   -1.109277145555836   -0.1323372360741488
-0.7054155377513522   -1.109277145555836   -0.1323372360741488
-0.5452529742092959   -0.04673004252863765   0.0007632958245474622
-0.5452529742092959   -0.04673004252863765   0.0007632958245474622
-0.5452529742092959   -0.04673004252863765   0.0007632958245474622
-0.5452529742092959   -0.04673004252863765   0.0007632958245474622
-2.1705071269656258   -1.303978298250772   -0.6948970850432795
-2.1705071269656258   -1.303978298250772   -0.6948970850432795
-2.1705071269656258   -1.303978298250772   -0.6948970850432795
-2.1705071269656258   -1.303978298250772   -0.6948970850432795
-1.3294512405213372   -0.6487195909905912   -0.0945263931175975
-1.3294512405213372   -0.6487195909905912   -0.0945263931175975
-1.3294512405213372   -0.6487195909905912   -0.0945263931175975
-1.3294512405213372   -0.6487195909905912   -0.0945263931175975
-1.88900240782082   -0.3615857882748831   -0.22976599929515557
-1.88900240782082   -0.3615857882748831   -0.22976599929515557
-1.88900240782082   -0.3615857882748831   -0.22976599929515557
-1.88900240782082   -0.3615857882748831   -0.22976599929515557
-0.7617540994932953   -0.9241189586437218   -0.2043534144803594
-0.7617540994932953   -0.9241189586437218   -0.2043534144803594
-0.7617540994932953   -0.9241189586437218   -0.2043534144803594
-0.7617540994932953   -0.9241189586437218   -0.2043534144803594
-0.5562283029556597   -0.06229708521031577   0.020934774962337213
-0.5562283029556597   -0.06229708521031577   0.020934774962337213
-0.5562283029556597   -0.06229708521031577   0.020934774962337213
-0.5562283029556597   -0.06229708521031577   0.020934774962337213
-2.031085388852939   -1.1631536987831341   -0.6388478175272146
-2.031085388852939   -1.1631536987831341   -0.6388478175272146
-2.031085388852939   -1.1631536987831341   -0.6388478175272146
-2.031085388852939   -1.1631536987831341   -0.6388478175272146
-1.2521625160376804   -0.5849631137485007   0.050689116176999394
-1.2521625160376804   -0.5849631137485007   0.050689116176999394
-1.2521625160376804   -0.5849631137485007   0.050689116176999394
-1.2521625160376804   -0.5849631137485007   0.050689116176999394
-1.7738102479579656   -0.34427132630861973   -0.17135448552687638
-1.7738102479579656   -0.34427132630861973   -0.17135448552687638
-1.7738102479579656   -0.34427132630861973   -0.17135448552687638
-1.7738102479579656   -0.34427132630861973   -0.17135448552687638
-0.7412750591774411   -0.8089510730116398   -0.15764501834524078
-0.7412750591774411   -0.8089510730116398   -0.15764501834524078
-0.7412750591774411   -0.8089510730116398   -0.15764501834524078
-0.7412750591774411   -0.8089510730116398   -0.15764501834524078
-0.6391378078559858   -0.16364291904720196   -0.033219980219069724
-0.6391378078559858   -0.16364291904720196   -0.033219980219069724
-0.6391378078559858   -0.16364291904720196   -0.033219980219069724
-0.6391378078559858   -0.16364291904720196   -0.033219980219069724
-1.851173804979408   -0.9775438149726465   -0.565743523990411
-1.851173804979408   -0.9775438149726465   -0.565743523990411
-1.851173804979408   -0.9775438149726465   -0.565743523990411
-1.851173804979408   -0.9775438149726465   -0.565743523990411
-1.1598654821527639   -0.5071381820936207   0.21472460169670057
-1.1598654821527639   -0.5071381820936207   0.21472460169670057
-1.1598654821527639   -0.5071381820936207   0.21472460169670057
-1.1598654821527639   -0.5071381820936207   0.21472460169670057
-0.5222066490688632   -0.28357375631325393   -0.041996181904289255
-0.5222066490688632   -0.28357375631325393   -0.041996181904289255
-0.5222066490688632   -0.28357375631325393   -0.041996181904289255
-0.5222066490688632   -0.28357375631325393   -0.041996181904289255
-0.24138498133153802   -0.35020157124371787   -0.0596390381155989
-0.24138498133153802   -0.35020157124371787   -0.0596390381155989
-0.24138498133153802   -0.35020157124371787   -0.0596390381155989
-0.24138498133153802   -0.35020157124371787   -0.0596390381155989
-0.2129554742216458   -0.18118607981027596   0.005509599601368972
-0.2129554742216458   -0.18118607981027596   0.005509599601368972
-0.2129554742216458   -0.18118607981027596   0.005509599601368972
-0.2129554742216458   -0.18118607981027596   0.005509599601368972
-0.6385923209863156   -0.5129552641493403   0.000291783560157563
-0.6385923209863156   -0.5129552641493403   0.000291783560157563
-0.6385923209863156   -0.5129552641493403   0.000291783560157563
-0.6385923209863156   -0.5129552641493403   0.000291783560157563
-0.3430375286574904   -0.2487886892844868   0.10988852639985369
-0.3430375286574904   -0.2487886892844868   0.10988852639985369
-0.3430375286574904   -0.2487886892844868   0.10988852639985369
-0.3430375286574904   -0.2487886892844868   0.10988852639985369
-0.5942487643790547   -0.2639464977271742   -0.026999199825713478
-0.5942487643790547   -0.2639464977271742   -0.026999199825713478
-0.5942487643790547   -0.2639464977271742   -0.026999199825713478
-0.5942487643790547   -0.2639464977271742   -0.026999199825713478
-0.2753160992814795   -0.44821191468501703   -0.039267690823062154
-0.2753160992814795   -0.44821191468501703   -0.039267690823062154
-0.2753160992814795   -0.44821191468501703   -0.039267690823062154
-0.2753160992814795   -0.44821191468501703   -0.039267690823062154
-0.22998802411706637   -0.18776533031235487   0.005659732807716873
-0.22998802411706637   -0.18776533031235487   0.005659732807716873
-0.22998802411706637   -0.18776533031235487   0.005659732807716873
-0.22998802411706637   -0.18776533031235487   0.005659732807716873
-0.6697038677721594   -0.5063504649359039   -0.10238966939456849
-0.6697038677721594   -0.5063504649359039   -0.10238966939456849
-0.6697038677721594   -0.5063504649359039   -0.10238966939456849
-0.6697038677721594   -0.5063504649359039   -0.10238966939456849
-0.4089932796492578   -0.31917565104326384   0.050189260635108826
-0.4089932796492578   -0.31917565104326384   0.050189260635108826
-0.4089932796492578   -0.31917565104326384   0.050189260635108826
-0.4089932796492578   -0.31917565104326384   0.050189260635108826
-0.6131630195869925   -0.27561621220734334   -0.05041968119729934
-0.6131630195869925   -0.27561621220734334   -0.05041968119729934
-0.6131630195869925   -0.27561621220734334   -0.05041968119729934
-0.6131630195869925   -0.27561621220734334   -0.05041968119729934
-0.2848469517372261   -0.41681766247590835   -0.039582573129524345
-0.2848469517372261   -0.41681766247590835   -0.039582573129524345
-0.2848469517372261   -0.41681766247590835   -0.039582573129524345
-0.2848469517372261   -0.41681766247590835   -0.039582573129524345
-0.2562460166517772   -0.19387670351359698   0.00833337951484623
-0.2562460166517772   -0.19387670351359698   0.00833337951484623
-0.2562460166517772   -0.19387670351359698   0.00833337951484623
-0.2562460166517772   -0.19387670351359698   0.00833337951484623
-0.7159990798810757   -0.49197470959006495   -0.08919454980165245
-0.7159990798810757   -0.49197470959006495   -0.08919454980165245
-0.7159990798810757   -0.49197470959006495   -0.08919454980165245
-0.7159990798810757   -0.49197470959006495   -0.08919454980165245
-0.42789829103679466   -0.3008167848702805   0.05310748860921079
-0.42789829103679466   -0.3008167848702805   0.05310748860921079
-0.42789829103679466   -0.3008167848702805   0.05310748860921079
-0.42789829103679466   -0.3008167848702805   0.05310748860921079
-0.19074836557745037   -0.1690381399009516   0.01238060931207309
-0.19074836557745037   -0.1690381399009516   0.01238060931207309
-0.19074836557745037   -0.1690381399009516   0.01238060931207309
-0.19074836557745037   -0.1690381399009516   0.01238060931207309
-0.11645178533185889   -0.1090361026596911   -0.029105288560965545
-0.11645178533185889   -0.1090361026596911   -0.029105288560965545
-0.11645178533185889   -0.1090361026596911   -0.029105288560965545
-0.11645178533185889   -0.1090361026596911   -0.029105288560965545
-0.11295805397077026   -0.1510732097453103   0.012487554318832098
-0.11295805397077026   -0.1510732097453103   0.012487554318832098
-0.11295805397077026   -0.1510732097453103   0.012487554318832098
-0.11295805397077026   -0.1510732097453103   0.012487554318832098
-0.21043894828899895   -0.1497369444061077   -0.013356906139568935
-0.21043894828899895   -0.1497369444061077   -0.013356906139568935
-0.21043894828899895   -0.1497369444061077   -0.013356906139568935
-0.21043894828899895   -0.1497369444061077   -0.013356906139568935
-0.13314843573652652   -0.12209355009374662   0.05509685425198676
-0.13314843573652652   -0.12209355009374662   0.05509685425198676
-0.13314843573652652   -0.12209355009374662   0.05509685425198676
-0.13314843573652652   -0.12209355009374662   0.05509685425198676
-0.20918039412243783   -0.17014617048498704   0.013345090772115986
-0.20918039412243783   -0.17014617048498704   0.013345090772115986
-0.20918039412243783   -0.17014617048498704   0.013345090772115986
-0.20918039412243783   -0.17014617048498704   0.013345090772115986
-0.11603490142215087   -0.13248227695125045   -0.021487615732130746
-0.11603490142215087   -0.13248227695125045   -0.021487615732130746
-0.11603490142215087   -0.13248227695125045   -0.021487615732130746
-0.11603490142215087   -0.13248227695125045   -0.021487615732130746
-0.11416197170537735   -0.15561226913421705   0.0110927361329137
-0.11416197170537735   -0.15561226913421705   0.0110927361329137
-0.11416197170537735   -0.15561226913421705   0.0110927361329137
-0.11416197170537735   -0.15561226913421705   0.0110927361329137
-0.22335606518206064   -0.1747604181361922   0.025814615306586762
-0.22335606518206064   -0.1747604181361922   0.025814615306586762
-0.22335606518206064   -0.1747604181361922   0.025814615306586762
-0.22335606518206064   -0.1747604181361922   0.025814615306586762
-0.14467669220831947   -0.13602186802090746   0.046732611459521116
-0.14467669220831947   -0.13602186802090746   0.046732611459521116
-0.14467669220831947   -0.13602186802090746   0.046732611459521116
-0.14467669220831947   -0.13602186802090746   0.046732611459521116
-0.22525225470454402   -0.17644518587419866   0.018018435432172346
-0.22525225470454402   -0.17644518587419866   0.018018435432172346
-0.22525225470454402   -0.17644518587419866   0.018018435432172346
-0.22525225470454402   -0.17644518587419866   0.018018435432172346
-0.12193135958929138   -0.16359307880260865   -0.019773393618264773
-0.12193135958929138   -0.16359307880260865   -0.019773393618264773
-0.12193135958929138   -0.16359307880260865   -0.019773393618264773
-0.12193135958929138   -0.16359307880260865   -0.019773393618264773
-0.11534635078095973   -0.16067903600411362   0.015576113662263996
-0.11534635078095973   -0.16067903600411362   0.015576113662263996
-0.11534635078095973   -0.16067903600411362   0.015576113662263996
-0.11534635078095973   -0.16067903600411362   0.015576113662263996
-0.2610672405363703   -0.21515528752295426   0.005505844101237785
-0.2610672405363703   -0.21515528752295426   0.005505844101237785
-0.2610672405363703   -0.21515528752295426   0.005505844101237785
-0.2610672405363703   -0.21515528752295426   0.005505844101237785
-0.16143427772155494   -0.15512056514230108   0.022163315601078593
-0.16143427772155494   -0.15512056514230108   0.022163315601078593
-0.16143427772155494   -0.15512056514230108   0.022163315601078593
-0.16143427772155494   -0.15512056514230108   0.022163315601078593
-0.0957461561437752   -0.06729818426127615   0.03268493898103793
-0.0957461561437752   -0.06729818426127615   0.03268493898103793
-0.0957461561437752   -0.06729818426127615   0.03268493898103793
-0.0957461561437752   -0.06729818426127615   0.03268493898103793
-0.0669602808382516   0.00030681363404813297   -0.006523350224740124
-0.0669602808382516   0.00030681363404813297   -0.006523350224740124
-0.0669602808382516   0.00030681363404813297   -0.006523350224740124
-0.0669602808382516   0.00030681363404813297   -0.006523350224740124
-0.06355883103166046   -0.07270411583254954   0.020291922084796042
-0.06355883103166046   -0.07270411583254954   0.020291922084796042
-0.06355883103166046   -0.07270411583254954   0.020291922084796042
-0.06355883103166046   -0.07270411583254954   0.020291922084796042
-0.08856986132680855   -0.012435840815543752   -0.004208851391125959
-0.08856986132680855   -0.012435840815543752   -0.004208851391125959
-0.08856986132680855   -0.012435840815543752   -0.004208851391125959
-0.08856986132680855   -0.012435840815543752   -0.004208851391125959
-0.07278835311680387   -0.036629303079121066   0.016213610216983098
-0.07278835311680387   -0.036629303079121066   0.016213610216983098
-0.07278835311680387   -0.036629303079121066   0.016213610216983098
-0.07278835311680387   -0.036629303079121066   0.016213610216983098
-0.0944352336900674   -0.07677674298815243   0.03080518896518853
-0.0944352336900674   -0.07677674298815243   0.03080518896518853
-0.0944352336900674   -0.07677674298815243   0.03080518896518853
-0.0944352336900674   -0.07677674298815243   0.03080518896518853
-0.0560196856759702   -0.0066894406675094414   -0.008027026301792748
-0.0560196856759702   -0.0066894406675094414   -0.008027026301792748
-0.0560196856759702   -0.0066894406675094414   -0.008027026301792748
-0.0560196856759702   -0.0066894406675094414   -0.008027026301792748
-0.05817987197797713   -0.07910617403214937   0.018699645343388187
-0.05817987197797713   -0.07910617403214937   0.018699645343388187
-0.05817987197797713   -0.07910617403214937   0.018699645343388187
-0.05817987197797713   -0.07910617403214937   0.018699645343388187
-0.08913443563772074   -0.02480898789835472   0.005427135235334448
-0.08913443563772074   -0.02480898789835472   0.005427135235334448
-0.08913443563772074   -0.02480898789835472   0.005427135235334448
-0.08913443563772074   -0.02480898789835472   0.005427135235334448
-0.06670138566575727   -0.04196919898217534   0.01937581591295818
-0.06670138566575727   -0.04196919898217534   0.01937581591295818
-0.06670138566575727   -0.04196919898217534   0.01937581591295818
-0.06670138566575727   -0.04196919898217534   0.01937581591295818
-0.09485033280733882   -0.08314371914076789   0.03518238062965728
-0.09485033280733882   -0.08314371914076789   0.03518238062965728
-0.09485033280733882   -0.08314371914076789   0.03518238062965728
-0.09485033280733882   -0.08314371914076789   0.03518238062965728
-0.05295421325008729   -0.02126168123146442   -0.013016553817847517
-0.05295421325008729   -0.02126168123146442   -0.013016553817847517
-0.05295421325008729   -0.02126168123146442   -0.013016553817847517
-0.05295421325008729   -0.02126168123146442   -0.013016553817847517
-0.04852130033772954   -0.08620405428485904   0.020544615274363458
-0.04852130033772954   -0.08620405428485904   0.020544615274363458
-0.04852130033772954   -0.08620405428485904   0.020544615274363458
-0.04852130033772954   -0.08620405428485904   0.020544615274363458
-0.09591923055132831   -0.05509580761961848   0.007128486425925902
-0.09591923055132831   -0.05509580761961848   0.007128486425925902
-0.09591923055132831   -0.05509580761961848   0.007128486425925902
-0.09591923055132831   -0.05509580761961848   0.007128486425925902
-0.06405665894126794   -0.0529997974101796   0.016816212377144486
-0.06405665894126794   -0.0529997974101796   0.016816212377144486
-0.06405665894126794   -0.0529997974101796   0.016816212377144486
-0.06405665894126794   -0.0529997974101796   0.016816212377144486
-0.06152931897394863   -0.011916979110021255   0.03285525184084417
-0.06152931897394863   -0.011916979110021255   0.03285525184084417
-0.06152931897394863   -0.011916979110021255   0.03285525184084417
-0.06152931897394863   -0.011916979110021255   0.03285525184084417
-0.010649438149030264   0.0072507166267401935   -0.0006633103800711866
-0.010649438149030264   0.0072507166267401935   -0.0006633103800711866
-0.010649438149030264   0.0072507166267401935   -0.0006633103800711866
-0.010649438149030264   0.0072507166267401935   -0.0006633103800711866
0.00375974118622239   -0.003780684658150589   0.020302909401579954
0.00375974118622239   -0.003780684658150589   0.020302909401579954
0.00375974118622239   -0.003780684658150589   0.020302909401579954
0.00375974118622239   -0.003780684658150589   0.020302909401579954
-0.052499748007070635   0.005479856467091008   -0.002596635091895354
-0.052499748007070635   0.005479856467091008   -0.002596635091895354
-0.052499748007070635   0.005479856467091008   -0.002596635091895354
-0.052499748007070635   0.005479856467091008   -0.002596635091895354
-0.030750001302426024   -0.002294877056711408   -0.002563015485374801
-0.030750001302426024   -0.002294877056711408   -0.002563015485374801
-0.030750001302426024   -0.002294877056711408   -0.002563015485374801
-0.030750001302426024   -0.002294877056711408   -0.002563015485374801
-0.04853942482187126   -0.011470110233205669   0.034154947534398204
-0.04853942482187126   -0.011470110233205669   0.034154947534398204
-0.04853942482187126   -0.011470110233205669   0.034154947534398204
-0.04853942482187126   -0.011470110233205669   0.034154947534398204
0.0016409472206627492   0.015010811261785825   -0.009082556346154663
0.0016409472206627492   0.015010811261785825   -0.009082556346154663
0.0016409472206627492   0.015010811261785825   -0.009082556346154663
0.0016409472206627492   0.015010811261785825   -0.009082556346154663
0.011079948118828863   -0.004646365231125502   0.02501754591122946
0.011079948118828863   -0.004646365231125502   0.02501754591122946
0.011079948118828863   -0.004646365231125502   0.02501754591122946
0.011079948118828863   -0.004646365231125502   0.02501754591122946
-0.04601272217652659   0.00426413815574472   -0.003834917837253194
-0.04601272217652659   0.00426413815574472   -0.003834917837253194
-0.04601272217652659   0.00426413815574472   -0.003834917837253194
-0.04601272217652659   0.00426413815574472   -0.003834917837253194
-0.020025332324489626   -0.0004923781803586836   0.00325717068083445
-0.020025332324489626   -0.0004923781803586836   0.00325717068083445
-0.020025332324489626   -0.0004923781803586836   0.00325717068083445
-0.020025332324489626   -0.0004923781803586836   0.00325717068083445
-0.04132512299976584   -0.012797871163860674   0.036665087366155966
-0.04132512299976584   -0.012797871163860674   0.036665087366155966
-0.04132512299976584   -0.012797871163860674   0.036665087366155966
-0.04132512299976584   -0.012797871163860674   0.036665087366155966
0.008057009178376423   0.014080304324786927   -0.008823818346945171
0.008057009178376423   0.014080304324786927   -0.008823818346945171
0.008057009178376423   0.014080304324786927   -0.008823818346945171
0.008057009178376423   0.014080304324786927   -0.008823818346945171
0.018593983255948576   -0.007233584992967057   0.024276034271356228
0.018593983255948576   -0.007233584992967057   0.024276034271356228
0.018593983255948576   -0.007233584992967057   0.024276034271356228
0.018593983255948576   -0.007233584992967057   0.024276034271356228
-0.0353668470535294   0.004466309785623412   -0.004353482375118277
-0.0353668470535294   0.004466309785623412   -0.004353482375118277
-0.0353668470535294   0.004466309785623412   -0.004353482375118277
-0.0353668470535294   0.004466309785623412   -0.004353482375118277
-0.010430866651890757   0.0006527942810021349   0.008401486732982168
-0.010430866651890757   0.0006527942810021349   0.008401486732982168
-0.010430866651890757   0.0006527942810021349   0.008401486732982168
-0.010430866651890757   0.0006527942810021349   0.008401486732982168
              </DataArray>   
             <DataArray type="Float64" NumberOfComponents="3" Name="Displacements" format="ascii">   
0.0   0.0   0.0
-0.005657454371326376   -0.0037104179970128327   -0.001895102082868059
0.0   0.0   0.0
0.0   0.0   0.0
-0.005657454371326376   -0.0037104179970128327   -0.001895102082868059
-0.0036002029751276707   -0.0033341701742071977   -0.0013923256780783355
0.0   0.0   0.0
-0.0035291894524933144   -0.0035015628933902656   -0.001166421937938458
0.0   0.0   0.0
0.0   0.0   0.0
-0.0035291894524933144   -0.0035015628933902656   -0.001166421937938458
0.0   0.0   0.0
0.0   0.0   0.0
-0.0035291894524933144   -0.0035015628933902656   -0.001166421937938458
-0.005921024795561779   -0.003952981468764176   -0.0015214283817452058
-0.005657454371326376   -0.0037104179970128327   -0.001895102082868059
0.0   0.0   0.0
-0.0035291894524933144   -0.0035015628933902656   -0.001166421937938458
-0.005657454371326376   -0.0037104179970128327   -0.001895102082868059
0.0   0.0   0.0
0.0   0.0   0.0
-0.005921024795561779   -0.003952981468764176   -0.0015214283817452058
0.0   0.0   0.0
0.0   0.0   0.0
-0.005921024795561779   -0.003952981468764176   -0.0015214283817452058
-0.0035291894524933144   -0.0035015628933902656   -0.001166421937938458
0.0   0.0   0.0
-0.0035393444281368834   -0.0035873232303070116   -0.0009408205744761939
0.0   0.0   0.0
0.0   0.0   0.0
-0.0035393444281368834   -0.0035873232303070116   -0.0009408205744761939
0.0   0.0   0.0
0.0   0.0   0.0
-0.0035393444281368834   -0.0035873232303070116   -0.0009408205744761939
-0.006106220473083586   -0.004070923492190242   -0.0011633471616723846
-0.005921024795561779   -0.003952981468764176   -0.0015214283817452058
0.0   0.0   0.0
-0.0035393444281368834   -0.0035873232303070116   -0.0009408205744761939
-0.005921024795561779   -0.003952981468764176   -0.0015214283817452058
0.0   0.0   0.0
0.0   0.0   0.0
-0.006106220473083586   -0.004070923492190242   -0.0011633471616723846
0.0   0.0   0.0
0.0   0.0   0.0
-0.006106220473083586   -0.004070923492190242   -0.0011633471616723846
-0.0035393444281368834   -0.0035873232303070116   -0.0009408205744761939
0.0   0.0   0.0
-0.0035377118225244954   -0.0036093283574442016   -0.0007075170578145578
0.0   0.0   0.0
0.0   0.0   0.0
-0.0035377118225244954   -0.0036093283574442016   -0.0007075170578145578
0.0   0.0   0.0
0.0   0.0   0.0
-0.0035377118225244954   -0.0036093283574442016   -0.0007075170578145578
-0.0065049824829891915   -0.0041601647797268534   -0.0007478935637194676
-0.006106220473083586   -0.004070923492190242   -0.0011633471616723846
0.0   0.0   0.0
-0.0035377118225244954   -0.0036093283574442016   -0.0007075170578145578
-0.006106220473083586   -0.004070923492190242   -0.0011633471616723846
0.0   0.0   0.0
0.0   0.0   0.0
-0.0036002029751276707   -0.0033341701742071977   -0.0013923256780783355
0.0   0.0   0.0
0.0   0.0   0.0
-0.0036002029751276707   -0.0033341701742071977   -0.0013923256780783355
-0.0016393182623534084   -0.0031961376465194204   -0.0010589449471464566
0.0   0.0   0.0
-0.001576870025775798   -0.003305114979491532   -0.0009523223334710769
0.0   0.0   0.0
0.0   0.0   0.0
-0.001576870025775798   -0.003305114979491532   -0.0009523223334710769
0.0   0.0   0.0
0.0   0.0   0.0
-0.001576870025775798   -0.003305114979491532   -0.0009523223334710769
-0.0035291894524933144   -0.0035015628933902656   -0.001166421937938458
-0.0036002029751276707   -0.0033341701742071977   -0.0013923256780783355
0.0   0.0   0.0
-0.001576870025775798   -0.003305114979491532   -0.0009523223334710769
-0.0036002029751276707   -0.0033341701742071977   -0.0013923256780783355
0.0   0.0   0.0
0.0   0.0   0.0
-0.0035291894524933144   -0.0035015628933902656   -0.001166421937938458
0.0   0.0   0.0
0.0   0.0   0.0
-0.0035291894524933144   -0.0035015628933902656   -0.001166421937938458
-0.001576870025775798   -0.003305114979491532   -0.0009523223334710769
0.0   0.0   0.0
-0.0015418797609498061   -0.003346644870742036   -0.0008484614230397866
0.0   0.0   0.0
0.0   0.0   0.0
-0.0015418797609498061   -0.003346644870742036   -0.0008484614230397866
0.0   0.0   0.0
0.0   0.0   0.0
-0.0015418797609498061   -0.003346644870742036   -0.0008484614230397866
-0.0035393444281368834   -0.0035873232303070116   -0.0009408205744761939
-0.0035291894524933144   -0.0035015628933902656   -0.001166421937938458
0.0   0.0   0.0
-0.0015418797609498061   -0.003346644870742036   -0.0008484614230397866
-0.0035291894524933144   -0.0035015628933902656   -0.001166421937938458
0.0   0.0   0.0
0.0   0.0   0.0
-0.0035393444281368834   -0.0035873232303070116   -0.0009408205744761939
0.0   0.0   0.0
0.0   0.0   0.0
-0.0035393444281368834   -0.0035873232303070116   -0.0009408205744761939
-0.0015418797609498061   -0.003346644870742036   -0.0008484614230397866
0.0   0.0   0.0
-0.001510051759457585   -0.003329299750159104   -0.0007410644240466187
0.0   0.0   0.0
0.0   0.0   0.0
-0.001510051759457585   -0.003329299750159104   -0.0007410644240466187
0.0   0.0   0.0
0.0   0.0   0.0
-0.001510051759457585   -0.003329299750159104   -0.0007410644240466187
-0.0035377118225244954   -0.0036093283574442016   -0.0007075170578145578
-0.0035393444281368834   -0.0035873232303070116   -0.0009408205744761939
0.0   0.0   0.0
-0.001510051759457585   -0.003329299750159104   -0.0007410644240466187
-0.0035393444281368834   -0.0035873232303070116   -0.0009408205744761939
0.0   0.0   0.0
0.0   0.0   0.0
-0.0016393182623534084   -0.0031961376465194204   -0.0010589449471464566
0.0   0.0   0.0
0.0   0.0   0.0
-0.0016393182623534084   -0.0031961376465194204   -0.0010589449471464566
0.00021352209533883495   -0.003213791820826954   -0.0008464591433449948
0.0   0.0   0.0
0.00025328904637070753   -0.003270300655254496   -0.000861270714721168
0.0   0.0   0.0
0.0   0.0   0.0
0.00025328904637070753   -0.003270300655254496   -0.000861270714721168
0.0   0.0   0.0
0.0   0.0   0.0
0.00025328904637070753   -0.003270300655254496   -0.000861270714721168
-0.001576870025775798   -0.003305114979491532   -0.0009523223334710769
-0.0016393182623534084   -0.0031961376465194204   -0.0010589449471464566
0.0   0.0   0.0
0.00025328904637070753   -0.003270300655254496   -0.000861270714721168
-0.0016393182623534084   -0.0031961376465194204   -0.0010589449471464566
0.0   0.0   0.0
0.0   0.0   0.0
-0.001576870025775798   -0.003305114979491532   -0.0009523223334710769
0.0   0.0   0.0
0.0   0.0   0.0
-0.001576870025775798   -0.003305114979491532   -0.0009523223334710769
0.00025328904637070753   -0.003270300655254496   -0.000861270714721168
0.0   0.0   0.0
0.00028464894077722736   -0.0032656375119854432   -0.0008746303399265428
0.0   0.0   0.0
0.0   0.0   0.0
0.00028464894077722736   -0.0032656375119854432   -0.0008746303399265428
0.0   0.0   0.0
0.0   0.0   0.0
0.00028464894077722736   -0.0032656375119854432   -0.0008746303399265428
-0.0015418797609498061   -0.003346644870742036   -0.0008484614230397866
-0.001576870025775798   -0.003305114979491532   -0.0009523223334710769
0.0   0.0   0.0
0.00028464894077722736   -0.0032656375119854432   -0.0008746303399265428
-0.001576870025775798   -0.003305114979491532   -0.0009523223334710769
0.0   0.0   0.0
0.0   0.0   0.0
-0.0015418797609498061   -0.003346644870742036   -0.0008484614230397866
0.0   0.0   0.0
0.0   0.0   0.0
-0.0015418797609498061   -0.003346644870742036   -0.0008484614230397866
0.00028464894077722736   -0.0032656375119854432   -0.0008746303399265428
0.0   0.0   0.0
0.0003269108959065986   -0.003194781877201126   -0.000888337370411619
0.0   0.0   0.0
0.0   0.0   0.0
0.0003269108959065986   -0.003194781877201126   -0.000888337370411619
0.0   0.0   0.0
0.0   0.0   0.0
0.0003269108959065986   -0.003194781877201126   -0.000888337370411619
-0.001510051759457585   -0.003329299750159104   -0.0007410644240466187
-0.0015418797609498061   -0.003346644870742036   -0.0008484614230397866
0.0   0.0   0.0
0.0003269108959065986   -0.003194781877201126   -0.000888337370411619
-0.0015418797609498061   -0.003346644870742036   -0.0008484614230397866
0.0   0.0   0.0
0.0   0.0   0.0
0.00021352209533883495   -0.003213791820826954   -0.0008464591433449948
0.0   0.0   0.0
0.0   0.0   0.0
0.00021352209533883495   -0.003213791820826954   -0.0008464591433449948
0.002224580380717908   -0.0033703435160759897   -0.0007413193687467675
0.0   0.0   0.0
0.0022282482649457814   -0.003388354085636798   -0.0008839050566956844
0.0   0.0   0.0
0.0   0.0   0.0
0.0022282482649457814   -0.003388354085636798   -0.0008839050566956844
0.0   0.0   0.0
0.0   0.0   0.0
0.0022282482649457814   -0.003388354085636798   -0.0008839050566956844
0.00025328904637070753   -0.003270300655254496   -0.000861270714721168
0.00021352209533883495   -0.003213791820826954   -0.0008464591433449948
0.0   0.0   0.0
0.0022282482649457814   -0.003388354085636798   -0.0008839050566956844
0.00021352209533883495   -0.003213791820826954   -0.0008464591433449948
0.0   0.0   0.0
0.0   0.0   0.0
0.00025328904637070753   -0.003270300655254496   -0.000861270714721168
0.0   0.0   0.0
0.0   0.0   0.0
0.00025328904637070753   -0.003270300655254496   -0.000861270714721168
0.0022282482649457814   -0.003388354085636798   -0.0008839050566956844
0.0   0.0   0.0
0.0022184569854157734   -0.0033399676068278923   -0.0010206677527340056
0.0   0.0   0.0
0.0   0.0   0.0
0.0022184569854157734   -0.0033399676068278923   -0.0010206677527340056
0.0   0.0   0.0
0.0   0.0   0.0
0.0022184569854157734   -0.0033399676068278923   -0.0010206677527340056
0.00028464894077722736   -0.0032656375119854432   -0.0008746303399265428
0.00025328904637070753   -0.003270300655254496   -0.000861270714721168
0.0   0.0   0.0
0.0022184569854157734   -0.0033399676068278923   -0.0010206677527340056
0.00025328904637070753   -0.003270300655254496   -0.000861270714721168
0.0   0.0   0.0
0.0   0.0   0.0
0.00028464894077722736   -0.0032656375119854432   -0.0008746303399265428
0.0   0.0   0.0
0.0   0.0   0.0
0.00028464894077722736   -0.0032656375119854432   -0.0008746303399265428
0.0022184569854157734   -0.0033399676068278923   -0.0010206677527340056
0.0   0.0   0.0
0.002261183511961825   -0.0032103485034799153   -0.0011548083876950234
0.0   0.0   0.0
0.0   0.0   0.0
0.002261183511961825   -0.0032103485034799153   -0.0011548083876950234
0.0   0.0   0.0
0.0   0.0   0.0
0.002261183511961825   -0.0032103485034799153   -0.0011548083876950234
0.0003269108959065986   -0.003194781877201126   -0.000888337370411619
0.00028464894077722736   -0.0032656375119854432   -0.0008746303399265428
0.0   0.0   0.0
0.002261183511961825   -0.0032103485034799153   -0.0011548083876950234
0.00028464894077722736   -0.0032656375119854432   -0.0008746303399265428
0.0   0.0   0.0
0.0   0.0   0.0
0.002224580380717908   -0.0033703435160759897   -0.0007413193687467675
0.0   0.0   0.0
0.0   0.0   0.0
0.002224580380717908   -0.0033703435160759897   -0.0007413193687467675
0.005020786195869544   -0.0037670851748750154   -0.0006993413488721744
0.0   0.0   0.0
0.004714954661692376   -0.0037260093081744475   -0.0010225445359796233
0.0   0.0   0.0
0.0   0.0   0.0
0.004714954661692376   -0.0037260093081744475   -0.0010225445359796233
0.0   0.0   0.0
0.0   0.0   0.0
0.004714954661692376   -0.0037260093081744475   -0.0010225445359796233
0.0022282482649457814   -0.003388354085636798   -0.0008839050566956844
0.002224580380717908   -0.0033703435160759897   -0.0007413193687467675
0.0   0.0   0.0
0.004714954661692376   -0.0037260093081744475   -0.0010225445359796233
0.002224580380717908   -0.0033703435160759897   -0.0007413193687467675
0.0   0.0   0.0
0.0   0.0   0.0
0.0022282482649457814   -0.003388354085636798   -0.0008839050566956844
0.0   0.0   0.0
0.0   0.0   0.0
0.0022282482649457814   -0.003388354085636798   -0.0008839050566956844
0.004714954661692376   -0.0037260093081744475   -0.0010225445359796233
0.0   0.0   0.0
0.004573811486716771   -0.003648540816815217   -0.0012958365766789972
0.0   0.0   0.0
0.0   0.0   0.0
0.004573811486716771   -0.003648540816815217   -0.0012958365766789972
0.0   0.0   0.0
0.0   0.0   0.0
0.004573811486716771   -0.003648540816815217   -0.0012958365766789972
0.0022184569854157734   -0.0033399676068278923   -0.0010206677527340056
0.0022282482649457814   -0.003388354085636798   -0.0008839050566956844
0.0   0.0   0.0
0.004573811486716771   -0.003648540816815217   -0.0012958365766789972
0.0022282482649457814   -0.003388354085636798   -0.0008839050566956844
0.0   0.0   0.0
0.0   0.0   0.0
0.0022184569854157734   -0.0033399676068278923   -0.0010206677527340056
0.0   0.0   0.0
0.0   0.0   0.0
0.0022184569854157734   -0.0033399676068278923   -0.0010206677527340056
0.004573811486716771   -0.003648540816815217   -0.0012958365766789972
0.0   0.0   0.0
0.0043638623487088   -0.0034502862387871397   -0.0015850000185975912
0.0   0.0   0.0
0.0   0.0   0.0
0.0043638623487088   -0.0034502862387871397   -0.0015850000185975912
0.0   0.0   0.0
0.0   0.0   0.0
0.0043638623487088   -0.0034502862387871397   -0.0015850000185975912
0.002261183511961825   -0.0032103485034799153   -0.0011548083876950234
0.0022184569854157734   -0.0033399676068278923   -0.0010206677527340056
0.0   0.0   0.0
0.0043638623487088   -0.0034502862387871397   -0.0015850000185975912
0.0022184569854157734   -0.0033399676068278923   -0.0010206677527340056
0.0   0.0   0.0
-0.005657454371326376   -0.0037104179970128327   -0.001895102082868059
-0.010568009568651077   -0.010359413525258179   -0.002553147752008716
-0.0036002029751276707   -0.0033341701742071977   -0.0013923256780783355
-0.005921024795561779   -0.003952981468764176   -0.0015214283817452058
-0.010568009568651077   -0.010359413525258179   -0.002553147752008716
-0.0067452018081417915   -0.010020990946668243   -0.002101428344440969
-0.0036002029751276707   -0.0033341701742071977   -0.0013923256780783355
-0.006753438471199622   -0.010192279392970375   -0.0018924617884193932
-0.005921024795561779   -0.003952981468764176   -0.0015214283817452058
-0.0035291894524933144   -0.0035015628933902656   -0.001166421937938458
-0.006753438471199622   -0.010192279392970375   -0.0018924617884193932
-0.0036002029751276707   -0.0033341701742071977   -0.0013923256780783355
-0.005921024795561779   -0.003952981468764176   -0.0015214283817452058
-0.006753438471199622   -0.010192279392970375   -0.0018924617884193932
-0.010884990016690589   -0.010598400298485178   -0.002213779437634506
-0.010568009568651077   -0.010359413525258179   -0.002553147752008716
-0.005921024795561779   -0.003952981468764176   -0.0015214283817452058
-0.006753438471199622   -0.010192279392970375   -0.0018924617884193932
-0.010568009568651077   -0.010359413525258179   -0.002553147752008716
-0.0036002029751276707   -0.0033341701742071977   -0.0013923256780783355
-0.005921024795561779   -0.003952981468764176   -0.0015214283817452058
-0.010884990016690589   -0.010598400298485178   -0.002213779437634506
-0.0035291894524933144   -0.0035015628933902656   -0.001166421937938458
-0.006106220473083586   -0.004070923492190242   -0.0011633471616723846
-0.010884990016690589   -0.010598400298485178   -0.002213779437634506
-0.006753438471199622   -0.010192279392970375   -0.0018924617884193932
-0.0035291894524933144   -0.0035015628933902656   -0.001166421937938458
-0.006780323929068555   -0.010296674137223502   -0.0016916362217064098
-0.006106220473083586   -0.004070923492190242   -0.0011633471616723846
-0.0035393444281368834   -0.0035873232303070116   -0.0009408205744761939
-0.006780323929068555   -0.010296674137223502   -0.0016916362217064098
-0.0035291894524933144   -0.0035015628933902656   -0.001166421937938458
-0.006106220473083586   -0.004070923492190242   -0.0011633471616723846
-0.006780323929068555   -0.010296674137223502   -0.0016916362217064098
-0.01110533853571734   -0.010733346713570409   -0.0018814560430907394
-0.010884990016690589   -0.010598400298485178   -0.002213779437634506
-0.006106220473083586   -0.004070923492190242   -0.0011633471616723846
-0.006780323929068555   -0.010296674137223502   -0.0016916362217064098
-0.010884990016690589   -0.010598400298485178   -0.002213779437634506
-0.0035291894524933144   -0.0035015628933902656   -0.001166421937938458
-0.006106220473083586   -0.004070923492190242   -0.0011633471616723846
-0.01110533853571734   -0.010733346713570409   -0.0018814560430907394
-0.0035393444281368834   -0.0035873232303070116   -0.0009408205744761939
-0.0065049824829891915   -0.0041601647797268534   -0.0007478935637194676
-0.01110533853571734   -0.010733346713570409   -0.0018814560430907394
-0.006780323929068555   -0.010296674137223502   -0.0016916362217064098
-0.0035393444281368834   -0.0035873232303070116   -0.0009408205744761939
-0.006760421927994135   -0.010350808094831191   -0.0015036394064421763
-0.0065049824829891915   -0.0041601647797268534   -0.0007478935637194676
-0.0035377118225244954   -0.0036093283574442016   -0.0007075170578145578
-0.006760421927994135   -0.010350808094831191   -0.0015036394064421763
-0.0035393444281368834   -0.0035873232303070116   -0.0009408205744761939
-0.0065049824829891915   -0.0041601647797268534   -0.0007478935637194676
-0.006760421927994135   -0.010350808094831191   -0.0015036394064421763
-0.011365793978022891   -0.010811740604480823   -0.0015790652849819202
-0.01110533853571734   -0.010733346713570409   -0.0018814560430907394
-0.0065049824829891915   -0.0041601647797268534   -0.0007478935637194676
-0.006760421927994135   -0.010350808094831191   -0.0015036394064421763
-0.01110533853571734   -0.010733346713570409   -0.0018814560430907394
-0.0035393444281368834   -0.0035873232303070116   -0.0009408205744761939
-0.0036002029751276707   -0.0033341701742071977   -0.0013923256780783355
-0.0067452018081417915   -0.010020990946668243   -0.002101428344440969
-0.0016393182623534084   -0.0031961376465194204   -0.0010589449471464566
-0.0035291894524933144   -0.0035015628933902656   -0.001166421937938458
-0.0067452018081417915   -0.010020990946668243   -0.002101428344440969
-0.0031292906040224274   -0.009863519885152947   -0.0017930466300589338
-0.0016393182623534084   -0.0031961376465194204   -0.0010589449471464566
-0.003102569204438916   -0.009972553838398469   -0.0016859873624331628
-0.0035291894524933144   -0.0035015628933902656   -0.001166421937938458
-0.001576870025775798   -0.003305114979491532   -0.0009523223334710769
-0.003102569204438916   -0.009972553838398469   -0.0016859873624331628
-0.0016393182623534084   -0.0031961376465194204   -0.0010589449471464566
-0.0035291894524933144   -0.0035015628933902656   -0.001166421937938458
-0.003102569204438916   -0.009972553838398469   -0.0016859873624331628
-0.006753438471199622   -0.010192279392970375   -0.0018924617884193932
-0.0067452018081417915   -0.010020990946668243   -0.002101428344440969
-0.0035291894524933144   -0.0035015628933902656   -0.001166421937938458
-0.003102569204438916   -0.009972553838398469   -0.0016859873624331628
-0.0067452018081417915   -0.010020990946668243   -0.002101428344440969
-0.0016393182623534084   -0.0031961376465194204   -0.0010589449471464566
-0.0035291894524933144   -0.0035015628933902656   -0.001166421937938458
-0.006753438471199622   -0.010192279392970375   -0.0018924617884193932
-0.001576870025775798   -0.003305114979491532   -0.0009523223334710769
-0.0035393444281368834   -0.0035873232303070116   -0.0009408205744761939
-0.006753438471199622   -0.010192279392970375   -0.0018924617884193932
-0.003102569204438916   -0.009972553838398469   -0.0016859873624331628
-0.001576870025775798   -0.003305114979491532   -0.0009523223334710769
-0.0030789208234700566   -0.010025426566395365   -0.0015889246561549633
-0.0035393444281368834   -0.0035873232303070116   -0.0009408205744761939
-0.0015418797609498061   -0.003346644870742036   -0.0008484614230397866
-0.0030789208234700566   -0.010025426566395365   -0.0015889246561549633
-0.001576870025775798   -0.003305114979491532   -0.0009523223334710769
-0.0035393444281368834   -0.0035873232303070116   -0.0009408205744761939
-0.0030789208234700566   -0.010025426566395365   -0.0015889246561549633
-0.006780323929068555   -0.010296674137223502   -0.0016916362217064098
-0.006753438471199622   -0.010192279392970375   -0.0018924617884193932
-0.0035393444281368834   -0.0035873232303070116   -0.0009408205744761939
-0.0030789208234700566   -0.010025426566395365   -0.0015889246561549633
-0.006753438471199622   -0.010192279392970375   -0.0018924617884193932
-0.001576870025775798   -0.003305114979491532   -0.0009523223334710769
-0.0035393444281368834   -0.0035873232303070116   -0.0009408205744761939
-0.006780323929068555   -0.010296674137223502   -0.0016916362217064098
-0.0015418797609498061   -0.003346644870742036   -0.0008484614230397866
-0.0035377118225244954   -0.0036093283574442016   -0.0007075170578145578
-0.006780323929068555   -0.010296674137223502   -0.0016916362217064098
-0.0030789208234700566   -0.010025426566395365   -0.0015889246561549633
-0.0015418797609498061   -0.003346644870742036   -0.0008484614230397866
-0.0030435015905858685   -0.01002413177499248   -0.0015044066487415702
-0.0035377118225244954   -0.0036093283574442016   -0.0007075170578145578
-0.001510051759457585   -0.003329299750159104   -0.0007410644240466187
-0.0030435015905858685   -0.01002413177499248   -0.0015044066487415702
-0.0015418797609498061   -0.003346644870742036   -0.0008484614230397866
-0.0035377118225244954   -0.0036093283574442016   -0.0007075170578145578
-0.0030435015905858685   -0.01002413177499248   -0.0015044066487415702
-0.006760421927994135   -0.010350808094831191   -0.0015036394064421763
-0.006780323929068555   -0.010296674137223502   -0.0016916362217064098
-0.0035377118225244954   -0.0036093283574442016   -0.0007075170578145578
-0.0030435015905858685   -0.01002413177499248   -0.0015044066487415702
-0.006780323929068555   -0.010296674137223502   -0.0016916362217064098
-0.0015418797609498061   -0.003346644870742036   -0.0008484614230397866
-0.0016393182623534084   -0.0031961376465194204   -0.0010589449471464566
-0.0031292906040224274   -0.009863519885152947   -0.0017930466300589338
0.00021352209533883495   -0.003213791820826954   -0.0008464591433449948
-0.001576870025775798   -0.003305114979491532   -0.0009523223334710769
-0.0031292906040224274   -0.009863519885152947   -0.0017930466300589338
0.00035772127296330433   -0.009868191840172527   -0.001598038053003326
0.00021352209533883495   -0.003213791820826954   -0.0008464591433449948
0.00039061363142412284   -0.009919870872546087   -0.0015910002207121842
-0.001576870025775798   -0.003305114979491532   -0.0009523223334710769
0.00025328904637070753   -0.003270300655254496   -0.000861270714721168
0.00039061363142412284   -0.009919870872546087   -0.0015910002207121842
0.00021352209533883495   -0.003213791820826954   -0.0008464591433449948
-0.001576870025775798   -0.003305114979491532   -0.0009523223334710769
0.00039061363142412284   -0.009919870872546087   -0.0015910002207121842
-0.003102569204438916   -0.009972553838398469   -0.0016859873624331628
-0.0031292906040224274   -0.009863519885152947   -0.0017930466300589338
-0.001576870025775798   -0.003305114979491532   -0.0009523223334710769
0.00039061363142412284   -0.009919870872546087   -0.0015910002207121842
-0.0031292906040224274   -0.009863519885152947   -0.0017930466300589338
0.00021352209533883495   -0.003213791820826954   -0.0008464591433449948
-0.001576870025775798   -0.003305114979491532   -0.0009523223334710769
-0.003102569204438916   -0.009972553838398469   -0.0016859873624331628
0.00025328904637070753   -0.003270300655254496   -0.000861270714721168
-0.0015418797609498061   -0.003346644870742036   -0.0008484614230397866
-0.003102569204438916   -0.009972553838398469   -0.0016859873624331628
0.00039061363142412284   -0.009919870872546087   -0.0015910002207121842
0.00025328904637070753   -0.003270300655254496   -0.000861270714721168
0.0004126577168889617   -0.009916706152590264   -0.0015953093764247827
-0.0015418797609498061   -0.003346644870742036   -0.0008484614230397866
0.00028464894077722736   -0.0032656375119854432   -0.0008746303399265428
0.0004126577168889617   -0.009916706152590264   -0.0015953093764247827
0.00025328904637070753   -0.003270300655254496   -0.000861270714721168
-0.0015418797609498061   -0.003346644870742036   -0.0008484614230397866
0.0004126577168889617   -0.009916706152590264   -0.0015953093764247827
-0.0030789208234700566   -0.010025426566395365   -0.0015889246561549633
-0.003102569204438916   -0.009972553838398469   -0.0016859873624331628
-0.0015418797609498061   -0.003346644870742036   -0.0008484614230397866
0.0004126577168889617   -0.009916706152590264   -0.0015953093764247827
-0.003102569204438916   -0.009972553838398469   -0.0016859873624331628
0.00025328904637070753   -0.003270300655254496   -0.000861270714721168
-0.0015418797609498061   -0.003346644870742036   -0.0008484614230397866
-0.0030789208234700566   -0.010025426566395365   -0.0015889246561549633
0.00028464894077722736   -0.0032656375119854432   -0.0008746303399265428
-0.001510051759457585   -0.003329299750159104   -0.0007410644240466187
-0.0030789208234700566   -0.010025426566395365   -0.0015889246561549633
0.0004126577168889617   -0.009916706152590264   -0.0015953093764247827
0.00028464894077722736   -0.0032656375119854432   -0.0008746303399265428
0.00043632830859101265   -0.009857022759294353   -0.001611145288788395
-0.001510051759457585   -0.003329299750159104   -0.0007410644240466187
0.0003269108959065986   -0.003194781877201126   -0.000888337370411619
0.00043632830859101265   -0.009857022759294353   -0.001611145288788395
0.00028464894077722736   -0.0032656375119854432   -0.0008746303399265428
-0.001510051759457585   -0.003329299750159104   -0.0007410644240466187
0.00043632830859101265   -0.009857022759294353   -0.001611145288788395
-0.0030435015905858685   -0.01002413177499248   -0.0015044066487415702
-0.0030789208234700566   -0.010025426566395365   -0.0015889246561549633
-0.001510051759457585   -0.003329299750159104   -0.0007410644240466187
0.00043632830859101265   -0.009857022759294353   -0.001611145288788395
-0.0030789208234700566   -0.010025426566395365   -0.0015889246561549633
0.00028464894077722736   -0.0032656375119854432   -0.0008746303399265428
0.00021352209533883495   -0.003213791820826954   -0.0008464591433449948
0.00035772127296330433   -0.009868191840172527   -0.001598038053003326
0.002224580380717908   -0.0033703435160759897   -0.0007413193687467675
0.00025328904637070753   -0.003270300655254496   -0.000861270714721168
0.00035772127296330433   -0.009868191840172527   -0.001598038053003326
0.004052824478830294   -0.010029148742326775   -0.0015070103573861546
0.002224580380717908   -0.0033703435160759897   -0.0007413193687467675
0.00407129609954743   -0.010028727018844668   -0.0016032394075655286
0.00025328904637070753   -0.003270300655254496   -0.000861270714721168
0.0022282482649457814   -0.003388354085636798   -0.0008839050566956844
0.00407129609954743   -0.010028727018844668   -0.0016032394075655286
0.002224580380717908   -0.0033703435160759897   -0.0007413193687467675
0.00025328904637070753   -0.003270300655254496   -0.000861270714721168
0.00407129609954743   -0.010028727018844668   -0.0016032394075655286
0.00039061363142412284   -0.009919870872546087   -0.0015910002207121842
0.00035772127296330433   -0.009868191840172527   -0.001598038053003326
0.00025328904637070753   -0.003270300655254496   -0.000861270714721168
0.00407129609954743   -0.010028727018844668   -0.0016032394075655286
0.00035772127296330433   -0.009868191840172527   -0.001598038053003326
0.002224580380717908   -0.0033703435160759897   -0.0007413193687467675
0.00025328904637070753   -0.003270300655254496   -0.000861270714721168
0.00039061363142412284   -0.009919870872546087   -0.0015910002207121842
0.0022282482649457814   -0.003388354085636798   -0.0008839050566956844
0.00028464894077722736   -0.0032656375119854432   -0.0008746303399265428
0.00039061363142412284   -0.009919870872546087   -0.0015910002207121842
0.00407129609954743   -0.010028727018844668   -0.0016032394075655286
0.0022282482649457814   -0.003388354085636798   -0.0008839050566956844
0.004052202537655018   -0.009974519619091828   -0.0017123065514701014
0.00028464894077722736   -0.0032656375119854432   -0.0008746303399265428
0.0022184569854157734   -0.0033399676068278923   -0.0010206677527340056
0.004052202537655018   -0.009974519619091828   -0.0017123065514701014
0.0022282482649457814   -0.003388354085636798   -0.0008839050566956844
0.00028464894077722736   -0.0032656375119854432   -0.0008746303399265428
0.004052202537655018   -0.009974519619091828   -0.0017123065514701014
0.0004126577168889617   -0.009916706152590264   -0.0015953093764247827
0.00039061363142412284   -0.009919870872546087   -0.0015910002207121842
0.00028464894077722736   -0.0032656375119854432   -0.0008746303399265428
0.004052202537655018   -0.009974519619091828   -0.0017123065514701014
0.00039061363142412284   -0.009919870872546087   -0.0015910002207121842
0.0022282482649457814   -0.003388354085636798   -0.0008839050566956844
0.00028464894077722736   -0.0032656375119854432   -0.0008746303399265428
0.0004126577168889617   -0.009916706152590264   -0.0015953093764247827
0.0022184569854157734   -0.0033399676068278923   -0.0010206677527340056
0.0003269108959065986   -0.003194781877201126   -0.000888337370411619
0.0004126577168889617   -0.009916706152590264   -0.0015953093764247827
0.004052202537655018   -0.009974519619091828   -0.0017123065514701014
0.0022184569854157734   -0.0033399676068278923   -0.0010206677527340056
0.004041159120562149   -0.009851693455388607   -0.001830177441642447
0.0003269108959065986   -0.003194781877201126   -0.000888337370411619
0.002261183511961825   -0.0032103485034799153   -0.0011548083876950234
0.004041159120562149   -0.009851693455388607   -0.001830177441642447
0.0022184569854157734   -0.0033399676068278923   -0.0010206677527340056
0.0003269108959065986   -0.003194781877201126   -0.000888337370411619
0.004041159120562149   -0.009851693455388607   -0.001830177441642447
0.00043632830859101265   -0.009857022759294353   -0.001611145288788395
0.0004126577168889617   -0.009916706152590264   -0.0015953093764247827
0.0003269108959065986   -0.003194781877201126   -0.000888337370411619
0.004041159120562149   -0.009851693455388607   -0.001830177441642447
0.0004126577168889617   -0.009916706152590264   -0.0015953093764247827
0.0022184569854157734   -0.0033399676068278923   -0.0010206677527340056
0.002224580380717908   -0.0033703435160759897   -0.0007413193687467675
0.004052824478830294   -0.010029148742326775   -0.0015070103573861546
0.005020786195869544   -0.0037670851748750154   -0.0006993413488721744
0.0022282482649457814   -0.003388354085636798   -0.0008839050566956844
0.004052824478830294   -0.010029148742326775   -0.0015070103573861546
0.008511397772584245   -0.010328377036517367   -0.0014824245731641964
0.005020786195869544   -0.0037670851748750154   -0.0006993413488721744
0.00833784005330323   -0.01030025043950822   -0.0016988787232919502
0.0022282482649457814   -0.003388354085636798   -0.0008839050566956844
0.004714954661692376   -0.0037260093081744475   -0.0010225445359796233
0.00833784005330323   -0.01030025043950822   -0.0016988787232919502
0.005020786195869544   -0.0037670851748750154   -0.0006993413488721744
0.0022282482649457814   -0.003388354085636798   -0.0008839050566956844
0.00833784005330323   -0.01030025043950822   -0.0016988787232919502
0.00407129609954743   -0.010028727018844668   -0.0016032394075655286
0.004052824478830294   -0.010029148742326775   -0.0015070103573861546
0.0022282482649457814   -0.003388354085636798   -0.0008839050566956844
0.00833784005330323   -0.01030025043950822   -0.0016988787232919502
0.004052824478830294   -0.010029148742326775   -0.0015070103573861546
0.005020786195869544   -0.0037670851748750154   -0.0006993413488721744
0.0022282482649457814   -0.003388354085636798   -0.0008839050566956844
0.00407129609954743   -0.010028727018844668   -0.0016032394075655286
0.004714954661692376   -0.0037260093081744475   -0.0010225445359796233
0.0022184569854157734   -0.0033399676068278923   -0.0010206677527340056
0.00407129609954743   -0.010028727018844668   -0.0016032394075655286
0.00833784005330323   -0.01030025043950822   -0.0016988787232919502
0.004714954661692376   -0.0037260093081744475   -0.0010225445359796233
0.00818276837741717   -0.01021666752920684   -0.0019423482494712596
0.0022184569854157734   -0.0033399676068278923   -0.0010206677527340056
0.004573811486716771   -0.003648540816815217   -0.0012958365766789972
0.00818276837741717   -0.01021666752920684   -0.0019423482494712596
0.004714954661692376   -0.0037260093081744475   -0.0010225445359796233
0.0022184569854157734   -0.0033399676068278923   -0.0010206677527340056
0.00818276837741717   -0.01021666752920684   -0.0019423482494712596
0.004052202537655018   -0.009974519619091828   -0.0017123065514701014
0.00407129609954743   -0.010028727018844668   -0.0016032394075655286
0.0022184569854157734   -0.0033399676068278923   -0.0010206677527340056
0.00818276837741717   -0.01021666752920684   -0.0019423482494712596
0.00407129609954743   -0.010028727018844668   -0.0016032394075655286
0.004714954661692376   -0.0037260093081744475   -0.0010225445359796233
0.0022184569854157734   -0.0033399676068278923   -0.0010206677527340056
0.004052202537655018   -0.009974519619091828   -0.0017123065514701014
0.004573811486716771   -0.003648540816815217   -0.0012958365766789972
0.002261183511961825   -0.0032103485034799153   -0.0011548083876950234
0.004052202537655018   -0.009974519619091828   -0.0017123065514701014
0.00818276837741717   -0.01021666752920684   -0.0019423482494712596
0.004573811486716771   -0.003648540816815217   -0.0012958365766789972
0.007950567626051694   -0.01003062056772331   -0.0021957687000879636
0.002261183511961825   -0.0032103485034799153   -0.0011548083876950234
0.0043638623487088   -0.0034502862387871397   -0.0015850000185975912
0.007950567626051694   -0.01003062056772331   -0.0021957687000879636
0.004573811486716771   -0.003648540816815217   -0.0012958365766789972
0.002261183511961825   -0.0032103485034799153   -0.0011548083876950234
0.007950567626051694   -0.01003062056772331   -0.0021957687000879636
0.004041159120562149   -0.009851693455388607   -0.001830177441642447
0.004052202537655018   -0.009974519619091828   -0.0017123065514701014
0.002261183511961825   -0.0032103485034799153   -0.0011548083876950234
0.007950567626051694   -0.01003062056772331   -0.0021957687000879636
0.004052202537655018   -0.009974519619091828   -0.0017123065514701014
0.004573811486716771   -0.003648540816815217   -0.0012958365766789972
-0.010568009568651077   -0.010359413525258179   -0.002553147752008716
-0.01448128232775697   -0.019430666269310715   -0.00290788177780712
-0.0067452018081417915   -0.010020990946668243   -0.002101428344440969
-0.010884990016690589   -0.010598400298485178   -0.002213779437634506
-0.01448128232775697   -0.019430666269310715   -0.00290788177780712
-0.00931033034750165   -0.01917199594064413   -0.0025414346445882634
-0.0067452018081417915   -0.010020990946668243   -0.002101428344440969
-0.009331051583939355   -0.0193198675391026   -0.0023792816926258005
-0.010884990016690589   -0.010598400298485178   -0.002213779437634506
-0.006753438471199622   -0.010192279392970375   -0.0018924617884193932
-0.009331051583939355   -0.0193198675391026   -0.0023792816926258005
-0.0067452018081417915   -0.010020990946668243   -0.002101428344440969
-0.010884990016690589   -0.010598400298485178   -0.002213779437634506
-0.009331051583939355   -0.0193198675391026   -0.0023792816926258005
-0.014739211533885433   -0.019632740461362347   -0.002654728626118732
-0.01448128232775697   -0.019430666269310715   -0.00290788177780712
-0.010884990016690589   -0.010598400298485178   -0.002213779437634506
-0.009331051583939355   -0.0193198675391026   -0.0023792816926258005
-0.01448128232775697   -0.019430666269310715   -0.00290788177780712
-0.0067452018081417915   -0.010020990946668243   -0.002101428344440969
-0.010884990016690589   -0.010598400298485178   -0.002213779437634506
-0.014739211533885433   -0.019632740461362347   -0.002654728626118732
-0.006753438471199622   -0.010192279392970375   -0.0018924617884193932
-0.01110533853571734   -0.010733346713570409   -0.0018814560430907394
-0.014739211533885433   -0.019632740461362347   -0.002654728626118732
-0.009331051583939355   -0.0193198675391026   -0.0023792816926258005
-0.006753438471199622   -0.010192279392970375   -0.0018924617884193932
-0.009355414943503013   -0.01942275506219863   -0.0022288529540059436
-0.01110533853571734   -0.010733346713570409   -0.0018814560430907394
-0.006780323929068555   -0.010296674137223502   -0.0016916362217064098
-0.009355414943503013   -0.01942275506219863   -0.0022288529540059436
-0.006753438471199622   -0.010192279392970375   -0.0018924617884193932
-0.01110533853571734   -0.010733346713570409   -0.0018814560430907394
-0.009355414943503013   -0.01942275506219863   -0.0022288529540059436
-0.014901954427215654   -0.019759434807184572   -0.0024187625575019804
-0.014739211533885433   -0.019632740461362347   -0.002654728626118732
-0.01110533853571734   -0.010733346713570409   -0.0018814560430907394
-0.009355414943503013   -0.01942275506219863   -0.0022288529540059436
-0.014739211533885433   -0.019632740461362347   -0.002654728626118732
-0.006753438471199622   -0.010192279392970375   -0.0018924617884193932
-0.01110533853571734   -0.010733346713570409   -0.0018814560430907394
-0.014901954427215654   -0.019759434807184572   -0.0024187625575019804
-0.006780323929068555   -0.010296674137223502   -0.0016916362217064098
-0.011365793978022891   -0.010811740604480823   -0.0015790652849819202
-0.014901954427215654   -0.019759434807184572   -0.0024187625575019804
-0.009355414943503013   -0.01942275506219863   -0.0022288529540059436
-0.006780323929068555   -0.010296674137223502   -0.0016916362217064098
-0.009338203188104053   -0.01949041782969224   -0.0020876513679773524
-0.011365793978022891   -0.010811740604480823   -0.0015790652849819202
-0.006760421927994135   -0.010350808094831191   -0.0015036394064421763
-0.009338203188104053   -0.01949041782969224   -0.0020876513679773524
-0.006780323929068555   -0.010296674137223502   -0.0016916362217064098
-0.011365793978022891   -0.010811740604480823   -0.0015790652849819202
-0.009338203188104053   -0.01949041782969224   -0.0020876513679773524
-0.015087123097992441   -0.019850506047146277   -0.002201590599619544
-0.014901954427215654   -0.019759434807184572   -0.0024187625575019804
-0.011365793978022891   -0.010811740604480823   -0.0015790652849819202
-0.009338203188104053   -0.01949041782969224   -0.0020876513679773524
-0.014901954427215654   -0.019759434807184572   -0.0024187625575019804
-0.006780323929068555   -0.010296674137223502   -0.0016916362217064098
-0.0067452018081417915   -0.010020990946668243   -0.002101428344440969
-0.00931033034750165   -0.01917199594064413   -0.0025414346445882634
-0.0031292906040224274   -0.009863519885152947   -0.0017930466300589338
-0.006753438471199622   -0.010192279392970375   -0.0018924617884193932
-0.00931033034750165   -0.01917199594064413   -0.0025414346445882634
-0.0044344367581865465   -0.019043045602981857   -0.00228683292049872
-0.0031292906040224274   -0.009863519885152947   -0.0017930466300589338
-0.004423639723081666   -0.019137615908785155   -0.0021952180468384004
-0.006753438471199622   -0.010192279392970375   -0.0018924617884193932
-0.003102569204438916   -0.009972553838398469   -0.0016859873624331628
-0.004423639723081666   -0.019137615908785155   -0.0021952180468384004
-0.0031292906040224274   -0.009863519885152947   -0.0017930466300589338
-0.006753438471199622   -0.010192279392970375   -0.0018924617884193932
-0.004423639723081666   -0.019137615908785155   -0.0021952180468384004
-0.009331051583939355   -0.0193198675391026   -0.0023792816926258005
-0.00931033034750165   -0.01917199594064413   -0.0025414346445882634
-0.006753438471199622   -0.010192279392970375   -0.0018924617884193932
-0.004423639723081666   -0.019137615908785155   -0.0021952180468384004
-0.00931033034750165   -0.01917199594064413   -0.0025414346445882634
-0.0031292906040224274   -0.009863519885152947   -0.0017930466300589338
-0.006753438471199622   -0.010192279392970375   -0.0018924617884193932
-0.009331051583939355   -0.0193198675391026   -0.0023792816926258005
-0.003102569204438916   -0.009972553838398469   -0.0016859873624331628
-0.006780323929068555   -0.010296674137223502   -0.0016916362217064098
-0.009331051583939355   -0.0193198675391026   -0.0023792816926258005
-0.004423639723081666   -0.019137615908785155   -0.0021952180468384004
-0.003102569204438916   -0.009972553838398469   -0.0016859873624331628
-0.00441034294258944   -0.019193159100265474   -0.0021147690858998895
-0.006780323929068555   -0.010296674137223502   -0.0016916362217064098
-0.0030789208234700566   -0.010025426566395365   -0.0015889246561549633
-0.00441034294258944   -0.019193159100265474   -0.0021147690858998895
-0.003102569204438916   -0.009972553838398469   -0.0016859873624331628
-0.006780323929068555   -0.010296674137223502   -0.0016916362217064098
-0.00441034294258944   -0.019193159100265474   -0.0021147690858998895
-0.009355414943503013   -0.01942275506219863   -0.0022288529540059436
-0.009331051583939355   -0.0193198675391026   -0.0023792816926258005
-0.006780323929068555   -0.010296674137223502   -0.0016916362217064098
-0.00441034294258944   -0.019193159100265474   -0.0021147690858998895
-0.009331051583939355   -0.0193198675391026   -0.0023792816926258005
-0.003102569204438916   -0.009972553838398469   -0.0016859873624331628
-0.006780323929068555   -0.010296674137223502   -0.0016916362217064098
-0.009355414943503013   -0.01942275506219863   -0.0022288529540059436
-0.0030789208234700566   -0.010025426566395365   -0.0015889246561549633
-0.006760421927994135   -0.010350808094831191   -0.0015036394064421763
-0.009355414943503013   -0.01942275506219863   -0.0022288529540059436
-0.00441034294258944   -0.019193159100265474   -0.0021147690858998895
-0.0030789208234700566   -0.010025426566395365   -0.0015889246561549633
-0.004388291702074354   -0.019210469281682654   -0.0020454519598751436
-0.006760421927994135   -0.010350808094831191   -0.0015036394064421763
-0.0030435015905858685   -0.01002413177499248   -0.0015044066487415702
-0.004388291702074354   -0.019210469281682654   -0.0020454519598751436
-0.0030789208234700566   -0.010025426566395365   -0.0015889246561549633
-0.006760421927994135   -0.010350808094831191   -0.0015036394064421763
-0.004388291702074354   -0.019210469281682654   -0.0020454519598751436
-0.009338203188104053   -0.01949041782969224   -0.0020876513679773524
-0.009355414943503013   -0.01942275506219863   -0.0022288529540059436
-0.006760421927994135   -0.010350808094831191   -0.0015036394064421763
-0.004388291702074354   -0.019210469281682654   -0.0020454519598751436
-0.009355414943503013   -0.01942275506219863   -0.0022288529540059436
-0.0030789208234700566   -0.010025426566395365   -0.0015889246561549633
-0.0031292906040224274   -0.009863519885152947   -0.0017930466300589338
-0.0044344367581865465   -0.019043045602981857   -0.00228683292049872
0.00035772127296330433   -0.009868191840172527   -0.001598038053003326
-0.003102569204438916   -0.009972553838398469   -0.0016859873624331628
-0.0044344367581865465   -0.019043045602981857   -0.00228683292049872
0.0002983847598458297   -0.019036186284795913   -0.0021289372760338993
0.00035772127296330433   -0.009868191840172527   -0.001598038053003326
0.00031849078647465064   -0.019078297788364514   -0.0021074807180465707
-0.003102569204438916   -0.009972553838398469   -0.0016859873624331628
0.00039061363142412284   -0.009919870872546087   -0.0015910002207121842
0.00031849078647465064   -0.019078297788364514   -0.0021074807180465707
0.00035772127296330433   -0.009868191840172527   -0.001598038053003326
-0.003102569204438916   -0.009972553838398469   -0.0016859873624331628
0.00031849078647465064   -0.019078297788364514   -0.0021074807180465707
-0.004423639723081666   -0.019137615908785155   -0.0021952180468384004
-0.0044344367581865465   -0.019043045602981857   -0.00228683292049872
-0.003102569204438916   -0.009972553838398469   -0.0016859873624331628
0.00031849078647465064   -0.019078297788364514   -0.0021074807180465707
-0.0044344367581865465   -0.019043045602981857   -0.00228683292049872
0.00035772127296330433   -0.009868191840172527   -0.001598038053003326
-0.003102569204438916   -0.009972553838398469   -0.0016859873624331628
-0.004423639723081666   -0.019137615908785155   -0.0021952180468384004
0.00039061363142412284   -0.009919870872546087   -0.0015910002207121842
-0.0030789208234700566   -0.010025426566395365   -0.0015889246561549633
-0.004423639723081666   -0.019137615908785155   -0.0021952180468384004
0.00031849078647465064   -0.019078297788364514   -0.0021074807180465707
0.00039061363142412284   -0.009919870872546087   -0.0015910002207121842
0.00033127046658848724   -0.019081539393918098   -0.002096897426189501
-0.0030789208234700566   -0.010025426566395365   -0.0015889246561549633
0.0004126577168889617   -0.009916706152590264   -0.0015953093764247827
0.00033127046658848724   -0.019081539393918098   -0.002096897426189501
0.00039061363142412284   -0.009919870872546087   -0.0015910002207121842
-0.0030789208234700566   -0.010025426566395365   -0.0015889246561549633
0.00033127046658848724   -0.019081539393918098   -0.002096897426189501
-0.00441034294258944   -0.019193159100265474   -0.0021147690858998895
-0.004423639723081666   -0.019137615908785155   -0.0021952180468384004
-0.0030789208234700566   -0.010025426566395365   -0.0015889246561549633
0.00033127046658848724   -0.019081539393918098   -0.002096897426189501
-0.004423639723081666   -0.019137615908785155   -0.0021952180468384004
0.00039061363142412284   -0.009919870872546087   -0.0015910002207121842
-0.0030789208234700566   -0.010025426566395365   -0.0015889246561549633
-0.00441034294258944   -0.019193159100265474   -0.0021147690858998895
0.0004126577168889617   -0.009916706152590264   -0.0015953093764247827
-0.0030435015905858685   -0.01002413177499248   -0.0015044066487415702
-0.00441034294258944   -0.019193159100265474   -0.0021147690858998895
0.00033127046658848724   -0.019081539393918098   -0.002096897426189501
0.0004126577168889617   -0.009916706152590264   -0.0015953093764247827
0.0003404260754105157   -0.01904533120224805   -0.0020978492760535604
-0.0030435015905858685   -0.01002413177499248   -0.0015044066487415702
0.00043632830859101265   -0.009857022759294353   -0.001611145288788395
0.0003404260754105157   -0.01904533120224805   -0.0020978492760535604
0.0004126577168889617   -0.009916706152590264   -0.0015953093764247827
-0.0030435015905858685   -0.01002413177499248   -0.0015044066487415702
0.0003404260754105157   -0.01904533120224805   -0.0020978492760535604
-0.004388291702074354   -0.019210469281682654   -0.0020454519598751436
-0.00441034294258944   -0.019193159100265474   -0.0021147690858998895
-0.0030435015905858685   -0.01002413177499248   -0.0015044066487415702
0.0003404260754105157   -0.01904533120224805   -0.0020978492760535604
-0.00441034294258944   -0.019193159100265474   -0.0021147690858998895
0.0004126577168889617   -0.009916706152590264   -0.0015953093764247827
0.00035772127296330433   -0.009868191840172527   -0.001598038053003326
0.0002983847598458297   -0.019036186284795913   -0.0021289372760338993
0.004052824478830294   -0.010029148742326775   -0.0015070103573861546
0.00039061363142412284   -0.009919870872546087   -0.0015910002207121842
0.0002983847598458297   -0.019036186284795913   -0.0021289372760338993
0.005233122103717018   -0.019144163260805667   -0.002065041662997506
0.004052824478830294   -0.010029148742326775   -0.0015070103573861546
0.005250616069255428   -0.01913820137070952   -0.0021152027223183883
0.00039061363142412284   -0.009919870872546087   -0.0015910002207121842
0.00407129609954743   -0.010028727018844668   -0.0016032394075655286
0.005250616069255428   -0.01913820137070952   -0.0021152027223183883
0.004052824478830294   -0.010029148742326775   -0.0015070103573861546
0.00039061363142412284   -0.009919870872546087   -0.0015910002207121842
0.005250616069255428   -0.01913820137070952   -0.0021152027223183883
0.00031849078647465064   -0.019078297788364514   -0.0021074807180465707
0.0002983847598458297   -0.019036186284795913   -0.0021289372760338993
0.00039061363142412284   -0.009919870872546087   -0.0015910002207121842
0.005250616069255428   -0.01913820137070952   -0.0021152027223183883
0.0002983847598458297   -0.019036186284795913   -0.0021289372760338993
0.004052824478830294   -0.010029148742326775   -0.0015070103573861546
0.00039061363142412284   -0.009919870872546087   -0.0015910002207121842
0.00031849078647465064   -0.019078297788364514   -0.0021074807180465707
0.00407129609954743   -0.010028727018844668   -0.0016032394075655286
0.0004126577168889617   -0.009916706152590264   -0.0015953093764247827
0.00031849078647465064   -0.019078297788364514   -0.0021074807180465707
0.005250616069255428   -0.01913820137070952   -0.0021152027223183883
0.00407129609954743   -0.010028727018844668   -0.0016032394075655286
0.00523699538362456   -0.019094194730382284   -0.0021754380817898783
0.0004126577168889617   -0.009916706152590264   -0.0015953093764247827
0.004052202537655018   -0.009974519619091828   -0.0017123065514701014
0.00523699538362456   -0.019094194730382284   -0.0021754380817898783
0.00407129609954743   -0.010028727018844668   -0.0016032394075655286
0.0004126577168889617   -0.009916706152590264   -0.0015953093764247827
0.00523699538362456   -0.019094194730382284   -0.0021754380817898783
0.00033127046658848724   -0.019081539393918098   -0.002096897426189501
0.00031849078647465064   -0.019078297788364514   -0.0021074807180465707
0.0004126577168889617   -0.009916706152590264   -0.0015953093764247827
0.00523699538362456   -0.019094194730382284   -0.0021754380817898783
0.00031849078647465064   -0.019078297788364514   -0.0021074807180465707
0.00407129609954743   -0.010028727018844668   -0.0016032394075655286
0.0004126577168889617   -0.009916706152590264   -0.0015953093764247827
0.00033127046658848724   -0.019081539393918098   -0.002096897426189501
0.004052202537655018   -0.009974519619091828   -0.0017123065514701014
0.00043632830859101265   -0.009857022759294353   -0.001611145288788395
0.00033127046658848724   -0.019081539393918098   -0.002096897426189501
0.00523699538362456   -0.019094194730382284   -0.0021754380817898783
0.004052202537655018   -0.009974519619091828   -0.0017123065514701014
0.00521677371762423   -0.01900273217227319   -0.002246940452668494
0.00043632830859101265   -0.009857022759294353   -0.001611145288788395
0.004041159120562149   -0.009851693455388607   -0.001830177441642447
0.00521677371762423   -0.01900273217227319   -0.002246940452668494
0.004052202537655018   -0.009974519619091828   -0.0017123065514701014
0.00043632830859101265   -0.009857022759294353   -0.001611145288788395
0.00521677371762423   -0.01900273217227319   -0.002246940452668494
0.0003404260754105157   -0.01904533120224805   -0.0020978492760535604
0.00033127046658848724   -0.019081539393918098   -0.002096897426189501
0.00043632830859101265   -0.009857022759294353   -0.001611145288788395
0.00521677371762423   -0.01900273217227319   -0.002246940452668494
0.00033127046658848724   -0.019081539393918098   -0.002096897426189501
0.004052202537655018   -0.009974519619091828   -0.0017123065514701014
0.004052824478830294   -0.010029148742326775   -0.0015070103573861546
0.005233122103717018   -0.019144163260805667   -0.002065041662997506
0.008511397772584245   -0.010328377036517367   -0.0014824245731641964
0.00407129609954743   -0.010028727018844668   -0.0016032394075655286
0.005233122103717018   -0.019144163260805667   -0.002065041662997506
0.010852882059983719   -0.01934007095189065   -0.0020661425841484427
0.008511397772584245   -0.010328377036517367   -0.0014824245731641964
0.010758035957688013   -0.019306424423851325   -0.0021971664421102945
0.00407129609954743   -0.010028727018844668   -0.0016032394075655286
0.00833784005330323   -0.01030025043950822   -0.0016988787232919502
0.010758035957688013   -0.019306424423851325   -0.0021971664421102945
0.008511397772584245   -0.010328377036517367   -0.0014824245731641964
0.00407129609954743   -0.010028727018844668   -0.0016032394075655286
0.010758035957688013   -0.019306424423851325   -0.0021971664421102945
0.005250616069255428   -0.01913820137070952   -0.0021152027223183883
0.005233122103717018   -0.019144163260805667   -0.002065041662997506
0.00407129609954743   -0.010028727018844668   -0.0016032394075655286
0.010758035957688013   -0.019306424423851325   -0.0021971664421102945
0.005233122103717018   -0.019144163260805667   -0.002065041662997506
0.008511397772584245   -0.010328377036517367   -0.0014824245731641964
0.00407129609954743   -0.010028727018844668   -0.0016032394075655286
0.005250616069255428   -0.01913820137070952   -0.0021152027223183883
0.00833784005330323   -0.01030025043950822   -0.0016988787232919502
0.004052202537655018   -0.009974519619091828   -0.0017123065514701014
0.005250616069255428   -0.01913820137070952   -0.0021152027223183883
0.010758035957688013   -0.019306424423851325   -0.0021971664421102945
0.00833784005330323   -0.01030025043950822   -0.0016988787232919502
0.010663420715295836   -0.019238653953463972   -0.0023463565652817498
0.004052202537655018   -0.009974519619091828   -0.0017123065514701014
0.00818276837741717   -0.01021666752920684   -0.0019423482494712596
0.010663420715295836   -0.019238653953463972   -0.0023463565652817498
0.00833784005330323   -0.01030025043950822   -0.0016988787232919502
0.004052202537655018   -0.009974519619091828   -0.0017123065514701014
0.010663420715295836   -0.019238653953463972   -0.0023463565652817498
0.00523699538362456   -0.019094194730382284   -0.0021754380817898783
0.005250616069255428   -0.01913820137070952   -0.0021152027223183883
0.004052202537655018   -0.009974519619091828   -0.0017123065514701014
0.010663420715295836   -0.019238653953463972   -0.0023463565652817498
0.005250616069255428   -0.01913820137070952   -0.0021152027223183883
0.00833784005330323   -0.01030025043950822   -0.0016988787232919502
0.004052202537655018   -0.009974519619091828   -0.0017123065514701014
0.00523699538362456   -0.019094194730382284   -0.0021754380817898783
0.00818276837741717   -0.01021666752920684   -0.0019423482494712596
0.004041159120562149   -0.009851693455388607   -0.001830177441642447
0.00523699538362456   -0.019094194730382284   -0.0021754380817898783
0.010663420715295836   -0.019238653953463972   -0.0023463565652817498
0.00818276837741717   -0.01021666752920684   -0.0019423482494712596
0.010495608500339832   -0.019096412027241806   -0.0025137321766221924
0.004041159120562149   -0.009851693455388607   -0.001830177441642447
0.007950567626051694   -0.01003062056772331   -0.0021957687000879636
0.010495608500339832   -0.019096412027241806   -0.0025137321766221924
0.00818276837741717   -0.01021666752920684   -0.0019423482494712596
0.004041159120562149   -0.009851693455388607   -0.001830177441642447
0.010495608500339832   -0.019096412027241806   -0.0025137321766221924
0.00521677371762423   -0.01900273217227319   -0.002246940452668494
0.00523699538362456   -0.019094194730382284   -0.0021754380817898783
0.004041159120562149   -0.009851693455388607   -0.001830177441642447
0.010495608500339832   -0.019096412027241806   -0.0025137321766221924
0.00523699538362456   -0.019094194730382284   -0.0021754380817898783
0.00818276837741717   -0.01021666752920684   -0.0019423482494712596
-0.01448128232775697   -0.019430666269310715   -0.00290788177780712
-0.017294669432360524   -0.030188521997797292   -0.0031009929350096213
-0.00931033034750165   -0.01917199594064413   -0.0025414346445882634
-0.014739211533885433   -0.019632740461362347   -0.002654728626118732
-0.017294669432360524   -0.030188521997797292   -0.0031009929350096213
-0.011225487213478928   -0.030023900834617326   -0.0028021550152814005
-0.00931033034750165   -0.01917199594064413   -0.0025414346445882634
-0.0112392464335422   -0.030151125007837634   -0.0026860698663810495
-0.014739211533885433   -0.019632740461362347   -0.002654728626118732
-0.009331051583939355   -0.0193198675391026   -0.0023792816926258005
-0.0112392464335422   -0.030151125007837634   -0.0026860698663810495
-0.00931033034750165   -0.01917199594064413   -0.0025414346445882634
-0.014739211533885433   -0.019632740461362347   -0.002654728626118732
-0.0112392464335422   -0.030151125007837634   -0.0026860698663810495
-0.017468562982985016   -0.03036062768970031   -0.0029328436067266156
-0.017294669432360524   -0.030188521997797292   -0.0031009929350096213
-0.014739211533885433   -0.019632740461362347   -0.002654728626118732
-0.0112392464335422   -0.030151125007837634   -0.0026860698663810495
-0.017294669432360524   -0.030188521997797292   -0.0031009929350096213
-0.00931033034750165   -0.01917199594064413   -0.0025414346445882634
-0.014739211533885433   -0.019632740461362347   -0.002654728626118732
-0.017468562982985016   -0.03036062768970031   -0.0029328436067266156
-0.009331051583939355   -0.0193198675391026   -0.0023792816926258005
-0.014901954427215654   -0.019759434807184572   -0.0024187625575019804
-0.017468562982985016   -0.03036062768970031   -0.0029328436067266156
-0.0112392464335422   -0.030151125007837634   -0.0026860698663810495
-0.009331051583939355   -0.0193198675391026   -0.0023792816926258005
-0.011249144737888751   -0.030251969472039012   -0.002581548256267272
-0.014901954427215654   -0.019759434807184572   -0.0024187625575019804
-0.009355414943503013   -0.01942275506219863   -0.0022288529540059436
-0.011249144737888751   -0.030251969472039012   -0.002581548256267272
-0.009331051583939355   -0.0193198675391026   -0.0023792816926258005
-0.014901954427215654   -0.019759434807184572   -0.0024187625575019804
-0.011249144737888751   -0.030251969472039012   -0.002581548256267272
-0.017568467710990215   -0.030482374890329907   -0.0027808188420175364
-0.017468562982985016   -0.03036062768970031   -0.0029328436067266156
-0.014901954427215654   -0.019759434807184572   -0.0024187625575019804
-0.011249144737888751   -0.030251969472039012   -0.002581548256267272
-0.017468562982985016   -0.03036062768970031   -0.0029328436067266156
-0.009331051583939355   -0.0193198675391026   -0.0023792816926258005
-0.014901954427215654   -0.019759434807184572   -0.0024187625575019804
-0.017568467710990215   -0.030482374890329907   -0.0027808188420175364
-0.009355414943503013   -0.01942275506219863   -0.0022288529540059436
-0.015087123097992441   -0.019850506047146277   -0.002201590599619544
-0.017568467710990215   -0.030482374890329907   -0.0027808188420175364
-0.011249144737888751   -0.030251969472039012   -0.002581548256267272
-0.009355414943503013   -0.01942275506219863   -0.0022288529540059436
-0.011226130003014619   -0.03033479529244324   -0.0024870545965345672
-0.015087123097992441   -0.019850506047146277   -0.002201590599619544
-0.009338203188104053   -0.01949041782969224   -0.0020876513679773524
-0.011226130003014619   -0.03033479529244324   -0.0024870545965345672
-0.009355414943503013   -0.01942275506219863   -0.0022288529540059436
-0.015087123097992441   -0.019850506047146277   -0.002201590599619544
-0.011226130003014619   -0.03033479529244324   -0.0024870545965345672
-0.01767139548031139   -0.03059147214157256   -0.002646833871902853
-0.017568467710990215   -0.030482374890329907   -0.0027808188420175364
-0.015087123097992441   -0.019850506047146277   -0.002201590599619544
-0.011226130003014619   -0.03033479529244324   -0.0024870545965345672
-0.017568467710990215   -0.030482374890329907   -0.0027808188420175364
-0.009355414943503013   -0.01942275506219863   -0.0022288529540059436
-0.00931033034750165   -0.01917199594064413   -0.0025414346445882634
-0.011225487213478928   -0.030023900834617326   -0.0028021550152814005
-0.0044344367581865465   -0.019043045602981857   -0.00228683292049872
-0.009331051583939355   -0.0193198675391026   -0.0023792816926258005
-0.011225487213478928   -0.030023900834617326   -0.0028021550152814005
-0.005535576838380221   -0.029938836574510096   -0.0025952199336792625
-0.0044344367581865465   -0.019043045602981857   -0.00228683292049872
-0.005525310166337181   -0.03001868404426177   -0.0025186042721839093
-0.009331051583939355   -0.0193198675391026   -0.0023792816926258005
-0.004423639723081666   -0.019137615908785155   -0.0021952180468384004
-0.005525310166337181   -0.03001868404426177   -0.0025186042721839093
-0.0044344367581865465   -0.019043045602981857   -0.00228683292049872
-0.009331051583939355   -0.0193198675391026   -0.0023792816926258005
-0.005525310166337181   -0.03001868404426177   -0.0025186042721839093
-0.0112392464335422   -0.030151125007837634   -0.0026860698663810495
-0.011225487213478928   -0.030023900834617326   -0.0028021550152814005
-0.009331051583939355   -0.0193198675391026   -0.0023792816926258005
-0.005525310166337181   -0.03001868404426177   -0.0025186042721839093
-0.011225487213478928   -0.030023900834617326   -0.0028021550152814005
-0.0044344367581865465   -0.019043045602981857   -0.00228683292049872
-0.009331051583939355   -0.0193198675391026   -0.0023792816926258005
-0.0112392464335422   -0.030151125007837634   -0.0026860698663810495
-0.004423639723081666   -0.019137615908785155   -0.0021952180468384004
-0.009355414943503013   -0.01942275506219863   -0.0022288529540059436
-0.0112392464335422   -0.030151125007837634   -0.0026860698663810495
-0.005525310166337181   -0.03001868404426177   -0.0025186042721839093
-0.004423639723081666   -0.019137615908785155   -0.0021952180468384004
-0.005511190999104081   -0.030076427601808828   -0.0024533795555611525
-0.009355414943503013   -0.01942275506219863   -0.0022288529540059436
-0.00441034294258944   -0.019193159100265474   -0.0021147690858998895
-0.005511190999104081   -0.030076427601808828   -0.0024533795555611525
-0.004423639723081666   -0.019137615908785155   -0.0021952180468384004
-0.009355414943503013   -0.01942275506219863   -0.0022288529540059436
-0.005511190999104081   -0.030076427601808828   -0.0024533795555611525
-0.011249144737888751   -0.030251969472039012   -0.002581548256267272
-0.0112392464335422   -0.030151125007837634   -0.0026860698663810495
-0.009355414943503013   -0.01942275506219863   -0.0022288529540059436
-0.005511190999104081   -0.030076427601808828   -0.0024533795555611525
-0.0112392464335422   -0.030151125007837634   -0.0026860698663810495
-0.004423639723081666   -0.019137615908785155   -0.0021952180468384004
-0.009355414943503013   -0.01942275506219863   -0.0022288529540059436
-0.011249144737888751   -0.030251969472039012   -0.002581548256267272
-0.00441034294258944   -0.019193159100265474   -0.0021147690858998895
-0.009338203188104053   -0.01949041782969224   -0.0020876513679773524
-0.011249144737888751   -0.030251969472039012   -0.002581548256267272
-0.005511190999104081   -0.030076427601808828   -0.0024533795555611525
-0.00441034294258944   -0.019193159100265474   -0.0021147690858998895
-0.005490008823127844   -0.030112445506153565   -0.0023997336667898567
-0.009338203188104053   -0.01949041782969224   -0.0020876513679773524
-0.004388291702074354   -0.019210469281682654   -0.0020454519598751436
-0.005490008823127844   -0.030112445506153565   -0.0023997336667898567
-0.00441034294258944   -0.019193159100265474   -0.0021147690858998895
-0.009338203188104053   -0.01949041782969224   -0.0020876513679773524
-0.005490008823127844   -0.030112445506153565   -0.0023997336667898567
-0.011226130003014619   -0.03033479529244324   -0.0024870545965345672
-0.011249144737888751   -0.030251969472039012   -0.002581548256267272
-0.009338203188104053   -0.01949041782969224   -0.0020876513679773524
-0.005490008823127844   -0.030112445506153565   -0.0023997336667898567
-0.011249144737888751   -0.030251969472039012   -0.002581548256267272
-0.00441034294258944   -0.019193159100265474   -0.0021147690858998895
-0.0044344367581865465   -0.019043045602981857   -0.00228683292049872
-0.005535576838380221   -0.029938836574510096   -0.0025952199336792625
0.0002983847598458297   -0.019036186284795913   -0.0021289372760338993
-0.004423639723081666   -0.019137615908785155   -0.0021952180468384004
-0.005535576838380221   -0.029938836574510096   -0.0025952199336792625
-1.1885897716545203e-07   -0.029924219782187164   -0.0024746603092171224
0.0002983847598458297   -0.019036186284795913   -0.0021289372760338993
1.9428086685654946e-05   -0.029956442593549626   -0.0024378180149547037
-0.004423639723081666   -0.019137615908785155   -0.0021952180468384004
0.00031849078647465064   -0.019078297788364514   -0.0021074807180465707
1.9428086685654946e-05   -0.029956442593549626   -0.0024378180149547037
0.0002983847598458297   -0.019036186284795913   -0.0021289372760338993
-0.004423639723081666   -0.019137615908785155   -0.0021952180468384004
1.9428086685654946e-05   -0.029956442593549626   -0.0024378180149547037
-0.005525310166337181   -0.03001868404426177   -0.0025186042721839093
-0.005535576838380221   -0.029938836574510096   -0.0025952199336792625
-0.004423639723081666   -0.019137615908785155   -0.0021952180468384004
1.9428086685654946e-05   -0.029956442593549626   -0.0024378180149547037
-0.005535576838380221   -0.029938836574510096   -0.0025952199336792625
0.0002983847598458297   -0.019036186284795913   -0.0021289372760338993
-0.004423639723081666   -0.019137615908785155   -0.0021952180468384004
-0.005525310166337181   -0.03001868404426177   -0.0025186042721839093
0.00031849078647465064   -0.019078297788364514   -0.0021074807180465707
-0.00441034294258944   -0.019193159100265474   -0.0021147690858998895
-0.005525310166337181   -0.03001868404426177   -0.0025186042721839093
1.9428086685654946e-05   -0.029956442593549626   -0.0024378180149547037
0.00031849078647465064   -0.019078297788364514   -0.0021074807180465707
3.3270218592918924e-05   -0.029966409386763062   -0.002412221443106814
-0.00441034294258944   -0.019193159100265474   -0.0021147690858998895
0.00033127046658848724   -0.019081539393918098   -0.002096897426189501
3.3270218592918924e-05   -0.029966409386763062   -0.002412221443106814
0.00031849078647465064   -0.019078297788364514   -0.0021074807180465707
-0.00441034294258944   -0.019193159100265474   -0.0021147690858998895
3.3270218592918924e-05   -0.029966409386763062   -0.002412221443106814
-0.005511190999104081   -0.030076427601808828   -0.0024533795555611525
-0.005525310166337181   -0.03001868404426177   -0.0025186042721839093
-0.00441034294258944   -0.019193159100265474   -0.0021147690858998895
3.3270218592918924e-05   -0.029966409386763062   -0.002412221443106814
-0.005525310166337181   -0.03001868404426177   -0.0025186042721839093
0.00031849078647465064   -0.019078297788364514   -0.0021074807180465707
-0.00441034294258944   -0.019193159100265474   -0.0021147690858998895
-0.005511190999104081   -0.030076427601808828   -0.0024533795555611525
0.00033127046658848724   -0.019081539393918098   -0.002096897426189501
-0.004388291702074354   -0.019210469281682654   -0.0020454519598751436
-0.005511190999104081   -0.030076427601808828   -0.0024533795555611525
3.3270218592918924e-05   -0.029966409386763062   -0.002412221443106814
0.00033127046658848724   -0.019081539393918098   -0.002096897426189501
4.196105161018676e-05   -0.029953815192372172   -0.0023983689610259677
-0.004388291702074354   -0.019210469281682654   -0.0020454519598751436
0.0003404260754105157   -0.01904533120224805   -0.0020978492760535604
4.196105161018676e-05   -0.029953815192372172   -0.0023983689610259677
0.00033127046658848724   -0.019081539393918098   -0.002096897426189501
-0.004388291702074354   -0.019210469281682654   -0.0020454519598751436
4.196105161018676e-05   -0.029953815192372172   -0.0023983689610259677
-0.005490008823127844   -0.030112445506153565   -0.0023997336667898567
-0.005511190999104081   -0.030076427601808828   -0.0024533795555611525
-0.004388291702074354   -0.019210469281682654   -0.0020454519598751436
4.196105161018676e-05   -0.029953815192372172   -0.0023983689610259677
-0.005511190999104081   -0.030076427601808828   -0.0024533795555611525
0.00033127046658848724   -0.019081539393918098   -0.002096897426189501
0.0002983847598458297   -0.019036186284795913   -0.0021289372760338993
-1.1885897716545203e-07   -0.029924219782187164   -0.0024746603092171224
0.005233122103717018   -0.019144163260805667   -0.002065041662997506
0.00031849078647465064   -0.019078297788364514   -0.0021074807180465707
-1.1885897716545203e-07   -0.029924219782187164   -0.0024746603092171224
0.0057256782955806855   -0.029974038302663465   -0.0024399808227520783
0.005233122103717018   -0.019144163260805667   -0.002065041662997506
0.005749634962365838   -0.02996141273190164   -0.00244375211604755
0.00031849078647465064   -0.019078297788364514   -0.0021074807180465707
0.005250616069255428   -0.01913820137070952   -0.0021152027223183883
0.005749634962365838   -0.02996141273190164   -0.00244375211604755
0.005233122103717018   -0.019144163260805667   -0.002065041662997506
0.00031849078647465064   -0.019078297788364514   -0.0021074807180465707
0.005749634962365838   -0.02996141273190164   -0.00244375211604755
1.9428086685654946e-05   -0.029956442593549626   -0.0024378180149547037
-1.1885897716545203e-07   -0.029924219782187164   -0.0024746603092171224
0.00031849078647465064   -0.019078297788364514   -0.0021074807180465707
0.005749634962365838   -0.02996141273190164   -0.00244375211604755
-1.1885897716545203e-07   -0.029924219782187164   -0.0024746603092171224
0.005233122103717018   -0.019144163260805667   -0.002065041662997506
0.00031849078647465064   -0.019078297788364514   -0.0021074807180465707
1.9428086685654946e-05   -0.029956442593549626   -0.0024378180149547037
0.005250616069255428   -0.01913820137070952   -0.0021152027223183883
0.00033127046658848724   -0.019081539393918098   -0.002096897426189501
1.9428086685654946e-05   -0.029956442593549626   -0.0024378180149547037
0.005749634962365838   -0.02996141273190164   -0.00244375211604755
0.005250616069255428   -0.01913820137070952   -0.0021152027223183883
0.005751220088380707   -0.029928225207182815   -0.002458164386084561
0.00033127046658848724   -0.019081539393918098   -0.002096897426189501
0.00523699538362456   -0.019094194730382284   -0.0021754380817898783
0.005751220088380707   -0.029928225207182815   -0.002458164386084561
0.005250616069255428   -0.01913820137070952   -0.0021152027223183883
0.00033127046658848724   -0.019081539393918098   -0.002096897426189501
0.005751220088380707   -0.029928225207182815   -0.002458164386084561
3.3270218592918924e-05   -0.029966409386763062   -0.002412221443106814
1.9428086685654946e-05   -0.029956442593549626   -0.0024378180149547037
0.00033127046658848724   -0.019081539393918098   -0.002096897426189501
0.005751220088380707   -0.029928225207182815   -0.002458164386084561
1.9428086685654946e-05   -0.029956442593549626   -0.0024378180149547037
0.005250616069255428   -0.01913820137070952   -0.0021152027223183883
0.00033127046658848724   -0.019081539393918098   -0.002096897426189501
3.3270218592918924e-05   -0.029966409386763062   -0.002412221443106814
0.00523699538362456   -0.019094194730382284   -0.0021754380817898783
0.0003404260754105157   -0.01904533120224805   -0.0020978492760535604
3.3270218592918924e-05   -0.029966409386763062   -0.002412221443106814
0.005751220088380707   -0.029928225207182815   -0.002458164386084561
0.00523699538362456   -0.019094194730382284   -0.0021754380817898783
0.005738433877290934   -0.029866160498138884   -0.0024836220311284575
0.0003404260754105157   -0.01904533120224805   -0.0020978492760535604
0.00521677371762423   -0.01900273217227319   -0.002246940452668494
0.005738433877290934   -0.029866160498138884   -0.0024836220311284575
0.00523699538362456   -0.019094194730382284   -0.0021754380817898783
0.0003404260754105157   -0.01904533120224805   -0.0020978492760535604
0.005738433877290934   -0.029866160498138884   -0.0024836220311284575
4.196105161018676e-05   -0.029953815192372172   -0.0023983689610259677
3.3270218592918924e-05   -0.029966409386763062   -0.002412221443106814
0.0003404260754105157   -0.01904533120224805   -0.0020978492760535604
0.005738433877290934   -0.029866160498138884   -0.0024836220311284575
3.3270218592918924e-05   -0.029966409386763062   -0.002412221443106814
0.00523699538362456   -0.019094194730382284   -0.0021754380817898783
0.005233122103717018   -0.019144163260805667   -0.002065041662997506
0.0057256782955806855   -0.029974038302663465   -0.0024399808227520783
0.010852882059983719   -0.01934007095189065   -0.0020661425841484427
0.005250616069255428   -0.01913820137070952   -0.0021152027223183883
0.0057256782955806855   -0.029974038302663465   -0.0024399808227520783
0.012048393440789722   -0.03006563634839859   -0.0024723834647185205
0.010852882059983719   -0.01934007095189065   -0.0020661425841484427
0.012036905294648294   -0.0300226460382648   -0.002520005160877646
0.005250616069255428   -0.01913820137070952   -0.0021152027223183883
0.010758035957688013   -0.019306424423851325   -0.0021971664421102945
0.012036905294648294   -0.0300226460382648   -0.002520005160877646
0.010852882059983719   -0.01934007095189065   -0.0020661425841484427
0.005250616069255428   -0.01913820137070952   -0.0021152027223183883
0.012036905294648294   -0.0300226460382648   -0.002520005160877646
0.005749634962365838   -0.02996141273190164   -0.00244375211604755
0.0057256782955806855   -0.029974038302663465   -0.0024399808227520783
0.005250616069255428   -0.01913820137070952   -0.0021152027223183883
0.012036905294648294   -0.0300226460382648   -0.002520005160877646
0.0057256782955806855   -0.029974038302663465   -0.0024399808227520783
0.010852882059983719   -0.01934007095189065   -0.0020661425841484427
0.005250616069255428   -0.01913820137070952   -0.0021152027223183883
0.005749634962365838   -0.02996141273190164   -0.00244375211604755
0.010758035957688013   -0.019306424423851325   -0.0021971664421102945
0.00523699538362456   -0.019094194730382284   -0.0021754380817898783
0.005749634962365838   -0.02996141273190164   -0.00244375211604755
0.012036905294648294   -0.0300226460382648   -0.002520005160877646
0.010758035957688013   -0.019306424423851325   -0.0021971664421102945
0.012006436841737328   -0.02996848493437046   -0.0025848893854280228
0.00523699538362456   -0.019094194730382284   -0.0021754380817898783
0.010663420715295836   -0.019238653953463972   -0.0023463565652817498
0.012006436841737328   -0.02996848493437046   -0.0025848893854280228
0.010758035957688013   -0.019306424423851325   -0.0021971664421102945
0.00523699538362456   -0.019094194730382284   -0.0021754380817898783
0.012006436841737328   -0.02996848493437046   -0.0025848893854280228
0.005751220088380707   -0.029928225207182815   -0.002458164386084561
0.005749634962365838   -0.02996141273190164   -0.00244375211604755
0.00523699538362456   -0.019094194730382284   -0.0021754380817898783
0.012006436841737328   -0.02996848493437046   -0.0025848893854280228
0.005749634962365838   -0.02996141273190164   -0.00244375211604755
0.010758035957688013   -0.019306424423851325   -0.0021971664421102945
0.00523699538362456   -0.019094194730382284   -0.0021754380817898783
0.005751220088380707   -0.029928225207182815   -0.002458164386084561
0.010663420715295836   -0.019238653953463972   -0.0023463565652817498
0.00521677371762423   -0.01900273217227319   -0.002246940452668494
0.005751220088380707   -0.029928225207182815   -0.002458164386084561
0.012006436841737328   -0.02996848493437046   -0.0025848893854280228
0.010663420715295836   -0.019238653953463972   -0.0023463565652817498
0.011923850801799536   -0.029865168962203942   -0.002666911002870258
0.00521677371762423   -0.01900273217227319   -0.002246940452668494
0.010495608500339832   -0.019096412027241806   -0.0025137321766221924
0.011923850801799536   -0.029865168962203942   -0.002666911002870258
0.010663420715295836   -0.019238653953463972   -0.0023463565652817498
0.00521677371762423   -0.01900273217227319   -0.002246940452668494
0.011923850801799536   -0.029865168962203942   -0.002666911002870258
0.005738433877290934   -0.029866160498138884   -0.0024836220311284575
0.005751220088380707   -0.029928225207182815   -0.002458164386084561
0.00521677371762423   -0.01900273217227319   -0.002246940452668494
0.011923850801799536   -0.029865168962203942   -0.002666911002870258
0.005751220088380707   -0.029928225207182815   -0.002458164386084561
0.010663420715295836   -0.019238653953463972   -0.0023463565652817498
-0.017294669432360524   -0.030188521997797292   -0.0031009929350096213
-0.01899869633776759   -0.04190011448837496   -0.003157576853783182
-0.011225487213478928   -0.030023900834617326   -0.0028021550152814005
-0.017468562982985016   -0.03036062768970031   -0.0029328436067266156
-0.01899869633776759   -0.04190011448837496   -0.003157576853783182
-0.01248319918496442   -0.0418329916827552   -0.002919487400469671
-0.011225487213478928   -0.030023900834617326   -0.0028021550152814005
-0.012478431999831016   -0.0419415312239698   -0.0028482734220274916
-0.017468562982985016   -0.03036062768970031   -0.0029328436067266156
-0.0112392464335422   -0.030151125007837634   -0.0026860698663810495
-0.012478431999831016   -0.0419415312239698   -0.0028482734220274916
-0.011225487213478928   -0.030023900834617326   -0.0028021550152814005
-0.017468562982985016   -0.03036062768970031   -0.0029328436067266156
-0.012478431999831016   -0.0419415312239698   -0.0028482734220274916
-0.01908006036612178   -0.04204601094955567   -0.003070824448769532
-0.01899869633776759   -0.04190011448837496   -0.003157576853783182
-0.017468562982985016   -0.03036062768970031   -0.0029328436067266156
-0.012478431999831016   -0.0419415312239698   -0.0028482734220274916
-0.01899869633776759   -0.04190011448837496   -0.003157576853783182
-0.011225487213478928   -0.030023900834617326   -0.0028021550152814005
-0.017468562982985016   -0.03036062768970031   -0.0029328436067266156
-0.01908006036612178   -0.04204601094955567   -0.003070824448769532
-0.0112392464335422   -0.030151125007837634   -0.0026860698663810495
-0.017568467710990215   -0.030482374890329907   -0.0027808188420175364
-0.01908006036612178   -0.04204601094955567   -0.003070824448769532
-0.012478431999831016   -0.0419415312239698   -0.0028482734220274916
-0.0112392464335422   -0.030151125007837634   -0.0026860698663810495
-0.012461897379903464   -0.04204164318162676   -0.002788883720562042
-0.017568467710990215   -0.030482374890329907   -0.0027808188420175364
-0.011249144737888751   -0.030251969472039012   -0.002581548256267272
-0.012461897379903464   -0.04204164318162676   -0.002788883720562042
-0.0112392464335422   -0.030151125007837634   -0.0026860698663810495
-0.017568467710990215   -0.030482374890329907   -0.0027808188420175364
-0.012461897379903464   -0.04204164318162676   -0.002788883720562042
-0.01910613263117114   -0.04216498842021577   -0.00300109154848028
-0.01908006036612178   -0.04204601094955567   -0.003070824448769532
-0.017568467710990215   -0.030482374890329907   -0.0027808188420175364
-0.012461897379903464   -0.04204164318162676   -0.002788883720562042
-0.01908006036612178   -0.04204601094955567   -0.003070824448769532
-0.0112392464335422   -0.030151125007837634   -0.0026860698663810495
-0.017568467710990215   -0.030482374890329907   -0.0027808188420175364
-0.01910613263117114   -0.04216498842021577   -0.00300109154848028
-0.011249144737888751   -0.030251969472039012   -0.002581548256267272
-0.01767139548031139   -0.03059147214157256   -0.002646833871902853
-0.01910613263117114   -0.04216498842021577   -0.00300109154848028
-0.012461897379903464   -0.04204164318162676   -0.002788883720562042
-0.011249144737888751   -0.030251969472039012   -0.002581548256267272
-0.012420851815735354   -0.04214095719849834   -0.0027404910937511317
-0.01767139548031139   -0.03059147214157256   -0.002646833871902853
-0.011226130003014619   -0.03033479529244324   -0.0024870545965345672
-0.012420851815735354   -0.04214095719849834   -0.0027404910937511317
-0.011249144737888751   -0.030251969472039012   -0.002581548256267272
-0.01767139548031139   -0.03059147214157256   -0.002646833871902853
-0.012420851815735354   -0.04214095719849834   -0.0027404910937511317
-0.019115039260357278   -0.042294181802009743   -0.002949838444673434
-0.01910613263117114   -0.04216498842021577   -0.00300109154848028
-0.01767139548031139   -0.03059147214157256   -0.002646833871902853
-0.012420851815735354   -0.04214095719849834   -0.0027404910937511317
-0.01910613263117114   -0.04216498842021577   -0.00300109154848028
-0.011249144737888751   -0.030251969472039012   -0.002581548256267272
-0.011225487213478928   -0.030023900834617326   -0.0028021550152814005
-0.01248319918496442   -0.0418329916827552   -0.002919487400469671
-0.005535576838380221   -0.029938836574510096   -0.0025952199336792625
-0.0112392464335422   -0.030151125007837634   -0.0026860698663810495
-0.01248319918496442   -0.0418329916827552   -0.002919487400469671
-0.006430712404687856   -0.04179450433050524   -0.002757391962051873
-0.005535576838380221   -0.029938836574510096   -0.0025952199336792625
-0.0064082963096268215   -0.04186021331486888   -0.0026953310798359677
-0.0112392464335422   -0.030151125007837634   -0.0026860698663810495
-0.005525310166337181   -0.03001868404426177   -0.0025186042721839093
-0.0064082963096268215   -0.04186021331486888   -0.0026953310798359677
-0.005535576838380221   -0.029938836574510096   -0.0025952199336792625
-0.0112392464335422   -0.030151125007837634   -0.0026860698663810495
-0.0064082963096268215   -0.04186021331486888   -0.0026953310798359677
-0.012478431999831016   -0.0419415312239698   -0.0028482734220274916
-0.01248319918496442   -0.0418329916827552   -0.002919487400469671
-0.0112392464335422   -0.030151125007837634   -0.0026860698663810495
-0.0064082963096268215   -0.04186021331486888   -0.0026953310798359677
-0.01248319918496442   -0.0418329916827552   -0.002919487400469671
-0.005535576838380221   -0.029938836574510096   -0.0025952199336792625
-0.0112392464335422   -0.030151125007837634   -0.0026860698663810495
-0.012478431999831016   -0.0419415312239698   -0.0028482734220274916
-0.005525310166337181   -0.03001868404426177   -0.0025186042721839093
-0.011249144737888751   -0.030251969472039012   -0.002581548256267272
-0.012478431999831016   -0.0419415312239698   -0.0028482734220274916
-0.0064082963096268215   -0.04186021331486888   -0.0026953310798359677
-0.005525310166337181   -0.03001868404426177   -0.0025186042721839093
-0.006380761812352633   -0.04192050721248705   -0.002645105012915561
-0.011249144737888751   -0.030251969472039012   -0.002581548256267272
-0.005511190999104081   -0.030076427601808828   -0.0024533795555611525
-0.006380761812352633   -0.04192050721248705   -0.002645105012915561
-0.005525310166337181   -0.03001868404426177   -0.0025186042721839093
-0.011249144737888751   -0.030251969472039012   -0.002581548256267272
-0.006380761812352633   -0.04192050721248705   -0.002645105012915561
-0.012461897379903464   -0.04204164318162676   -0.002788883720562042
-0.012478431999831016   -0.0419415312239698   -0.0028482734220274916
-0.011249144737888751   -0.030251969472039012   -0.002581548256267272
-0.006380761812352633   -0.04192050721248705   -0.002645105012915561
-0.012478431999831016   -0.0419415312239698   -0.0028482734220274916
-0.005525310166337181   -0.03001868404426177   -0.0025186042721839093
-0.011249144737888751   -0.030251969472039012   -0.002581548256267272
-0.012461897379903464   -0.04204164318162676   -0.002788883720562042
-0.005511190999104081   -0.030076427601808828   -0.0024533795555611525
-0.011226130003014619   -0.03033479529244324   -0.0024870545965345672
-0.012461897379903464   -0.04204164318162676   -0.002788883720562042
-0.006380761812352633   -0.04192050721248705   -0.002645105012915561
-0.005511190999104081   -0.030076427601808828   -0.0024533795555611525
-0.00634764174940978   -0.04197558398898112   -0.002606997499174904
-0.011226130003014619   -0.03033479529244324   -0.0024870545965345672
-0.005490008823127844   -0.030112445506153565   -0.0023997336667898567
-0.00634764174940978   -0.04197558398898112   -0.002606997499174904
-0.005511190999104081   -0.030076427601808828   -0.0024533795555611525
-0.011226130003014619   -0.03033479529244324   -0.0024870545965345672
-0.00634764174940978   -0.04197558398898112   -0.002606997499174904
-0.012420851815735354   -0.04214095719849834   -0.0027404910937511317
-0.012461897379903464   -0.04204164318162676   -0.002788883720562042
-0.011226130003014619   -0.03033479529244324   -0.0024870545965345672
-0.00634764174940978   -0.04197558398898112   -0.002606997499174904
-0.012461897379903464   -0.04204164318162676   -0.002788883720562042
-0.005511190999104081   -0.030076427601808828   -0.0024533795555611525
-0.005535576838380221   -0.029938836574510096   -0.0025952199336792625
-0.006430712404687856   -0.04179450433050524   -0.002757391962051873
-1.1885897716545203e-07   -0.029924219782187164   -0.0024746603092171224
-0.005525310166337181   -0.03001868404426177   -0.0025186042721839093
-0.006430712404687856   -0.04179450433050524   -0.002757391962051873
-0.0005419921149519217   -0.04177247891445032   -0.0026735085598434114
-1.1885897716545203e-07   -0.029924219782187164   -0.0024746603092171224
-0.0005106001680640323   -0.041794572760208086   -0.0026212191325254183
-0.005525310166337181   -0.03001868404426177   -0.0025186042721839093
1.9428086685654946e-05   -0.029956442593549626   -0.0024378180149547037
-0.0005106001680640323   -0.041794572760208086   -0.0026212191325254183
-1.1885897716545203e-07   -0.029924219782187164   -0.0024746603092171224
-0.005525310166337181   -0.03001868404426177   -0.0025186042721839093
-0.0005106001680640323   -0.041794572760208086   -0.0026212191325254183
-0.0064082963096268215   -0.04186021331486888   -0.0026953310798359677
-0.006430712404687856   -0.04179450433050524   -0.002757391962051873
-0.005525310166337181   -0.03001868404426177   -0.0025186042721839093
-0.0005106001680640323   -0.041794572760208086   -0.0026212191325254183
-0.006430712404687856   -0.04179450433050524   -0.002757391962051873
-1.1885897716545203e-07   -0.029924219782187164   -0.0024746603092171224
-0.005525310166337181   -0.03001868404426177   -0.0025186042721839093
-0.0064082963096268215   -0.04186021331486888   -0.0026953310798359677
1.9428086685654946e-05   -0.029956442593549626   -0.0024378180149547037
-0.005511190999104081   -0.030076427601808828   -0.0024533795555611525
-0.0064082963096268215   -0.04186021331486888   -0.0026953310798359677
-0.0005106001680640323   -0.041794572760208086   -0.0026212191325254183
1.9428086685654946e-05   -0.029956442593549626   -0.0024378180149547037
-0.0004834393409241809   -0.041810869038266425   -0.0025806617700815065
-0.005511190999104081   -0.030076427601808828   -0.0024533795555611525
3.3270218592918924e-05   -0.029966409386763062   -0.002412221443106814
-0.0004834393409241809   -0.041810869038266425   -0.0025806617700815065
1.9428086685654946e-05   -0.029956442593549626   -0.0024378180149547037
-0.005511190999104081   -0.030076427601808828   -0.0024533795555611525
-0.0004834393409241809   -0.041810869038266425   -0.0025806617700815065
-0.006380761812352633   -0.04192050721248705   -0.002645105012915561
-0.0064082963096268215   -0.04186021331486888   -0.0026953310798359677
-0.005511190999104081   -0.030076427601808828   -0.0024533795555611525
-0.0004834393409241809   -0.041810869038266425   -0.0025806617700815065
-0.0064082963096268215   -0.04186021331486888   -0.0026953310798359677
1.9428086685654946e-05   -0.029956442593549626   -0.0024378180149547037
-0.005511190999104081   -0.030076427601808828   -0.0024533795555611525
-0.006380761812352633   -0.04192050721248705   -0.002645105012915561
3.3270218592918924e-05   -0.029966409386763062   -0.002412221443106814
-0.005490008823127844   -0.030112445506153565   -0.0023997336667898567
-0.006380761812352633   -0.04192050721248705   -0.002645105012915561
-0.0004834393409241809   -0.041810869038266425   -0.0025806617700815065
3.3270218592918924e-05   -0.029966409386763062   -0.002412221443106814
-0.00046278042182027216   -0.04182128465589151   -0.002552264628589536
-0.005490008823127844   -0.030112445506153565   -0.0023997336667898567
4.196105161018676e-05   -0.029953815192372172   -0.0023983689610259677
-0.00046278042182027216   -0.04182128465589151   -0.002552264628589536
3.3270218592918924e-05   -0.029966409386763062   -0.002412221443106814
-0.005490008823127844   -0.030112445506153565   -0.0023997336667898567
-0.00046278042182027216   -0.04182128465589151   -0.002552264628589536
-0.00634764174940978   -0.04197558398898112   -0.002606997499174904
-0.006380761812352633   -0.04192050721248705   -0.002645105012915561
-0.005490008823127844   -0.030112445506153565   -0.0023997336667898567
-0.00046278042182027216   -0.04182128465589151   -0.002552264628589536
-0.006380761812352633   -0.04192050721248705   -0.002645105012915561
3.3270218592918924e-05   -0.029966409386763062   -0.002412221443106814
-1.1885897716545203e-07   -0.029924219782187164   -0.0024746603092171224
-0.0005419921149519217   -0.04177247891445032   -0.0026735085598434114
0.0057256782955806855   -0.029974038302663465   -0.0024399808227520783
1.9428086685654946e-05   -0.029956442593549626   -0.0024378180149547037
-0.0005419921149519217   -0.04177247891445032   -0.0026735085598434114
0.005526497557397747   -0.04176312237453863   -0.0026685669861130764
0.0057256782955806855   -0.029974038302663465   -0.0024399808227520783
0.005568133643948061   -0.04174297445473942   -0.002626539922028513
1.9428086685654946e-05   -0.029956442593549626   -0.0024378180149547037
0.005749634962365838   -0.02996141273190164   -0.00244375211604755
0.005568133643948061   -0.04174297445473942   -0.002626539922028513
0.0057256782955806855   -0.029974038302663465   -0.0024399808227520783
1.9428086685654946e-05   -0.029956442593549626   -0.0024378180149547037
0.005568133643948061   -0.04174297445473942   -0.002626539922028513
-0.0005106001680640323   -0.041794572760208086   -0.0026212191325254183
-0.0005419921149519217   -0.04177247891445032   -0.0026735085598434114
1.9428086685654946e-05   -0.029956442593549626   -0.0024378180149547037
0.005568133643948061   -0.04174297445473942   -0.002626539922028513
-0.0005419921149519217   -0.04177247891445032   -0.0026735085598434114
0.0057256782955806855   -0.029974038302663465   -0.0024399808227520783
1.9428086685654946e-05   -0.029956442593549626   -0.0024378180149547037
-0.0005106001680640323   -0.041794572760208086   -0.0026212191325254183
0.005749634962365838   -0.02996141273190164   -0.00244375211604755
3.3270218592918924e-05   -0.029966409386763062   -0.002412221443106814
-0.0005106001680640323   -0.041794572760208086   -0.0026212191325254183
0.005568133643948061   -0.04174297445473942   -0.002626539922028513
0.005749634962365838   -0.02996141273190164   -0.00244375211604755
0.005595937423207299   -0.04171945758442358   -0.0025959092024159807
3.3270218592918924e-05   -0.029966409386763062   -0.002412221443106814
0.005751220088380707   -0.029928225207182815   -0.002458164386084561
0.005595937423207299   -0.04171945758442358   -0.0025959092024159807
0.005749634962365838   -0.02996141273190164   -0.00244375211604755
3.3270218592918924e-05   -0.029966409386763062   -0.002412221443106814
0.005595937423207299   -0.04171945758442358   -0.0025959092024159807
-0.0004834393409241809   -0.041810869038266425   -0.0025806617700815065
-0.0005106001680640323   -0.041794572760208086   -0.0026212191325254183
3.3270218592918924e-05   -0.029966409386763062   -0.002412221443106814
0.005595937423207299   -0.04171945758442358   -0.0025959092024159807
-0.0005106001680640323   -0.041794572760208086   -0.0026212191325254183
0.005749634962365838   -0.02996141273190164   -0.00244375211604755
3.3270218592918924e-05   -0.029966409386763062   -0.002412221443106814
-0.0004834393409241809   -0.041810869038266425   -0.0025806617700815065
0.005751220088380707   -0.029928225207182815   -0.002458164386084561
4.196105161018676e-05   -0.029953815192372172   -0.0023983689610259677
-0.0004834393409241809   -0.041810869038266425   -0.0025806617700815065
0.005595937423207299   -0.04171945758442358   -0.0025959092024159807
0.005751220088380707   -0.029928225207182815   -0.002458164386084561
0.005601462168180635   -0.04168484667438682   -0.0025764407207040066
4.196105161018676e-05   -0.029953815192372172   -0.0023983689610259677
0.005738433877290934   -0.029866160498138884   -0.0024836220311284575
0.005601462168180635   -0.04168484667438682   -0.0025764407207040066
0.005751220088380707   -0.029928225207182815   -0.002458164386084561
4.196105161018676e-05   -0.029953815192372172   -0.0023983689610259677
0.005601462168180635   -0.04168484667438682   -0.0025764407207040066
-0.00046278042182027216   -0.04182128465589151   -0.002552264628589536
-0.0004834393409241809   -0.041810869038266425   -0.0025806617700815065
4.196105161018676e-05   -0.029953815192372172   -0.0023983689610259677
0.005601462168180635   -0.04168484667438682   -0.0025764407207040066
-0.0004834393409241809   -0.041810869038266425   -0.0025806617700815065
0.005751220088380707   -0.029928225207182815   -0.002458164386084561
0.0057256782955806855   -0.029974038302663465   -0.0024399808227520783
0.005526497557397747   -0.04176312237453863   -0.0026685669861130764
0.012048393440789722   -0.03006563634839859   -0.0024723834647185205
0.005749634962365838   -0.02996141273190164   -0.00244375211604755
0.005526497557397747   -0.04176312237453863   -0.0026685669861130764
0.012103080014838901   -0.04175021270190274   -0.002734622611905429
0.012048393440789722   -0.03006563634839859   -0.0024723834647185205
0.012184681315478153   -0.04169668574280114   -0.002700247265580694
0.005749634962365838   -0.02996141273190164   -0.00244375211604755
0.012036905294648294   -0.0300226460382648   -0.002520005160877646
0.012184681315478153   -0.04169668574280114   -0.002700247265580694
0.012048393440789722   -0.03006563634839859   -0.0024723834647185205
0.005749634962365838   -0.02996141273190164   -0.00244375211604755
0.012184681315478153   -0.04169668574280114   -0.002700247265580694
0.005568133643948061   -0.04174297445473942   -0.002626539922028513
0.005526497557397747   -0.04176312237453863   -0.0026685669861130764
0.005749634962365838   -0.02996141273190164   -0.00244375211604755
0.012184681315478153   -0.04169668574280114   -0.002700247265580694
0.005526497557397747   -0.04176312237453863   -0.0026685669861130764
0.012048393440789722   -0.03006563634839859   -0.0024723834647185205
0.005749634962365838   -0.02996141273190164   -0.00244375211604755
0.005568133643948061   -0.04174297445473942   -0.002626539922028513
0.012036905294648294   -0.0300226460382648   -0.002520005160877646
0.005751220088380707   -0.029928225207182815   -0.002458164386084561
0.005568133643948061   -0.04174297445473942   -0.002626539922028513
0.012184681315478153   -0.04169668574280114   -0.002700247265580694
0.012036905294648294   -0.0300226460382648   -0.002520005160877646
0.012227711436318903   -0.041654392022751036   -0.002683185932072816
0.005751220088380707   -0.029928225207182815   -0.002458164386084561
0.012006436841737328   -0.02996848493437046   -0.0025848893854280228
0.012227711436318903   -0.041654392022751036   -0.002683185932072816
0.012036905294648294   -0.0300226460382648   -0.002520005160877646
0.005751220088380707   -0.029928225207182815   -0.002458164386084561
0.012227711436318903   -0.041654392022751036   -0.002683185932072816
0.005595937423207299   -0.04171945758442358   -0.0025959092024159807
0.005568133643948061   -0.04174297445473942   -0.002626539922028513
0.005751220088380707   -0.029928225207182815   -0.002458164386084561
0.012227711436318903   -0.041654392022751036   -0.002683185932072816
0.005568133643948061   -0.04174297445473942   -0.002626539922028513
0.012036905294648294   -0.0300226460382648   -0.002520005160877646
0.005751220088380707   -0.029928225207182815   -0.002458164386084561
0.005595937423207299   -0.04171945758442358   -0.0025959092024159807
0.012006436841737328   -0.02996848493437046   -0.0025848893854280228
0.005738433877290934   -0.029866160498138884   -0.0024836220311284575
0.005595937423207299   -0.04171945758442358   -0.0025959092024159807
0.012227711436318903   -0.041654392022751036   -0.002683185932072816
0.012006436841737328   -0.02996848493437046   -0.0025848893854280228
0.012237837792076524   -0.04158646153296518   -0.00268373354510387
0.005738433877290934   -0.029866160498138884   -0.0024836220311284575
0.011923850801799536   -0.029865168962203942   -0.002666911002870258
0.012237837792076524   -0.04158646153296518   -0.00268373354510387
0.012006436841737328   -0.02996848493437046   -0.0025848893854280228
0.005738433877290934   -0.029866160498138884   -0.0024836220311284575
0.012237837792076524   -0.04158646153296518   -0.00268373354510387
0.005601462168180635   -0.04168484667438682   -0.0025764407207040066
0.005595937423207299   -0.04171945758442358   -0.0025959092024159807
0.005738433877290934   -0.029866160498138884   -0.0024836220311284575
0.012237837792076524   -0.04158646153296518   -0.00268373354510387
0.005595937423207299   -0.04171945758442358   -0.0025959092024159807
0.012006436841737328   -0.02996848493437046   -0.0025848893854280228
-0.01899869633776759   -0.04190011448837496   -0.003157576853783182
-0.019593311208063548   -0.05382403085255502   -0.003104055388463701
-0.01248319918496442   -0.0418329916827552   -0.002919487400469671
-0.01908006036612178   -0.04204601094955567   -0.003070824448769532
-0.019593311208063548   -0.05382403085255502   -0.003104055388463701
-0.013084876140136616   -0.05385516429071544   -0.0029279648571061225
-0.01248319918496442   -0.0418329916827552   -0.002919487400469671
-0.013049917797553878   -0.0539446366525158   -0.00290094953281717
-0.01908006036612178   -0.04204601094955567   -0.003070824448769532
-0.012478431999831016   -0.0419415312239698   -0.0028482734220274916
-0.013049917797553878   -0.0539446366525158   -0.00290094953281717
-0.01248319918496442   -0.0418329916827552   -0.002919487400469671
-0.01908006036612178   -0.04204601094955567   -0.003070824448769532
-0.013049917797553878   -0.0539446366525158   -0.00290094953281717
-0.01957096180103567   -0.05394373447265692   -0.003098379233936475
-0.019593311208063548   -0.05382403085255502   -0.003104055388463701
-0.01908006036612178   -0.04204601094955567   -0.003070824448769532
-0.013049917797553878   -0.0539446366525158   -0.00290094953281717
-0.019593311208063548   -0.05382403085255502   -0.003104055388463701
-0.01248319918496442   -0.0418329916827552   -0.002919487400469671
-0.01908006036612178   -0.04204601094955567   -0.003070824448769532
-0.01957096180103567   -0.05394373447265692   -0.003098379233936475
-0.012478431999831016   -0.0419415312239698   -0.0028482734220274916
-0.01910613263117114   -0.04216498842021577   -0.00300109154848028
-0.01957096180103567   -0.05394373447265692   -0.003098379233936475
-0.013049917797553878   -0.0539446366525158   -0.00290094953281717
-0.012478431999831016   -0.0419415312239698   -0.0028482734220274916
-0.012995309989390861   -0.05404374777839608   -0.00288612646791286
-0.01910613263117114   -0.04216498842021577   -0.00300109154848028
-0.012461897379903464   -0.04204164318162676   -0.002788883720562042
-0.012995309989390861   -0.05404374777839608   -0.00288612646791286
-0.012478431999831016   -0.0419415312239698   -0.0028482734220274916
-0.01910613263117114   -0.04216498842021577   -0.00300109154848028
-0.012995309989390861   -0.05404374777839608   -0.00288612646791286
-0.019511237049206896   -0.05405993654001555   -0.003110923531182174
-0.01957096180103567   -0.05394373447265692   -0.003098379233936475
-0.01910613263117114   -0.04216498842021577   -0.00300109154848028
-0.012995309989390861   -0.05404374777839608   -0.00288612646791286
-0.01957096180103567   -0.05394373447265692   -0.003098379233936475
-0.012478431999831016   -0.0419415312239698   -0.0028482734220274916
-0.01910613263117114   -0.04216498842021577   -0.00300109154848028
-0.019511237049206896   -0.05405993654001555   -0.003110923531182174
-0.012461897379903464   -0.04204164318162676   -0.002788883720562042
-0.019115039260357278   -0.042294181802009743   -0.002949838444673434
-0.019511237049206896   -0.05405993654001555   -0.003110923531182174
-0.012995309989390861   -0.05404374777839608   -0.00288612646791286
-0.012461897379903464   -0.04204164318162676   -0.002788883720562042
-0.012924542717297307   -0.05415932054598853   -0.002883299443523849
-0.019115039260357278   -0.042294181802009743   -0.002949838444673434
-0.012420851815735354   -0.04214095719849834   -0.0027404910937511317
-0.012924542717297307   -0.05415932054598853   -0.002883299443523849
-0.012461897379903464   -0.04204164318162676   -0.002788883720562042
-0.019115039260357278   -0.042294181802009743   -0.002949838444673434
-0.012924542717297307   -0.05415932054598853   -0.002883299443523849
-0.019414211960403653   -0.054209599702421916   -0.003142607529988313
-0.019511237049206896   -0.05405993654001555   -0.003110923531182174
-0.019115039260357278   -0.042294181802009743   -0.002949838444673434
-0.012924542717297307   -0.05415932054598853   -0.002883299443523849
-0.019511237049206896   -0.05405993654001555   -0.003110923531182174
-0.012461897379903464   -0.04204164318162676   -0.002788883720562042
-0.01248319918496442   -0.0418329916827552   -0.002919487400469671
-0.013084876140136616   -0.05385516429071544   -0.0029279648571061225
-0.006430712404687856   -0.04179450433050524   -0.002757391962051873
-0.012478431999831016   -0.0419415312239698   -0.0028482734220274916
-0.013084876140136616   -0.05385516429071544   -0.0029279648571061225
-0.007123246323103389   -0.05386194279404321   -0.0028109173897150536
-0.006430712404687856   -0.04179450433050524   -0.002757391962051873
-0.007076416358861869   -0.05391327780095921   -0.002762989832379459
-0.012478431999831016   -0.0419415312239698   -0.0028482734220274916
-0.0064082963096268215   -0.04186021331486888   -0.0026953310798359677
-0.007076416358861869   -0.05391327780095921   -0.002762989832379459
-0.006430712404687856   -0.04179450433050524   -0.002757391962051873
-0.012478431999831016   -0.0419415312239698   -0.0028482734220274916
-0.007076416358861869   -0.05391327780095921   -0.002762989832379459
-0.013049917797553878   -0.0539446366525158   -0.00290094953281717
-0.013084876140136616   -0.05385516429071544   -0.0029279648571061225
-0.012478431999831016   -0.0419415312239698   -0.0028482734220274916
-0.007076416358861869   -0.05391327780095921   -0.002762989832379459
-0.013084876140136616   -0.05385516429071544   -0.0029279648571061225
-0.006430712404687856   -0.04179450433050524   -0.002757391962051873
-0.012478431999831016   -0.0419415312239698   -0.0028482734220274916
-0.013049917797553878   -0.0539446366525158   -0.00290094953281717
-0.0064082963096268215   -0.04186021331486888   -0.0026953310798359677
-0.012461897379903464   -0.04204164318162676   -0.002788883720562042
-0.013049917797553878   -0.0539446366525158   -0.00290094953281717
-0.007076416358861869   -0.05391327780095921   -0.002762989832379459
-0.0064082963096268215   -0.04186021331486888   -0.0026953310798359677
-0.0070234920992178086   -0.05397567808289127   -0.002727301214832294
-0.012461897379903464   -0.04204164318162676   -0.002788883720562042
-0.006380761812352633   -0.04192050721248705   -0.002645105012915561
-0.0070234920992178086   -0.05397567808289127   -0.002727301214832294
-0.0064082963096268215   -0.04186021331486888   -0.0026953310798359677
-0.012461897379903464   -0.04204164318162676   -0.002788883720562042
-0.0070234920992178086   -0.05397567808289127   -0.002727301214832294
-0.012995309989390861   -0.05404374777839608   -0.00288612646791286
-0.013049917797553878   -0.0539446366525158   -0.00290094953281717
-0.012461897379903464   -0.04204164318162676   -0.002788883720562042
-0.0070234920992178086   -0.05397567808289127   -0.002727301214832294
-0.013049917797553878   -0.0539446366525158   -0.00290094953281717
-0.0064082963096268215   -0.04186021331486888   -0.0026953310798359677
-0.012461897379903464   -0.04204164318162676   -0.002788883720562042
-0.012995309989390861   -0.05404374777839608   -0.00288612646791286
-0.006380761812352633   -0.04192050721248705   -0.002645105012915561
-0.012420851815735354   -0.04214095719849834   -0.0027404910937511317
-0.012995309989390861   -0.05404374777839608   -0.00288612646791286
-0.0070234920992178086   -0.05397567808289127   -0.002727301214832294
-0.006380761812352633   -0.04192050721248705   -0.002645105012915561
-0.00696645247810509   -0.054049338135004454   -0.002704247691658827
-0.012420851815735354   -0.04214095719849834   -0.0027404910937511317
-0.00634764174940978   -0.04197558398898112   -0.002606997499174904
-0.00696645247810509   -0.054049338135004454   -0.002704247691658827
-0.006380761812352633   -0.04192050721248705   -0.002645105012915561
-0.012420851815735354   -0.04214095719849834   -0.0027404910937511317
-0.00696645247810509   -0.054049338135004454   -0.002704247691658827
-0.012924542717297307   -0.05415932054598853   -0.002883299443523849
-0.012995309989390861   -0.05404374777839608   -0.00288612646791286
-0.012420851815735354   -0.04214095719849834   -0.0027404910937511317
-0.00696645247810509   -0.054049338135004454   -0.002704247691658827
-0.012995309989390861   -0.05404374777839608   -0.00288612646791286
-0.006380761812352633   -0.04192050721248705   -0.002645105012915561
-0.006430712404687856   -0.04179450433050524   -0.002757391962051873
-0.007123246323103389   -0.05386194279404321   -0.0028109173897150536
-0.0005419921149519217   -0.04177247891445032   -0.0026735085598434114
-0.0064082963096268215   -0.04186021331486888   -0.0026953310798359677
-0.007123246323103389   -0.05386194279404321   -0.0028109173897150536
-0.0013302970056766324   -0.053830363706836235   -0.002763023349829579
-0.0005419921149519217   -0.04177247891445032   -0.0026735085598434114
-0.0012749073413126874   -0.05384228953172185   -0.0026952241435338137
-0.0064082963096268215   -0.04186021331486888   -0.0026953310798359677
-0.0005106001680640323   -0.041794572760208086   -0.0026212191325254183
-0.0012749073413126874   -0.05384228953172185   -0.0026952241435338137
-0.0005419921149519217   -0.04177247891445032   -0.0026735085598434114
-0.0064082963096268215   -0.04186021331486888   -0.0026953310798359677
-0.0012749073413126874   -0.05384228953172185   -0.0026952241435338137
-0.007076416358861869   -0.05391327780095921   -0.002762989832379459
-0.007123246323103389   -0.05386194279404321   -0.0028109173897150536
-0.0064082963096268215   -0.04186021331486888   -0.0026953310798359677
-0.0012749073413126874   -0.05384228953172185   -0.0026952241435338137
-0.007123246323103389   -0.05386194279404321   -0.0028109173897150536
-0.0005419921149519217   -0.04177247891445032   -0.0026735085598434114
-0.0064082963096268215   -0.04186021331486888   -0.0026953310798359677
-0.007076416358861869   -0.05391327780095921   -0.002762989832379459
-0.0005106001680640323   -0.041794572760208086   -0.0026212191325254183
-0.006380761812352633   -0.04192050721248705   -0.002645105012915561
-0.007076416358861869   -0.05391327780095921   -0.002762989832379459
-0.0012749073413126874   -0.05384228953172185   -0.0026952241435338137
-0.0005106001680640323   -0.041794572760208086   -0.0026212191325254183
-0.0012225133173322544   -0.05386441287755708   -0.002639576753762465
-0.006380761812352633   -0.04192050721248705   -0.002645105012915561
-0.0004834393409241809   -0.041810869038266425   -0.0025806617700815065
-0.0012225133173322544   -0.05386441287755708   -0.002639576753762465
-0.0005106001680640323   -0.041794572760208086   -0.0026212191325254183
-0.006380761812352633   -0.04192050721248705   -0.002645105012915561
-0.0012225133173322544   -0.05386441287755708   -0.002639576753762465
-0.0070234920992178086   -0.05397567808289127   -0.002727301214832294
-0.007076416358861869   -0.05391327780095921   -0.002762989832379459
-0.006380761812352633   -0.04192050721248705   -0.002645105012915561
-0.0012225133173322544   -0.05386441287755708   -0.002639576753762465
-0.007076416358861869   -0.05391327780095921   -0.002762989832379459
-0.0005106001680640323   -0.041794572760208086   -0.0026212191325254183
-0.006380761812352633   -0.04192050721248705   -0.002645105012915561
-0.0070234920992178086   -0.05397567808289127   -0.002727301214832294
-0.0004834393409241809   -0.041810869038266425   -0.0025806617700815065
-0.00634764174940978   -0.04197558398898112   -0.002606997499174904
-0.0070234920992178086   -0.05397567808289127   -0.002727301214832294
-0.0012225133173322544   -0.05386441287755708   -0.002639576753762465
-0.0004834393409241809   -0.041810869038266425   -0.0025806617700815065
-0.001178054248651951   -0.053897239266715795   -0.0025965058959849644
-0.00634764174940978   -0.04197558398898112   -0.002606997499174904
-0.00046278042182027216   -0.04182128465589151   -0.002552264628589536
-0.001178054248651951   -0.053897239266715795   -0.0025965058959849644
-0.0004834393409241809   -0.041810869038266425   -0.0025806617700815065
-0.00634764174940978   -0.04197558398898112   -0.002606997499174904
-0.001178054248651951   -0.053897239266715795   -0.0025965058959849644
-0.00696645247810509   -0.054049338135004454   -0.002704247691658827
-0.0070234920992178086   -0.05397567808289127   -0.002727301214832294
-0.00634764174940978   -0.04197558398898112   -0.002606997499174904
-0.001178054248651951   -0.053897239266715795   -0.0025965058959849644
-0.0070234920992178086   -0.05397567808289127   -0.002727301214832294
-0.0004834393409241809   -0.041810869038266425   -0.0025806617700815065
-0.0005419921149519217   -0.04177247891445032   -0.0026735085598434114
-0.0013302970056766324   -0.053830363706836235   -0.002763023349829579
0.005526497557397747   -0.04176312237453863   -0.0026685669861130764
-0.0005106001680640323   -0.041794572760208086   -0.0026212191325254183
-0.0013302970056766324   -0.053830363706836235   -0.002763023349829579
0.004637132159525775   -0.05376015624167014   -0.0027865636212356976
0.005526497557397747   -0.04176312237453863   -0.0026685669861130764
0.004707791426182704   -0.053732544564496304   -0.0026992473445984046
-0.0005106001680640323   -0.041794572760208086   -0.0026212191325254183
0.005568133643948061   -0.04174297445473942   -0.002626539922028513
0.004707791426182704   -0.053732544564496304   -0.0026992473445984046
0.005526497557397747   -0.04176312237453863   -0.0026685669861130764
-0.0005106001680640323   -0.041794572760208086   -0.0026212191325254183
0.004707791426182704   -0.053732544564496304   -0.0026992473445984046
-0.0012749073413126874   -0.05384228953172185   -0.0026952241435338137
-0.0013302970056766324   -0.053830363706836235   -0.002763023349829579
-0.0005106001680640323   -0.041794572760208086   -0.0026212191325254183
0.004707791426182704   -0.053732544564496304   -0.0026992473445984046
-0.0013302970056766324   -0.053830363706836235   -0.002763023349829579
0.005526497557397747   -0.04176312237453863   -0.0026685669861130764
-0.0005106001680640323   -0.041794572760208086   -0.0026212191325254183
-0.0012749073413126874   -0.05384228953172185   -0.0026952241435338137
0.005568133643948061   -0.04174297445473942   -0.002626539922028513
-0.0004834393409241809   -0.041810869038266425   -0.0025806617700815065
-0.0012749073413126874   -0.05384228953172185   -0.0026952241435338137
0.004707791426182704   -0.053732544564496304   -0.0026992473445984046
0.005568133643948061   -0.04174297445473942   -0.002626539922028513
0.004773071113111127   -0.053718188165160566   -0.0026240468634434683
-0.0004834393409241809   -0.041810869038266425   -0.0025806617700815065
0.005595937423207299   -0.04171945758442358   -0.0025959092024159807
0.004773071113111127   -0.053718188165160566   -0.0026240468634434683
0.005568133643948061   -0.04174297445473942   -0.002626539922028513
-0.0004834393409241809   -0.041810869038266425   -0.0025806617700815065
0.004773071113111127   -0.053718188165160566   -0.0026240468634434683
-0.0012225133173322544   -0.05386441287755708   -0.002639576753762465
-0.0012749073413126874   -0.05384228953172185   -0.0026952241435338137
-0.0004834393409241809   -0.041810869038266425   -0.0025806617700815065
0.004773071113111127   -0.053718188165160566   -0.0026240468634434683
-0.0012749073413126874   -0.05384228953172185   -0.0026952241435338137
0.005568133643948061   -0.04174297445473942   -0.002626539922028513
-0.0004834393409241809   -0.041810869038266425   -0.0025806617700815065
-0.0012225133173322544   -0.05386441287755708   -0.002639576753762465
0.005595937423207299   -0.04171945758442358   -0.0025959092024159807
-0.00046278042182027216   -0.04182128465589151   -0.002552264628589536
-0.0012225133173322544   -0.05386441287755708   -0.002639576753762465
0.004773071113111127   -0.053718188165160566   -0.0026240468634434683
0.005595937423207299   -0.04171945758442358   -0.0025959092024159807
0.004808044522377539   -0.053710122869291575   -0.002560171209171595
-0.00046278042182027216   -0.04182128465589151   -0.002552264628589536
0.005601462168180635   -0.04168484667438682   -0.0025764407207040066
0.004808044522377539   -0.053710122869291575   -0.002560171209171595
0.005595937423207299   -0.04171945758442358   -0.0025959092024159807
-0.00046278042182027216   -0.04182128465589151   -0.002552264628589536
0.004808044522377539   -0.053710122869291575   -0.002560171209171595
-0.001178054248651951   -0.053897239266715795   -0.0025965058959849644
-0.0012225133173322544   -0.05386441287755708   -0.002639576753762465
-0.00046278042182027216   -0.04182128465589151   -0.002552264628589536
0.004808044522377539   -0.053710122869291575   -0.002560171209171595
-0.0012225133173322544   -0.05386441287755708   -0.002639576753762465
0.005595937423207299   -0.04171945758442358   -0.0025959092024159807
0.005526497557397747   -0.04176312237453863   -0.0026685669861130764
0.004637132159525775   -0.05376015624167014   -0.0027865636212356976
0.012103080014838901   -0.04175021270190274   -0.002734622611905429
0.005568133643948061   -0.04174297445473942   -0.002626539922028513
0.004637132159525775   -0.05376015624167014   -0.0027865636212356976
0.011026542741692368   -0.05364221293407141   -0.0028852581331688834
0.012103080014838901   -0.04175021270190274   -0.002734622611905429
0.011211028212815064   -0.053578764743536955   -0.0027706737630496673
0.005568133643948061   -0.04174297445473942   -0.002626539922028513
0.012184681315478153   -0.04169668574280114   -0.002700247265580694
0.011211028212815064   -0.053578764743536955   -0.0027706737630496673
0.012103080014838901   -0.04175021270190274   -0.002734622611905429
0.005568133643948061   -0.04174297445473942   -0.002626539922028513
0.011211028212815064   -0.053578764743536955   -0.0027706737630496673
0.004707791426182704   -0.053732544564496304   -0.0026992473445984046
0.004637132159525775   -0.05376015624167014   -0.0027865636212356976
0.005568133643948061   -0.04174297445473942   -0.002626539922028513
0.011211028212815064   -0.053578764743536955   -0.0027706737630496673
0.004637132159525775   -0.05376015624167014   -0.0027865636212356976
0.012103080014838901   -0.04175021270190274   -0.002734622611905429
0.005568133643948061   -0.04174297445473942   -0.002626539922028513
0.004707791426182704   -0.053732544564496304   -0.0026992473445984046
0.012184681315478153   -0.04169668574280114   -0.002700247265580694
0.005595937423207299   -0.04171945758442358   -0.0025959092024159807
0.004707791426182704   -0.053732544564496304   -0.0026992473445984046
0.011211028212815064   -0.053578764743536955   -0.0027706737630496673
0.012184681315478153   -0.04169668574280114   -0.002700247265580694
0.011337740234505757   -0.053547999114472486   -0.002673341754524219
0.005595937423207299   -0.04171945758442358   -0.0025959092024159807
0.012227711436318903   -0.041654392022751036   -0.002683185932072816
0.011337740234505757   -0.053547999114472486   -0.002673341754524219
0.012184681315478153   -0.04169668574280114   -0.002700247265580694
0.005595937423207299   -0.04171945758442358   -0.0025959092024159807
0.011337740234505757   -0.053547999114472486   -0.002673341754524219
0.004773071113111127   -0.053718188165160566   -0.0026240468634434683
0.004707791426182704   -0.053732544564496304   -0.0026992473445984046
0.005595937423207299   -0.04171945758442358   -0.0025959092024159807
0.011337740234505757   -0.053547999114472486   -0.002673341754524219
0.004707791426182704   -0.053732544564496304   -0.0026992473445984046
0.012184681315478153   -0.04169668574280114   -0.002700247265580694
0.005595937423207299   -0.04171945758442358   -0.0025959092024159807
0.004773071113111127   -0.053718188165160566   -0.0026240468634434683
0.012227711436318903   -0.041654392022751036   -0.002683185932072816
0.005601462168180635   -0.04168484667438682   -0.0025764407207040066
0.004773071113111127   -0.053718188165160566   -0.0026240468634434683
0.011337740234505757   -0.053547999114472486   -0.002673341754524219
0.012227711436318903   -0.041654392022751036   -0.002683185932072816
0.011450180793063218   -0.05351448518127123   -0.002593977781592143
0.005601462168180635   -0.04168484667438682   -0.0025764407207040066
0.012237837792076524   -0.04158646153296518   -0.00268373354510387
0.011450180793063218   -0.05351448518127123   -0.002593977781592143
0.012227711436318903   -0.041654392022751036   -0.002683185932072816
0.005601462168180635   -0.04168484667438682   -0.0025764407207040066
0.011450180793063218   -0.05351448518127123   -0.002593977781592143
0.004808044522377539   -0.053710122869291575   -0.002560171209171595
0.004773071113111127   -0.053718188165160566   -0.0026240468634434683
0.005601462168180635   -0.04168484667438682   -0.0025764407207040066
0.011450180793063218   -0.05351448518127123   -0.002593977781592143
0.004773071113111127   -0.053718188165160566   -0.0026240468634434683
0.012227711436318903   -0.041654392022751036   -0.002683185932072816
-0.019593311208063548   -0.05382403085255502   -0.003104055388463701
-0.01906899541225894   -0.06521139699937141   -0.002967619809721596
-0.013084876140136616   -0.05385516429071544   -0.0029279648571061225
-0.01957096180103567   -0.05394373447265692   -0.003098379233936475
-0.01906899541225894   -0.06521139699937141   -0.002967619809721596
-0.013031250657283264   -0.06534258932980812   -0.0028615233847316354
-0.013084876140136616   -0.05385516429071544   -0.0029279648571061225
-0.012954888179322102   -0.06540939778722121   -0.0028775460839775002
-0.01957096180103567   -0.05394373447265692   -0.003098379233936475
-0.013049917797553878   -0.0539446366525158   -0.00290094953281717
-0.012954888179322102   -0.06540939778722121   -0.0028775460839775002
-0.013084876140136616   -0.05385516429071544   -0.0029279648571061225
-0.01957096180103567   -0.05394373447265692   -0.003098379233936475
-0.012954888179322102   -0.06540939778722121   -0.0028775460839775002
-0.018931156521681855   -0.06530159968493199   -0.003043218220436532
-0.01906899541225894   -0.06521139699937141   -0.002967619809721596
-0.01957096180103567   -0.05394373447265692   -0.003098379233936475
-0.012954888179322102   -0.06540939778722121   -0.0028775460839775002
-0.01906899541225894   -0.06521139699937141   -0.002967619809721596
-0.013084876140136616   -0.05385516429071544   -0.0029279648571061225
-0.01957096180103567   -0.05394373447265692   -0.003098379233936475
-0.018931156521681855   -0.06530159968493199   -0.003043218220436532
-0.013049917797553878   -0.0539446366525158   -0.00290094953281717
-0.019511237049206896   -0.05405993654001555   -0.003110923531182174
-0.018931156521681855   -0.06530159968493199   -0.003043218220436532
-0.012954888179322102   -0.06540939778722121   -0.0028775460839775002
-0.013049917797553878   -0.0539446366525158   -0.00290094953281717
-0.012851481518736779   -0.0655044827475109   -0.002906074561321023
-0.019511237049206896   -0.05405993654001555   -0.003110923531182174
-0.012995309989390861   -0.05404374777839608   -0.00288612646791286
-0.012851481518736779   -0.0655044827475109   -0.002906074561321023
-0.013049917797553878   -0.0539446366525158   -0.00290094953281717
-0.019511237049206896   -0.05405993654001555   -0.003110923531182174
-0.012851481518736779   -0.0655044827475109   -0.002906074561321023
-0.018773780790494646   -0.06541226868192276   -0.0031384855907712174
-0.018931156521681855   -0.06530159968493199   -0.003043218220436532
-0.019511237049206896   -0.05405993654001555   -0.003110923531182174
-0.012851481518736779   -0.0655044827475109   -0.002906074561321023
-0.018931156521681855   -0.06530159968493199   -0.003043218220436532
-0.013049917797553878   -0.0539446366525158   -0.00290094953281717
-0.019511237049206896   -0.05405993654001555   -0.003110923531182174
-0.018773780790494646   -0.06541226868192276   -0.0031384855907712174
-0.012995309989390861   -0.05404374777839608   -0.00288612646791286
-0.019414211960403653   -0.054209599702421916   -0.003142607529988313
-0.018773780790494646   -0.06541226868192276   -0.0031384855907712174
-0.012851481518736779   -0.0655044827475109   -0.002906074561321023
-0.012995309989390861   -0.05404374777839608   -0.00288612646791286
-0.012740518402601405   -0.06563364309559379   -0.0029474790044451368
-0.019414211960403653   -0.054209599702421916   -0.003142607529988313
-0.012924542717297307   -0.05415932054598853   -0.002883299443523849
-0.012740518402601405   -0.06563364309559379   -0.0029474790044451368
-0.012995309989390861   -0.05404374777839608   -0.00288612646791286
-0.019414211960403653   -0.054209599702421916   -0.003142607529988313
-0.012740518402601405   -0.06563364309559379   -0.0029474790044451368
-0.01855945512646739   -0.0655807090951097   -0.0032537828100961783
-0.018773780790494646   -0.06541226868192276   -0.0031384855907712174
-0.019414211960403653   -0.054209599702421916   -0.003142607529988313
-0.012740518402601405   -0.06563364309559379   -0.0029474790044451368
-0.018773780790494646   -0.06541226868192276   -0.0031384855907712174
-0.012995309989390861   -0.05404374777839608   -0.00288612646791286
-0.013084876140136616   -0.05385516429071544   -0.0029279648571061225
-0.013031250657283264   -0.06534258932980812   -0.0028615233847316354
-0.007123246323103389   -0.05386194279404321   -0.0028109173897150536
-0.013049917797553878   -0.0539446366525158   -0.00290094953281717
-0.013031250657283264   -0.06534258932980812   -0.0028615233847316354
-0.007619302714258682   -0.06539453375795512   -0.002793608645290201
-0.007123246323103389   -0.05386194279404321   -0.0028109173897150536
-0.00753613571970691   -0.06542928176715952   -0.002758712498063012
-0.013049917797553878   -0.0539446366525158   -0.00290094953281717
-0.007076416358861869   -0.05391327780095921   -0.002762989832379459
-0.00753613571970691   -0.06542928176715952   -0.002758712498063012
-0.007123246323103389   -0.05386194279404321   -0.0028109173897150536
-0.013049917797553878   -0.0539446366525158   -0.00290094953281717
-0.00753613571970691   -0.06542928176715952   -0.002758712498063012
-0.012954888179322102   -0.06540939778722121   -0.0028775460839775002
-0.013031250657283264   -0.06534258932980812   -0.0028615233847316354
-0.013049917797553878   -0.0539446366525158   -0.00290094953281717
-0.00753613571970691   -0.06542928176715952   -0.002758712498063012
-0.013031250657283264   -0.06534258932980812   -0.0028615233847316354
-0.007123246323103389   -0.05386194279404321   -0.0028109173897150536
-0.013049917797553878   -0.0539446366525158   -0.00290094953281717
-0.012954888179322102   -0.06540939778722121   -0.0028775460839775002
-0.007076416358861869   -0.05391327780095921   -0.002762989832379459
-0.012995309989390861   -0.05404374777839608   -0.00288612646791286
-0.012954888179322102   -0.06540939778722121   -0.0028775460839775002
-0.00753613571970691   -0.06542928176715952   -0.002758712498063012
-0.007076416358861869   -0.05391327780095921   -0.002762989832379459
-0.007446667953156997   -0.06549121989932989   -0.0027361700175895913
-0.012995309989390861   -0.05404374777839608   -0.00288612646791286
-0.0070234920992178086   -0.05397567808289127   -0.002727301214832294
-0.007446667953156997   -0.06549121989932989   -0.0027361700175895913
-0.007076416358861869   -0.05391327780095921   -0.002762989832379459
-0.012995309989390861   -0.05404374777839608   -0.00288612646791286
-0.007446667953156997   -0.06549121989932989   -0.0027361700175895913
-0.012851481518736779   -0.0655044827475109   -0.002906074561321023
-0.012954888179322102   -0.06540939778722121   -0.0028775460839775002
-0.012995309989390861   -0.05404374777839608   -0.00288612646791286
-0.007446667953156997   -0.06549121989932989   -0.0027361700175895913
-0.012954888179322102   -0.06540939778722121   -0.0028775460839775002
-0.007076416358861869   -0.05391327780095921   -0.002762989832379459
-0.012995309989390861   -0.05404374777839608   -0.00288612646791286
-0.012851481518736779   -0.0655044827475109   -0.002906074561321023
-0.0070234920992178086   -0.05397567808289127   -0.002727301214832294
-0.012924542717297307   -0.05415932054598853   -0.002883299443523849
-0.012851481518736779   -0.0655044827475109   -0.002906074561321023
-0.007446667953156997   -0.06549121989932989   -0.0027361700175895913
-0.0070234920992178086   -0.05397567808289127   -0.002727301214832294
-0.0073547054878318205   -0.06558113271775276   -0.002726584562975626
-0.012924542717297307   -0.05415932054598853   -0.002883299443523849
-0.00696645247810509   -0.054049338135004454   -0.002704247691658827
-0.0073547054878318205   -0.06558113271775276   -0.002726584562975626
-0.0070234920992178086   -0.05397567808289127   -0.002727301214832294
-0.012924542717297307   -0.05415932054598853   -0.002883299443523849
-0.0073547054878318205   -0.06558113271775276   -0.002726584562975626
-0.012740518402601405   -0.06563364309559379   -0.0029474790044451368
-0.012851481518736779   -0.0655044827475109   -0.002906074561321023
-0.012924542717297307   -0.05415932054598853   -0.002883299443523849
-0.0073547054878318205   -0.06558113271775276   -0.002726584562975626
-0.012851481518736779   -0.0655044827475109   -0.002906074561321023
-0.0070234920992178086   -0.05397567808289127   -0.002727301214832294
-0.007123246323103389   -0.05386194279404321   -0.0028109173897150536
-0.007619302714258682   -0.06539453375795512   -0.002793608645290201
-0.0013302970056766324   -0.053830363706836235   -0.002763023349829579
-0.007076416358861869   -0.05391327780095921   -0.002762989832379459
-0.007619302714258682   -0.06539453375795512   -0.002793608645290201
-0.002371295942418008   -0.06535472280432879   -0.002782308567151128
-0.0013302970056766324   -0.053830363706836235   -0.002763023349829579
-0.002279307021974153   -0.06535555894113332   -0.002698240149118553
-0.007076416358861869   -0.05391327780095921   -0.002762989832379459
-0.0012749073413126874   -0.05384228953172185   -0.0026952241435338137
-0.002279307021974153   -0.06535555894113332   -0.002698240149118553
-0.0013302970056766324   -0.053830363706836235   -0.002763023349829579
-0.007076416358861869   -0.05391327780095921   -0.002762989832379459
-0.002279307021974153   -0.06535555894113332   -0.002698240149118553
-0.00753613571970691   -0.06542928176715952   -0.002758712498063012
-0.007619302714258682   -0.06539453375795512   -0.002793608645290201
-0.007076416358861869   -0.05391327780095921   -0.002762989832379459
-0.002279307021974153   -0.06535555894113332   -0.002698240149118553
-0.007619302714258682   -0.06539453375795512   -0.002793608645290201
-0.0013302970056766324   -0.053830363706836235   -0.002763023349829579
-0.007076416358861869   -0.05391327780095921   -0.002762989832379459
-0.00753613571970691   -0.06542928176715952   -0.002758712498063012
-0.0012749073413126874   -0.05384228953172185   -0.0026952241435338137
-0.0070234920992178086   -0.05397567808289127   -0.002727301214832294
-0.00753613571970691   -0.06542928176715952   -0.002758712498063012
-0.002279307021974153   -0.06535555894113332   -0.002698240149118553
-0.0012749073413126874   -0.05384228953172185   -0.0026952241435338137
-0.002189731376863866   -0.06538158977107741   -0.0026265554190614696
-0.0070234920992178086   -0.05397567808289127   -0.002727301214832294
-0.0012225133173322544   -0.05386441287755708   -0.002639576753762465
-0.002189731376863866   -0.06538158977107741   -0.0026265554190614696
-0.0012749073413126874   -0.05384228953172185   -0.0026952241435338137
-0.0070234920992178086   -0.05397567808289127   -0.002727301214832294
-0.002189731376863866   -0.06538158977107741   -0.0026265554190614696
-0.007446667953156997   -0.06549121989932989   -0.0027361700175895913
-0.00753613571970691   -0.06542928176715952   -0.002758712498063012
-0.0070234920992178086   -0.05397567808289127   -0.002727301214832294
-0.002189731376863866   -0.06538158977107741   -0.0026265554190614696
-0.00753613571970691   -0.06542928176715952   -0.002758712498063012
-0.0012749073413126874   -0.05384228953172185   -0.0026952241435338137
-0.0070234920992178086   -0.05397567808289127   -0.002727301214832294
-0.007446667953156997   -0.06549121989932989   -0.0027361700175895913
-0.0012225133173322544   -0.05386441287755708   -0.002639576753762465
-0.00696645247810509   -0.054049338135004454   -0.002704247691658827
-0.007446667953156997   -0.06549121989932989   -0.0027361700175895913
-0.002189731376863866   -0.06538158977107741   -0.0026265554190614696
-0.0012225133173322544   -0.05386441287755708   -0.002639576753762465
-0.002109816335213187   -0.06543497509232532   -0.0025676851327506283
-0.00696645247810509   -0.054049338135004454   -0.002704247691658827
-0.001178054248651951   -0.053897239266715795   -0.0025965058959849644
-0.002109816335213187   -0.06543497509232532   -0.0025676851327506283
-0.0012225133173322544   -0.05386441287755708   -0.002639576753762465
-0.00696645247810509   -0.054049338135004454   -0.002704247691658827
-0.002109816335213187   -0.06543497509232532   -0.0025676851327506283
-0.0073547054878318205   -0.06558113271775276   -0.002726584562975626
-0.007446667953156997   -0.06549121989932989   -0.0027361700175895913
-0.00696645247810509   -0.054049338135004454   -0.002704247691658827
-0.002109816335213187   -0.06543497509232532   -0.0025676851327506283
-0.007446667953156997   -0.06549121989932989   -0.0027361700175895913
-0.0012225133173322544   -0.05386441287755708   -0.002639576753762465
-0.0013302970056766324   -0.053830363706836235   -0.002763023349829579
-0.002371295942418008   -0.06535472280432879   -0.002782308567151128
0.004637132159525775   -0.05376015624167014   -0.0027865636212356976
-0.0012749073413126874   -0.05384228953172185   -0.0026952241435338137
-0.002371295942418008   -0.06535472280432879   -0.002782308567151128
0.0030578036313157453   -0.0652258771857669   -0.0028320684791714253
0.004637132159525775   -0.05376015624167014   -0.0027865636212356976
0.003170271265786792   -0.06519051638890662   -0.0026992942865448812
-0.0012749073413126874   -0.05384228953172185   -0.0026952241435338137
0.004707791426182704   -0.053732544564496304   -0.0026992473445984046
0.003170271265786792   -0.06519051638890662   -0.0026992942865448812
0.004637132159525775   -0.05376015624167014   -0.0027865636212356976
-0.0012749073413126874   -0.05384228953172185   -0.0026952241435338137
0.003170271265786792   -0.06519051638890662   -0.0026992942865448812
-0.002279307021974153   -0.06535555894113332   -0.002698240149118553
-0.002371295942418008   -0.06535472280432879   -0.002782308567151128
-0.0012749073413126874   -0.05384228953172185   -0.0026952241435338137
0.003170271265786792   -0.06519051638890662   -0.0026992942865448812
-0.002371295942418008   -0.06535472280432879   -0.002782308567151128
0.004637132159525775   -0.05376015624167014   -0.0027865636212356976
-0.0012749073413126874   -0.05384228953172185   -0.0026952241435338137
-0.002279307021974153   -0.06535555894113332   -0.002698240149118553
0.004707791426182704   -0.053732544564496304   -0.0026992473445984046
-0.0012225133173322544   -0.05386441287755708   -0.002639576753762465
-0.002279307021974153   -0.06535555894113332   -0.002698240149118553
0.003170271265786792   -0.06519051638890662   -0.0026992942865448812
0.004707791426182704   -0.053732544564496304   -0.0026992473445984046
0.0032855806676736093   -0.065183937947707   -0.002579697836862299
-0.0012225133173322544   -0.05386441287755708   -0.002639576753762465
0.004773071113111127   -0.053718188165160566   -0.0026240468634434683
0.0032855806676736093   -0.065183937947707   -0.002579697836862299
0.004707791426182704   -0.053732544564496304   -0.0026992473445984046
-0.0012225133173322544   -0.05386441287755708   -0.002639576753762465
0.0032855806676736093   -0.065183937947707   -0.002579697836862299
-0.002189731376863866   -0.06538158977107741   -0.0026265554190614696
-0.002279307021974153   -0.06535555894113332   -0.002698240149118553
-0.0012225133173322544   -0.05386441287755708   -0.002639576753762465
0.0032855806676736093   -0.065183937947707   -0.002579697836862299
-0.002279307021974153   -0.06535555894113332   -0.002698240149118553
0.004707791426182704   -0.053732544564496304   -0.0026992473445984046
-0.0012225133173322544   -0.05386441287755708   -0.002639576753762465
-0.002189731376863866   -0.06538158977107741   -0.0026265554190614696
0.004773071113111127   -0.053718188165160566   -0.0026240468634434683
-0.001178054248651951   -0.053897239266715795   -0.0025965058959849644
-0.002189731376863866   -0.06538158977107741   -0.0026265554190614696
0.0032855806676736093   -0.065183937947707   -0.002579697836862299
0.004773071113111127   -0.053718188165160566   -0.0026240468634434683
0.003362242294098669   -0.0652008283226199   -0.002471541652792243
-0.001178054248651951   -0.053897239266715795   -0.0025965058959849644
0.004808044522377539   -0.053710122869291575   -0.002560171209171595
0.003362242294098669   -0.0652008283226199   -0.002471541652792243
0.004773071113111127   -0.053718188165160566   -0.0026240468634434683
-0.001178054248651951   -0.053897239266715795   -0.0025965058959849644
0.003362242294098669   -0.0652008283226199   -0.002471541652792243
-0.002109816335213187   -0.06543497509232532   -0.0025676851327506283
-0.002189731376863866   -0.06538158977107741   -0.0026265554190614696
-0.001178054248651951   -0.053897239266715795   -0.0025965058959849644
0.003362242294098669   -0.0652008283226199   -0.002471541652792243
-0.002189731376863866   -0.06538158977107741   -0.0026265554190614696
0.004773071113111127   -0.053718188165160566   -0.0026240468634434683
0.004637132159525775   -0.05376015624167014   -0.0027865636212356976
0.0030578036313157453   -0.0652258771857669   -0.0028320684791714253
0.011026542741692368   -0.05364221293407141   -0.0028852581331688834
0.004707791426182704   -0.053732544564496304   -0.0026992473445984046
0.0030578036313157453   -0.0652258771857669   -0.0028320684791714253
0.008833820165617625   -0.06500437462049809   -0.002960629922418211
0.011026542741692368   -0.05364221293407141   -0.0028852581331688834
0.009133028446316414   -0.0649314419543772   -0.002767452476448479
0.004707791426182704   -0.053732544564496304   -0.0026992473445984046
0.011211028212815064   -0.053578764743536955   -0.0027706737630496673
0.009133028446316414   -0.0649314419543772   -0.002767452476448479
0.011026542741692368   -0.05364221293407141   -0.0028852581331688834
0.004707791426182704   -0.053732544564496304   -0.0026992473445984046
0.009133028446316414   -0.0649314419543772   -0.002767452476448479
0.003170271265786792   -0.06519051638890662   -0.0026992942865448812
0.0030578036313157453   -0.0652258771857669   -0.0028320684791714253
0.004707791426182704   -0.053732544564496304   -0.0026992473445984046
0.009133028446316414   -0.0649314419543772   -0.002767452476448479
0.0030578036313157453   -0.0652258771857669   -0.0028320684791714253
0.011026542741692368   -0.05364221293407141   -0.0028852581331688834
0.004707791426182704   -0.053732544564496304   -0.0026992473445984046
0.003170271265786792   -0.06519051638890662   -0.0026992942865448812
0.011211028212815064   -0.053578764743536955   -0.0027706737630496673
0.004773071113111127   -0.053718188165160566   -0.0026240468634434683
0.003170271265786792   -0.06519051638890662   -0.0026992942865448812
0.009133028446316414   -0.0649314419543772   -0.002767452476448479
0.011211028212815064   -0.053578764743536955   -0.0027706737630496673
0.009354561003815525   -0.06491140379302085   -0.0025917976861421156
0.004773071113111127   -0.053718188165160566   -0.0026240468634434683
0.011337740234505757   -0.053547999114472486   -0.002673341754524219
0.009354561003815525   -0.06491140379302085   -0.0025917976861421156
0.011211028212815064   -0.053578764743536955   -0.0027706737630496673
0.004773071113111127   -0.053718188165160566   -0.0026240468634434683
0.009354561003815525   -0.06491140379302085   -0.0025917976861421156
0.0032855806676736093   -0.065183937947707   -0.002579697836862299
0.003170271265786792   -0.06519051638890662   -0.0026992942865448812
0.004773071113111127   -0.053718188165160566   -0.0026240468634434683
0.009354561003815525   -0.06491140379302085   -0.0025917976861421156
0.003170271265786792   -0.06519051638890662   -0.0026992942865448812
0.011211028212815064   -0.053578764743536955   -0.0027706737630496673
0.004773071113111127   -0.053718188165160566   -0.0026240468634434683
0.0032855806676736093   -0.065183937947707   -0.002579697836862299
0.011337740234505757   -0.053547999114472486   -0.002673341754524219
0.004808044522377539   -0.053710122869291575   -0.002560171209171595
0.0032855806676736093   -0.065183937947707   -0.002579697836862299
0.009354561003815525   -0.06491140379302085   -0.0025917976861421156
0.011337740234505757   -0.053547999114472486   -0.002673341754524219
0.009579100326287598   -0.06491120057824537   -0.002434462572343541
0.004808044522377539   -0.053710122869291575   -0.002560171209171595
0.011450180793063218   -0.05351448518127123   -0.002593977781592143
0.009579100326287598   -0.06491120057824537   -0.002434462572343541
0.011337740234505757   -0.053547999114472486   -0.002673341754524219
0.004808044522377539   -0.053710122869291575   -0.002560171209171595
0.009579100326287598   -0.06491120057824537   -0.002434462572343541
0.003362242294098669   -0.0652008283226199   -0.002471541652792243
0.0032855806676736093   -0.065183937947707   -0.002579697836862299
0.004808044522377539   -0.053710122869291575   -0.002560171209171595
0.009579100326287598   -0.06491120057824537   -0.002434462572343541
0.0032855806676736093   -0.065183937947707   -0.002579697836862299
0.011337740234505757   -0.053547999114472486   -0.002673341754524219
-0.01906899541225894   -0.06521139699937141   -0.002967619809721596
-0.017402593739095674   -0.07528846568716631   -0.002767299308522711
-0.013031250657283264   -0.06534258932980812   -0.0028615233847316354
-0.018931156521681855   -0.06530159968493199   -0.003043218220436532
-0.017402593739095674   -0.07528846568716631   -0.002767299308522711
-0.012320783845112067   -0.07552524560055855   -0.002750163859032567
-0.013031250657283264   -0.06534258932980812   -0.0028615233847316354
-0.012193911405106884   -0.07555949999350642   -0.0028061391871406767
-0.018931156521681855   -0.06530159968493199   -0.003043218220436532
-0.012954888179322102   -0.06540939778722121   -0.0028775460839775002
-0.012193911405106884   -0.07555949999350642   -0.0028061391871406767
-0.013031250657283264   -0.06534258932980812   -0.0028615233847316354
-0.018931156521681855   -0.06530159968493199   -0.003043218220436532
-0.012193911405106884   -0.07555949999350642   -0.0028061391871406767
-0.01713841567410466   -0.07533930818721402   -0.002923967450282998
-0.017402593739095674   -0.07528846568716631   -0.002767299308522711
-0.018931156521681855   -0.06530159968493199   -0.003043218220436532
-0.012193911405106884   -0.07555949999350642   -0.0028061391871406767
-0.017402593739095674   -0.07528846568716631   -0.002767299308522711
-0.013031250657283264   -0.06534258932980812   -0.0028615233847316354
-0.018931156521681855   -0.06530159968493199   -0.003043218220436532
-0.01713841567410466   -0.07533930818721402   -0.002923967450282998
-0.012954888179322102   -0.06540939778722121   -0.0028775460839775002
-0.018773780790494646   -0.06541226868192276   -0.0031384855907712174
-0.01713841567410466   -0.07533930818721402   -0.002923967450282998
-0.012193911405106884   -0.07555949999350642   -0.0028061391871406767
-0.012954888179322102   -0.06540939778722121   -0.0028775460839775002
-0.012034559679657877   -0.07564153149544102   -0.0028748107130193096
-0.018773780790494646   -0.06541226868192276   -0.0031384855907712174
-0.012851481518736779   -0.0655044827475109   -0.002906074561321023
-0.012034559679657877   -0.07564153149544102   -0.0028748107130193096
-0.012954888179322102   -0.06540939778722121   -0.0028775460839775002
-0.018773780790494646   -0.06541226868192276   -0.0031384855907712174
-0.012034559679657877   -0.07564153149544102   -0.0028748107130193096
-0.016874871000121472   -0.07543557635426465   -0.0031013092665396658
-0.01713841567410466   -0.07533930818721402   -0.002923967450282998
-0.018773780790494646   -0.06541226868192276   -0.0031384855907712174
-0.012034559679657877   -0.07564153149544102   -0.0028748107130193096
-0.01713841567410466   -0.07533930818721402   -0.002923967450282998
-0.012954888179322102   -0.06540939778722121   -0.0028775460839775002
-0.018773780790494646   -0.06541226868192276   -0.0031384855907712174
-0.016874871000121472   -0.07543557635426465   -0.0031013092665396658
-0.012851481518736779   -0.0655044827475109   -0.002906074561321023
-0.01855945512646739   -0.0655807090951097   -0.0032537828100961783
-0.016874871000121472   -0.07543557635426465   -0.0031013092665396658
-0.012034559679657877   -0.07564153149544102   -0.0028748107130193096
-0.012851481518736779   -0.0655044827475109   -0.002906074561321023
-0.011877323110473076   -0.07577599872340873   -0.002956059343934581
-0.01855945512646739   -0.0655807090951097   -0.0032537828100961783
-0.012740518402601405   -0.06563364309559379   -0.0029474790044451368
-0.011877323110473076   -0.07577599872340873   -0.002956059343934581
-0.012851481518736779   -0.0655044827475109   -0.002906074561321023
-0.01855945512646739   -0.0655807090951097   -0.0032537828100961783
-0.011877323110473076   -0.07577599872340873   -0.002956059343934581
-0.016537276572625215   -0.07561508748031814   -0.0032989407697357324
-0.016874871000121472   -0.07543557635426465   -0.0031013092665396658
-0.01855945512646739   -0.0655807090951097   -0.0032537828100961783
-0.011877323110473076   -0.07577599872340873   -0.002956059343934581
-0.016874871000121472   -0.07543557635426465   -0.0031013092665396658
-0.012851481518736779   -0.0655044827475109   -0.002906074561321023
-0.013031250657283264   -0.06534258932980812   -0.0028615233847316354
-0.012320783845112067   -0.07552524560055855   -0.002750163859032567
-0.007619302714258682   -0.06539453375795512   -0.002793608645290201
-0.012954888179322102   -0.06540939778722121   -0.0028775460839775002
-0.012320783845112067   -0.07552524560055855   -0.002750163859032567
-0.007921037687419426   -0.07563623198458196   -0.0027433419914023173
-0.007619302714258682   -0.06539453375795512   -0.002793608645290201
-0.007790854471224122   -0.07564747651375149   -0.0027183116527092956
-0.012954888179322102   -0.06540939778722121   -0.0028775460839775002
-0.00753613571970691   -0.06542928176715952   -0.002758712498063012
-0.007790854471224122   -0.07564747651375149   -0.0027183116527092956
-0.007619302714258682   -0.06539453375795512   -0.002793608645290201
-0.012954888179322102   -0.06540939778722121   -0.0028775460839775002
-0.007790854471224122   -0.07564747651375149   -0.0027183116527092956
-0.012193911405106884   -0.07555949999350642   -0.0028061391871406767
-0.012320783845112067   -0.07552524560055855   -0.002750163859032567
-0.012954888179322102   -0.06540939778722121   -0.0028775460839775002
-0.007790854471224122   -0.07564747651375149   -0.0027183116527092956
-0.012320783845112067   -0.07552524560055855   -0.002750163859032567
-0.007619302714258682   -0.06539453375795512   -0.002793608645290201
-0.012954888179322102   -0.06540939778722121   -0.0028775460839775002
-0.012193911405106884   -0.07555949999350642   -0.0028061391871406767
-0.00753613571970691   -0.06542928176715952   -0.002758712498063012
-0.012851481518736779   -0.0655044827475109   -0.002906074561321023
-0.012193911405106884   -0.07555949999350642   -0.0028061391871406767
-0.007790854471224122   -0.07564747651375149   -0.0027183116527092956
-0.00753613571970691   -0.06542928176715952   -0.002758712498063012
-0.007656495169000956   -0.07570137878780897   -0.0027056016919276803
-0.012851481518736779   -0.0655044827475109   -0.002906074561321023
-0.007446667953156997   -0.06549121989932989   -0.0027361700175895913
-0.007656495169000956   -0.07570137878780897   -0.0027056016919276803
-0.00753613571970691   -0.06542928176715952   -0.002758712498063012
-0.012851481518736779   -0.0655044827475109   -0.002906074561321023
-0.007656495169000956   -0.07570137878780897   -0.0027056016919276803
-0.012034559679657877   -0.07564153149544102   -0.0028748107130193096
-0.012193911405106884   -0.07555949999350642   -0.0028061391871406767
-0.012851481518736779   -0.0655044827475109   -0.002906074561321023
-0.007656495169000956   -0.07570137878780897   -0.0027056016919276803
-0.012193911405106884   -0.07555949999350642   -0.0028061391871406767
-0.00753613571970691   -0.06542928176715952   -0.002758712498063012
-0.012851481518736779   -0.0655044827475109   -0.002906074561321023
-0.012034559679657877   -0.07564153149544102   -0.0028748107130193096
-0.007446667953156997   -0.06549121989932989   -0.0027361700175895913
-0.012740518402601405   -0.06563364309559379   -0.0029474790044451368
-0.012034559679657877   -0.07564153149544102   -0.0028748107130193096
-0.007656495169000956   -0.07570137878780897   -0.0027056016919276803
-0.007446667953156997   -0.06549121989932989   -0.0027361700175895913
-0.007522358495218625   -0.07580045948831046   -0.0027050519253278517
-0.012740518402601405   -0.06563364309559379   -0.0029474790044451368
-0.0073547054878318205   -0.06558113271775276   -0.002726584562975626
-0.007522358495218625   -0.07580045948831046   -0.0027050519253278517
-0.007446667953156997   -0.06549121989932989   -0.0027361700175895913
-0.012740518402601405   -0.06563364309559379   -0.0029474790044451368
-0.007522358495218625   -0.07580045948831046   -0.0027050519253278517
-0.011877323110473076   -0.07577599872340873   -0.002956059343934581
-0.012034559679657877   -0.07564153149544102   -0.0028748107130193096
-0.012740518402601405   -0.06563364309559379   -0.0029474790044451368
-0.007522358495218625   -0.07580045948831046   -0.0027050519253278517
-0.012034559679657877   -0.07564153149544102   -0.0028748107130193096
-0.007446667953156997   -0.06549121989932989   -0.0027361700175895913
-0.007619302714258682   -0.06539453375795512   -0.002793608645290201
-0.007921037687419426   -0.07563623198458196   -0.0027433419914023173
-0.002371295942418008   -0.06535472280432879   -0.002782308567151128
-0.00753613571970691   -0.06542928176715952   -0.002758712498063012
-0.007921037687419426   -0.07563623198458196   -0.0027433419914023173
-0.003667405268319502   -0.07561622969698549   -0.002774845828410678
-0.002371295942418008   -0.06535472280432879   -0.002782308567151128
-0.0035248077771120024   -0.07560163751483935   -0.002671653541472674
-0.00753613571970691   -0.06542928176715952   -0.002758712498063012
-0.002279307021974153   -0.06535555894113332   -0.002698240149118553
-0.0035248077771120024   -0.07560163751483935   -0.002671653541472674
-0.002371295942418008   -0.06535472280432879   -0.002782308567151128
-0.00753613571970691   -0.06542928176715952   -0.002758712498063012
-0.0035248077771120024   -0.07560163751483935   -0.002671653541472674
-0.007790854471224122   -0.07564747651375149   -0.0027183116527092956
-0.007921037687419426   -0.07563623198458196   -0.0027433419914023173
-0.00753613571970691   -0.06542928176715952   -0.002758712498063012
-0.0035248077771120024   -0.07560163751483935   -0.002671653541472674
-0.007921037687419426   -0.07563623198458196   -0.0027433419914023173
-0.002371295942418008   -0.06535472280432879   -0.002782308567151128
-0.00753613571970691   -0.06542928176715952   -0.002758712498063012
-0.007790854471224122   -0.07564747651375149   -0.0027183116527092956
-0.002279307021974153   -0.06535555894113332   -0.002698240149118553
-0.007446667953156997   -0.06549121989932989   -0.0027361700175895913
-0.007790854471224122   -0.07564747651375149   -0.0027183116527092956
-0.0035248077771120024   -0.07560163751483935   -0.002671653541472674
-0.002279307021974153   -0.06535555894113332   -0.002698240149118553
-0.0033864234897710848   -0.07562561035239139   -0.002581593879263903
-0.007446667953156997   -0.06549121989932989   -0.0027361700175895913
-0.002189731376863866   -0.06538158977107741   -0.0026265554190614696
-0.0033864234897710848   -0.07562561035239139   -0.002581593879263903
-0.002279307021974153   -0.06535555894113332   -0.002698240149118553
-0.007446667953156997   -0.06549121989932989   -0.0027361700175895913
-0.0033864234897710848   -0.07562561035239139   -0.002581593879263903
-0.007656495169000956   -0.07570137878780897   -0.0027056016919276803
-0.007790854471224122   -0.07564747651375149   -0.0027183116527092956
-0.007446667953156997   -0.06549121989932989   -0.0027361700175895913
-0.0033864234897710848   -0.07562561035239139   -0.002581593879263903
-0.007790854471224122   -0.07564747651375149   -0.0027183116527092956
-0.002279307021974153   -0.06535555894113332   -0.002698240149118553
-0.007446667953156997   -0.06549121989932989   -0.0027361700175895913
-0.007656495169000956   -0.07570137878780897   -0.0027056016919276803
-0.002189731376863866   -0.06538158977107741   -0.0026265554190614696
-0.0073547054878318205   -0.06558113271775276   -0.002726584562975626
-0.007656495169000956   -0.07570137878780897   -0.0027056016919276803
-0.0033864234897710848   -0.07562561035239139   -0.002581593879263903
-0.002189731376863866   -0.06538158977107741   -0.0026265554190614696
-0.003261405908219528   -0.07569375807740186   -0.0025035283892617297
-0.0073547054878318205   -0.06558113271775276   -0.002726584562975626
-0.002109816335213187   -0.06543497509232532   -0.0025676851327506283
-0.003261405908219528   -0.07569375807740186   -0.0025035283892617297
-0.002189731376863866   -0.06538158977107741   -0.0026265554190614696
-0.0073547054878318205   -0.06558113271775276   -0.002726584562975626
-0.003261405908219528   -0.07569375807740186   -0.0025035283892617297
-0.007522358495218625   -0.07580045948831046   -0.0027050519253278517
-0.007656495169000956   -0.07570137878780897   -0.0027056016919276803
-0.0073547054878318205   -0.06558113271775276   -0.002726584562975626
-0.003261405908219528   -0.07569375807740186   -0.0025035283892617297
-0.007656495169000956   -0.07570137878780897   -0.0027056016919276803
-0.002189731376863866   -0.06538158977107741   -0.0026265554190614696
-0.002371295942418008   -0.06535472280432879   -0.002782308567151128
-0.003667405268319502   -0.07561622969698549   -0.002774845828410678
0.0030578036313157453   -0.0652258771857669   -0.0028320684791714253
-0.002279307021974153   -0.06535555894113332   -0.002698240149118553
-0.003667405268319502   -0.07561622969698549   -0.002774845828410678
0.0007859262813683485   -0.07546055572399758   -0.0028516145226320806
0.0030578036313157453   -0.0652258771857669   -0.0028320684791714253
0.0009593813576806503   -0.07541314124956193   -0.002670533031855566
-0.002279307021974153   -0.06535555894113332   -0.002698240149118553
0.003170271265786792   -0.06519051638890662   -0.0026992942865448812
0.0009593813576806503   -0.07541314124956193   -0.002670533031855566
0.0030578036313157453   -0.0652258771857669   -0.0028320684791714253
-0.002279307021974153   -0.06535555894113332   -0.002698240149118553
0.0009593813576806503   -0.07541314124956193   -0.002670533031855566
-0.0035248077771120024   -0.07560163751483935   -0.002671653541472674
-0.003667405268319502   -0.07561622969698549   -0.002774845828410678
-0.002279307021974153   -0.06535555894113332   -0.002698240149118553
0.0009593813576806503   -0.07541314124956193   -0.002670533031855566
-0.003667405268319502   -0.07561622969698549   -0.002774845828410678
0.0030578036313157453   -0.0652258771857669   -0.0028320684791714253
-0.002279307021974153   -0.06535555894113332   -0.002698240149118553
-0.0035248077771120024   -0.07560163751483935   -0.002671653541472674
0.003170271265786792   -0.06519051638890662   -0.0026992942865448812
-0.002189731376863866   -0.06538158977107741   -0.0026265554190614696
-0.0035248077771120024   -0.07560163751483935   -0.002671653541472674
0.0009593813576806503   -0.07541314124956193   -0.002670533031855566
0.003170271265786792   -0.06519051638890662   -0.0026992942865448812
0.0011421503658275386   -0.07540884566155634   -0.002506100889546297
-0.002189731376863866   -0.06538158977107741   -0.0026265554190614696
0.0032855806676736093   -0.065183937947707   -0.002579697836862299
0.0011421503658275386   -0.07540884566155634   -0.002506100889546297
0.003170271265786792   -0.06519051638890662   -0.0026992942865448812
-0.002189731376863866   -0.06538158977107741   -0.0026265554190614696
0.0011421503658275386   -0.07540884566155634   -0.002506100889546297
-0.0033864234897710848   -0.07562561035239139   -0.002581593879263903
-0.0035248077771120024   -0.07560163751483935   -0.002671653541472674
-0.002189731376863866   -0.06538158977107741   -0.0026265554190614696
0.0011421503658275386   -0.07540884566155634   -0.002506100889546297
-0.0035248077771120024   -0.07560163751483935   -0.002671653541472674
0.003170271265786792   -0.06519051638890662   -0.0026992942865448812
-0.002189731376863866   -0.06538158977107741   -0.0026265554190614696
-0.0033864234897710848   -0.07562561035239139   -0.002581593879263903
0.0032855806676736093   -0.065183937947707   -0.002579697836862299
-0.002109816335213187   -0.06543497509232532   -0.0025676851327506283
-0.0033864234897710848   -0.07562561035239139   -0.002581593879263903
0.0011421503658275386   -0.07540884566155634   -0.002506100889546297
0.0032855806676736093   -0.065183937947707   -0.002579697836862299
0.0012758220335449565   -0.07544571065984575   -0.0023531337013757334
-0.002109816335213187   -0.06543497509232532   -0.0025676851327506283
0.003362242294098669   -0.0652008283226199   -0.002471541652792243
0.0012758220335449565   -0.07544571065984575   -0.0023531337013757334
0.0032855806676736093   -0.065183937947707   -0.002579697836862299
-0.002109816335213187   -0.06543497509232532   -0.0025676851327506283
0.0012758220335449565   -0.07544571065984575   -0.0023531337013757334
-0.003261405908219528   -0.07569375807740186   -0.0025035283892617297
-0.0033864234897710848   -0.07562561035239139   -0.002581593879263903
-0.002109816335213187   -0.06543497509232532   -0.0025676851327506283
0.0012758220335449565   -0.07544571065984575   -0.0023531337013757334
-0.0033864234897710848   -0.07562561035239139   -0.002581593879263903
0.0032855806676736093   -0.065183937947707   -0.002579697836862299
0.0030578036313157453   -0.0652258771857669   -0.0028320684791714253
0.0007859262813683485   -0.07546055572399758   -0.0028516145226320806
0.008833820165617625   -0.06500437462049809   -0.002960629922418211
0.003170271265786792   -0.06519051638890662   -0.0026992942865448812
0.0007859262813683485   -0.07546055572399758   -0.0028516145226320806
0.005534404440245038   -0.07515443809150699   -0.003015877388833713
0.008833820165617625   -0.06500437462049809   -0.002960629922418211
0.00597351383822217   -0.07506341521724592   -0.002738749599387918
0.003170271265786792   -0.06519051638890662   -0.0026992942865448812
0.009133028446316414   -0.0649314419543772   -0.002767452476448479
0.00597351383822217   -0.07506341521724592   -0.002738749599387918
0.008833820165617625   -0.06500437462049809   -0.002960629922418211
0.003170271265786792   -0.06519051638890662   -0.0026992942865448812
0.00597351383822217   -0.07506341521724592   -0.002738749599387918
0.0009593813576806503   -0.07541314124956193   -0.002670533031855566
0.0007859262813683485   -0.07546055572399758   -0.0028516145226320806
0.003170271265786792   -0.06519051638890662   -0.0026992942865448812
0.00597351383822217   -0.07506341521724592   -0.002738749599387918
0.0007859262813683485   -0.07546055572399758   -0.0028516145226320806
0.008833820165617625   -0.06500437462049809   -0.002960629922418211
0.003170271265786792   -0.06519051638890662   -0.0026992942865448812
0.0009593813576806503   -0.07541314124956193   -0.002670533031855566
0.009133028446316414   -0.0649314419543772   -0.002767452476448479
0.0032855806676736093   -0.065183937947707   -0.002579697836862299
0.0009593813576806503   -0.07541314124956193   -0.002670533031855566
0.00597351383822217   -0.07506341521724592   -0.002738749599387918
0.009133028446316414   -0.0649314419543772   -0.002767452476448479
0.00631017341027283   -0.07504765485528095   -0.002482267675806475
0.0032855806676736093   -0.065183937947707   -0.002579697836862299
0.009354561003815525   -0.06491140379302085   -0.0025917976861421156
0.00631017341027283   -0.07504765485528095   -0.002482267675806475
0.009133028446316414   -0.0649314419543772   -0.002767452476448479
0.0032855806676736093   -0.065183937947707   -0.002579697836862299
0.00631017341027283   -0.07504765485528095   -0.002482267675806475
0.0011421503658275386   -0.07540884566155634   -0.002506100889546297
0.0009593813576806503   -0.07541314124956193   -0.002670533031855566
0.0032855806676736093   -0.065183937947707   -0.002579697836862299
0.00631017341027283   -0.07504765485528095   -0.002482267675806475
0.0009593813576806503   -0.07541314124956193   -0.002670533031855566
0.009133028446316414   -0.0649314419543772   -0.002767452476448479
0.0032855806676736093   -0.065183937947707   -0.002579697836862299
0.0011421503658275386   -0.07540884566155634   -0.002506100889546297
0.009354561003815525   -0.06491140379302085   -0.0025917976861421156
0.003362242294098669   -0.0652008283226199   -0.002471541652792243
0.0011421503658275386   -0.07540884566155634   -0.002506100889546297
0.00631017341027283   -0.07504765485528095   -0.002482267675806475
0.009354561003815525   -0.06491140379302085   -0.0025917976861421156
0.006658870645477643   -0.07507461392101614   -0.0022485288661869937
0.003362242294098669   -0.0652008283226199   -0.002471541652792243
0.009579100326287598   -0.06491120057824537   -0.002434462572343541
0.006658870645477643   -0.07507461392101614   -0.0022485288661869937
0.009354561003815525   -0.06491140379302085   -0.0025917976861421156
0.003362242294098669   -0.0652008283226199   -0.002471541652792243
0.006658870645477643   -0.07507461392101614   -0.0022485288661869937
0.0012758220335449565   -0.07544571065984575   -0.0023531337013757334
0.0011421503658275386   -0.07540884566155634   -0.002506100889546297
0.003362242294098669   -0.0652008283226199   -0.002471541652792243
0.006658870645477643   -0.07507461392101614   -0.0022485288661869937
0.0011421503658275386   -0.07540884566155634   -0.002506100889546297
0.009354561003815525   -0.06491140379302085   -0.0025917976861421156
-0.017402593739095674   -0.07528846568716631   -0.002767299308522711
-0.014573193982719786   -0.08319886206689867   -0.002510607439013787
-0.012320783845112067   -0.07552524560055855   -0.002750163859032567
-0.01713841567410466   -0.07533930818721402   -0.002923967450282998
-0.014573193982719786   -0.08319886206689867   -0.002510607439013787
-0.010956881787008998   -0.08354961482687928   -0.002615840614865038
-0.012320783845112067   -0.07552524560055855   -0.002750163859032567
-0.01077402106300496   -0.08353150341775697   -0.0027019921189073933
-0.01713841567410466   -0.07533930818721402   -0.002923967450282998
-0.012193911405106884   -0.07555949999350642   -0.0028061391871406767
-0.01077402106300496   -0.08353150341775697   -0.0027019921189073933
-0.012320783845112067   -0.07552524560055855   -0.002750163859032567
-0.01713841567410466   -0.07533930818721402   -0.002923967450282998
-0.01077402106300496   -0.08353150341775697   -0.0027019921189073933
-0.014179184422335444   -0.0831889598334943   -0.002742901161142029
-0.014573193982719786   -0.08319886206689867   -0.002510607439013787
-0.01713841567410466   -0.07533930818721402   -0.002923967450282998
-0.01077402106300496   -0.08353150341775697   -0.0027019921189073933
-0.014573193982719786   -0.08319886206689867   -0.002510607439013787
-0.012320783845112067   -0.07552524560055855   -0.002750163859032567
-0.01713841567410466   -0.07533930818721402   -0.002923967450282998
-0.014179184422335444   -0.0831889598334943   -0.002742901161142029
-0.012193911405106884   -0.07555949999350642   -0.0028061391871406767
-0.016874871000121472   -0.07543557635426465   -0.0031013092665396658
-0.014179184422335444   -0.0831889598334943   -0.002742901161142029
-0.01077402106300496   -0.08353150341775697   -0.0027019921189073933
-0.012193911405106884   -0.07555949999350642   -0.0028061391871406767
-0.010558977177780706   -0.08358190998759434   -0.0028011205132531672
-0.016874871000121472   -0.07543557635426465   -0.0031013092665396658
-0.012034559679657877   -0.07564153149544102   -0.0028748107130193096
-0.010558977177780706   -0.08358190998759434   -0.0028011205132531672
-0.012193911405106884   -0.07555949999350642   -0.0028061391871406767
-0.016874871000121472   -0.07543557635426465   -0.0031013092665396658
-0.010558977177780706   -0.08358190998759434   -0.0028011205132531672
-0.013815961228647203   -0.08325125253212999   -0.0029934688192373767
-0.014179184422335444   -0.0831889598334943   -0.002742901161142029
-0.016874871000121472   -0.07543557635426465   -0.0031013092665396658
-0.010558977177780706   -0.08358190998759434   -0.0028011205132531672
-0.014179184422335444   -0.0831889598334943   -0.002742901161142029
-0.012193911405106884   -0.07555949999350642   -0.0028061391871406767
-0.016874871000121472   -0.07543557635426465   -0.0031013092665396658
-0.013815961228647203   -0.08325125253212999   -0.0029934688192373767
-0.012034559679657877   -0.07564153149544102   -0.0028748107130193096
-0.016537276572625215   -0.07561508748031814   -0.0032989407697357324
-0.013815961228647203   -0.08325125253212999   -0.0029934688192373767
-0.010558977177780706   -0.08358190998759434   -0.0028011205132531672
-0.012034559679657877   -0.07564153149544102   -0.0028748107130193096
-0.010363888591495205   -0.08370197862727967   -0.00291239518937683
-0.016537276572625215   -0.07561508748031814   -0.0032989407697357324
-0.011877323110473076   -0.07577599872340873   -0.002956059343934581
-0.010363888591495205   -0.08370197862727967   -0.00291239518937683
-0.012034559679657877   -0.07564153149544102   -0.0028748107130193096
-0.016537276572625215   -0.07561508748031814   -0.0032989407697357324
-0.010363888591495205   -0.08370197862727967   -0.00291239518937683
-0.013372971741317245   -0.08341770448654158   -0.0032612305465551193
-0.013815961228647203   -0.08325125253212999   -0.0029934688192373767
-0.016537276572625215   -0.07561508748031814   -0.0032989407697357324
-0.010363888591495205   -0.08370197862727967   -0.00291239518937683
-0.013815961228647203   -0.08325125253212999   -0.0029934688192373767
-0.012034559679657877   -0.07564153149544102   -0.0028748107130193096
-0.012320783845112067   -0.07552524560055855   -0.002750163859032567
-0.010956881787008998   -0.08354961482687928   -0.002615840614865038
-0.007921037687419426   -0.07563623198458196   -0.0027433419914023173
-0.012193911405106884   -0.07555949999350642   -0.0028061391871406767
-0.010956881787008998   -0.08354961482687928   -0.002615840614865038
-0.008002883152464554   -0.08377717783829017   -0.0026981884039610246
-0.007921037687419426   -0.07563623198458196   -0.0027433419914023173
-0.007815212949321144   -0.0837482084282966   -0.002671829902968252
-0.012193911405106884   -0.07555949999350642   -0.0028061391871406767
-0.007790854471224122   -0.07564747651375149   -0.0027183116527092956
-0.007815212949321144   -0.0837482084282966   -0.002671829902968252
-0.007921037687419426   -0.07563623198458196   -0.0027433419914023173
-0.012193911405106884   -0.07555949999350642   -0.0028061391871406767
-0.007815212949321144   -0.0837482084282966   -0.002671829902968252
-0.01077402106300496   -0.08353150341775697   -0.0027019921189073933
-0.010956881787008998   -0.08354961482687928   -0.002615840614865038
-0.012193911405106884   -0.07555949999350642   -0.0028061391871406767
-0.007815212949321144   -0.0837482084282966   -0.002671829902968252
-0.010956881787008998   -0.08354961482687928   -0.002615840614865038
-0.007921037687419426   -0.07563623198458196   -0.0027433419914023173
-0.012193911405106884   -0.07555949999350642   -0.0028061391871406767
-0.01077402106300496   -0.08353150341775697   -0.0027019921189073933
-0.007790854471224122   -0.07564747651375149   -0.0027183116527092956
-0.012034559679657877   -0.07564153149544102   -0.0028748107130193096
-0.01077402106300496   -0.08353150341775697   -0.0027019921189073933
-0.007815212949321144   -0.0837482084282966   -0.002671829902968252
-0.007790854471224122   -0.07564747651375149   -0.0027183116527092956
-0.007630199528354128   -0.08377837307570203   -0.0026580734588563916
-0.012034559679657877   -0.07564153149544102   -0.0028748107130193096
-0.007656495169000956   -0.07570137878780897   -0.0027056016919276803
-0.007630199528354128   -0.08377837307570203   -0.0026580734588563916
-0.007790854471224122   -0.07564747651375149   -0.0027183116527092956
-0.012034559679657877   -0.07564153149544102   -0.0028748107130193096
-0.007630199528354128   -0.08377837307570203   -0.0026580734588563916
-0.010558977177780706   -0.08358190998759434   -0.0028011205132531672
-0.01077402106300496   -0.08353150341775697   -0.0027019921189073933
-0.012034559679657877   -0.07564153149544102   -0.0028748107130193096
-0.007630199528354128   -0.08377837307570203   -0.0026580734588563916
-0.01077402106300496   -0.08353150341775697   -0.0027019921189073933
-0.007790854471224122   -0.07564747651375149   -0.0027183116527092956
-0.012034559679657877   -0.07564153149544102   -0.0028748107130193096
-0.010558977177780706   -0.08358190998759434   -0.0028011205132531672
-0.007656495169000956   -0.07570137878780897   -0.0027056016919276803
-0.011877323110473076   -0.07577599872340873   -0.002956059343934581
-0.010558977177780706   -0.08358190998759434   -0.0028011205132531672
-0.007630199528354128   -0.08377837307570203   -0.0026580734588563916
-0.007656495169000956   -0.07570137878780897   -0.0027056016919276803
-0.007459983398133599   -0.08386964411620113   -0.0026595620568586158
-0.011877323110473076   -0.07577599872340873   -0.002956059343934581
-0.007522358495218625   -0.07580045948831046   -0.0027050519253278517
-0.007459983398133599   -0.08386964411620113   -0.0026595620568586158
-0.007656495169000956   -0.07570137878780897   -0.0027056016919276803
-0.011877323110473076   -0.07577599872340873   -0.002956059343934581
-0.007459983398133599   -0.08386964411620113   -0.0026595620568586158
-0.010363888591495205   -0.08370197862727967   -0.00291239518937683
-0.010558977177780706   -0.08358190998759434   -0.0028011205132531672
-0.011877323110473076   -0.07577599872340873   -0.002956059343934581
-0.007459983398133599   -0.08386964411620113   -0.0026595620568586158
-0.010558977177780706   -0.08358190998759434   -0.0028011205132531672
-0.007656495169000956   -0.07570137878780897   -0.0027056016919276803
-0.007921037687419426   -0.07563623198458196   -0.0027433419914023173
-0.008002883152464554   -0.08377717783829017   -0.0026981884039610246
-0.003667405268319502   -0.07561622969698549   -0.002774845828410678
-0.007790854471224122   -0.07564747651375149   -0.0027183116527092956
-0.008002883152464554   -0.08377717783829017   -0.0026981884039610246
-0.005173639137007223   -0.0838970789258464   -0.0027954237221939934
-0.003667405268319502   -0.07561622969698549   -0.002774845828410678
-0.004962073854497639   -0.0838553275000149   -0.0026629743627785405
-0.007790854471224122   -0.07564747651375149   -0.0027183116527092956
-0.0035248077771120024   -0.07560163751483935   -0.002671653541472674
-0.004962073854497639   -0.0838553275000149   -0.0026629743627785405
-0.003667405268319502   -0.07561622969698549   -0.002774845828410678
-0.007790854471224122   -0.07564747651375149   -0.0027183116527092956
-0.004962073854497639   -0.0838553275000149   -0.0026629743627785405
-0.007815212949321144   -0.0837482084282966   -0.002671829902968252
-0.008002883152464554   -0.08377717783829017   -0.0026981884039610246
-0.007790854471224122   -0.07564747651375149   -0.0027183116527092956
-0.004962073854497639   -0.0838553275000149   -0.0026629743627785405
-0.008002883152464554   -0.08377717783829017   -0.0026981884039610246
-0.003667405268319502   -0.07561622969698549   -0.002774845828410678
-0.007790854471224122   -0.07564747651375149   -0.0027183116527092956
-0.007815212949321144   -0.0837482084282966   -0.002671829902968252
-0.0035248077771120024   -0.07560163751483935   -0.002671653541472674
-0.007656495169000956   -0.07570137878780897   -0.0027056016919276803
-0.007815212949321144   -0.0837482084282966   -0.002671829902968252
-0.004962073854497639   -0.0838553275000149   -0.0026629743627785405
-0.0035248077771120024   -0.07560163751483935   -0.002671653541472674
-0.004760414440463794   -0.08386555510894436   -0.002541656192407473
-0.007656495169000956   -0.07570137878780897   -0.0027056016919276803
-0.0033864234897710848   -0.07562561035239139   -0.002581593879263903
-0.004760414440463794   -0.08386555510894436   -0.002541656192407473
-0.0035248077771120024   -0.07560163751483935   -0.002671653541472674
-0.007656495169000956   -0.07570137878780897   -0.0027056016919276803
-0.004760414440463794   -0.08386555510894436   -0.002541656192407473
-0.007630199528354128   -0.08377837307570203   -0.0026580734588563916
-0.007815212949321144   -0.0837482084282966   -0.002671829902968252
-0.007656495169000956   -0.07570137878780897   -0.0027056016919276803
-0.004760414440463794   -0.08386555510894436   -0.002541656192407473
-0.007815212949321144   -0.0837482084282966   -0.002671829902968252
-0.0035248077771120024   -0.07560163751483935   -0.002671653541472674
-0.007656495169000956   -0.07570137878780897   -0.0027056016919276803
-0.007630199528354128   -0.08377837307570203   -0.0026580734588563916
-0.0033864234897710848   -0.07562561035239139   -0.002581593879263903
-0.007522358495218625   -0.07580045948831046   -0.0027050519253278517
-0.007630199528354128   -0.08377837307570203   -0.0026580734588563916
-0.004760414440463794   -0.08386555510894436   -0.002541656192407473
-0.0033864234897710848   -0.07562561035239139   -0.002581593879263903
-0.004592727870773788   -0.08393792547088234   -0.0024384432434120733
-0.007522358495218625   -0.07580045948831046   -0.0027050519253278517
-0.003261405908219528   -0.07569375807740186   -0.0025035283892617297
-0.004592727870773788   -0.08393792547088234   -0.0024384432434120733
-0.0033864234897710848   -0.07562561035239139   -0.002581593879263903
-0.007522358495218625   -0.07580045948831046   -0.0027050519253278517
-0.004592727870773788   -0.08393792547088234   -0.0024384432434120733
-0.007459983398133599   -0.08386964411620113   -0.0026595620568586158
-0.007630199528354128   -0.08377837307570203   -0.0026580734588563916
-0.007522358495218625   -0.07580045948831046   -0.0027050519253278517
-0.004592727870773788   -0.08393792547088234   -0.0024384432434120733
-0.007630199528354128   -0.08377837307570203   -0.0026580734588563916
-0.0033864234897710848   -0.07562561035239139   -0.002581593879263903
-0.003667405268319502   -0.07561622969698549   -0.002774845828410678
-0.005173639137007223   -0.0838970789258464   -0.0027954237221939934
0.0007859262813683485   -0.07546055572399758   -0.0028516145226320806
-0.0035248077771120024   -0.07560163751483935   -0.002671653541472674
-0.005173639137007223   -0.0838970789258464   -0.0027954237221939934
-0.002164466245352124   -0.08386752195026788   -0.002909896902496651
0.0007859262813683485   -0.07546055572399758   -0.0028516145226320806
-0.0018928349669959307   -0.08380208030804226   -0.0026759722397051607
-0.0035248077771120024   -0.07560163751483935   -0.002671653541472674
0.0009593813576806503   -0.07541314124956193   -0.002670533031855566
-0.0018928349669959307   -0.08380208030804226   -0.0026759722397051607
0.0007859262813683485   -0.07546055572399758   -0.0028516145226320806
-0.0035248077771120024   -0.07560163751483935   -0.002671653541472674
-0.0018928349669959307   -0.08380208030804226   -0.0026759722397051607
-0.004962073854497639   -0.0838553275000149   -0.0026629743627785405
-0.005173639137007223   -0.0838970789258464   -0.0027954237221939934
-0.0035248077771120024   -0.07560163751483935   -0.002671653541472674
-0.0018928349669959307   -0.08380208030804226   -0.0026759722397051607
-0.005173639137007223   -0.0838970789258464   -0.0027954237221939934
0.0007859262813683485   -0.07546055572399758   -0.0028516145226320806
-0.0035248077771120024   -0.07560163751483935   -0.002671653541472674
-0.004962073854497639   -0.0838553275000149   -0.0026629743627785405
0.0009593813576806503   -0.07541314124956193   -0.002670533031855566
-0.0033864234897710848   -0.07562561035239139   -0.002581593879263903
-0.004962073854497639   -0.0838553275000149   -0.0026629743627785405
-0.0018928349669959307   -0.08380208030804226   -0.0026759722397051607
0.0009593813576806503   -0.07541314124956193   -0.002670533031855566
-0.0016151900092609343   -0.08379049380138232   -0.002453960337424064
-0.0033864234897710848   -0.07562561035239139   -0.002581593879263903
0.0011421503658275386   -0.07540884566155634   -0.002506100889546297
-0.0016151900092609343   -0.08379049380138232   -0.002453960337424064
0.0009593813576806503   -0.07541314124956193   -0.002670533031855566
-0.0033864234897710848   -0.07562561035239139   -0.002581593879263903
-0.0016151900092609343   -0.08379049380138232   -0.002453960337424064
-0.004760414440463794   -0.08386555510894436   -0.002541656192407473
-0.004962073854497639   -0.0838553275000149   -0.0026629743627785405
-0.0033864234897710848   -0.07562561035239139   -0.002581593879263903
-0.0016151900092609343   -0.08379049380138232   -0.002453960337424064
-0.004962073854497639   -0.0838553275000149   -0.0026629743627785405
0.0009593813576806503   -0.07541314124956193   -0.002670533031855566
-0.0033864234897710848   -0.07562561035239139   -0.002581593879263903
-0.004760414440463794   -0.08386555510894436   -0.002541656192407473
0.0011421503658275386   -0.07540884566155634   -0.002506100889546297
-0.003261405908219528   -0.07569375807740186   -0.0025035283892617297
-0.004760414440463794   -0.08386555510894436   -0.002541656192407473
-0.0016151900092609343   -0.08379049380138232   -0.002453960337424064
0.0011421503658275386   -0.07540884566155634   -0.002506100889546297
-0.0014095040823140822   -0.08384439934426921   -0.0022523602431903165
-0.003261405908219528   -0.07569375807740186   -0.0025035283892617297
0.0012758220335449565   -0.07544571065984575   -0.0023531337013757334
-0.0014095040823140822   -0.08384439934426921   -0.0022523602431903165
0.0011421503658275386   -0.07540884566155634   -0.002506100889546297
-0.003261405908219528   -0.07569375807740186   -0.0025035283892617297
-0.0014095040823140822   -0.08384439934426921   -0.0022523602431903165
-0.004592727870773788   -0.08393792547088234   -0.0024384432434120733
-0.004760414440463794   -0.08386555510894436   -0.002541656192407473
-0.003261405908219528   -0.07569375807740186   -0.0025035283892617297
-0.0014095040823140822   -0.08384439934426921   -0.0022523602431903165
-0.004760414440463794   -0.08386555510894436   -0.002541656192407473
0.0011421503658275386   -0.07540884566155634   -0.002506100889546297
0.0007859262813683485   -0.07546055572399758   -0.0028516145226320806
-0.002164466245352124   -0.08386752195026788   -0.002909896902496651
0.005534404440245038   -0.07515443809150699   -0.003015877388833713
0.0009593813576806503   -0.07541314124956193   -0.002670533031855566
-0.002164466245352124   -0.08386752195026788   -0.002909896902496651
0.0010754345144811943   -0.08357869247740393   -0.0031447104378845127
0.005534404440245038   -0.07515443809150699   -0.003015877388833713
0.0017079793282255289   -0.08343621435470144   -0.002762021300385373
0.0009593813576806503   -0.07541314124956193   -0.002670533031855566
0.00597351383822217   -0.07506341521724592   -0.002738749599387918
0.0017079793282255289   -0.08343621435470144   -0.002762021300385373
0.005534404440245038   -0.07515443809150699   -0.003015877388833713
0.0009593813576806503   -0.07541314124956193   -0.002670533031855566
0.0017079793282255289   -0.08343621435470144   -0.002762021300385373
-0.0018928349669959307   -0.08380208030804226   -0.0026759722397051607
-0.002164466245352124   -0.08386752195026788   -0.002909896902496651
0.0009593813576806503   -0.07541314124956193   -0.002670533031855566
0.0017079793282255289   -0.08343621435470144   -0.002762021300385373
-0.002164466245352124   -0.08386752195026788   -0.002909896902496651
0.005534404440245038   -0.07515443809150699   -0.003015877388833713
0.0009593813576806503   -0.07541314124956193   -0.002670533031855566
-0.0018928349669959307   -0.08380208030804226   -0.0026759722397051607
0.00597351383822217   -0.07506341521724592   -0.002738749599387918
0.0011421503658275386   -0.07540884566155634   -0.002506100889546297
-0.0018928349669959307   -0.08380208030804226   -0.0026759722397051607
0.0017079793282255289   -0.08343621435470144   -0.002762021300385373
0.00597351383822217   -0.07506341521724592   -0.002738749599387918
0.0022051094413655967   -0.08340732504035547   -0.0024027444179488535
0.0011421503658275386   -0.07540884566155634   -0.002506100889546297
0.00631017341027283   -0.07504765485528095   -0.002482267675806475
0.0022051094413655967   -0.08340732504035547   -0.0024027444179488535
0.00597351383822217   -0.07506341521724592   -0.002738749599387918
0.0011421503658275386   -0.07540884566155634   -0.002506100889546297
0.0022051094413655967   -0.08340732504035547   -0.0024027444179488535
-0.0016151900092609343   -0.08379049380138232   -0.002453960337424064
-0.0018928349669959307   -0.08380208030804226   -0.0026759722397051607
0.0011421503658275386   -0.07540884566155634   -0.002506100889546297
0.0022051094413655967   -0.08340732504035547   -0.0024027444179488535
-0.0018928349669959307   -0.08380208030804226   -0.0026759722397051607
0.00597351383822217   -0.07506341521724592   -0.002738749599387918
0.0011421503658275386   -0.07540884566155634   -0.002506100889546297
-0.0016151900092609343   -0.08379049380138232   -0.002453960337424064
0.00631017341027283   -0.07504765485528095   -0.002482267675806475
0.0012758220335449565   -0.07544571065984575   -0.0023531337013757334
-0.0016151900092609343   -0.08379049380138232   -0.002453960337424064
0.0022051094413655967   -0.08340732504035547   -0.0024027444179488535
0.00631017341027283   -0.07504765485528095   -0.002482267675806475
0.002721597159624407   -0.08343144574997295   -0.0020746787210102033
0.0012758220335449565   -0.07544571065984575   -0.0023531337013757334
0.006658870645477643   -0.07507461392101614   -0.0022485288661869937
0.002721597159624407   -0.08343144574997295   -0.0020746787210102033
0.00631017341027283   -0.07504765485528095   -0.002482267675806475
0.0012758220335449565   -0.07544571065984575   -0.0023531337013757334
0.002721597159624407   -0.08343144574997295   -0.0020746787210102033
-0.0014095040823140822   -0.08384439934426921   -0.0022523602431903165
-0.0016151900092609343   -0.08379049380138232   -0.002453960337424064
0.0012758220335449565   -0.07544571065984575   -0.0023531337013757334
0.002721597159624407   -0.08343144574997295   -0.0020746787210102033
-0.0016151900092609343   -0.08379049380138232   -0.002453960337424064
0.00631017341027283   -0.07504765485528095   -0.002482267675806475
-0.014573193982719786   -0.08319886206689867   -0.002510607439013787
-0.010682296005994048   -0.08789998878510587   -0.0022091932394685465
-0.010956881787008998   -0.08354961482687928   -0.002615840614865038
-0.014179184422335444   -0.0831889598334943   -0.002742901161142029
-0.010682296005994048   -0.08789998878510587   -0.0022091932394685465
-0.009000675361630453   -0.08834369107648966   -0.0024759717357943347
-0.010956881787008998   -0.08354961482687928   -0.002615840614865038
-0.008769882742870565   -0.08825591252396371   -0.002567602656328216
-0.014179184422335444   -0.0831889598334943   -0.002742901161142029
-0.01077402106300496   -0.08353150341775697   -0.0027019921189073933
-0.008769882742870565   -0.08825591252396371   -0.002567602656328216
-0.010956881787008998   -0.08354961482687928   -0.002615840614865038
-0.014179184422335444   -0.0831889598334943   -0.002742901161142029
-0.008769882742870565   -0.08825591252396371   -0.002567602656328216
-0.010191153540947047   -0.08780111137594968   -0.002487908292167033
-0.010682296005994048   -0.08789998878510587   -0.0022091932394685465
-0.014179184422335444   -0.0831889598334943   -0.002742901161142029
-0.008769882742870565   -0.08825591252396371   -0.002567602656328216
-0.010682296005994048   -0.08789998878510587   -0.0022091932394685465
-0.010956881787008998   -0.08354961482687928   -0.002615840614865038
-0.014179184422335444   -0.0831889598334943   -0.002742901161142029
-0.010191153540947047   -0.08780111137594968   -0.002487908292167033
-0.01077402106300496   -0.08353150341775697   -0.0027019921189073933
-0.013815961228647203   -0.08325125253212999   -0.0029934688192373767
-0.010191153540947047   -0.08780111137594968   -0.002487908292167033
-0.008769882742870565   -0.08825591252396371   -0.002567602656328216
-0.01077402106300496   -0.08353150341775697   -0.0027019921189073933
-0.008514321391920142   -0.08826011203987963   -0.0026601598338229643
-0.013815961228647203   -0.08325125253212999   -0.0029934688192373767
-0.010558977177780706   -0.08358190998759434   -0.0028011205132531672
-0.008514321391920142   -0.08826011203987963   -0.0026601598338229643
-0.01077402106300496   -0.08353150341775697   -0.0027019921189073933
-0.013815961228647203   -0.08325125253212999   -0.0029934688192373767
-0.008514321391920142   -0.08826011203987963   -0.0026601598338229643
-0.00976738229867499   -0.08780941520257018   -0.002765537724724673
-0.010191153540947047   -0.08780111137594968   -0.002487908292167033
-0.013815961228647203   -0.08325125253212999   -0.0029934688192373767
-0.008514321391920142   -0.08826011203987963   -0.0026601598338229643
-0.010191153540947047   -0.08780111137594968   -0.002487908292167033
-0.01077402106300496   -0.08353150341775697   -0.0027019921189073933
-0.013815961228647203   -0.08325125253212999   -0.0029934688192373767
-0.00976738229867499   -0.08780941520257018   -0.002765537724724673
-0.010558977177780706   -0.08358190998759434   -0.0028011205132531672
-0.013372971741317245   -0.08341770448654158   -0.0032612305465551193
-0.00976738229867499   -0.08780941520257018   -0.002765537724724673
-0.008514321391920142   -0.08826011203987963   -0.0026601598338229643
-0.010558977177780706   -0.08358190998759434   -0.0028011205132531672
-0.008276881383987151   -0.08835671030758958   -0.0027540311277178733
-0.013372971741317245   -0.08341770448654158   -0.0032612305465551193
-0.010363888591495205   -0.08370197862727967   -0.00291239518937683
-0.008276881383987151   -0.08835671030758958   -0.0027540311277178733
-0.010558977177780706   -0.08358190998759434   -0.0028011205132531672
-0.013372971741317245   -0.08341770448654158   -0.0032612305465551193
-0.008276881383987151   -0.08835671030758958   -0.0027540311277178733
-0.00926477545277408   -0.08793103986173419   -0.0030491510718854424
-0.00976738229867499   -0.08780941520257018   -0.002765537724724673
-0.013372971741317245   -0.08341770448654158   -0.0032612305465551193
-0.008276881383987151   -0.08835671030758958   -0.0027540311277178733
-0.00976738229867499   -0.08780941520257018   -0.002765537724724673
-0.010558977177780706   -0.08358190998759434   -0.0028011205132531672
-0.010956881787008998   -0.08354961482687928   -0.002615840614865038
-0.009000675361630453   -0.08834369107648966   -0.0024759717357943347
-0.008002883152464554   -0.08377717783829017   -0.0026981884039610246
-0.01077402106300496   -0.08353150341775697   -0.0027019921189073933
-0.009000675361630453   -0.08834369107648966   -0.0024759717357943347
-0.007769669289214435   -0.08878947457301947   -0.0027117846016190485
-0.008002883152464554   -0.08377717783829017   -0.0026981884039610246
-0.007526121537997795   -0.08869943616504913   -0.0026474469411501907
-0.01077402106300496   -0.08353150341775697   -0.0027019921189073933
-0.007815212949321144   -0.0837482084282966   -0.002671829902968252
-0.007526121537997795   -0.08869943616504913   -0.0026474469411501907
-0.008002883152464554   -0.08377717783829017   -0.0026981884039610246
-0.01077402106300496   -0.08353150341775697   -0.0027019921189073933
-0.007526121537997795   -0.08869943616504913   -0.0026474469411501907
-0.008769882742870565   -0.08825591252396371   -0.002567602656328216
-0.009000675361630453   -0.08834369107648966   -0.0024759717357943347
-0.01077402106300496   -0.08353150341775697   -0.0027019921189073933
-0.007526121537997795   -0.08869943616504913   -0.0026474469411501907
-0.009000675361630453   -0.08834369107648966   -0.0024759717357943347
-0.008002883152464554   -0.08377717783829017   -0.0026981884039610246
-0.01077402106300496   -0.08353150341775697   -0.0027019921189073933
-0.008769882742870565   -0.08825591252396371   -0.002567602656328216
-0.007815212949321144   -0.0837482084282966   -0.002671829902968252
-0.010558977177780706   -0.08358190998759434   -0.0028011205132531672
-0.008769882742870565   -0.08825591252396371   -0.002567602656328216
-0.007526121537997795   -0.08869943616504913   -0.0026474469411501907
-0.007815212949321144   -0.0837482084282966   -0.002671829902968252
-0.00729066776850265   -0.08869771861932928   -0.0025823060095095554
-0.010558977177780706   -0.08358190998759434   -0.0028011205132531672
-0.007630199528354128   -0.08377837307570203   -0.0026580734588563916
-0.00729066776850265   -0.08869771861932928   -0.0025823060095095554
-0.007815212949321144   -0.0837482084282966   -0.002671829902968252
-0.010558977177780706   -0.08358190998759434   -0.0028011205132531672
-0.00729066776850265   -0.08869771861932928   -0.0025823060095095554
-0.008514321391920142   -0.08826011203987963   -0.0026601598338229643
-0.008769882742870565   -0.08825591252396371   -0.002567602656328216
-0.010558977177780706   -0.08358190998759434   -0.0028011205132531672
-0.00729066776850265   -0.08869771861932928   -0.0025823060095095554
-0.008769882742870565   -0.08825591252396371   -0.002567602656328216
-0.007815212949321144   -0.0837482084282966   -0.002671829902968252
-0.010558977177780706   -0.08358190998759434   -0.0028011205132531672
-0.008514321391920142   -0.08826011203987963   -0.0026601598338229643
-0.007630199528354128   -0.08377837307570203   -0.0026580734588563916
-0.010363888591495205   -0.08370197862727967   -0.00291239518937683
-0.008514321391920142   -0.08826011203987963   -0.0026601598338229643
-0.00729066776850265   -0.08869771861932928   -0.0025823060095095554
-0.007630199528354128   -0.08377837307570203   -0.0026580734588563916
-0.007045181771395562   -0.08878247192832363   -0.0025197298547997155
-0.010363888591495205   -0.08370197862727967   -0.00291239518937683
-0.007459983398133599   -0.08386964411620113   -0.0026595620568586158
-0.007045181771395562   -0.08878247192832363   -0.0025197298547997155
-0.007630199528354128   -0.08377837307570203   -0.0026580734588563916
-0.010363888591495205   -0.08370197862727967   -0.00291239518937683
-0.007045181771395562   -0.08878247192832363   -0.0025197298547997155
-0.008276881383987151   -0.08835671030758958   -0.0027540311277178733
-0.008514321391920142   -0.08826011203987963   -0.0026601598338229643
-0.010363888591495205   -0.08370197862727967   -0.00291239518937683
-0.007045181771395562   -0.08878247192832363   -0.0025197298547997155
-0.008514321391920142   -0.08826011203987963   -0.0026601598338229643
-0.007630199528354128   -0.08377837307570203   -0.0026580734588563916
-0.008002883152464554   -0.08377717783829017   -0.0026981884039610246
-0.007769669289214435   -0.08878947457301947   -0.0027117846016190485
-0.005173639137007223   -0.0838970789258464   -0.0027954237221939934
-0.007815212949321144   -0.0837482084282966   -0.002671829902968252
-0.007769669289214435   -0.08878947457301947   -0.0027117846016190485
-0.006645648571443512   -0.08932793908004999   -0.0029713984948719708
-0.005173639137007223   -0.0838970789258464   -0.0027954237221939934
-0.006347055320751319   -0.08924985305741893   -0.0027423331785890936
-0.007815212949321144   -0.0837482084282966   -0.002671829902968252
-0.004962073854497639   -0.0838553275000149   -0.0026629743627785405
-0.006347055320751319   -0.08924985305741893   -0.0027423331785890936
-0.005173639137007223   -0.0838970789258464   -0.0027954237221939934
-0.007815212949321144   -0.0837482084282966   -0.002671829902968252
-0.006347055320751319   -0.08924985305741893   -0.0027423331785890936
-0.007526121537997795   -0.08869943616504913   -0.0026474469411501907
-0.007769669289214435   -0.08878947457301947   -0.0027117846016190485
-0.007815212949321144   -0.0837482084282966   -0.002671829902968252
-0.006347055320751319   -0.08924985305741893   -0.0027423331785890936
-0.007769669289214435   -0.08878947457301947   -0.0027117846016190485
-0.005173639137007223   -0.0838970789258464   -0.0027954237221939934
-0.007815212949321144   -0.0837482084282966   -0.002671829902968252
-0.007526121537997795   -0.08869943616504913   -0.0026474469411501907
-0.004962073854497639   -0.0838553275000149   -0.0026629743627785405
-0.007630199528354128   -0.08377837307570203   -0.0026580734588563916
-0.007526121537997795   -0.08869943616504913   -0.0026474469411501907
-0.006347055320751319   -0.08924985305741893   -0.0027423331785890936
-0.004962073854497639   -0.0838553275000149   -0.0026629743627785405
-0.006070415723119158   -0.08924561373860895   -0.002514061973273567
-0.007630199528354128   -0.08377837307570203   -0.0026580734588563916
-0.004760414440463794   -0.08386555510894436   -0.002541656192407473
-0.006070415723119158   -0.08924561373860895   -0.002514061973273567
-0.004962073854497639   -0.0838553275000149   -0.0026629743627785405
-0.007630199528354128   -0.08377837307570203   -0.0026580734588563916
-0.006070415723119158   -0.08924561373860895   -0.002514061973273567
-0.00729066776850265   -0.08869771861932928   -0.0025823060095095554
-0.007526121537997795   -0.08869943616504913   -0.0026474469411501907
-0.007630199528354128   -0.08377837307570203   -0.0026580734588563916
-0.006070415723119158   -0.08924561373860895   -0.002514061973273567
-0.007526121537997795   -0.08869943616504913   -0.0026474469411501907
-0.004962073854497639   -0.0838553275000149   -0.0026629743627785405
-0.007630199528354128   -0.08377837307570203   -0.0026580734588563916
-0.00729066776850265   -0.08869771861932928   -0.0025823060095095554
-0.004760414440463794   -0.08386555510894436   -0.002541656192407473
-0.007459983398133599   -0.08386964411620113   -0.0026595620568586158
-0.00729066776850265   -0.08869771861932928   -0.0025823060095095554
-0.006070415723119158   -0.08924561373860895   -0.002514061973273567
-0.004760414440463794   -0.08386555510894436   -0.002541656192407473
-0.005773369439953352   -0.08931121723363482   -0.0022852480788458007
-0.007459983398133599   -0.08386964411620113   -0.0026595620568586158
-0.004592727870773788   -0.08393792547088234   -0.0024384432434120733
-0.005773369439953352   -0.08931121723363482   -0.0022852480788458007
-0.004760414440463794   -0.08386555510894436   -0.002541656192407473
-0.007459983398133599   -0.08386964411620113   -0.0026595620568586158
-0.005773369439953352   -0.08931121723363482   -0.0022852480788458007
-0.007045181771395562   -0.08878247192832363   -0.0025197298547997155
-0.00729066776850265   -0.08869771861932928   -0.0025823060095095554
-0.007459983398133599   -0.08386964411620113   -0.0026595620568586158
-0.005773369439953352   -0.08931121723363482   -0.0022852480788458007
-0.00729066776850265   -0.08869771861932928   -0.0025823060095095554
-0.004760414440463794   -0.08386555510894436   -0.002541656192407473
-0.005173639137007223   -0.0838970789258464   -0.0027954237221939934
-0.006645648571443512   -0.08932793908004999   -0.0029713984948719708
-0.002164466245352124   -0.08386752195026788   -0.002909896902496651
-0.004962073854497639   -0.0838553275000149   -0.0026629743627785405
-0.006645648571443512   -0.08932793908004999   -0.0029713984948719708
-0.005539416043878288   -0.09   -0.0031705758895515176
-0.002164466245352124   -0.08386752195026788   -0.002909896902496651
-0.005163939394446464   -0.09   -0.002822878276213035
-0.004962073854497639   -0.0838553275000149   -0.0026629743627785405
-0.0018928349669959307   -0.08380208030804226   -0.0026759722397051607
-0.005163939394446464   -0.09   -0.002822878276213035
-0.002164466245352124   -0.08386752195026788   -0.002909896902496651
-0.004962073854497639   -0.0838553275000149   -0.0026629743627785405
-0.005163939394446464   -0.09   -0.002822878276213035
-0.006347055320751319   -0.08924985305741893   -0.0027423331785890936
-0.006645648571443512   -0.08932793908004999   -0.0029713984948719708
-0.004962073854497639   -0.0838553275000149   -0.0026629743627785405
-0.005163939394446464   -0.09   -0.002822878276213035
-0.006645648571443512   -0.08932793908004999   -0.0029713984948719708
-0.002164466245352124   -0.08386752195026788   -0.002909896902496651
-0.004962073854497639   -0.0838553275000149   -0.0026629743627785405
-0.006347055320751319   -0.08924985305741893   -0.0027423331785890936
-0.0018928349669959307   -0.08380208030804226   -0.0026759722397051607
-0.004760414440463794   -0.08386555510894436   -0.002541656192407473
-0.006347055320751319   -0.08924985305741893   -0.0027423331785890936
-0.005163939394446464   -0.09   -0.002822878276213035
-0.0018928349669959307   -0.08380208030804226   -0.0026759722397051607
-0.004786739362685714   -0.09   -0.0024710551699741795
-0.004760414440463794   -0.08386555510894436   -0.002541656192407473
-0.0016151900092609343   -0.08379049380138232   -0.002453960337424064
-0.004786739362685714   -0.09   -0.0024710551699741795
-0.0018928349669959307   -0.08380208030804226   -0.0026759722397051607
-0.004760414440463794   -0.08386555510894436   -0.002541656192407473
-0.004786739362685714   -0.09   -0.0024710551699741795
-0.006070415723119158   -0.08924561373860895   -0.002514061973273567
-0.006347055320751319   -0.08924985305741893   -0.0027423331785890936
-0.004760414440463794   -0.08386555510894436   -0.002541656192407473
-0.004786739362685714   -0.09   -0.0024710551699741795
-0.006347055320751319   -0.08924985305741893   -0.0027423331785890936
-0.0018928349669959307   -0.08380208030804226   -0.0026759722397051607
-0.004760414440463794   -0.08386555510894436   -0.002541656192407473
-0.006070415723119158   -0.08924561373860895   -0.002514061973273567
-0.0016151900092609343   -0.08379049380138232   -0.002453960337424064
-0.004592727870773788   -0.08393792547088234   -0.0024384432434120733
-0.006070415723119158   -0.08924561373860895   -0.002514061973273567
-0.004786739362685714   -0.09   -0.0024710551699741795
-0.0016151900092609343   -0.08379049380138232   -0.002453960337424064
-0.004417940520192467   -0.09   -0.0021238780332607588
-0.004592727870773788   -0.08393792547088234   -0.0024384432434120733
-0.0014095040823140822   -0.08384439934426921   -0.0022523602431903165
-0.004417940520192467   -0.09   -0.0021238780332607588
-0.0016151900092609343   -0.08379049380138232   -0.002453960337424064
-0.004592727870773788   -0.08393792547088234   -0.0024384432434120733
-0.004417940520192467   -0.09   -0.0021238780332607588
-0.005773369439953352   -0.08931121723363482   -0.0022852480788458007
-0.006070415723119158   -0.08924561373860895   -0.002514061973273567
-0.004592727870773788   -0.08393792547088234   -0.0024384432434120733
-0.004417940520192467   -0.09   -0.0021238780332607588
-0.006070415723119158   -0.08924561373860895   -0.002514061973273567
-0.0016151900092609343   -0.08379049380138232   -0.002453960337424064
-0.002164466245352124   -0.08386752195026788   -0.002909896902496651
-0.005539416043878288   -0.09   -0.0031705758895515176
0.0010754345144811943   -0.08357869247740393   -0.0031447104378845127
-0.0018928349669959307   -0.08380208030804226   -0.0026759722397051607
-0.005539416043878288   -0.09   -0.0031705758895515176
-0.004737644481367544   -0.09   -0.0034118014340188065
0.0010754345144811943   -0.08357869247740393   -0.0031447104378845127
-0.00395307902295865   -0.09   -0.0029089011921199625
-0.0018928349669959307   -0.08380208030804226   -0.0026759722397051607
0.0017079793282255289   -0.08343621435470144   -0.002762021300385373
-0.00395307902295865   -0.09   -0.0029089011921199625
0.0010754345144811943   -0.08357869247740393   -0.0031447104378845127
-0.0018928349669959307   -0.08380208030804226   -0.0026759722397051607
-0.00395307902295865   -0.09   -0.0029089011921199625
-0.005163939394446464   -0.09   -0.002822878276213035
-0.005539416043878288   -0.09   -0.0031705758895515176
-0.0018928349669959307   -0.08380208030804226   -0.0026759722397051607
-0.00395307902295865   -0.09   -0.0029089011921199625
-0.005539416043878288   -0.09   -0.0031705758895515176
0.0010754345144811943   -0.08357869247740393   -0.0031447104378845127
-0.0018928349669959307   -0.08380208030804226   -0.0026759722397051607
-0.005163939394446464   -0.09   -0.002822878276213035
0.0017079793282255289   -0.08343621435470144   -0.002762021300385373
-0.0016151900092609343   -0.08379049380138232   -0.002453960337424064
-0.005163939394446464   -0.09   -0.002822878276213035
-0.00395307902295865   -0.09   -0.0029089011921199625
0.0017079793282255289   -0.08343621435470144   -0.002762021300385373
-0.00332739455871632   -0.09   -0.0024278078533722593
-0.0016151900092609343   -0.08379049380138232   -0.002453960337424064
0.0022051094413655967   -0.08340732504035547   -0.0024027444179488535
-0.00332739455871632   -0.09   -0.0024278078533722593
0.0017079793282255289   -0.08343621435470144   -0.002762021300385373
-0.0016151900092609343   -0.08379049380138232   -0.002453960337424064
-0.00332739455871632   -0.09   -0.0024278078533722593
-0.004786739362685714   -0.09   -0.0024710551699741795
-0.005163939394446464   -0.09   -0.002822878276213035
-0.0016151900092609343   -0.08379049380138232   -0.002453960337424064
-0.00332739455871632   -0.09   -0.0024278078533722593
-0.005163939394446464   -0.09   -0.002822878276213035
0.0017079793282255289   -0.08343621435470144   -0.002762021300385373
-0.0016151900092609343   -0.08379049380138232   -0.002453960337424064
-0.004786739362685714   -0.09   -0.0024710551699741795
0.0022051094413655967   -0.08340732504035547   -0.0024027444179488535
-0.0014095040823140822   -0.08384439934426921   -0.0022523602431903165
-0.004786739362685714   -0.09   -0.0024710551699741795
-0.00332739455871632   -0.09   -0.0024278078533722593
0.0022051094413655967   -0.08340732504035547   -0.0024027444179488535
-0.0025544632669185293   -0.09   -0.0019283845713930553
-0.0014095040823140822   -0.08384439934426921   -0.0022523602431903165
0.002721597159624407   -0.08343144574997295   -0.0020746787210102033
-0.0025544632669185293   -0.09   -0.0019283845713930553
0.0022051094413655967   -0.08340732504035547   -0.0024027444179488535
-0.0014095040823140822   -0.08384439934426921   -0.0022523602431903165
-0.0025544632669185293   -0.09   -0.0019283845713930553
-0.004417940520192467   -0.09   -0.0021238780332607588
-0.004786739362685714   -0.09   -0.0024710551699741795
-0.0014095040823140822   -0.08384439934426921   -0.0022523602431903165
-0.0025544632669185293   -0.09   -0.0019283845713930553
-0.004786739362685714   -0.09   -0.0024710551699741795
0.0022051094413655967   -0.08340732504035547   -0.0024027444179488535
-0.010682296005994048   -0.08789998878510587   -0.0022091932394685465
-0.006377609582995388   -0.08813252776410743   -0.0018907768140204808
-0.009000675361630453   -0.08834369107648966   -0.0024759717357943347
-0.010191153540947047   -0.08780111137594968   -0.002487908292167033
-0.006377609582995388   -0.08813252776410743   -0.0018907768140204808
-0.006766838342925511   -0.08847424429780693   -0.002234261640477925
-0.009000675361630453   -0.08834369107648966   -0.0024759717357943347
-0.006592329051570025   -0.0883543956437496   -0.0023593541790110925
-0.010191153540947047   -0.08780111137594968   -0.002487908292167033
-0.008769882742870565   -0.08825591252396371   -0.002567602656328216
-0.006592329051570025   -0.0883543956437496   -0.0023593541790110925
-0.009000675361630453   -0.08834369107648966   -0.0024759717357943347
-0.010191153540947047   -0.08780111137594968   -0.002487908292167033
-0.006592329051570025   -0.0883543956437496   -0.0023593541790110925
-0.0059326254942590195   -0.08797865513545539   -0.0021835992667615886
-0.006377609582995388   -0.08813252776410743   -0.0018907768140204808
-0.010191153540947047   -0.08780111137594968   -0.002487908292167033
-0.006592329051570025   -0.0883543956437496   -0.0023593541790110925
-0.006377609582995388   -0.08813252776410743   -0.0018907768140204808
-0.009000675361630453   -0.08834369107648966   -0.0024759717357943347
-0.010191153540947047   -0.08780111137594968   -0.002487908292167033
-0.0059326254942590195   -0.08797865513545539   -0.0021835992667615886
-0.008769882742870565   -0.08825591252396371   -0.002567602656328216
-0.00976738229867499   -0.08780941520257018   -0.002765537724724673
-0.0059326254942590195   -0.08797865513545539   -0.0021835992667615886
-0.006592329051570025   -0.0883543956437496   -0.0023593541790110925
-0.008769882742870565   -0.08825591252396371   -0.002567602656328216
-0.006387675071561614   -0.08831001135212226   -0.0024747405362811324
-0.00976738229867499   -0.08780941520257018   -0.002765537724724673
-0.008514321391920142   -0.08826011203987963   -0.0026601598338229643
-0.006387675071561614   -0.08831001135212226   -0.0024747405362811324
-0.008769882742870565   -0.08825591252396371   -0.002567602656328216
-0.00976738229867499   -0.08780941520257018   -0.002765537724724673
-0.006387675071561614   -0.08831001135212226   -0.0024747405362811324
-0.005562207437115827   -0.08793112633042646   -0.0024643756130679428
-0.0059326254942590195   -0.08797865513545539   -0.0021835992667615886
-0.00976738229867499   -0.08780941520257018   -0.002765537724724673
-0.006387675071561614   -0.08831001135212226   -0.0024747405362811324
-0.0059326254942590195   -0.08797865513545539   -0.0021835992667615886
-0.008769882742870565   -0.08825591252396371   -0.002567602656328216
-0.00976738229867499   -0.08780941520257018   -0.002765537724724673
-0.005562207437115827   -0.08793112633042646   -0.0024643756130679428
-0.008514321391920142   -0.08826011203987963   -0.0026601598338229643
-0.00926477545277408   -0.08793103986173419   -0.0030491510718854424
-0.005562207437115827   -0.08793112633042646   -0.0024643756130679428
-0.006387675071561614   -0.08831001135212226   -0.0024747405362811324
-0.008514321391920142   -0.08826011203987963   -0.0026601598338229643
-0.006212339168115921   -0.08834172652951357   -0.0025798145684112973
-0.00926477545277408   -0.08793103986173419   -0.0030491510718854424
-0.008276881383987151   -0.08835671030758958   -0.0027540311277178733
-0.006212339168115921   -0.08834172652951357   -0.0025798145684112973
-0.008514321391920142   -0.08826011203987963   -0.0026601598338229643
-0.00926477545277408   -0.08793103986173419   -0.0030491510718854424
-0.006212339168115921   -0.08834172652951357   -0.0025798145684112973
-0.005143192828232118   -0.08797070054252897   -0.002731852862671537
-0.005562207437115827   -0.08793112633042646   -0.0024643756130679428
-0.00926477545277408   -0.08793103986173419   -0.0030491510718854424
-0.006212339168115921   -0.08834172652951357   -0.0025798145684112973
-0.005562207437115827   -0.08793112633042646   -0.0024643756130679428
-0.008514321391920142   -0.08826011203987963   -0.0026601598338229643
-0.009000675361630453   -0.08834369107648966   -0.0024759717357943347
-0.006766838342925511   -0.08847424429780693   -0.002234261640477925
-0.007769669289214435   -0.08878947457301947   -0.0027117846016190485
-0.008769882742870565   -0.08825591252396371   -0.002567602656328216
-0.006766838342925511   -0.08847424429780693   -0.002234261640477925
-0.007292673464543277   -0.08868575394855868   -0.0025089325505385845
-0.007769669289214435   -0.08878947457301947   -0.0027117846016190485
-0.0071382036186413145   -0.08857874651301195   -0.0025122434805369908
-0.008769882742870565   -0.08825591252396371   -0.002567602656328216
-0.007526121537997795   -0.08869943616504913   -0.0026474469411501907
-0.0071382036186413145   -0.08857874651301195   -0.0025122434805369908
-0.007769669289214435   -0.08878947457301947   -0.0027117846016190485
-0.008769882742870565   -0.08825591252396371   -0.002567602656328216
-0.0071382036186413145   -0.08857874651301195   -0.0025122434805369908
-0.006592329051570025   -0.0883543956437496   -0.0023593541790110925
-0.006766838342925511   -0.08847424429780693   -0.002234261640477925
-0.008769882742870565   -0.08825591252396371   -0.002567602656328216
-0.0071382036186413145   -0.08857874651301195   -0.0025122434805369908
-0.006766838342925511   -0.08847424429780693   -0.002234261640477925
-0.007769669289214435   -0.08878947457301947   -0.0027117846016190485
-0.008769882742870565   -0.08825591252396371   -0.002567602656328216
-0.006592329051570025   -0.0883543956437496   -0.0023593541790110925
-0.007526121537997795   -0.08869943616504913   -0.0026474469411501907
-0.008514321391920142   -0.08826011203987963   -0.0026601598338229643
-0.006592329051570025   -0.0883543956437496   -0.0023593541790110925
-0.0071382036186413145   -0.08857874651301195   -0.0025122434805369908
-0.007526121537997795   -0.08869943616504913   -0.0026474469411501907
-0.006966259442493506   -0.0885400899785187   -0.002502970250117305
-0.008514321391920142   -0.08826011203987963   -0.0026601598338229643
-0.00729066776850265   -0.08869771861932928   -0.0025823060095095554
-0.006966259442493506   -0.0885400899785187   -0.002502970250117305
-0.007526121537997795   -0.08869943616504913   -0.0026474469411501907
-0.008514321391920142   -0.08826011203987963   -0.0026601598338229643
-0.006966259442493506   -0.0885400899785187   -0.002502970250117305
-0.006387675071561614   -0.08831001135212226   -0.0024747405362811324
-0.006592329051570025   -0.0883543956437496   -0.0023593541790110925
-0.008514321391920142   -0.08826011203987963   -0.0026601598338229643
-0.006966259442493506   -0.0885400899785187   -0.002502970250117305
-0.006592329051570025   -0.0883543956437496   -0.0023593541790110925
-0.007526121537997795   -0.08869943616504913   -0.0026474469411501907
-0.008514321391920142   -0.08826011203987963   -0.0026601598338229643
-0.006387675071561614   -0.08831001135212226   -0.0024747405362811324
-0.00729066776850265   -0.08869771861932928   -0.0025823060095095554
-0.008276881383987151   -0.08835671030758958   -0.0027540311277178733
-0.006387675071561614   -0.08831001135212226   -0.0024747405362811324
-0.006966259442493506   -0.0885400899785187   -0.002502970250117305
-0.00729066776850265   -0.08869771861932928   -0.0025823060095095554
-0.0067914270375836585   -0.08856664869404254   -0.0024838229302453154
-0.008276881383987151   -0.08835671030758958   -0.0027540311277178733
-0.007045181771395562   -0.08878247192832363   -0.0025197298547997155
-0.0067914270375836585   -0.08856664869404254   -0.0024838229302453154
-0.00729066776850265   -0.08869771861932928   -0.0025823060095095554
-0.008276881383987151   -0.08835671030758958   -0.0027540311277178733
-0.0067914270375836585   -0.08856664869404254   -0.0024838229302453154
-0.006212339168115921   -0.08834172652951357   -0.0025798145684112973
-0.006387675071561614   -0.08831001135212226   -0.0024747405362811324
-0.008276881383987151   -0.08835671030758958   -0.0027540311277178733
-0.0067914270375836585   -0.08856664869404254   -0.0024838229302453154
-0.006387675071561614   -0.08831001135212226   -0.0024747405362811324
-0.00729066776850265   -0.08869771861932928   -0.0025823060095095554
-0.007769669289214435   -0.08878947457301947   -0.0027117846016190485
-0.007292673464543277   -0.08868575394855868   -0.0025089325505385845
-0.006645648571443512   -0.08932793908004999   -0.0029713984948719708
-0.007526121537997795   -0.08869943616504913   -0.0026474469411501907
-0.007292673464543277   -0.08868575394855868   -0.0025089325505385845
-0.00785623607721545   -0.08877503157860067   -0.002779232404879101
-0.006645648571443512   -0.08932793908004999   -0.0029713984948719708
-0.007696223532674362   -0.08867302953675688   -0.0026654459346379883
-0.007526121537997795   -0.08869943616504913   -0.0026474469411501907
-0.006347055320751319   -0.08924985305741893   -0.0027423331785890936
-0.007696223532674362   -0.08867302953675688   -0.0026654459346379883
-0.006645648571443512   -0.08932793908004999   -0.0029713984948719708
-0.007526121537997795   -0.08869943616504913   -0.0026474469411501907
-0.007696223532674362   -0.08867302953675688   -0.0026654459346379883
-0.0071382036186413145   -0.08857874651301195   -0.0025122434805369908
-0.007292673464543277   -0.08868575394855868   -0.0025089325505385845
-0.007526121537997795   -0.08869943616504913   -0.0026474469411501907
-0.007696223532674362   -0.08867302953675688   -0.0026654459346379883
-0.007292673464543277   -0.08868575394855868   -0.0025089325505385845
-0.006645648571443512   -0.08932793908004999   -0.0029713984948719708
-0.007526121537997795   -0.08869943616504913   -0.0026474469411501907
-0.0071382036186413145   -0.08857874651301195   -0.0025122434805369908
-0.006347055320751319   -0.08924985305741893   -0.0027423331785890936
-0.00729066776850265   -0.08869771861932928   -0.0025823060095095554
-0.0071382036186413145   -0.08857874651301195   -0.0025122434805369908
-0.007696223532674362   -0.08867302953675688   -0.0026654459346379883
-0.006347055320751319   -0.08924985305741893   -0.0027423331785890936
-0.007504264329168802   -0.08864049890621113   -0.0025363341197689594
-0.00729066776850265   -0.08869771861932928   -0.0025823060095095554
-0.006070415723119158   -0.08924561373860895   -0.002514061973273567
-0.007504264329168802   -0.08864049890621113   -0.0025363341197689594
-0.006347055320751319   -0.08924985305741893   -0.0027423331785890936
-0.00729066776850265   -0.08869771861932928   -0.0025823060095095554
-0.007504264329168802   -0.08864049890621113   -0.0025363341197689594
-0.006966259442493506   -0.0885400899785187   -0.002502970250117305
-0.0071382036186413145   -0.08857874651301195   -0.0025122434805369908
-0.00729066776850265   -0.08869771861932928   -0.0025823060095095554
-0.007504264329168802   -0.08864049890621113   -0.0025363341197689594
-0.0071382036186413145   -0.08857874651301195   -0.0025122434805369908
-0.006347055320751319   -0.08924985305741893   -0.0027423331785890936
-0.00729066776850265   -0.08869771861932928   -0.0025823060095095554
-0.006966259442493506   -0.0885400899785187   -0.002502970250117305
-0.006070415723119158   -0.08924561373860895   -0.002514061973273567
-0.007045181771395562   -0.08878247192832363   -0.0025197298547997155
-0.006966259442493506   -0.0885400899785187   -0.002502970250117305
-0.007504264329168802   -0.08864049890621113   -0.0025363341197689594
-0.006070415723119158   -0.08924561373860895   -0.002514061973273567
-0.0073068390143595134   -0.0886664909957445   -0.0023987970531764977
-0.007045181771395562   -0.08878247192832363   -0.0025197298547997155
-0.005773369439953352   -0.08931121723363482   -0.0022852480788458007
-0.0073068390143595134   -0.0886664909957445   -0.0023987970531764977
-0.006070415723119158   -0.08924561373860895   -0.002514061973273567
-0.007045181771395562   -0.08878247192832363   -0.0025197298547997155
-0.0073068390143595134   -0.0886664909957445   -0.0023987970531764977
-0.0067914270375836585   -0.08856664869404254   -0.0024838229302453154
-0.006966259442493506   -0.0885400899785187   -0.002502970250117305
-0.007045181771395562   -0.08878247192832363   -0.0025197298547997155
-0.0073068390143595134   -0.0886664909957445   -0.0023987970531764977
-0.006966259442493506   -0.0885400899785187   -0.002502970250117305
-0.006070415723119158   -0.08924561373860895   -0.002514061973273567
-0.006645648571443512   -0.08932793908004999   -0.0029713984948719708
-0.00785623607721545   -0.08877503157860067   -0.002779232404879101
-0.005539416043878288   -0.09   -0.0031705758895515176
-0.006347055320751319   -0.08924985305741893   -0.0027423331785890936
-0.00785623607721545   -0.08877503157860067   -0.002779232404879101
-0.008672335338726992   -0.08867998881944589   -0.003035938747055595
-0.005539416043878288   -0.09   -0.0031705758895515176
-0.008463311495378675   -0.0885837489099282   -0.0028106901538473817
-0.006347055320751319   -0.08924985305741893   -0.0027423331785890936
-0.005163939394446464   -0.09   -0.002822878276213035
-0.008463311495378675   -0.0885837489099282   -0.0028106901538473817
-0.005539416043878288   -0.09   -0.0031705758895515176
-0.006347055320751319   -0.08924985305741893   -0.0027423331785890936
-0.008463311495378675   -0.0885837489099282   -0.0028106901538473817
-0.007696223532674362   -0.08867302953675688   -0.0026654459346379883
-0.00785623607721545   -0.08877503157860067   -0.002779232404879101
-0.006347055320751319   -0.08924985305741893   -0.0027423331785890936
-0.008463311495378675   -0.0885837489099282   -0.0028106901538473817
-0.00785623607721545   -0.08877503157860067   -0.002779232404879101
-0.005539416043878288   -0.09   -0.0031705758895515176
-0.006347055320751319   -0.08924985305741893   -0.0027423331785890936
-0.007696223532674362   -0.08867302953675688   -0.0026654459346379883
-0.005163939394446464   -0.09   -0.002822878276213035
-0.006070415723119158   -0.08924561373860895   -0.002514061973273567
-0.007696223532674362   -0.08867302953675688   -0.0026654459346379883
-0.008463311495378675   -0.0885837489099282   -0.0028106901538473817
-0.005163939394446464   -0.09   -0.002822878276213035
-0.008187581711184914   -0.08856177910309607   -0.002568386503871198
-0.006070415723119158   -0.08924561373860895   -0.002514061973273567
-0.004786739362685714   -0.09   -0.0024710551699741795
-0.008187581711184914   -0.08856177910309607   -0.002568386503871198
-0.005163939394446464   -0.09   -0.002822878276213035
-0.006070415723119158   -0.08924561373860895   -0.002514061973273567
-0.008187581711184914   -0.08856177910309607   -0.002568386503871198
-0.007504264329168802   -0.08864049890621113   -0.0025363341197689594
-0.007696223532674362   -0.08867302953675688   -0.0026654459346379883
-0.006070415723119158   -0.08924561373860895   -0.002514061973273567
-0.008187581711184914   -0.08856177910309607   -0.002568386503871198
-0.007696223532674362   -0.08867302953675688   -0.0026654459346379883
-0.005163939394446464   -0.09   -0.002822878276213035
-0.006070415723119158   -0.08924561373860895   -0.002514061973273567
-0.007504264329168802   -0.08864049890621113   -0.0025363341197689594
-0.004786739362685714   -0.09   -0.0024710551699741795
-0.005773369439953352   -0.08931121723363482   -0.0022852480788458007
-0.007504264329168802   -0.08864049890621113   -0.0025363341197689594
-0.008187581711184914   -0.08856177910309607   -0.002568386503871198
-0.004786739362685714   -0.09   -0.0024710551699741795
-0.00792809466405061   -0.0885997204874348   -0.0023167034982228773
-0.005773369439953352   -0.08931121723363482   -0.0022852480788458007
-0.004417940520192467   -0.09   -0.0021238780332607588
-0.00792809466405061   -0.0885997204874348   -0.0023167034982228773
-0.004786739362685714   -0.09   -0.0024710551699741795
-0.005773369439953352   -0.08931121723363482   -0.0022852480788458007
-0.00792809466405061   -0.0885997204874348   -0.0023167034982228773
-0.0073068390143595134   -0.0886664909957445   -0.0023987970531764977
-0.007504264329168802   -0.08864049890621113   -0.0025363341197689594
-0.005773369439953352   -0.08931121723363482   -0.0022852480788458007
-0.00792809466405061   -0.0885997204874348   -0.0023167034982228773
-0.007504264329168802   -0.08864049890621113   -0.0025363341197689594
-0.004786739362685714   -0.09   -0.0024710551699741795
-0.005539416043878288   -0.09   -0.0031705758895515176
-0.008672335338726992   -0.08867998881944589   -0.003035938747055595
-0.004737644481367544   -0.09   -0.0034118014340188065
-0.005163939394446464   -0.09   -0.002822878276213035
-0.008672335338726992   -0.08867998881944589   -0.003035938747055595
-0.010257259425553908   -0.08824587779199257   -0.003307934631866461
-0.004737644481367544   -0.09   -0.0034118014340188065
-0.00970239680955965   -0.08816486585537503   -0.0029383684040706188
-0.005163939394446464   -0.09   -0.002822878276213035
-0.00395307902295865   -0.09   -0.0029089011921199625
-0.00970239680955965   -0.08816486585537503   -0.0029383684040706188
-0.004737644481367544   -0.09   -0.0034118014340188065
-0.005163939394446464   -0.09   -0.002822878276213035
-0.00970239680955965   -0.08816486585537503   -0.0029383684040706188
-0.008463311495378675   -0.0885837489099282   -0.0028106901538473817
-0.008672335338726992   -0.08867998881944589   -0.003035938747055595
-0.005163939394446464   -0.09   -0.002822878276213035
-0.00970239680955965   -0.08816486585537503   -0.0029383684040706188
-0.008672335338726992   -0.08867998881944589   -0.003035938747055595
-0.004737644481367544   -0.09   -0.0034118014340188065
-0.005163939394446464   -0.09   -0.002822878276213035
-0.008463311495378675   -0.0885837489099282   -0.0028106901538473817
-0.00395307902295865   -0.09   -0.0029089011921199625
-0.004786739362685714   -0.09   -0.0024710551699741795
-0.008463311495378675   -0.0885837489099282   -0.0028106901538473817
-0.00970239680955965   -0.08816486585537503   -0.0029383684040706188
-0.00395307902295865   -0.09   -0.0029089011921199625
-0.009192416112575985   -0.08815367671138064   -0.0025438202336645122
-0.004786739362685714   -0.09   -0.0024710551699741795
-0.00332739455871632   -0.09   -0.0024278078533722593
-0.009192416112575985   -0.08815367671138064   -0.0025438202336645122
-0.00395307902295865   -0.09   -0.0029089011921199625
-0.004786739362685714   -0.09   -0.0024710551699741795
-0.009192416112575985   -0.08815367671138064   -0.0025438202336645122
-0.008187581711184914   -0.08856177910309607   -0.002568386503871198
-0.008463311495378675   -0.0885837489099282   -0.0028106901538473817
-0.004786739362685714   -0.09   -0.0024710551699741795
-0.009192416112575985   -0.08815367671138064   -0.0025438202336645122
-0.008463311495378675   -0.0885837489099282   -0.0028106901538473817
-0.00395307902295865   -0.09   -0.0029089011921199625
-0.004786739362685714   -0.09   -0.0024710551699741795
-0.008187581711184914   -0.08856177910309607   -0.002568386503871198
-0.00332739455871632   -0.09   -0.0024278078533722593
-0.004417940520192467   -0.09   -0.0021238780332607588
-0.008187581711184914   -0.08856177910309607   -0.002568386503871198
-0.009192416112575985   -0.08815367671138064   -0.0025438202336645122
-0.00332739455871632   -0.09   -0.0024278078533722593
-0.008548397340990983   -0.0882600245626303   -0.002131115689393957
-0.004417940520192467   -0.09   -0.0021238780332607588
-0.0025544632669185293   -0.09   -0.0019283845713930553
-0.008548397340990983   -0.0882600245626303   -0.002131115689393957
-0.00332739455871632   -0.09   -0.0024278078533722593
-0.004417940520192467   -0.09   -0.0021238780332607588
-0.008548397340990983   -0.0882600245626303   -0.002131115689393957
-0.00792809466405061   -0.0885997204874348   -0.0023167034982228773
-0.008187581711184914   -0.08856177910309607   -0.002568386503871198
-0.004417940520192467   -0.09   -0.0021238780332607588
-0.008548397340990983   -0.0882600245626303   -0.002131115689393957
-0.008187581711184914   -0.08856177910309607   -0.002568386503871198
-0.00332739455871632   -0.09   -0.0024278078533722593
-0.006377609582995388   -0.08813252776410743   -0.0018907768140204808
-0.0025927993108135045   -0.08479553980085454   -0.0016340401428306956
-0.006766838342925511   -0.08847424429780693   -0.002234261640477925
-0.0059326254942590195   -0.08797865513545539   -0.0021835992667615886
-0.0025927993108135045   -0.08479553980085454   -0.0016340401428306956
-0.004852346590217103   -0.08505310633618068   -0.001998825487815716
-0.006766838342925511   -0.08847424429780693   -0.002234261640477925
-0.004728441619540716   -0.08490809910616014   -0.00211030775592679
-0.0059326254942590195   -0.08797865513545539   -0.0021835992667615886
-0.006592329051570025   -0.0883543956437496   -0.0023593541790110925
-0.004728441619540716   -0.08490809910616014   -0.00211030775592679
-0.006766838342925511   -0.08847424429780693   -0.002234261640477925
-0.0059326254942590195   -0.08797865513545539   -0.0021835992667615886
-0.004728441619540716   -0.08490809910616014   -0.00211030775592679
-0.0022381977377678784   -0.08461613519970222   -0.0018869845683325837
-0.0025927993108135045   -0.08479553980085454   -0.0016340401428306956
-0.0059326254942590195   -0.08797865513545539   -0.0021835992667615886
-0.004728441619540716   -0.08490809910616014   -0.00211030775592679
-0.0025927993108135045   -0.08479553980085454   -0.0016340401428306956
-0.006766838342925511   -0.08847424429780693   -0.002234261640477925
-0.0059326254942590195   -0.08797865513545539   -0.0021835992667615886
-0.0022381977377678784   -0.08461613519970222   -0.0018869845683325837
-0.006592329051570025   -0.0883543956437496   -0.0023593541790110925
-0.005562207437115827   -0.08793112633042646   -0.0024643756130679428
-0.0022381977377678784   -0.08461613519970222   -0.0018869845683325837
-0.004728441619540716   -0.08490809910616014   -0.00211030775592679
-0.006592329051570025   -0.0883543956437496   -0.0023593541790110925
-0.0045889959622664065   -0.08482758960621387   -0.002211713885145775
-0.005562207437115827   -0.08793112633042646   -0.0024643756130679428
-0.006387675071561614   -0.08831001135212226   -0.0024747405362811324
-0.0045889959622664065   -0.08482758960621387   -0.002211713885145775
-0.006592329051570025   -0.0883543956437496   -0.0023593541790110925
-0.005562207437115827   -0.08793112633042646   -0.0024643756130679428
-0.0045889959622664065   -0.08482758960621387   -0.002211713885145775
-0.001959172934186791   -0.08453050244881177   -0.0021249919399097257
-0.0022381977377678784   -0.08461613519970222   -0.0018869845683325837
-0.005562207437115827   -0.08793112633042646   -0.0024643756130679428
-0.0045889959622664065   -0.08482758960621387   -0.002211713885145775
-0.0022381977377678784   -0.08461613519970222   -0.0018869845683325837
-0.006592329051570025   -0.0883543956437496   -0.0023593541790110925
-0.005562207437115827   -0.08793112633042646   -0.0024643756130679428
-0.001959172934186791   -0.08453050244881177   -0.0021249919399097257
-0.006387675071561614   -0.08831001135212226   -0.0024747405362811324
-0.005143192828232118   -0.08797070054252897   -0.002731852862671537
-0.001959172934186791   -0.08453050244881177   -0.0021249919399097257
-0.0045889959622664065   -0.08482758960621387   -0.002211713885145775
-0.006387675071561614   -0.08831001135212226   -0.0024747405362811324
-0.004482069006980825   -0.08480933081372224   -0.0023033641609873194
-0.005143192828232118   -0.08797070054252897   -0.002731852862671537
-0.006212339168115921   -0.08834172652951357   -0.0025798145684112973
-0.004482069006980825   -0.08480933081372224   -0.0023033641609873194
-0.006387675071561614   -0.08831001135212226   -0.0024747405362811324
-0.005143192828232118   -0.08797070054252897   -0.002731852862671537
-0.004482069006980825   -0.08480933081372224   -0.0023033641609873194
-0.0016545580116682506   -0.08451407649402877   -0.0023474287679391445
-0.001959172934186791   -0.08453050244881177   -0.0021249919399097257
-0.005143192828232118   -0.08797070054252897   -0.002731852862671537
-0.004482069006980825   -0.08480933081372224   -0.0023033641609873194
-0.001959172934186791   -0.08453050244881177   -0.0021249919399097257
-0.006387675071561614   -0.08831001135212226   -0.0024747405362811324
-0.006766838342925511   -0.08847424429780693   -0.002234261640477925
-0.004852346590217103   -0.08505310633618068   -0.001998825487815716
-0.007292673464543277   -0.08868575394855868   -0.0025089325505385845
-0.006592329051570025   -0.0883543956437496   -0.0023593541790110925
-0.004852346590217103   -0.08505310633618068   -0.001998825487815716
-0.007082074846275677   -0.08514404144562471   -0.0022964423130036773
-0.007292673464543277   -0.08868575394855868   -0.0025089325505385845
-0.0069778663619002625   -0.08501752814931943   -0.0023026238174368606
-0.006592329051570025   -0.0883543956437496   -0.0023593541790110925
-0.0071382036186413145   -0.08857874651301195   -0.0025122434805369908
-0.0069778663619002625   -0.08501752814931943   -0.0023026238174368606
-0.007292673464543277   -0.08868575394855868   -0.0025089325505385845
-0.006592329051570025   -0.0883543956437496   -0.0023593541790110925
-0.0069778663619002625   -0.08501752814931943   -0.0023026238174368606
-0.004728441619540716   -0.08490809910616014   -0.00211030775592679
-0.004852346590217103   -0.08505310633618068   -0.001998825487815716
-0.006592329051570025   -0.0883543956437496   -0.0023593541790110925
-0.0069778663619002625   -0.08501752814931943   -0.0023026238174368606
-0.004852346590217103   -0.08505310633618068   -0.001998825487815716
-0.007292673464543277   -0.08868575394855868   -0.0025089325505385845
-0.006592329051570025   -0.0883543956437496   -0.0023593541790110925
-0.004728441619540716   -0.08490809910616014   -0.00211030775592679
-0.0071382036186413145   -0.08857874651301195   -0.0025122434805369908
-0.006387675071561614   -0.08831001135212226   -0.0024747405362811324
-0.004728441619540716   -0.08490809910616014   -0.00211030775592679
-0.0069778663619002625   -0.08501752814931943   -0.0023026238174368606
-0.0071382036186413145   -0.08857874651301195   -0.0025122434805369908
-0.006870091251258981   -0.0849491591660915   -0.00229947435117291
-0.006387675071561614   -0.08831001135212226   -0.0024747405362811324
-0.006966259442493506   -0.0885400899785187   -0.002502970250117305
-0.006870091251258981   -0.0849491591660915   -0.00229947435117291
-0.0071382036186413145   -0.08857874651301195   -0.0025122434805369908
-0.006387675071561614   -0.08831001135212226   -0.0024747405362811324
-0.006870091251258981   -0.0849491591660915   -0.00229947435117291
-0.0045889959622664065   -0.08482758960621387   -0.002211713885145775
-0.004728441619540716   -0.08490809910616014   -0.00211030775592679
-0.006387675071561614   -0.08831001135212226   -0.0024747405362811324
-0.006870091251258981   -0.0849491591660915   -0.00229947435117291
-0.004728441619540716   -0.08490809910616014   -0.00211030775592679
-0.0071382036186413145   -0.08857874651301195   -0.0025122434805369908
-0.006387675071561614   -0.08831001135212226   -0.0024747405362811324
-0.0045889959622664065   -0.08482758960621387   -0.002211713885145775
-0.006966259442493506   -0.0885400899785187   -0.002502970250117305
-0.006212339168115921   -0.08834172652951357   -0.0025798145684112973
-0.0045889959622664065   -0.08482758960621387   -0.002211713885145775
-0.006870091251258981   -0.0849491591660915   -0.00229947435117291
-0.006966259442493506   -0.0885400899785187   -0.002502970250117305
-0.006766146577157701   -0.08493612086107497   -0.002286903196857964
-0.006212339168115921   -0.08834172652951357   -0.0025798145684112973
-0.0067914270375836585   -0.08856664869404254   -0.0024838229302453154
-0.006766146577157701   -0.08493612086107497   -0.002286903196857964
-0.006966259442493506   -0.0885400899785187   -0.002502970250117305
-0.006212339168115921   -0.08834172652951357   -0.0025798145684112973
-0.006766146577157701   -0.08493612086107497   -0.002286903196857964
-0.004482069006980825   -0.08480933081372224   -0.0023033641609873194
-0.0045889959622664065   -0.08482758960621387   -0.002211713885145775
-0.006212339168115921   -0.08834172652951357   -0.0025798145684112973
-0.006766146577157701   -0.08493612086107497   -0.002286903196857964
-0.0045889959622664065   -0.08482758960621387   -0.002211713885145775
-0.006966259442493506   -0.0885400899785187   -0.002502970250117305
-0.007292673464543277   -0.08868575394855868   -0.0025089325505385845
-0.007082074846275677   -0.08514404144562471   -0.0022964423130036773
-0.00785623607721545   -0.08877503157860067   -0.002779232404879101
-0.0071382036186413145   -0.08857874651301195   -0.0025122434805369908
-0.007082074846275677   -0.08514404144562471   -0.0022964423130036773
-0.009296269651333159   -0.0850633399454593   -0.002574963337549796
-0.00785623607721545   -0.08877503157860067   -0.002779232404879101
-0.009192884138711757   -0.08495099726526559   -0.002480182963830571
-0.0071382036186413145   -0.08857874651301195   -0.0025122434805369908
-0.007696223532674362   -0.08867302953675688   -0.0026654459346379883
-0.009192884138711757   -0.08495099726526559   -0.002480182963830571
-0.00785623607721545   -0.08877503157860067   -0.002779232404879101
-0.0071382036186413145   -0.08857874651301195   -0.0025122434805369908
-0.009192884138711757   -0.08495099726526559   -0.002480182963830571
-0.0069778663619002625   -0.08501752814931943   -0.0023026238174368606
-0.007082074846275677   -0.08514404144562471   -0.0022964423130036773
-0.0071382036186413145   -0.08857874651301195   -0.0025122434805369908
-0.009192884138711757   -0.08495099726526559   -0.002480182963830571
-0.007082074846275677   -0.08514404144562471   -0.0022964423130036773
-0.00785623607721545   -0.08877503157860067   -0.002779232404879101
-0.0071382036186413145   -0.08857874651301195   -0.0025122434805369908
-0.0069778663619002625   -0.08501752814931943   -0.0023026238174368606
-0.007696223532674362   -0.08867302953675688   -0.0026654459346379883
-0.006966259442493506   -0.0885400899785187   -0.002502970250117305
-0.0069778663619002625   -0.08501752814931943   -0.0023026238174368606
-0.009192884138711757   -0.08495099726526559   -0.002480182963830571
-0.007696223532674362   -0.08867302953675688   -0.0026654459346379883
-0.009076861145479877   -0.08489581963129507   -0.00237620832088018
-0.006966259442493506   -0.0885400899785187   -0.002502970250117305
-0.007504264329168802   -0.08864049890621113   -0.0025363341197689594
-0.009076861145479877   -0.08489581963129507   -0.00237620832088018
-0.007696223532674362   -0.08867302953675688   -0.0026654459346379883
-0.006966259442493506   -0.0885400899785187   -0.002502970250117305
-0.009076861145479877   -0.08489581963129507   -0.00237620832088018
-0.006870091251258981   -0.0849491591660915   -0.00229947435117291
-0.0069778663619002625   -0.08501752814931943   -0.0023026238174368606
-0.006966259442493506   -0.0885400899785187   -0.002502970250117305
-0.009076861145479877   -0.08489581963129507   -0.00237620832088018
-0.0069778663619002625   -0.08501752814931943   -0.0023026238174368606
-0.007696223532674362   -0.08867302953675688   -0.0026654459346379883
-0.006966259442493506   -0.0885400899785187   -0.002502970250117305
-0.006870091251258981   -0.0849491591660915   -0.00229947435117291
-0.007504264329168802   -0.08864049890621113   -0.0025363341197689594
-0.0067914270375836585   -0.08856664869404254   -0.0024838229302453154
-0.006870091251258981   -0.0849491591660915   -0.00229947435117291
-0.009076861145479877   -0.08489581963129507   -0.00237620832088018
-0.007504264329168802   -0.08864049890621113   -0.0025363341197689594
-0.008960340870248712   -0.0848922868646564   -0.0022619189481556425
-0.0067914270375836585   -0.08856664869404254   -0.0024838229302453154
-0.0073068390143595134   -0.0886664909957445   -0.0023987970531764977
-0.008960340870248712   -0.0848922868646564   -0.0022619189481556425
-0.007504264329168802   -0.08864049890621113   -0.0025363341197689594
-0.0067914270375836585   -0.08856664869404254   -0.0024838229302453154
-0.008960340870248712   -0.0848922868646564   -0.0022619189481556425
-0.006766146577157701   -0.08493612086107497   -0.002286903196857964
-0.006870091251258981   -0.0849491591660915   -0.00229947435117291
-0.0067914270375836585   -0.08856664869404254   -0.0024838229302453154
-0.008960340870248712   -0.0848922868646564   -0.0022619189481556425
-0.006870091251258981   -0.0849491591660915   -0.00229947435117291
-0.007504264329168802   -0.08864049890621113   -0.0025363341197689594
-0.00785623607721545   -0.08877503157860067   -0.002779232404879101
-0.009296269651333159   -0.0850633399454593   -0.002574963337549796
-0.008672335338726992   -0.08867998881944589   -0.003035938747055595
-0.007696223532674362   -0.08867302953675688   -0.0026654459346379883
-0.009296269651333159   -0.0850633399454593   -0.002574963337549796
-0.0117292265929367   -0.08480028885740866   -0.002830728886010702
-0.008672335338726992   -0.08867998881944589   -0.003035938747055595
-0.011602715999660637   -0.08470216114971552   -0.002637253398878448
-0.007696223532674362   -0.08867302953675688   -0.0026654459346379883
-0.008463311495378675   -0.0885837489099282   -0.0028106901538473817
-0.011602715999660637   -0.08470216114971552   -0.002637253398878448
-0.008672335338726992   -0.08867998881944589   -0.003035938747055595
-0.007696223532674362   -0.08867302953675688   -0.0026654459346379883
-0.011602715999660637   -0.08470216114971552   -0.002637253398878448
-0.009192884138711757   -0.08495099726526559   -0.002480182963830571
-0.009296269651333159   -0.0850633399454593   -0.002574963337549796
-0.007696223532674362   -0.08867302953675688   -0.0026654459346379883
-0.011602715999660637   -0.08470216114971552   -0.002637253398878448
-0.009296269651333159   -0.0850633399454593   -0.002574963337549796
-0.008672335338726992   -0.08867998881944589   -0.003035938747055595
-0.007696223532674362   -0.08867302953675688   -0.0026654459346379883
-0.009192884138711757   -0.08495099726526559   -0.002480182963830571
-0.008463311495378675   -0.0885837489099282   -0.0028106901538473817
-0.007504264329168802   -0.08864049890621113   -0.0025363341197689594
-0.009192884138711757   -0.08495099726526559   -0.002480182963830571
-0.011602715999660637   -0.08470216114971552   -0.002637253398878448
-0.008463311495378675   -0.0885837489099282   -0.0028106901538473817
-0.011428092924958841   -0.08466012218160085   -0.002435253725597495
-0.007504264329168802   -0.08864049890621113   -0.0025363341197689594
-0.008187581711184914   -0.08856177910309607   -0.002568386503871198
-0.011428092924958841   -0.08466012218160085   -0.002435253725597495
-0.008463311495378675   -0.0885837489099282   -0.0028106901538473817
-0.007504264329168802   -0.08864049890621113   -0.0025363341197689594
-0.011428092924958841   -0.08466012218160085   -0.002435253725597495
-0.009076861145479877   -0.08489581963129507   -0.00237620832088018
-0.009192884138711757   -0.08495099726526559   -0.002480182963830571
-0.007504264329168802   -0.08864049890621113   -0.0025363341197689594
-0.011428092924958841   -0.08466012218160085   -0.002435253725597495
-0.009192884138711757   -0.08495099726526559   -0.002480182963830571
-0.008463311495378675   -0.0885837489099282   -0.0028106901538473817
-0.007504264329168802   -0.08864049890621113   -0.0025363341197689594
-0.009076861145479877   -0.08489581963129507   -0.00237620832088018
-0.008187581711184914   -0.08856177910309607   -0.002568386503871198
-0.0073068390143595134   -0.0886664909957445   -0.0023987970531764977
-0.009076861145479877   -0.08489581963129507   -0.00237620832088018
-0.011428092924958841   -0.08466012218160085   -0.002435253725597495
-0.008187581711184914   -0.08856177910309607   -0.002568386503871198
-0.011275600585211619   -0.0846742426679979   -0.0022190888468699866
-0.0073068390143595134   -0.0886664909957445   -0.0023987970531764977
-0.00792809466405061   -0.0885997204874348   -0.0023167034982228773
-0.011275600585211619   -0.0846742426679979   -0.0022190888468699866
-0.008187581711184914   -0.08856177910309607   -0.002568386503871198
-0.0073068390143595134   -0.0886664909957445   -0.0023987970531764977
-0.011275600585211619   -0.0846742426679979   -0.0022190888468699866
-0.008960340870248712   -0.0848922868646564   -0.0022619189481556425
-0.009076861145479877   -0.08489581963129507   -0.00237620832088018
-0.0073068390143595134   -0.0886664909957445   -0.0023987970531764977
-0.011275600585211619   -0.0846742426679979   -0.0022190888468699866
-0.009076861145479877   -0.08489581963129507   -0.00237620832088018
-0.008187581711184914   -0.08856177910309607   -0.002568386503871198
-0.008672335338726992   -0.08867998881944589   -0.003035938747055595
-0.0117292265929367   -0.08480028885740866   -0.002830728886010702
-0.010257259425553908   -0.08824587779199257   -0.003307934631866461
-0.008463311495378675   -0.0885837489099282   -0.0028106901538473817
-0.0117292265929367   -0.08480028885740866   -0.002830728886010702
-0.014862357792203145   -0.08437248288891097   -0.003076000691413704
-0.010257259425553908   -0.08824587779199257   -0.003307934631866461
-0.014455592962708035   -0.08426618908444052   -0.0027705589003201025
-0.008463311495378675   -0.0885837489099282   -0.0028106901538473817
-0.00970239680955965   -0.08816486585537503   -0.0029383684040706188
-0.014455592962708035   -0.08426618908444052   -0.0027705589003201025
-0.010257259425553908   -0.08824587779199257   -0.003307934631866461
-0.008463311495378675   -0.0885837489099282   -0.0028106901538473817
-0.014455592962708035   -0.08426618908444052   -0.0027705589003201025
-0.011602715999660637   -0.08470216114971552   -0.002637253398878448
-0.0117292265929367   -0.08480028885740866   -0.002830728886010702
-0.008463311495378675   -0.0885837489099282   -0.0028106901538473817
-0.014455592962708035   -0.08426618908444052   -0.0027705589003201025
-0.0117292265929367   -0.08480028885740866   -0.002830728886010702
-0.010257259425553908   -0.08824587779199257   -0.003307934631866461
-0.008463311495378675   -0.0885837489099282   -0.0028106901538473817
-0.011602715999660637   -0.08470216114971552   -0.002637253398878448
-0.00970239680955965   -0.08816486585537503   -0.0029383684040706188
-0.008187581711184914   -0.08856177910309607   -0.002568386503871198
-0.011602715999660637   -0.08470216114971552   -0.002637253398878448
-0.014455592962708035   -0.08426618908444052   -0.0027705589003201025
-0.00970239680955965   -0.08816486585537503   -0.0029383684040706188
-0.014090845978871029   -0.0842273043020981   -0.00244725179021942
-0.008187581711184914   -0.08856177910309607   -0.002568386503871198
-0.009192416112575985   -0.08815367671138064   -0.0025438202336645122
-0.014090845978871029   -0.0842273043020981   -0.00244725179021942
-0.00970239680955965   -0.08816486585537503   -0.0029383684040706188
-0.008187581711184914   -0.08856177910309607   -0.002568386503871198
-0.014090845978871029   -0.0842273043020981   -0.00244725179021942
-0.011428092924958841   -0.08466012218160085   -0.002435253725597495
-0.011602715999660637   -0.08470216114971552   -0.002637253398878448
-0.008187581711184914   -0.08856177910309607   -0.002568386503871198
-0.014090845978871029   -0.0842273043020981   -0.00244725179021942
-0.011602715999660637   -0.08470216114971552   -0.002637253398878448
-0.00970239680955965   -0.08816486585537503   -0.0029383684040706188
-0.008187581711184914   -0.08856177910309607   -0.002568386503871198
-0.011428092924958841   -0.08466012218160085   -0.002435253725597495
-0.009192416112575985   -0.08815367671138064   -0.0025438202336645122
-0.00792809466405061   -0.0885997204874348   -0.0023167034982228773
-0.011428092924958841   -0.08466012218160085   -0.002435253725597495
-0.014090845978871029   -0.0842273043020981   -0.00244725179021942
-0.009192416112575985   -0.08815367671138064   -0.0025438202336645122
-0.013618097613204866   -0.08427584487697132   -0.0021091570020686868
-0.00792809466405061   -0.0885997204874348   -0.0023167034982228773
-0.008548397340990983   -0.0882600245626303   -0.002131115689393957
-0.013618097613204866   -0.08427584487697132   -0.0021091570020686868
-0.009192416112575985   -0.08815367671138064   -0.0025438202336645122
-0.00792809466405061   -0.0885997204874348   -0.0023167034982228773
-0.013618097613204866   -0.08427584487697132   -0.0021091570020686868
-0.011275600585211619   -0.0846742426679979   -0.0022190888468699866
-0.011428092924958841   -0.08466012218160085   -0.002435253725597495
-0.00792809466405061   -0.0885997204874348   -0.0023167034982228773
-0.013618097613204866   -0.08427584487697132   -0.0021091570020686868
-0.011428092924958841   -0.08466012218160085   -0.002435253725597495
-0.009192416112575985   -0.08815367671138064   -0.0025438202336645122
-0.0025927993108135045   -0.08479553980085454   -0.0016340401428306956
0.00047522685028377853   -0.07866090569253785   -0.0013519314817258886
-0.004852346590217103   -0.08505310633618068   -0.001998825487815716
-0.0022381977377678784   -0.08461613519970222   -0.0018869845683325837
0.00047522685028377853   -0.07866090569253785   -0.0013519314817258886
-0.003333147339419749   -0.07884962310311017   -0.0017100093899502257
-0.004852346590217103   -0.08505310633618068   -0.001998825487815716
-0.003267529863125504   -0.07869766790096999   -0.001798389988644263
-0.0022381977377678784   -0.08461613519970222   -0.0018869845683325837
-0.004728441619540716   -0.08490809910616014   -0.00211030775592679
-0.003267529863125504   -0.07869766790096999   -0.001798389988644263
-0.004852346590217103   -0.08505310633618068   -0.001998825487815716
-0.0022381977377678784   -0.08461613519970222   -0.0018869845683325837
-0.003267529863125504   -0.07869766790096999   -0.001798389988644263
0.0007226196270887349   -0.07847866450637773   -0.001553193089604285
0.00047522685028377853   -0.07866090569253785   -0.0013519314817258886
-0.0022381977377678784   -0.08461613519970222   -0.0018869845683325837
-0.003267529863125504   -0.07869766790096999   -0.001798389988644263
0.00047522685028377853   -0.07866090569253785   -0.0013519314817258886
-0.004852346590217103   -0.08505310633618068   -0.001998825487815716
-0.0022381977377678784   -0.08461613519970222   -0.0018869845683325837
0.0007226196270887349   -0.07847866450637773   -0.001553193089604285
-0.004728441619540716   -0.08490809910616014   -0.00211030775592679
-0.001959172934186791   -0.08453050244881177   -0.0021249919399097257
0.0007226196270887349   -0.07847866450637773   -0.001553193089604285
-0.003267529863125504   -0.07869766790096999   -0.001798389988644263
-0.004728441619540716   -0.08490809910616014   -0.00211030775592679
-0.0031928454540562667   -0.07859826881510094   -0.0018764487430210591
-0.001959172934186791   -0.08453050244881177   -0.0021249919399097257
-0.0045889959622664065   -0.08482758960621387   -0.002211713885145775
-0.0031928454540562667   -0.07859826881510094   -0.0018764487430210591
-0.004728441619540716   -0.08490809910616014   -0.00211030775592679
-0.001959172934186791   -0.08453050244881177   -0.0021249919399097257
-0.0031928454540562667   -0.07859826881510094   -0.0018764487430210591
0.0009045786869325254   -0.07837317365894314   -0.00174000773458434
0.0007226196270887349   -0.07847866450637773   -0.001553193089604285
-0.001959172934186791   -0.08453050244881177   -0.0021249919399097257
-0.0031928454540562667   -0.07859826881510094   -0.0018764487430210591
0.0007226196270887349   -0.07847866450637773   -0.001553193089604285
-0.004728441619540716   -0.08490809910616014   -0.00211030775592679
-0.001959172934186791   -0.08453050244881177   -0.0021249919399097257
0.0009045786869325254   -0.07837317365894314   -0.00174000773458434
-0.0045889959622664065   -0.08482758960621387   -0.002211713885145775
-0.0016545580116682506   -0.08451407649402877   -0.0023474287679391445
0.0009045786869325254   -0.07837317365894314   -0.00174000773458434
-0.0031928454540562667   -0.07859826881510094   -0.0018764487430210591
-0.0045889959622664065   -0.08482758960621387   -0.002211713885145775
-0.0031481990755611185   -0.07854848988905364   -0.001945204515009914
-0.0016545580116682506   -0.08451407649402877   -0.0023474287679391445
-0.004482069006980825   -0.08480933081372224   -0.0023033641609873194
-0.0031481990755611185   -0.07854848988905364   -0.001945204515009914
-0.0045889959622664065   -0.08482758960621387   -0.002211713885145775
-0.0016545580116682506   -0.08451407649402877   -0.0023474287679391445
-0.0031481990755611185   -0.07854848988905364   -0.001945204515009914
0.0010992729107182878   -0.0783208944312454   -0.0019123031430026709
0.0009045786869325254   -0.07837317365894314   -0.00174000773458434
-0.0016545580116682506   -0.08451407649402877   -0.0023474287679391445
-0.0031481990755611185   -0.07854848988905364   -0.001945204515009914
0.0009045786869325254   -0.07837317365894314   -0.00174000773458434
-0.0045889959622664065   -0.08482758960621387   -0.002211713885145775
-0.004852346590217103   -0.08505310633618068   -0.001998825487815716
-0.003333147339419749   -0.07884962310311017   -0.0017100093899502257
-0.007082074846275677   -0.08514404144562471   -0.0022964423130036773
-0.004728441619540716   -0.08490809910616014   -0.00211030775592679
-0.003333147339419749   -0.07884962310311017   -0.0017100093899502257
-0.007016671740023136   -0.07888570391622027   -0.0020051675024736824
-0.007082074846275677   -0.08514404144562471   -0.0022964423130036773
-0.006968409866193428   -0.07875523367258826   -0.002007472358391247
-0.004728441619540716   -0.08490809910616014   -0.00211030775592679
-0.0069778663619002625   -0.08501752814931943   -0.0023026238174368606
-0.006968409866193428   -0.07875523367258826   -0.002007472358391247
-0.007082074846275677   -0.08514404144562471   -0.0022964423130036773
-0.004728441619540716   -0.08490809910616014   -0.00211030775592679
-0.006968409866193428   -0.07875523367258826   -0.002007472358391247
-0.003267529863125504   -0.07869766790096999   -0.001798389988644263
-0.003333147339419749   -0.07884962310311017   -0.0017100093899502257
-0.004728441619540716   -0.08490809910616014   -0.00211030775592679
-0.006968409866193428   -0.07875523367258826   -0.002007472358391247
-0.003333147339419749   -0.07884962310311017   -0.0017100093899502257
-0.007082074846275677   -0.08514404144562471   -0.0022964423130036773
-0.004728441619540716   -0.08490809910616014   -0.00211030775592679
-0.003267529863125504   -0.07869766790096999   -0.001798389988644263
-0.0069778663619002625   -0.08501752814931943   -0.0023026238174368606
-0.0045889959622664065   -0.08482758960621387   -0.002211713885145775
-0.003267529863125504   -0.07869766790096999   -0.001798389988644263
-0.006968409866193428   -0.07875523367258826   -0.002007472358391247
-0.0069778663619002625   -0.08501752814931943   -0.0023026238174368606
-0.0069187871272846195   -0.07867180656381614   -0.001999889597636624
-0.0045889959622664065   -0.08482758960621387   -0.002211713885145775
-0.006870091251258981   -0.0849491591660915   -0.00229947435117291
-0.0069187871272846195   -0.07867180656381614   -0.001999889597636624
-0.0069778663619002625   -0.08501752814931943   -0.0023026238174368606
-0.0045889959622664065   -0.08482758960621387   -0.002211713885145775
-0.0069187871272846195   -0.07867180656381614   -0.001999889597636624
-0.0031928454540562667   -0.07859826881510094   -0.0018764487430210591
-0.003267529863125504   -0.07869766790096999   -0.001798389988644263
-0.0045889959622664065   -0.08482758960621387   -0.002211713885145775
-0.0069187871272846195   -0.07867180656381614   -0.001999889597636624
-0.003267529863125504   -0.07869766790096999   -0.001798389988644263
-0.0069778663619002625   -0.08501752814931943   -0.0023026238174368606
-0.0045889959622664065   -0.08482758960621387   -0.002211713885145775
-0.0031928454540562667   -0.07859826881510094   -0.0018764487430210591
-0.006870091251258981   -0.0849491591660915   -0.00229947435117291
-0.004482069006980825   -0.08480933081372224   -0.0023033641609873194
-0.0031928454540562667   -0.07859826881510094   -0.0018764487430210591
-0.0069187871272846195   -0.07867180656381614   -0.001999889597636624
-0.006870091251258981   -0.0849491591660915   -0.00229947435117291
-0.006875382927900899   -0.07863464149885745   -0.0019830749104185526
-0.004482069006980825   -0.08480933081372224   -0.0023033641609873194
-0.006766146577157701   -0.08493612086107497   -0.002286903196857964
-0.006875382927900899   -0.07863464149885745   -0.0019830749104185526
-0.006870091251258981   -0.0849491591660915   -0.00229947435117291
-0.004482069006980825   -0.08480933081372224   -0.0023033641609873194
-0.006875382927900899   -0.07863464149885745   -0.0019830749104185526
-0.0031481990755611185   -0.07854848988905364   -0.001945204515009914
-0.0031928454540562667   -0.07859826881510094   -0.0018764487430210591
-0.004482069006980825   -0.08480933081372224   -0.0023033641609873194
-0.006875382927900899   -0.07863464149885745   -0.0019830749104185526
-0.0031928454540562667   -0.07859826881510094   -0.0018764487430210591
-0.006870091251258981   -0.0849491591660915   -0.00229947435117291
-0.007082074846275677   -0.08514404144562471   -0.0022964423130036773
-0.007016671740023136   -0.07888570391622027   -0.0020051675024736824
-0.009296269651333159   -0.0850633399454593   -0.002574963337549796
-0.0069778663619002625   -0.08501752814931943   -0.0023026238174368606
-0.007016671740023136   -0.07888570391622027   -0.0020051675024736824
-0.010642146731614973   -0.07876846813469507   -0.002271609004819928
-0.009296269651333159   -0.0850633399454593   -0.002574963337549796
-0.010597212265486326   -0.07865588974560324   -0.0021899158458640274
-0.0069778663619002625   -0.08501752814931943   -0.0023026238174368606
-0.009192884138711757   -0.08495099726526559   -0.002480182963830571
-0.010597212265486326   -0.07865588974560324   -0.0021899158458640274
-0.009296269651333159   -0.0850633399454593   -0.002574963337549796
-0.0069778663619002625   -0.08501752814931943   -0.0023026238174368606
-0.010597212265486326   -0.07865588974560324   -0.0021899158458640274
-0.006968409866193428   -0.07875523367258826   -0.002007472358391247
-0.007016671740023136   -0.07888570391622027   -0.0020051675024736824
-0.0069778663619002625   -0.08501752814931943   -0.0023026238174368606
-0.010597212265486326   -0.07865588974560324   -0.0021899158458640274
-0.007016671740023136   -0.07888570391622027   -0.0020051675024736824
-0.009296269651333159   -0.0850633399454593   -0.002574963337549796
-0.0069778663619002625   -0.08501752814931943   -0.0023026238174368606
-0.006968409866193428   -0.07875523367258826   -0.002007472358391247
-0.009192884138711757   -0.08495099726526559   -0.002480182963830571
-0.006870091251258981   -0.0849491591660915   -0.00229947435117291
-0.006968409866193428   -0.07875523367258826   -0.002007472358391247
-0.010597212265486326   -0.07865588974560324   -0.0021899158458640274
-0.009192884138711757   -0.08495099726526559   -0.002480182963830571
-0.010542917979138538   -0.0785898362319504   -0.0020985481157946963
-0.006870091251258981   -0.0849491591660915   -0.00229947435117291
-0.009076861145479877   -0.08489581963129507   -0.00237620832088018
-0.010542917979138538   -0.0785898362319504   -0.0020985481157946963
-0.009192884138711757   -0.08495099726526559   -0.002480182963830571
-0.006870091251258981   -0.0849491591660915   -0.00229947435117291
-0.010542917979138538   -0.0785898362319504   -0.0020985481157946963
-0.0069187871272846195   -0.07867180656381614   -0.001999889597636624
-0.006968409866193428   -0.07875523367258826   -0.002007472358391247
-0.006870091251258981   -0.0849491591660915   -0.00229947435117291
-0.010542917979138538   -0.0785898362319504   -0.0020985481157946963
-0.006968409866193428   -0.07875523367258826   -0.002007472358391247
-0.009192884138711757   -0.08495099726526559   -0.002480182963830571
-0.006870091251258981   -0.0849491591660915   -0.00229947435117291
-0.0069187871272846195   -0.07867180656381614   -0.001999889597636624
-0.009076861145479877   -0.08489581963129507   -0.00237620832088018
-0.006766146577157701   -0.08493612086107497   -0.002286903196857964
-0.0069187871272846195   -0.07867180656381614   -0.001999889597636624
-0.010542917979138538   -0.0785898362319504   -0.0020985481157946963
-0.009076861145479877   -0.08489581963129507   -0.00237620832088018
-0.010490099917882604   -0.07856813660171538   -0.001997804102330966
-0.006766146577157701   -0.08493612086107497   -0.002286903196857964
-0.008960340870248712   -0.0848922868646564   -0.0022619189481556425
-0.010490099917882604   -0.07856813660171538   -0.001997804102330966
-0.009076861145479877   -0.08489581963129507   -0.00237620832088018
-0.006766146577157701   -0.08493612086107497   -0.002286903196857964
-0.010490099917882604   -0.07856813660171538   -0.001997804102330966
-0.006875382927900899   -0.07863464149885745   -0.0019830749104185526
-0.0069187871272846195   -0.07867180656381614   -0.001999889597636624
-0.006766146577157701   -0.08493612086107497   -0.002286903196857964
-0.010490099917882604   -0.07856813660171538   -0.001997804102330966
-0.0069187871272846195   -0.07867180656381614   -0.001999889597636624
-0.009076861145479877   -0.08489581963129507   -0.00237620832088018
-0.009296269651333159   -0.0850633399454593   -0.002574963337549796
-0.010642146731614973   -0.07876846813469507   -0.002271609004819928
-0.0117292265929367   -0.08480028885740866   -0.002830728886010702
-0.009192884138711757   -0.08495099726526559   -0.002480182963830571
-0.010642146731614973   -0.07876846813469507   -0.002271609004819928
-0.014441701289501617   -0.07850209094736743   -0.0025082840881660014
-0.0117292265929367   -0.08480028885740866   -0.002830728886010702
-0.014383051398221844   -0.0784066104127313   -0.00234249488608145
-0.009192884138711757   -0.08495099726526559   -0.002480182963830571
-0.011602715999660637   -0.08470216114971552   -0.002637253398878448
-0.014383051398221844   -0.0784066104127313   -0.00234249488608145
-0.0117292265929367   -0.08480028885740866   -0.002830728886010702
-0.009192884138711757   -0.08495099726526559   -0.002480182963830571
-0.014383051398221844   -0.0784066104127313   -0.00234249488608145
-0.010597212265486326   -0.07865588974560324   -0.0021899158458640274
-0.010642146731614973   -0.07876846813469507   -0.002271609004819928
-0.009192884138711757   -0.08495099726526559   -0.002480182963830571
-0.014383051398221844   -0.0784066104127313   -0.00234249488608145
-0.010642146731614973   -0.07876846813469507   -0.002271609004819928
-0.0117292265929367   -0.08480028885740866   -0.002830728886010702
-0.009192884138711757   -0.08495099726526559   -0.002480182963830571
-0.010597212265486326   -0.07865588974560324   -0.0021899158458640274
-0.011602715999660637   -0.08470216114971552   -0.002637253398878448
-0.009076861145479877   -0.08489581963129507   -0.00237620832088018
-0.010597212265486326   -0.07865588974560324   -0.0021899158458640274
-0.014383051398221844   -0.0784066104127313   -0.00234249488608145
-0.011602715999660637   -0.08470216114971552   -0.002637253398878448
-0.014283650588662669   -0.07835630845555928   -0.0021685154971378684
-0.009076861145479877   -0.08489581963129507   -0.00237620832088018
-0.011428092924958841   -0.08466012218160085   -0.002435253725597495
-0.014283650588662669   -0.07835630845555928   -0.0021685154971378684
-0.011602715999660637   -0.08470216114971552   -0.002637253398878448
-0.009076861145479877   -0.08489581963129507   -0.00237620832088018
-0.014283650588662669   -0.07835630845555928   -0.0021685154971378684
-0.010542917979138538   -0.0785898362319504   -0.0020985481157946963
-0.010597212265486326   -0.07865588974560324   -0.0021899158458640274
-0.009076861145479877   -0.08489581963129507   -0.00237620832088018
-0.014283650588662669   -0.07835630845555928   -0.0021685154971378684
-0.010597212265486326   -0.07865588974560324   -0.0021899158458640274
-0.011602715999660637   -0.08470216114971552   -0.002637253398878448
-0.009076861145479877   -0.08489581963129507   -0.00237620832088018
-0.010542917979138538   -0.0785898362319504   -0.0020985481157946963
-0.011428092924958841   -0.08466012218160085   -0.002435253725597495
-0.008960340870248712   -0.0848922868646564   -0.0022619189481556425
-0.010542917979138538   -0.0785898362319504   -0.0020985481157946963
-0.014283650588662669   -0.07835630845555928   -0.0021685154971378684
-0.011428092924958841   -0.08466012218160085   -0.002435253725597495
-0.014202855010802339   -0.07835383538878962   -0.0019837969678466547
-0.008960340870248712   -0.0848922868646564   -0.0022619189481556425
-0.011275600585211619   -0.0846742426679979   -0.0022190888468699866
-0.014202855010802339   -0.07835383538878962   -0.0019837969678466547
-0.011428092924958841   -0.08466012218160085   -0.002435253725597495
-0.008960340870248712   -0.0848922868646564   -0.0022619189481556425
-0.014202855010802339   -0.07835383538878962   -0.0019837969678466547
-0.010490099917882604   -0.07856813660171538   -0.001997804102330966
-0.010542917979138538   -0.0785898362319504   -0.0020985481157946963
-0.008960340870248712   -0.0848922868646564   -0.0022619189481556425
-0.014202855010802339   -0.07835383538878962   -0.0019837969678466547
-0.010542917979138538   -0.0785898362319504   -0.0020985481157946963
-0.011428092924958841   -0.08466012218160085   -0.002435253725597495
-0.0117292265929367   -0.08480028885740866   -0.002830728886010702
-0.014441701289501617   -0.07850209094736743   -0.0025082840881660014
-0.014862357792203145   -0.08437248288891097   -0.003076000691413704
-0.011602715999660637   -0.08470216114971552   -0.002637253398878448
-0.014441701289501617   -0.07850209094736743   -0.0025082840881660014
-0.018872960211812312   -0.07811869844504044   -0.002728799053406662
-0.014862357792203145   -0.08437248288891097   -0.003076000691413704
-0.018573055664852293   -0.07801919283594524   -0.002469333741937665
-0.011602715999660637   -0.08470216114971552   -0.002637253398878448
-0.014455592962708035   -0.08426618908444052   -0.0027705589003201025
-0.018573055664852293   -0.07801919283594524   -0.002469333741937665
-0.014862357792203145   -0.08437248288891097   -0.003076000691413704
-0.011602715999660637   -0.08470216114971552   -0.002637253398878448
-0.018573055664852293   -0.07801919283594524   -0.002469333741937665
-0.014383051398221844   -0.0784066104127313   -0.00234249488608145
-0.014441701289501617   -0.07850209094736743   -0.0025082840881660014
-0.011602715999660637   -0.08470216114971552   -0.002637253398878448
-0.018573055664852293   -0.07801919283594524   -0.002469333741937665
-0.014441701289501617   -0.07850209094736743   -0.0025082840881660014
-0.014862357792203145   -0.08437248288891097   -0.003076000691413704
-0.011602715999660637   -0.08470216114971552   -0.002637253398878448
-0.014383051398221844   -0.0784066104127313   -0.00234249488608145
-0.014455592962708035   -0.08426618908444052   -0.0027705589003201025
-0.011428092924958841   -0.08466012218160085   -0.002435253725597495
-0.014383051398221844   -0.0784066104127313   -0.00234249488608145
-0.018573055664852293   -0.07801919283594524   -0.002469333741937665
-0.014455592962708035   -0.08426618908444052   -0.0027705589003201025
-0.018312668831294444   -0.07797316648845683   -0.0021963712701926724
-0.011428092924958841   -0.08466012218160085   -0.002435253725597495
-0.014090845978871029   -0.0842273043020981   -0.00244725179021942
-0.018312668831294444   -0.07797316648845683   -0.0021963712701926724
-0.014455592962708035   -0.08426618908444052   -0.0027705589003201025
-0.011428092924958841   -0.08466012218160085   -0.002435253725597495
-0.018312668831294444   -0.07797316648845683   -0.0021963712701926724
-0.014283650588662669   -0.07835630845555928   -0.0021685154971378684
-0.014383051398221844   -0.0784066104127313   -0.00234249488608145
-0.011428092924958841   -0.08466012218160085   -0.002435253725597495
-0.018312668831294444   -0.07797316648845683   -0.0021963712701926724
-0.014383051398221844   -0.0784066104127313   -0.00234249488608145
-0.014455592962708035   -0.08426618908444052   -0.0027705589003201025
-0.011428092924958841   -0.08466012218160085   -0.002435253725597495
-0.014283650588662669   -0.07835630845555928   -0.0021685154971378684
-0.014090845978871029   -0.0842273043020981   -0.00244725179021942
-0.011275600585211619   -0.0846742426679979   -0.0022190888468699866
-0.014283650588662669   -0.07835630845555928   -0.0021685154971378684
-0.018312668831294444   -0.07797316648845683   -0.0021963712701926724
-0.014090845978871029   -0.0842273043020981   -0.00244725179021942
-0.017961817245344888   -0.07800026623648557   -0.0019116523125305136
-0.011275600585211619   -0.0846742426679979   -0.0022190888468699866
-0.013618097613204866   -0.08427584487697132   -0.0021091570020686868
-0.017961817245344888   -0.07800026623648557   -0.0019116523125305136
-0.014090845978871029   -0.0842273043020981   -0.00244725179021942
-0.011275600585211619   -0.0846742426679979   -0.0022190888468699866
-0.017961817245344888   -0.07800026623648557   -0.0019116523125305136
-0.014202855010802339   -0.07835383538878962   -0.0019837969678466547
-0.014283650588662669   -0.07835630845555928   -0.0021685154971378684
-0.011275600585211619   -0.0846742426679979   -0.0022190888468699866
-0.017961817245344888   -0.07800026623648557   -0.0019116523125305136
-0.014283650588662669   -0.07835630845555928   -0.0021685154971378684
-0.014090845978871029   -0.0842273043020981   -0.00244725179021942
0.00047522685028377853   -0.07866090569253785   -0.0013519314817258886
0.00280267977608431   -0.07033707818089556   -0.0010303193533805488
-0.003333147339419749   -0.07884962310311017   -0.0017100093899502257
0.0007226196270887349   -0.07847866450637773   -0.001553193089604285
0.00280267977608431   -0.07033707818089556   -0.0010303193533805488
-0.0022372936039509873   -0.07046167712905436   -0.0013720811067240242
-0.003333147339419749   -0.07884962310311017   -0.0017100093899502257
-0.002223720560615101   -0.07031053816149695   -0.001433287544955294
0.0007226196270887349   -0.07847866450637773   -0.001553193089604285
-0.003267529863125504   -0.07869766790096999   -0.001798389988644263
-0.002223720560615101   -0.07031053816149695   -0.001433287544955294
-0.003333147339419749   -0.07884962310311017   -0.0017100093899502257
0.0007226196270887349   -0.07847866450637773   -0.001553193089604285
-0.002223720560615101   -0.07031053816149695   -0.001433287544955294
0.002949389536266161   -0.07015926346431112   -0.001179038049560096
0.00280267977608431   -0.07033707818089556   -0.0010303193533805488
0.0007226196270887349   -0.07847866450637773   -0.001553193089604285
-0.002223720560615101   -0.07031053816149695   -0.001433287544955294
0.00280267977608431   -0.07033707818089556   -0.0010303193533805488
-0.003333147339419749   -0.07884962310311017   -0.0017100093899502257
0.0007226196270887349   -0.07847866450637773   -0.001553193089604285
0.002949389536266161   -0.07015926346431112   -0.001179038049560096
-0.003267529863125504   -0.07869766790096999   -0.001798389988644263
0.0009045786869325254   -0.07837317365894314   -0.00174000773458434
0.002949389536266161   -0.07015926346431112   -0.001179038049560096
-0.002223720560615101   -0.07031053816149695   -0.001433287544955294
-0.003267529863125504   -0.07869766790096999   -0.001798389988644263
-0.0022064681243932436   -0.07020082615585671   -0.0014850682289257655
0.0009045786869325254   -0.07837317365894314   -0.00174000773458434
-0.0031928454540562667   -0.07859826881510094   -0.0018764487430210591
-0.0022064681243932436   -0.07020082615585671   -0.0014850682289257655
-0.003267529863125504   -0.07869766790096999   -0.001798389988644263
0.0009045786869325254   -0.07837317365894314   -0.00174000773458434
-0.0022064681243932436   -0.07020082615585671   -0.0014850682289257655
0.0030431263136822067   -0.07004241823253368   -0.0013144383135124868
0.002949389536266161   -0.07015926346431112   -0.001179038049560096
0.0009045786869325254   -0.07837317365894314   -0.00174000773458434
-0.0022064681243932436   -0.07020082615585671   -0.0014850682289257655
0.002949389536266161   -0.07015926346431112   -0.001179038049560096
-0.003267529863125504   -0.07869766790096999   -0.001798389988644263
0.0009045786869325254   -0.07837317365894314   -0.00174000773458434
0.0030431263136822067   -0.07004241823253368   -0.0013144383135124868
-0.0031928454540562667   -0.07859826881510094   -0.0018764487430210591
0.0010992729107182878   -0.0783208944312454   -0.0019123031430026709
0.0030431263136822067   -0.07004241823253368   -0.0013144383135124868
-0.0022064681243932436   -0.07020082615585671   -0.0014850682289257655
-0.0031928454540562667   -0.07859826881510094   -0.0018764487430210591
-0.002214845451402264   -0.07012903849288231   -0.0015281109785685895
0.0010992729107182878   -0.0783208944312454   -0.0019123031430026709
-0.0031481990755611185   -0.07854848988905364   -0.001945204515009914
-0.002214845451402264   -0.07012903849288231   -0.0015281109785685895
-0.0031928454540562667   -0.07859826881510094   -0.0018764487430210591
0.0010992729107182878   -0.0783208944312454   -0.0019123031430026709
-0.002214845451402264   -0.07012903849288231   -0.0015281109785685895
0.0031392732057601296   -0.06996393248313172   -0.0014367979185006545
0.0030431263136822067   -0.07004241823253368   -0.0013144383135124868
0.0010992729107182878   -0.0783208944312454   -0.0019123031430026709
-0.002214845451402264   -0.07012903849288231   -0.0015281109785685895
0.0030431263136822067   -0.07004241823253368   -0.0013144383135124868
-0.0031928454540562667   -0.07859826881510094   -0.0018764487430210591
-0.003333147339419749   -0.07884962310311017   -0.0017100093899502257
-0.0022372936039509873   -0.07046167712905436   -0.0013720811067240242
-0.007016671740023136   -0.07888570391622027   -0.0020051675024736824
-0.003267529863125504   -0.07869766790096999   -0.001798389988644263
-0.0022372936039509873   -0.07046167712905436   -0.0013720811067240242
-0.007086633039549481   -0.07046225183974164   -0.0016540926135170436
-0.007016671740023136   -0.07888570391622027   -0.0020051675024736824
-0.0070872932520939114   -0.07033432828426679   -0.001648319752449269
-0.003267529863125504   -0.07869766790096999   -0.001798389988644263
-0.006968409866193428   -0.07875523367258826   -0.002007472358391247
-0.0070872932520939114   -0.07033432828426679   -0.001648319752449269
-0.007016671740023136   -0.07888570391622027   -0.0020051675024736824
-0.003267529863125504   -0.07869766790096999   -0.001798389988644263
-0.0070872932520939114   -0.07033432828426679   -0.001648319752449269
-0.002223720560615101   -0.07031053816149695   -0.001433287544955294
-0.0022372936039509873   -0.07046167712905436   -0.0013720811067240242
-0.003267529863125504   -0.07869766790096999   -0.001798389988644263
-0.0070872932520939114   -0.07033432828426679   -0.001648319752449269
-0.0022372936039509873   -0.07046167712905436   -0.0013720811067240242
-0.007016671740023136   -0.07888570391622027   -0.0020051675024736824
-0.003267529863125504   -0.07869766790096999   -0.001798389988644263
-0.002223720560615101   -0.07031053816149695   -0.001433287544955294
-0.006968409866193428   -0.07875523367258826   -0.002007472358391247
-0.0031928454540562667   -0.07859826881510094   -0.0018764487430210591
-0.002223720560615101   -0.07031053816149695   -0.001433287544955294
-0.0070872932520939114   -0.07033432828426679   -0.001648319752449269
-0.006968409866193428   -0.07875523367258826   -0.002007472358391247
-0.007087630630790465   -0.07024292792971708   -0.0016331597558966239
-0.0031928454540562667   -0.07859826881510094   -0.0018764487430210591
-0.0069187871272846195   -0.07867180656381614   -0.001999889597636624
-0.007087630630790465   -0.07024292792971708   -0.0016331597558966239
-0.006968409866193428   -0.07875523367258826   -0.002007472358391247
-0.0031928454540562667   -0.07859826881510094   -0.0018764487430210591
-0.007087630630790465   -0.07024292792971708   -0.0016331597558966239
-0.0022064681243932436   -0.07020082615585671   -0.0014850682289257655
-0.002223720560615101   -0.07031053816149695   -0.001433287544955294
-0.0031928454540562667   -0.07859826881510094   -0.0018764487430210591
-0.007087630630790465   -0.07024292792971708   -0.0016331597558966239
-0.002223720560615101   -0.07031053816149695   -0.001433287544955294
-0.006968409866193428   -0.07875523367258826   -0.002007472358391247
-0.0031928454540562667   -0.07859826881510094   -0.0018764487430210591
-0.0022064681243932436   -0.07020082615585671   -0.0014850682289257655
-0.0069187871272846195   -0.07867180656381614   -0.001999889597636624
-0.0031481990755611185   -0.07854848988905364   -0.001945204515009914
-0.0022064681243932436   -0.07020082615585671   -0.0014850682289257655
-0.007087630630790465   -0.07024292792971708   -0.0016331597558966239
-0.0069187871272846195   -0.07867180656381614   -0.001999889597636624
-0.007094455850191614   -0.07018811451701813   -0.001609097097636024
-0.0031481990755611185   -0.07854848988905364   -0.001945204515009914
-0.006875382927900899   -0.07863464149885745   -0.0019830749104185526
-0.007094455850191614   -0.07018811451701813   -0.001609097097636024
-0.0069187871272846195   -0.07867180656381614   -0.001999889597636624
-0.0031481990755611185   -0.07854848988905364   -0.001945204515009914
-0.007094455850191614   -0.07018811451701813   -0.001609097097636024
-0.002214845451402264   -0.07012903849288231   -0.0015281109785685895
-0.0022064681243932436   -0.07020082615585671   -0.0014850682289257655
-0.0031481990755611185   -0.07854848988905364   -0.001945204515009914
-0.007094455850191614   -0.07018811451701813   -0.001609097097636024
-0.0022064681243932436   -0.07020082615585671   -0.0014850682289257655
-0.0069187871272846195   -0.07867180656381614   -0.001999889597636624
-0.007016671740023136   -0.07888570391622027   -0.0020051675024736824
-0.007086633039549481   -0.07046225183974164   -0.0016540926135170436
-0.010642146731614973   -0.07876846813469507   -0.002271609004819928
-0.006968409866193428   -0.07875523367258826   -0.002007472358391247
-0.007086633039549481   -0.07046225183974164   -0.0016540926135170436
-0.011853466637831489   -0.07034160823356071   -0.001901174174994205
-0.010642146731614973   -0.07876846813469507   -0.002271609004819928
-0.011857710704040304   -0.07023409731915287   -0.0018292281601621164
-0.006968409866193428   -0.07875523367258826   -0.002007472358391247
-0.010597212265486326   -0.07865588974560324   -0.0021899158458640274
-0.011857710704040304   -0.07023409731915287   -0.0018292281601621164
-0.010642146731614973   -0.07876846813469507   -0.002271609004819928
-0.006968409866193428   -0.07875523367258826   -0.002007472358391247
-0.011857710704040304   -0.07023409731915287   -0.0018292281601621164
-0.0070872932520939114   -0.07033432828426679   -0.001648319752449269
-0.007086633039549481   -0.07046225183974164   -0.0016540926135170436
-0.006968409866193428   -0.07875523367258826   -0.002007472358391247
-0.011857710704040304   -0.07023409731915287   -0.0018292281601621164
-0.007086633039549481   -0.07046225183974164   -0.0016540926135170436
-0.010642146731614973   -0.07876846813469507   -0.002271609004819928
-0.006968409866193428   -0.07875523367258826   -0.002007472358391247
-0.0070872932520939114   -0.07033432828426679   -0.001648319752449269
-0.010597212265486326   -0.07865588974560324   -0.0021899158458640274
-0.0069187871272846195   -0.07867180656381614   -0.001999889597636624
-0.0070872932520939114   -0.07033432828426679   -0.001648319752449269
-0.011857710704040304   -0.07023409731915287   -0.0018292281601621164
-0.010597212265486326   -0.07865588974560324   -0.0021899158458640274
-0.01185382679054257   -0.07016278626982364   -0.0017480758776228429
-0.0069187871272846195   -0.07867180656381614   -0.001999889597636624
-0.010542917979138538   -0.0785898362319504   -0.0020985481157946963
-0.01185382679054257   -0.07016278626982364   -0.0017480758776228429
-0.010597212265486326   -0.07865588974560324   -0.0021899158458640274
-0.0069187871272846195   -0.07867180656381614   -0.001999889597636624
-0.01185382679054257   -0.07016278626982364   -0.0017480758776228429
-0.007087630630790465   -0.07024292792971708   -0.0016331597558966239
-0.0070872932520939114   -0.07033432828426679   -0.001648319752449269
-0.0069187871272846195   -0.07867180656381614   -0.001999889597636624
-0.01185382679054257   -0.07016278626982364   -0.0017480758776228429
-0.0070872932520939114   -0.07033432828426679   -0.001648319752449269
-0.010597212265486326   -0.07865588974560324   -0.0021899158458640274
-0.0069187871272846195   -0.07867180656381614   -0.001999889597636624
-0.007087630630790465   -0.07024292792971708   -0.0016331597558966239
-0.010542917979138538   -0.0785898362319504   -0.0020985481157946963
-0.006875382927900899   -0.07863464149885745   -0.0019830749104185526
-0.007087630630790465   -0.07024292792971708   -0.0016331597558966239
-0.01185382679054257   -0.07016278626982364   -0.0017480758776228429
-0.010542917979138538   -0.0785898362319504   -0.0020985481157946963
-0.011851402476036119   -0.07012703698515145   -0.0016579864244200093
-0.006875382927900899   -0.07863464149885745   -0.0019830749104185526
-0.010490099917882604   -0.07856813660171538   -0.001997804102330966
-0.011851402476036119   -0.07012703698515145   -0.0016579864244200093
-0.010542917979138538   -0.0785898362319504   -0.0020985481157946963
-0.006875382927900899   -0.07863464149885745   -0.0019830749104185526
-0.011851402476036119   -0.07012703698515145   -0.0016579864244200093
-0.007094455850191614   -0.07018811451701813   -0.001609097097636024
-0.007087630630790465   -0.07024292792971708   -0.0016331597558966239
-0.006875382927900899   -0.07863464149885745   -0.0019830749104185526
-0.011851402476036119   -0.07012703698515145   -0.0016579864244200093
-0.007087630630790465   -0.07024292792971708   -0.0016331597558966239
-0.010542917979138538   -0.0785898362319504   -0.0020985481157946963
-0.010642146731614973   -0.07876846813469507   -0.002271609004819928
-0.011853466637831489   -0.07034160823356071   -0.001901174174994205
-0.014441701289501617   -0.07850209094736743   -0.0025082840881660014
-0.010597212265486326   -0.07865588974560324   -0.0021899158458640274
-0.011853466637831489   -0.07034160823356071   -0.001901174174994205
-0.016768973902022245   -0.07010433198937743   -0.002113767445128313
-0.014441701289501617   -0.07850209094736743   -0.0025082840881660014
-0.016763235256016647   -0.07001638231054608   -0.0019748684922484424
-0.010597212265486326   -0.07865588974560324   -0.0021899158458640274
-0.014383051398221844   -0.0784066104127313   -0.00234249488608145
-0.016763235256016647   -0.07001638231054608   -0.0019748684922484424
-0.014441701289501617   -0.07850209094736743   -0.0025082840881660014
-0.010597212265486326   -0.07865588974560324   -0.0021899158458640274
-0.016763235256016647   -0.07001638231054608   -0.0019748684922484424
-0.011857710704040304   -0.07023409731915287   -0.0018292281601621164
-0.011853466637831489   -0.07034160823356071   -0.001901174174994205
-0.010597212265486326   -0.07865588974560324   -0.0021899158458640274
-0.016763235256016647   -0.07001638231054608   -0.0019748684922484424
-0.011853466637831489   -0.07034160823356071   -0.001901174174994205
-0.014441701289501617   -0.07850209094736743   -0.0025082840881660014
-0.010597212265486326   -0.07865588974560324   -0.0021899158458640274
-0.011857710704040304   -0.07023409731915287   -0.0018292281601621164
-0.014383051398221844   -0.0784066104127313   -0.00234249488608145
-0.010542917979138538   -0.0785898362319504   -0.0020985481157946963
-0.011857710704040304   -0.07023409731915287   -0.0018292281601621164
-0.016763235256016647   -0.07001638231054608   -0.0019748684922484424
-0.014383051398221844   -0.0784066104127313   -0.00234249488608145
-0.016722091270609214   -0.0699632860103307   -0.0018281501468101324
-0.010542917979138538   -0.0785898362319504   -0.0020985481157946963
-0.014283650588662669   -0.07835630845555928   -0.0021685154971378684
-0.016722091270609214   -0.0699632860103307   -0.0018281501468101324
-0.014383051398221844   -0.0784066104127313   -0.00234249488608145
-0.010542917979138538   -0.0785898362319504   -0.0020985481157946963
-0.016722091270609214   -0.0699632860103307   -0.0018281501468101324
-0.01185382679054257   -0.07016278626982364   -0.0017480758776228429
-0.011857710704040304   -0.07023409731915287   -0.0018292281601621164
-0.010542917979138538   -0.0785898362319504   -0.0020985481157946963
-0.016722091270609214   -0.0699632860103307   -0.0018281501468101324
-0.011857710704040304   -0.07023409731915287   -0.0018292281601621164
-0.014383051398221844   -0.0784066104127313   -0.00234249488608145
-0.010542917979138538   -0.0785898362319504   -0.0020985481157946963
-0.01185382679054257   -0.07016278626982364   -0.0017480758776228429
-0.014283650588662669   -0.07835630845555928   -0.0021685154971378684
-0.010490099917882604   -0.07856813660171538   -0.001997804102330966
-0.01185382679054257   -0.07016278626982364   -0.0017480758776228429
-0.016722091270609214   -0.0699632860103307   -0.0018281501468101324
-0.014283650588662669   -0.07835630845555928   -0.0021685154971378684
-0.01669457475998348   -0.06994873739510091   -0.0016717779020174266
-0.010490099917882604   -0.07856813660171538   -0.001997804102330966
-0.014202855010802339   -0.07835383538878962   -0.0019837969678466547
-0.01669457475998348   -0.06994873739510091   -0.0016717779020174266
-0.014283650588662669   -0.07835630845555928   -0.0021685154971378684
-0.010490099917882604   -0.07856813660171538   -0.001997804102330966
-0.01669457475998348   -0.06994873739510091   -0.0016717779020174266
-0.011851402476036119   -0.07012703698515145   -0.0016579864244200093
-0.01185382679054257   -0.07016278626982364   -0.0017480758776228429
-0.010490099917882604   -0.07856813660171538   -0.001997804102330966
-0.01669457475998348   -0.06994873739510091   -0.0016717779020174266
-0.01185382679054257   -0.07016278626982364   -0.0017480758776228429
-0.014283650588662669   -0.07835630845555928   -0.0021685154971378684
-0.014441701289501617   -0.07850209094736743   -0.0025082840881660014
-0.016768973902022245   -0.07010433198937743   -0.002113767445128313
-0.018872960211812312   -0.07811869844504044   -0.002728799053406662
-0.014383051398221844   -0.0784066104127313   -0.00234249488608145
-0.016768973902022245   -0.07010433198937743   -0.002113767445128313
-0.022259483946282112   -0.06977748056695834   -0.00230537859978154
-0.018872960211812312   -0.07811869844504044   -0.002728799053406662
-0.022054647142680517   -0.06969121073142177   -0.0020929463591150207
-0.014383051398221844   -0.0784066104127313   -0.00234249488608145
-0.018573055664852293   -0.07801919283594524   -0.002469333741937665
-0.022054647142680517   -0.06969121073142177   -0.0020929463591150207
-0.018872960211812312   -0.07811869844504044   -0.002728799053406662
-0.014383051398221844   -0.0784066104127313   -0.00234249488608145
-0.022054647142680517   -0.06969121073142177   -0.0020929463591150207
-0.016763235256016647   -0.07001638231054608   -0.0019748684922484424
-0.016768973902022245   -0.07010433198937743   -0.002113767445128313
-0.014383051398221844   -0.0784066104127313   -0.00234249488608145
-0.022054647142680517   -0.06969121073142177   -0.0020929463591150207
-0.016768973902022245   -0.07010433198937743   -0.002113767445128313
-0.018872960211812312   -0.07811869844504044   -0.002728799053406662
-0.014383051398221844   -0.0784066104127313   -0.00234249488608145
-0.016763235256016647   -0.07001638231054608   -0.0019748684922484424
-0.018573055664852293   -0.07801919283594524   -0.002469333741937665
-0.014283650588662669   -0.07835630845555928   -0.0021685154971378684
-0.016763235256016647   -0.07001638231054608   -0.0019748684922484424
-0.022054647142680517   -0.06969121073142177   -0.0020929463591150207
-0.018573055664852293   -0.07801919283594524   -0.002469333741937665
-0.021879401257596465   -0.06964475595203616   -0.0018673773309642713
-0.014283650588662669   -0.07835630845555928   -0.0021685154971378684
-0.018312668831294444   -0.07797316648845683   -0.0021963712701926724
-0.021879401257596465   -0.06964475595203616   -0.0018673773309642713
-0.018573055664852293   -0.07801919283594524   -0.002469333741937665
-0.014283650588662669   -0.07835630845555928   -0.0021685154971378684
-0.021879401257596465   -0.06964475595203616   -0.0018673773309642713
-0.016722091270609214   -0.0699632860103307   -0.0018281501468101324
-0.016763235256016647   -0.07001638231054608   -0.0019748684922484424
-0.014283650588662669   -0.07835630845555928   -0.0021685154971378684
-0.021879401257596465   -0.06964475595203616   -0.0018673773309642713
-0.016763235256016647   -0.07001638231054608   -0.0019748684922484424
-0.018573055664852293   -0.07801919283594524   -0.002469333741937665
-0.014283650588662669   -0.07835630845555928   -0.0021685154971378684
-0.016722091270609214   -0.0699632860103307   -0.0018281501468101324
-0.018312668831294444   -0.07797316648845683   -0.0021963712701926724
-0.014202855010802339   -0.07835383538878962   -0.0019837969678466547
-0.016722091270609214   -0.0699632860103307   -0.0018281501468101324
-0.021879401257596465   -0.06964475595203616   -0.0018673773309642713
-0.018312668831294444   -0.07797316648845683   -0.0021963712701926724
-0.02162640179633291   -0.06965946790100125   -0.0016304693183615956
-0.014202855010802339   -0.07835383538878962   -0.0019837969678466547
-0.017961817245344888   -0.07800026623648557   -0.0019116523125305136
-0.02162640179633291   -0.06965946790100125   -0.0016304693183615956
-0.018312668831294444   -0.07797316648845683   -0.0021963712701926724
-0.014202855010802339   -0.07835383538878962   -0.0019837969678466547
-0.02162640179633291   -0.06965946790100125   -0.0016304693183615956
-0.01669457475998348   -0.06994873739510091   -0.0016717779020174266
-0.016722091270609214   -0.0699632860103307   -0.0018281501468101324
-0.014202855010802339   -0.07835383538878962   -0.0019837969678466547
-0.02162640179633291   -0.06965946790100125   -0.0016304693183615956
-0.016722091270609214   -0.0699632860103307   -0.0018281501468101324
-0.018312668831294444   -0.07797316648845683   -0.0021963712701926724
0.00280267977608431   -0.07033707818089556   -0.0010303193533805488
0.004404670777039265   -0.060329137951248064   -0.0006862493890775274
-0.0022372936039509873   -0.07046167712905436   -0.0013720811067240242
0.002949389536266161   -0.07015926346431112   -0.001179038049560096
0.004404670777039265   -0.060329137951248064   -0.0006862493890775274
-0.0015726627407333747   -0.060390252895579255   -0.0010078024318960568
-0.0022372936039509873   -0.07046167712905436   -0.0013720811067240242
-0.0016009278160543847   -0.06024278566876997   -0.0010407191530261745
0.002949389536266161   -0.07015926346431112   -0.001179038049560096
-0.002223720560615101   -0.07031053816149695   -0.001433287544955294
-0.0016009278160543847   -0.06024278566876997   -0.0010407191530261745
-0.0022372936039509873   -0.07046167712905436   -0.0013720811067240242
0.002949389536266161   -0.07015926346431112   -0.001179038049560096
-0.0016009278160543847   -0.06024278566876997   -0.0010407191530261745
0.0044623503051322315   -0.06015782694486133   -0.0007835455688291253
0.004404670777039265   -0.060329137951248064   -0.0006862493890775274
0.002949389536266161   -0.07015926346431112   -0.001179038049560096
-0.0016009278160543847   -0.06024278566876997   -0.0010407191530261745
0.004404670777039265   -0.060329137951248064   -0.0006862493890775274
-0.0022372936039509873   -0.07046167712905436   -0.0013720811067240242
0.002949389536266161   -0.07015926346431112   -0.001179038049560096
0.0044623503051322315   -0.06015782694486133   -0.0007835455688291253
-0.002223720560615101   -0.07031053816149695   -0.001433287544955294
0.0030431263136822067   -0.07004241823253368   -0.0013144383135124868
0.0044623503051322315   -0.06015782694486133   -0.0007835455688291253
-0.0016009278160543847   -0.06024278566876997   -0.0010407191530261745
-0.002223720560615101   -0.07031053816149695   -0.001433287544955294
-0.0016306514616378903   -0.06012598902756656   -0.0010652288084027205
0.0030431263136822067   -0.07004241823253368   -0.0013144383135124868
-0.0022064681243932436   -0.07020082615585671   -0.0014850682289257655
-0.0016306514616378903   -0.06012598902756656   -0.0010652288084027205
-0.002223720560615101   -0.07031053816149695   -0.001433287544955294
0.0030431263136822067   -0.07004241823253368   -0.0013144383135124868
-0.0016306514616378903   -0.06012598902756656   -0.0010652288084027205
0.004479675304128021   -0.060032812686808636   -0.0008684406262834812
0.0044623503051322315   -0.06015782694486133   -0.0007835455688291253
0.0030431263136822067   -0.07004241823253368   -0.0013144383135124868
-0.0016306514616378903   -0.06012598902756656   -0.0010652288084027205
0.0044623503051322315   -0.06015782694486133   -0.0007835455688291253
-0.002223720560615101   -0.07031053816149695   -0.001433287544955294
0.0030431263136822067   -0.07004241823253368   -0.0013144383135124868
0.004479675304128021   -0.060032812686808636   -0.0008684406262834812
-0.0022064681243932436   -0.07020082615585671   -0.0014850682289257655
0.0031392732057601296   -0.06996393248313172   -0.0014367979185006545
0.004479675304128021   -0.060032812686808636   -0.0008684406262834812
-0.0016306514616378903   -0.06012598902756656   -0.0010652288084027205
-0.0022064681243932436   -0.07020082615585671   -0.0014850682289257655
-0.0016811319671383015   -0.06003620506642796   -0.0010816160792491655
0.0031392732057601296   -0.06996393248313172   -0.0014367979185006545
-0.002214845451402264   -0.07012903849288231   -0.0015281109785685895
-0.0016811319671383015   -0.06003620506642796   -0.0010816160792491655
-0.0022064681243932436   -0.07020082615585671   -0.0014850682289257655
0.0031392732057601296   -0.06996393248313172   -0.0014367979185006545
-0.0016811319671383015   -0.06003620506642796   -0.0010816160792491655
0.004489179907871588   -0.0599321354084888   -0.0009415204930834253
0.004479675304128021   -0.060032812686808636   -0.0008684406262834812
0.0031392732057601296   -0.06996393248313172   -0.0014367979185006545
-0.0016811319671383015   -0.06003620506642796   -0.0010816160792491655
0.004479675304128021   -0.060032812686808636   -0.0008684406262834812
-0.0022064681243932436   -0.07020082615585671   -0.0014850682289257655
-0.0022372936039509873   -0.07046167712905436   -0.0013720811067240242
-0.0015726627407333747   -0.060390252895579255   -0.0010078024318960568
-0.007086633039549481   -0.07046225183974164   -0.0016540926135170436
-0.002223720560615101   -0.07031053816149695   -0.001433287544955294
-0.0015726627407333747   -0.060390252895579255   -0.0010078024318960568
-0.0073017416339051745   -0.060358624010518815   -0.0012727716607693232
-0.007086633039549481   -0.07046225183974164   -0.0016540926135170436
-0.007340839030246987   -0.06023531196971207   -0.001257319158751315
-0.002223720560615101   -0.07031053816149695   -0.001433287544955294
-0.0070872932520939114   -0.07033432828426679   -0.001648319752449269
-0.007340839030246987   -0.06023531196971207   -0.001257319158751315
-0.007086633039549481   -0.07046225183974164   -0.0016540926135170436
-0.002223720560615101   -0.07031053816149695   -0.001433287544955294
-0.007340839030246987   -0.06023531196971207   -0.001257319158751315
-0.0016009278160543847   -0.06024278566876997   -0.0010407191530261745
-0.0015726627407333747   -0.060390252895579255   -0.0010078024318960568
-0.002223720560615101   -0.07031053816149695   -0.001433287544955294
-0.007340839030246987   -0.06023531196971207   -0.001257319158751315
-0.0015726627407333747   -0.060390252895579255   -0.0010078024318960568
-0.007086633039549481   -0.07046225183974164   -0.0016540926135170436
-0.002223720560615101   -0.07031053816149695   -0.001433287544955294
-0.0016009278160543847   -0.06024278566876997   -0.0010407191530261745
-0.0070872932520939114   -0.07033432828426679   -0.001648319752449269
-0.0022064681243932436   -0.07020082615585671   -0.0014850682289257655
-0.0016009278160543847   -0.06024278566876997   -0.0010407191530261745
-0.007340839030246987   -0.06023531196971207   -0.001257319158751315
-0.0070872932520939114   -0.07033432828426679   -0.001648319752449269
-0.007380472372079535   -0.06013829287337653   -0.0012332136522169967
-0.0022064681243932436   -0.07020082615585671   -0.0014850682289257655
-0.007087630630790465   -0.07024292792971708   -0.0016331597558966239
-0.007380472372079535   -0.06013829287337653   -0.0012332136522169967
-0.0070872932520939114   -0.07033432828426679   -0.001648319752449269
-0.0022064681243932436   -0.07020082615585671   -0.0014850682289257655
-0.007380472372079535   -0.06013829287337653   -0.0012332136522169967
-0.0016306514616378903   -0.06012598902756656   -0.0010652288084027205
-0.0016009278160543847   -0.06024278566876997   -0.0010407191530261745
-0.0022064681243932436   -0.07020082615585671   -0.0014850682289257655
-0.007380472372079535   -0.06013829287337653   -0.0012332136522169967
-0.0016009278160543847   -0.06024278566876997   -0.0010407191530261745
-0.0070872932520939114   -0.07033432828426679   -0.001648319752449269
-0.0022064681243932436   -0.07020082615585671   -0.0014850682289257655
-0.0016306514616378903   -0.06012598902756656   -0.0010652288084027205
-0.007087630630790465   -0.07024292792971708   -0.0016331597558966239
-0.002214845451402264   -0.07012903849288231   -0.0015281109785685895
-0.0016306514616378903   -0.06012598902756656   -0.0010652288084027205
-0.007380472372079535   -0.06013829287337653   -0.0012332136522169967
-0.007087630630790465   -0.07024292792971708   -0.0016331597558966239
-0.007426260922852933   -0.06006801419349569   -0.0012008699557927544
-0.002214845451402264   -0.07012903849288231   -0.0015281109785685895
-0.007094455850191614   -0.07018811451701813   -0.001609097097636024
-0.007426260922852933   -0.06006801419349569   -0.0012008699557927544
-0.007087630630790465   -0.07024292792971708   -0.0016331597558966239
-0.002214845451402264   -0.07012903849288231   -0.0015281109785685895
-0.007426260922852933   -0.06006801419349569   -0.0012008699557927544
-0.0016811319671383015   -0.06003620506642796   -0.0010816160792491655
-0.0016306514616378903   -0.06012598902756656   -0.0010652288084027205
-0.002214845451402264   -0.07012903849288231   -0.0015281109785685895
-0.007426260922852933   -0.06006801419349569   -0.0012008699557927544
-0.0016306514616378903   -0.06012598902756656   -0.0010652288084027205
-0.007087630630790465   -0.07024292792971708   -0.0016331597558966239
-0.007086633039549481   -0.07046225183974164   -0.0016540926135170436
-0.0073017416339051745   -0.060358624010518815   -0.0012727716607693232
-0.011853466637831489   -0.07034160823356071   -0.001901174174994205
-0.0070872932520939114   -0.07033432828426679   -0.001648319752449269
-0.0073017416339051745   -0.060358624010518815   -0.0012727716607693232
-0.01293387332386544   -0.060239941694516734   -0.0014995769748304896
-0.011853466637831489   -0.07034160823356071   -0.001901174174994205
-0.012976031649290535   -0.06013859290224844   -0.00143598441458751
-0.0070872932520939114   -0.07033432828426679   -0.001648319752449269
-0.011857710704040304   -0.07023409731915287   -0.0018292281601621164
-0.012976031649290535   -0.06013859290224844   -0.00143598441458751
-0.011853466637831489   -0.07034160823356071   -0.001901174174994205
-0.0070872932520939114   -0.07033432828426679   -0.001648319752449269
-0.012976031649290535   -0.06013859290224844   -0.00143598441458751
-0.007340839030246987   -0.06023531196971207   -0.001257319158751315
-0.0073017416339051745   -0.060358624010518815   -0.0012727716607693232
-0.0070872932520939114   -0.07033432828426679   -0.001648319752449269
-0.012976031649290535   -0.06013859290224844   -0.00143598441458751
-0.0073017416339051745   -0.060358624010518815   -0.0012727716607693232
-0.011853466637831489   -0.07034160823356071   -0.001901174174994205
-0.0070872932520939114   -0.07033432828426679   -0.001648319752449269
-0.007340839030246987   -0.06023531196971207   -0.001257319158751315
-0.011857710704040304   -0.07023409731915287   -0.0018292281601621164
-0.007087630630790465   -0.07024292792971708   -0.0016331597558966239
-0.007340839030246987   -0.06023531196971207   -0.001257319158751315
-0.012976031649290535   -0.06013859290224844   -0.00143598441458751
-0.011857710704040304   -0.07023409731915287   -0.0018292281601621164
-0.01301097687410075   -0.06006328554377191   -0.001363890749744833
-0.007087630630790465   -0.07024292792971708   -0.0016331597558966239
-0.01185382679054257   -0.07016278626982364   -0.0017480758776228429
-0.01301097687410075   -0.06006328554377191   -0.001363890749744833
-0.011857710704040304   -0.07023409731915287   -0.0018292281601621164
-0.007087630630790465   -0.07024292792971708   -0.0016331597558966239
-0.01301097687410075   -0.06006328554377191   -0.001363890749744833
-0.007380472372079535   -0.06013829287337653   -0.0012332136522169967
-0.007340839030246987   -0.06023531196971207   -0.001257319158751315
-0.007087630630790465   -0.07024292792971708   -0.0016331597558966239
-0.01301097687410075   -0.06006328554377191   -0.001363890749744833
-0.007340839030246987   -0.06023531196971207   -0.001257319158751315
-0.011857710704040304   -0.07023409731915287   -0.0018292281601621164
-0.007087630630790465   -0.07024292792971708   -0.0016331597558966239
-0.007380472372079535   -0.06013829287337653   -0.0012332136522169967
-0.01185382679054257   -0.07016278626982364   -0.0017480758776228429
-0.007094455850191614   -0.07018811451701813   -0.001609097097636024
-0.007380472372079535   -0.06013829287337653   -0.0012332136522169967
-0.01301097687410075   -0.06006328554377191   -0.001363890749744833
-0.01185382679054257   -0.07016278626982364   -0.0017480758776228429
-0.013046932679854082   -0.06001391140163   -0.0012835470220650869
-0.007094455850191614   -0.07018811451701813   -0.001609097097636024
-0.011851402476036119   -0.07012703698515145   -0.0016579864244200093
-0.013046932679854082   -0.06001391140163   -0.0012835470220650869
-0.01185382679054257   -0.07016278626982364   -0.0017480758776228429
-0.007094455850191614   -0.07018811451701813   -0.001609097097636024
-0.013046932679854082   -0.06001391140163   -0.0012835470220650869
-0.007426260922852933   -0.06006801419349569   -0.0012008699557927544
-0.007380472372079535   -0.06013829287337653   -0.0012332136522169967
-0.007094455850191614   -0.07018811451701813   -0.001609097097636024
-0.013046932679854082   -0.06001391140163   -0.0012835470220650869
-0.007380472372079535   -0.06013829287337653   -0.0012332136522169967
-0.01185382679054257   -0.07016278626982364   -0.0017480758776228429
-0.011853466637831489   -0.07034160823356071   -0.001901174174994205
-0.01293387332386544   -0.060239941694516734   -0.0014995769748304896
-0.016768973902022245   -0.07010433198937743   -0.002113767445128313
-0.011857710704040304   -0.07023409731915287   -0.0018292281601621164
-0.01293387332386544   -0.060239941694516734   -0.0014995769748304896
-0.018699978473534374   -0.0600365810937451   -0.001689062526736023
-0.016768973902022245   -0.07010433198937743   -0.002113767445128313
-0.018734900694285232   -0.05995669796383269   -0.0015766768555904075
-0.011857710704040304   -0.07023409731915287   -0.0018292281601621164
-0.016763235256016647   -0.07001638231054608   -0.0019748684922484424
-0.018734900694285232   -0.05995669796383269   -0.0015766768555904075
-0.016768973902022245   -0.07010433198937743   -0.002113767445128313
-0.011857710704040304   -0.07023409731915287   -0.0018292281601621164
-0.018734900694285232   -0.05995669796383269   -0.0015766768555904075
-0.012976031649290535   -0.06013859290224844   -0.00143598441458751
-0.01293387332386544   -0.060239941694516734   -0.0014995769748304896
-0.011857710704040304   -0.07023409731915287   -0.0018292281601621164
-0.018734900694285232   -0.05995669796383269   -0.0015766768555904075
-0.01293387332386544   -0.060239941694516734   -0.0014995769748304896
-0.016768973902022245   -0.07010433198937743   -0.002113767445128313
-0.011857710704040304   -0.07023409731915287   -0.0018292281601621164
-0.012976031649290535   -0.06013859290224844   -0.00143598441458751
-0.016763235256016647   -0.07001638231054608   -0.0019748684922484424
-0.01185382679054257   -0.07016278626982364   -0.0017480758776228429
-0.012976031649290535   -0.06013859290224844   -0.00143598441458751
-0.018734900694285232   -0.05995669796383269   -0.0015766768555904075
-0.016763235256016647   -0.07001638231054608   -0.0019748684922484424
-0.018739525932675846   -0.059901241899043264   -0.0014569668145078094
-0.01185382679054257   -0.07016278626982364   -0.0017480758776228429
-0.016722091270609214   -0.0699632860103307   -0.0018281501468101324
-0.018739525932675846   -0.059901241899043264   -0.0014569668145078094
-0.016763235256016647   -0.07001638231054608   -0.0019748684922484424
-0.01185382679054257   -0.07016278626982364   -0.0017480758776228429
-0.018739525932675846   -0.059901241899043264   -0.0014569668145078094
-0.01301097687410075   -0.06006328554377191   -0.001363890749744833
-0.012976031649290535   -0.06013859290224844   -0.00143598441458751
-0.01185382679054257   -0.07016278626982364   -0.0017480758776228429
-0.018739525932675846   -0.059901241899043264   -0.0014569668145078094
-0.012976031649290535   -0.06013859290224844   -0.00143598441458751
-0.016763235256016647   -0.07001638231054608   -0.0019748684922484424
-0.01185382679054257   -0.07016278626982364   -0.0017480758776228429
-0.01301097687410075   -0.06006328554377191   -0.001363890749744833
-0.016722091270609214   -0.0699632860103307   -0.0018281501468101324
-0.011851402476036119   -0.07012703698515145   -0.0016579864244200093
-0.01301097687410075   -0.06006328554377191   -0.001363890749744833
-0.018739525932675846   -0.059901241899043264   -0.0014569668145078094
-0.016722091270609214   -0.0699632860103307   -0.0018281501468101324
-0.018752715763495995   -0.0598740482573233   -0.0013283824248748544
-0.011851402476036119   -0.07012703698515145   -0.0016579864244200093
-0.01669457475998348   -0.06994873739510091   -0.0016717779020174266
-0.018752715763495995   -0.0598740482573233   -0.0013283824248748544
-0.016722091270609214   -0.0699632860103307   -0.0018281501468101324
-0.011851402476036119   -0.07012703698515145   -0.0016579864244200093
-0.018752715763495995   -0.0598740482573233   -0.0013283824248748544
-0.013046932679854082   -0.06001391140163   -0.0012835470220650869
-0.01301097687410075   -0.06006328554377191   -0.001363890749744833
-0.011851402476036119   -0.07012703698515145   -0.0016579864244200093
-0.018752715763495995   -0.0598740482573233   -0.0013283824248748544
-0.01301097687410075   -0.06006328554377191   -0.001363890749744833
-0.016722091270609214   -0.0699632860103307   -0.0018281501468101324
-0.016768973902022245   -0.07010433198937743   -0.002113767445128313
-0.018699978473534374   -0.0600365810937451   -0.001689062526736023
-0.022259483946282112   -0.06977748056695834   -0.00230537859978154
-0.016763235256016647   -0.07001638231054608   -0.0019748684922484424
-0.018699978473534374   -0.0600365810937451   -0.001689062526736023
-0.0249875623024489   -0.059769992956466865   -0.001850919235431901
-0.022259483946282112   -0.06977748056695834   -0.00230537859978154
-0.02486770584348986   -0.05969702470129935   -0.001686992586941927
-0.016763235256016647   -0.07001638231054608   -0.0019748684922484424
-0.022054647142680517   -0.06969121073142177   -0.0020929463591150207
-0.02486770584348986   -0.05969702470129935   -0.001686992586941927
-0.022259483946282112   -0.06977748056695834   -0.00230537859978154
-0.016763235256016647   -0.07001638231054608   -0.0019748684922484424
-0.02486770584348986   -0.05969702470129935   -0.001686992586941927
-0.018734900694285232   -0.05995669796383269   -0.0015766768555904075
-0.018699978473534374   -0.0600365810937451   -0.001689062526736023
-0.016763235256016647   -0.07001638231054608   -0.0019748684922484424
-0.02486770584348986   -0.05969702470129935   -0.001686992586941927
-0.018699978473534374   -0.0600365810937451   -0.001689062526736023
-0.022259483946282112   -0.06977748056695834   -0.00230537859978154
-0.016763235256016647   -0.07001638231054608   -0.0019748684922484424
-0.018734900694285232   -0.05995669796383269   -0.0015766768555904075
-0.022054647142680517   -0.06969121073142177   -0.0020929463591150207
-0.016722091270609214   -0.0699632860103307   -0.0018281501468101324
-0.018734900694285232   -0.05995669796383269   -0.0015766768555904075
-0.02486770584348986   -0.05969702470129935   -0.001686992586941927
-0.022054647142680517   -0.06969121073142177   -0.0020929463591150207
-0.024766627734186697   -0.059649981816178275   -0.0015102815835102102
-0.016722091270609214   -0.0699632860103307   -0.0018281501468101324
-0.021879401257596465   -0.06964475595203616   -0.0018673773309642713
-0.024766627734186697   -0.059649981816178275   -0.0015102815835102102
-0.022054647142680517   -0.06969121073142177   -0.0020929463591150207
-0.016722091270609214   -0.0699632860103307   -0.0018281501468101324
-0.024766627734186697   -0.059649981816178275   -0.0015102815835102102
-0.018739525932675846   -0.059901241899043264   -0.0014569668145078094
-0.018734900694285232   -0.05995669796383269   -0.0015766768555904075
-0.016722091270609214   -0.0699632860103307   -0.0018281501468101324
-0.024766627734186697   -0.059649981816178275   -0.0015102815835102102
-0.018734900694285232   -0.05995669796383269   -0.0015766768555904075
-0.022054647142680517   -0.06969121073142177   -0.0020929463591150207
-0.016722091270609214   -0.0699632860103307   -0.0018281501468101324
-0.018739525932675846   -0.059901241899043264   -0.0014569668145078094
-0.021879401257596465   -0.06964475595203616   -0.0018673773309642713
-0.01669457475998348   -0.06994873739510091   -0.0016717779020174266
-0.018739525932675846   -0.059901241899043264   -0.0014569668145078094
-0.024766627734186697   -0.059649981816178275   -0.0015102815835102102
-0.021879401257596465   -0.06964475595203616   -0.0018673773309642713
-0.024599683601219977   -0.05965099027594508   -0.0013223788387346324
-0.01669457475998348   -0.06994873739510091   -0.0016717779020174266
-0.02162640179633291   -0.06965946790100125   -0.0016304693183615956
-0.024599683601219977   -0.05965099027594508   -0.0013223788387346324
-0.021879401257596465   -0.06964475595203616   -0.0018673773309642713
-0.01669457475998348   -0.06994873739510091   -0.0016717779020174266
-0.024599683601219977   -0.05965099027594508   -0.0013223788387346324
-0.018752715763495995   -0.0598740482573233   -0.0013283824248748544
-0.018739525932675846   -0.059901241899043264   -0.0014569668145078094
-0.01669457475998348   -0.06994873739510091   -0.0016717779020174266
-0.024599683601219977   -0.05965099027594508   -0.0013223788387346324
-0.018739525932675846   -0.059901241899043264   -0.0014569668145078094
-0.021879401257596465   -0.06964475595203616   -0.0018673773309642713
0.004404670777039265   -0.060329137951248064   -0.0006862493890775274
0.005292515457045375   -0.0491027511282536   -0.00034925865324139546
-0.0015726627407333747   -0.060390252895579255   -0.0010078024318960568
0.0044623503051322315   -0.06015782694486133   -0.0007835455688291253
0.005292515457045375   -0.0491027511282536   -0.00034925865324139546
-0.0013412126746338217   -0.04910108527414492   -0.0006474989909917753
-0.0015726627407333747   -0.060390252895579255   -0.0010078024318960568
-0.0014007426626624596   -0.048958420205700084   -0.0006517915956790607
0.0044623503051322315   -0.06015782694486133   -0.0007835455688291253
-0.0016009278160543847   -0.06024278566876997   -0.0010407191530261745
-0.0014007426626624596   -0.048958420205700084   -0.0006517915956790607
-0.0015726627407333747   -0.060390252895579255   -0.0010078024318960568
0.0044623503051322315   -0.06015782694486133   -0.0007835455688291253
-0.0014007426626624596   -0.048958420205700084   -0.0006517915956790607
0.005272935201337992   -0.048938730882291955   -0.0003957518863000234
0.005292515457045375   -0.0491027511282536   -0.00034925865324139546
0.0044623503051322315   -0.06015782694486133   -0.0007835455688291253
-0.0014007426626624596   -0.048958420205700084   -0.0006517915956790607
0.005292515457045375   -0.0491027511282536   -0.00034925865324139546
-0.0015726627407333747   -0.060390252895579255   -0.0010078024318960568
0.0044623503051322315   -0.06015782694486133   -0.0007835455688291253
0.005272935201337992   -0.048938730882291955   -0.0003957518863000234
-0.0016009278160543847   -0.06024278566876997   -0.0010407191530261745
0.004479675304128021   -0.060032812686808636   -0.0008684406262834812
0.005272935201337992   -0.048938730882291955   -0.0003957518863000234
-0.0014007426626624596   -0.048958420205700084   -0.0006517915956790607
-0.0016009278160543847   -0.06024278566876997   -0.0010407191530261745
-0.0014668875698392388   -0.0488354934608707   -0.0006486370080221269
0.004479675304128021   -0.060032812686808636   -0.0008684406262834812
-0.0016306514616378903   -0.06012598902756656   -0.0010652288084027205
-0.0014668875698392388   -0.0488354934608707   -0.0006486370080221269
-0.0016009278160543847   -0.06024278566876997   -0.0010407191530261745
0.004479675304128021   -0.060032812686808636   -0.0008684406262834812
-0.0014668875698392388   -0.0488354934608707   -0.0006486370080221269
0.0052248631734385315   -0.048806582878148166   -0.00043030863994918963
0.005272935201337992   -0.048938730882291955   -0.0003957518863000234
0.004479675304128021   -0.060032812686808636   -0.0008684406262834812
-0.0014668875698392388   -0.0488354934608707   -0.0006486370080221269
0.005272935201337992   -0.048938730882291955   -0.0003957518863000234
-0.0016009278160543847   -0.06024278566876997   -0.0010407191530261745
0.004479675304128021   -0.060032812686808636   -0.0008684406262834812
0.0052248631734385315   -0.048806582878148166   -0.00043030863994918963
-0.0016306514616378903   -0.06012598902756656   -0.0010652288084027205
0.004489179907871588   -0.0599321354084888   -0.0009415204930834253
0.0052248631734385315   -0.048806582878148166   -0.00043030863994918963
-0.0014668875698392388   -0.0488354934608707   -0.0006486370080221269
-0.0016306514616378903   -0.06012598902756656   -0.0010652288084027205
-0.0015489159084231044   -0.04872913143372108   -0.0006377416365362873
0.004489179907871588   -0.0599321354084888   -0.0009415204930834253
-0.0016811319671383015   -0.06003620506642796   -0.0010816160792491655
-0.0015489159084231044   -0.04872913143372108   -0.0006377416365362873
-0.0016306514616378903   -0.06012598902756656   -0.0010652288084027205
0.004489179907871588   -0.0599321354084888   -0.0009415204930834253
-0.0015489159084231044   -0.04872913143372108   -0.0006377416365362873
0.005157813694436303   -0.04868483477077667   -0.00045376242539117327
0.0052248631734385315   -0.048806582878148166   -0.00043030863994918963
0.004489179907871588   -0.0599321354084888   -0.0009415204930834253
-0.0015489159084231044   -0.04872913143372108   -0.0006377416365362873
0.0052248631734385315   -0.048806582878148166   -0.00043030863994918963
-0.0016306514616378903   -0.06012598902756656   -0.0010652288084027205
-0.0015726627407333747   -0.060390252895579255   -0.0010078024318960568
-0.0013412126746338217   -0.04910108527414492   -0.0006474989909917753
-0.0073017416339051745   -0.060358624010518815   -0.0012727716607693232
-0.0016009278160543847   -0.06024278566876997   -0.0010407191530261745
-0.0013412126746338217   -0.04910108527414492   -0.0006474989909917753
-0.007668414933464959   -0.049041057471471194   -0.0008938483898688017
-0.0073017416339051745   -0.060358624010518815   -0.0012727716607693232
-0.0077349691089148576   -0.04892254219802767   -0.0008679186931141536
-0.0016009278160543847   -0.06024278566876997   -0.0010407191530261745
-0.007340839030246987   -0.06023531196971207   -0.001257319158751315
-0.0077349691089148576   -0.04892254219802767   -0.0008679186931141536
-0.0073017416339051745   -0.060358624010518815   -0.0012727716607693232
-0.0016009278160543847   -0.06024278566876997   -0.0010407191530261745
-0.0077349691089148576   -0.04892254219802767   -0.0008679186931141536
-0.0014007426626624596   -0.048958420205700084   -0.0006517915956790607
-0.0013412126746338217   -0.04910108527414492   -0.0006474989909917753
-0.0016009278160543847   -0.06024278566876997   -0.0010407191530261745
-0.0077349691089148576   -0.04892254219802767   -0.0008679186931141536
-0.0013412126746338217   -0.04910108527414492   -0.0006474989909917753
-0.0073017416339051745   -0.060358624010518815   -0.0012727716607693232
-0.0016009278160543847   -0.06024278566876997   -0.0010407191530261745
-0.0014007426626624596   -0.048958420205700084   -0.0006517915956790607
-0.007340839030246987   -0.06023531196971207   -0.001257319158751315
-0.0016306514616378903   -0.06012598902756656   -0.0010652288084027205
-0.0014007426626624596   -0.048958420205700084   -0.0006517915956790607
-0.0077349691089148576   -0.04892254219802767   -0.0008679186931141536
-0.007340839030246987   -0.06023531196971207   -0.001257319158751315
-0.007802857350025376   -0.04882009581394515   -0.0008342336040997289
-0.0016306514616378903   -0.06012598902756656   -0.0010652288084027205
-0.007380472372079535   -0.06013829287337653   -0.0012332136522169967
-0.007802857350025376   -0.04882009581394515   -0.0008342336040997289
-0.007340839030246987   -0.06023531196971207   -0.001257319158751315
-0.0016306514616378903   -0.06012598902756656   -0.0010652288084027205
-0.007802857350025376   -0.04882009581394515   -0.0008342336040997289
-0.0014668875698392388   -0.0488354934608707   -0.0006486370080221269
-0.0014007426626624596   -0.048958420205700084   -0.0006517915956790607
-0.0016306514616378903   -0.06012598902756656   -0.0010652288084027205
-0.007802857350025376   -0.04882009581394515   -0.0008342336040997289
-0.0014007426626624596   -0.048958420205700084   -0.0006517915956790607
-0.007340839030246987   -0.06023531196971207   -0.001257319158751315
-0.0016306514616378903   -0.06012598902756656   -0.0010652288084027205
-0.0014668875698392388   -0.0488354934608707   -0.0006486370080221269
-0.007380472372079535   -0.06013829287337653   -0.0012332136522169967
-0.0016811319671383015   -0.06003620506642796   -0.0010816160792491655
-0.0014668875698392388   -0.0488354934608707   -0.0006486370080221269
-0.007802857350025376   -0.04882009581394515   -0.0008342336040997289
-0.007380472372079535   -0.06013829287337653   -0.0012332136522169967
-0.007876475090277313   -0.04873467957795613   -0.0007931544381987431
-0.0016811319671383015   -0.06003620506642796   -0.0010816160792491655
-0.007426260922852933   -0.06006801419349569   -0.0012008699557927544
-0.007876475090277313   -0.04873467957795613   -0.0007931544381987431
-0.007380472372079535   -0.06013829287337653   -0.0012332136522169967
-0.0016811319671383015   -0.06003620506642796   -0.0010816160792491655
-0.007876475090277313   -0.04873467957795613   -0.0007931544381987431
-0.0015489159084231044   -0.04872913143372108   -0.0006377416365362873
-0.0014668875698392388   -0.0488354934608707   -0.0006486370080221269
-0.0016811319671383015   -0.06003620506642796   -0.0010816160792491655
-0.007876475090277313   -0.04873467957795613   -0.0007931544381987431
-0.0014668875698392388   -0.0488354934608707   -0.0006486370080221269
-0.007380472372079535   -0.06013829287337653   -0.0012332136522169967
-0.0073017416339051745   -0.060358624010518815   -0.0012727716607693232
-0.007668414933464959   -0.049041057471471194   -0.0008938483898688017
-0.01293387332386544   -0.060239941694516734   -0.0014995769748304896
-0.007340839030246987   -0.06023531196971207   -0.001257319158751315
-0.007668414933464959   -0.049041057471471194   -0.0008938483898688017
-0.013888623589870712   -0.048929221753832575   -0.001101794528872251
-0.01293387332386544   -0.060239941694516734   -0.0014995769748304896
-0.013957118561429407   -0.04883298463889696   -0.0010456901561097882
-0.007340839030246987   -0.06023531196971207   -0.001257319158751315
-0.012976031649290535   -0.06013859290224844   -0.00143598441458751
-0.013957118561429407   -0.04883298463889696   -0.0010456901561097882
-0.01293387332386544   -0.060239941694516734   -0.0014995769748304896
-0.007340839030246987   -0.06023531196971207   -0.001257319158751315
-0.013957118561429407   -0.04883298463889696   -0.0010456901561097882
-0.0077349691089148576   -0.04892254219802767   -0.0008679186931141536
-0.007668414933464959   -0.049041057471471194   -0.0008938483898688017
-0.007340839030246987   -0.06023531196971207   -0.001257319158751315
-0.013957118561429407   -0.04883298463889696   -0.0010456901561097882
-0.007668414933464959   -0.049041057471471194   -0.0008938483898688017
-0.01293387332386544   -0.060239941694516734   -0.0014995769748304896
-0.007340839030246987   -0.06023531196971207   -0.001257319158751315
-0.0077349691089148576   -0.04892254219802767   -0.0008679186931141536
-0.012976031649290535   -0.06013859290224844   -0.00143598441458751
-0.007380472372079535   -0.06013829287337653   -0.0012332136522169967
-0.0077349691089148576   -0.04892254219802767   -0.0008679186931141536
-0.013957118561429407   -0.04883298463889696   -0.0010456901561097882
-0.012976031649290535   -0.06013859290224844   -0.00143598441458751
-0.01401926698036776   -0.048752702747433645   -0.0009820103930737345
-0.007380472372079535   -0.06013829287337653   -0.0012332136522169967
-0.01301097687410075   -0.06006328554377191   -0.001363890749744833
-0.01401926698036776   -0.048752702747433645   -0.0009820103930737345
-0.012976031649290535   -0.06013859290224844   -0.00143598441458751
-0.007380472372079535   -0.06013829287337653   -0.0012332136522169967
-0.01401926698036776   -0.048752702747433645   -0.0009820103930737345
-0.007802857350025376   -0.04882009581394515   -0.0008342336040997289
-0.0077349691089148576   -0.04892254219802767   -0.0008679186931141536
-0.007380472372079535   -0.06013829287337653   -0.0012332136522169967
-0.01401926698036776   -0.048752702747433645   -0.0009820103930737345
-0.0077349691089148576   -0.04892254219802767   -0.0008679186931141536
-0.012976031649290535   -0.06013859290224844   -0.00143598441458751
-0.007380472372079535   -0.06013829287337653   -0.0012332136522169967
-0.007802857350025376   -0.04882009581394515   -0.0008342336040997289
-0.01301097687410075   -0.06006328554377191   -0.001363890749744833
-0.007426260922852933   -0.06006801419349569   -0.0012008699557927544
-0.007802857350025376   -0.04882009581394515   -0.0008342336040997289
-0.01401926698036776   -0.048752702747433645   -0.0009820103930737345
-0.01301097687410075   -0.06006328554377191   -0.001363890749744833
-0.014082003187245309   -0.04868851330511465   -0.0009110449798118807
-0.007426260922852933   -0.06006801419349569   -0.0012008699557927544
-0.013046932679854082   -0.06001391140163   -0.0012835470220650869
-0.014082003187245309   -0.04868851330511465   -0.0009110449798118807
-0.01301097687410075   -0.06006328554377191   -0.001363890749744833
-0.007426260922852933   -0.06006801419349569   -0.0012008699557927544
-0.014082003187245309   -0.04868851330511465   -0.0009110449798118807
-0.007876475090277313   -0.04873467957795613   -0.0007931544381987431
-0.007802857350025376   -0.04882009581394515   -0.0008342336040997289
-0.007426260922852933   -0.06006801419349569   -0.0012008699557927544
-0.014082003187245309   -0.04868851330511465   -0.0009110449798118807
-0.007802857350025376   -0.04882009581394515   -0.0008342336040997289
-0.01301097687410075   -0.06006328554377191   -0.001363890749744833
-0.01293387332386544   -0.060239941694516734   -0.0014995769748304896
-0.013888623589870712   -0.048929221753832575   -0.001101794528872251
-0.018699978473534374   -0.0600365810937451   -0.001689062526736023
-0.012976031649290535   -0.06013859290224844   -0.00143598441458751
-0.013888623589870712   -0.048929221753832575   -0.001101794528872251
-0.02023197941988421   -0.04876319566145399   -0.001271790777359134
-0.018699978473534374   -0.0600365810937451   -0.001689062526736023
-0.02029559911985572   -0.0486894323800787   -0.001185282292548888
-0.012976031649290535   -0.06013859290224844   -0.00143598441458751
-0.018734900694285232   -0.05995669796383269   -0.0015766768555904075
-0.02029559911985572   -0.0486894323800787   -0.001185282292548888
-0.018699978473534374   -0.0600365810937451   -0.001689062526736023
-0.012976031649290535   -0.06013859290224844   -0.00143598441458751
-0.02029559911985572   -0.0486894323800787   -0.001185282292548888
-0.013957118561429407   -0.04883298463889696   -0.0010456901561097882
-0.013888623589870712   -0.048929221753832575   -0.001101794528872251
-0.012976031649290535   -0.06013859290224844   -0.00143598441458751
-0.02029559911985572   -0.0486894323800787   -0.001185282292548888
-0.013888623589870712   -0.048929221753832575   -0.001101794528872251
-0.018699978473534374   -0.0600365810937451   -0.001689062526736023
-0.012976031649290535   -0.06013859290224844   -0.00143598441458751
-0.013957118561429407   -0.04883298463889696   -0.0010456901561097882
-0.018734900694285232   -0.05995669796383269   -0.0015766768555904075
-0.01301097687410075   -0.06006328554377191   -0.001363890749744833
-0.013957118561429407   -0.04883298463889696   -0.0010456901561097882
-0.02029559911985572   -0.0486894323800787   -0.001185282292548888
-0.018734900694285232   -0.05995669796383269   -0.0015766768555904075
-0.02033422101439514   -0.04862957279772857   -0.0010922226306313615
-0.01301097687410075   -0.06006328554377191   -0.001363890749744833
-0.018739525932675846   -0.059901241899043264   -0.0014569668145078094
-0.02033422101439514   -0.04862957279772857   -0.0010922226306313615
-0.018734900694285232   -0.05995669796383269   -0.0015766768555904075
-0.01301097687410075   -0.06006328554377191   -0.001363890749744833
-0.02033422101439514   -0.04862957279772857   -0.0010922226306313615
-0.01401926698036776   -0.048752702747433645   -0.0009820103930737345
-0.013957118561429407   -0.04883298463889696   -0.0010456901561097882
-0.01301097687410075   -0.06006328554377191   -0.001363890749744833
-0.02033422101439514   -0.04862957279772857   -0.0010922226306313615
-0.013957118561429407   -0.04883298463889696   -0.0010456901561097882
-0.018734900694285232   -0.05995669796383269   -0.0015766768555904075
-0.01301097687410075   -0.06006328554377191   -0.001363890749744833
-0.01401926698036776   -0.048752702747433645   -0.0009820103930737345
-0.018739525932675846   -0.059901241899043264   -0.0014569668145078094
-0.013046932679854082   -0.06001391140163   -0.0012835470220650869
-0.01401926698036776   -0.048752702747433645   -0.0009820103930737345
-0.02033422101439514   -0.04862957279772857   -0.0010922226306313615
-0.018739525932675846   -0.059901241899043264   -0.0014569668145078094
-0.02037659776532714   -0.04858719713287633   -0.0009912562925545583
-0.013046932679854082   -0.06001391140163   -0.0012835470220650869
-0.018752715763495995   -0.0598740482573233   -0.0013283824248748544
-0.02037659776532714   -0.04858719713287633   -0.0009912562925545583
-0.018739525932675846   -0.059901241899043264   -0.0014569668145078094
-0.013046932679854082   -0.06001391140163   -0.0012835470220650869
-0.02037659776532714   -0.04858719713287633   -0.0009912562925545583
-0.014082003187245309   -0.04868851330511465   -0.0009110449798118807
-0.01401926698036776   -0.048752702747433645   -0.0009820103930737345
-0.013046932679854082   -0.06001391140163   -0.0012835470220650869
-0.02037659776532714   -0.04858719713287633   -0.0009912562925545583
-0.01401926698036776   -0.048752702747433645   -0.0009820103930737345
-0.018739525932675846   -0.059901241899043264   -0.0014569668145078094
-0.018699978473534374   -0.0600365810937451   -0.001689062526736023
-0.02023197941988421   -0.04876319566145399   -0.001271790777359134
-0.0249875623024489   -0.059769992956466865   -0.001850919235431901
-0.018734900694285232   -0.05995669796383269   -0.0015766768555904075
-0.02023197941988421   -0.04876319566145399   -0.001271790777359134
-0.02703960783179285   -0.048559100334779864   -0.0014070252921389512
-0.0249875623024489   -0.059769992956466865   -0.001850919235431901
-0.026993295933391517   -0.048496874946278745   -0.0012918708319598889
-0.018734900694285232   -0.05995669796383269   -0.0015766768555904075
-0.02486770584348986   -0.05969702470129935   -0.001686992586941927
-0.026993295933391517   -0.048496874946278745   -0.0012918708319598889
-0.0249875623024489   -0.059769992956466865   -0.001850919235431901
-0.018734900694285232   -0.05995669796383269   -0.0015766768555904075
-0.026993295933391517   -0.048496874946278745   -0.0012918708319598889
-0.02029559911985572   -0.0486894323800787   -0.001185282292548888
-0.02023197941988421   -0.04876319566145399   -0.001271790777359134
-0.018734900694285232   -0.05995669796383269   -0.0015766768555904075
-0.026993295933391517   -0.048496874946278745   -0.0012918708319598889
-0.02023197941988421   -0.04876319566145399   -0.001271790777359134
-0.0249875623024489   -0.059769992956466865   -0.001850919235431901
-0.018734900694285232   -0.05995669796383269   -0.0015766768555904075
-0.02029559911985572   -0.0486894323800787   -0.001185282292548888
-0.02486770584348986   -0.05969702470129935   -0.001686992586941927
-0.018739525932675846   -0.059901241899043264   -0.0014569668145078094
-0.02029559911985572   -0.0486894323800787   -0.001185282292548888
-0.026993295933391517   -0.048496874946278745   -0.0012918708319598889
-0.02486770584348986   -0.05969702470129935   -0.001686992586941927
-0.02695556256153178   -0.04844663431001288   -0.001164695664941136
-0.018739525932675846   -0.059901241899043264   -0.0014569668145078094
-0.024766627734186697   -0.059649981816178275   -0.0015102815835102102
-0.02695556256153178   -0.04844663431001288   -0.001164695664941136
-0.02486770584348986   -0.05969702470129935   -0.001686992586941927
-0.018739525932675846   -0.059901241899043264   -0.0014569668145078094
-0.02695556256153178   -0.04844663431001288   -0.001164695664941136
-0.02033422101439514   -0.04862957279772857   -0.0010922226306313615
-0.02029559911985572   -0.0486894323800787   -0.001185282292548888
-0.018739525932675846   -0.059901241899043264   -0.0014569668145078094
-0.02695556256153178   -0.04844663431001288   -0.001164695664941136
-0.02029559911985572   -0.0486894323800787   -0.001185282292548888
-0.02486770584348986   -0.05969702470129935   -0.001686992586941927
-0.018739525932675846   -0.059901241899043264   -0.0014569668145078094
-0.02033422101439514   -0.04862957279772857   -0.0010922226306313615
-0.024766627734186697   -0.059649981816178275   -0.0015102815835102102
-0.018752715763495995   -0.0598740482573233   -0.0013283824248748544
-0.02033422101439514   -0.04862957279772857   -0.0010922226306313615
-0.02695556256153178   -0.04844663431001288   -0.001164695664941136
-0.024766627734186697   -0.059649981816178275   -0.0015102815835102102
-0.026864458482307778   -0.048430386644337534   -0.0010268714886898643
-0.018752715763495995   -0.0598740482573233   -0.0013283824248748544
-0.024599683601219977   -0.05965099027594508   -0.0013223788387346324
-0.026864458482307778   -0.048430386644337534   -0.0010268714886898643
-0.024766627734186697   -0.059649981816178275   -0.0015102815835102102
-0.018752715763495995   -0.0598740482573233   -0.0013283824248748544
-0.026864458482307778   -0.048430386644337534   -0.0010268714886898643
-0.02037659776532714   -0.04858719713287633   -0.0009912562925545583
-0.02033422101439514   -0.04862957279772857   -0.0010922226306313615
-0.018752715763495995   -0.0598740482573233   -0.0013283824248748544
-0.026864458482307778   -0.048430386644337534   -0.0010268714886898643
-0.02033422101439514   -0.04862957279772857   -0.0010922226306313615
-0.024766627734186697   -0.059649981816178275   -0.0015102815835102102
0.005292515457045375   -0.0491027511282536   -0.00034925865324139546
0.0054671246224269445   -0.03710427353624159   -5.406471910789407e-05
-0.0013412126746338217   -0.04910108527414492   -0.0006474989909917753
0.005272935201337992   -0.048938730882291955   -0.0003957518863000234
0.0054671246224269445   -0.03710427353624159   -5.406471910789407e-05
-0.0015412154898809297   -0.03704238173310068   -0.0003223214874401061
-0.0013412126746338217   -0.04910108527414492   -0.0006474989909917753
-0.0016228374395473222   -0.036905804283889086   -0.0002980246212128337
0.005272935201337992   -0.048938730882291955   -0.0003957518863000234
-0.0014007426626624596   -0.048958420205700084   -0.0006517915956790607
-0.0016228374395473222   -0.036905804283889086   -0.0002980246212128337
-0.0013412126746338217   -0.04910108527414492   -0.0006474989909917753
0.005272935201337992   -0.048938730882291955   -0.0003957518863000234
-0.0016228374395473222   -0.036905804283889086   -0.0002980246212128337
0.0053802681284516075   -0.036947776494256304   -4.891089852476109e-05
0.0054671246224269445   -0.03710427353624159   -5.406471910789407e-05
0.005272935201337992   -0.048938730882291955   -0.0003957518863000234
-0.0016228374395473222   -0.036905804283889086   -0.0002980246212128337
0.0054671246224269445   -0.03710427353624159   -5.406471910789407e-05
-0.0013412126746338217   -0.04910108527414492   -0.0006474989909917753
0.005272935201337992   -0.048938730882291955   -0.0003957518863000234
0.0053802681284516075   -0.036947776494256304   -4.891089852476109e-05
-0.0014007426626624596   -0.048958420205700084   -0.0006517915956790607
0.0052248631734385315   -0.048806582878148166   -0.00043030863994918963
0.0053802681284516075   -0.036947776494256304   -4.891089852476109e-05
-0.0016228374395473222   -0.036905804283889086   -0.0002980246212128337
-0.0014007426626624596   -0.048958420205700084   -0.0006517915956790607
-0.0017162644550831805   -0.036776802937096585   -0.00026698194053862914
0.0052248631734385315   -0.048806582878148166   -0.00043030863994918963
-0.0014668875698392388   -0.0488354934608707   -0.0006486370080221269
-0.0017162644550831805   -0.036776802937096585   -0.00026698194053862914
-0.0014007426626624596   -0.048958420205700084   -0.0006517915956790607
0.0052248631734385315   -0.048806582878148166   -0.00043030863994918963
-0.0017162644550831805   -0.036776802937096585   -0.00026698194053862914
0.005273839792179968   -0.036807790252826385   -2.996877446541424e-05
0.0053802681284516075   -0.036947776494256304   -4.891089852476109e-05
0.0052248631734385315   -0.048806582878148166   -0.00043030863994918963
-0.0017162644550831805   -0.036776802937096585   -0.00026698194053862914
0.0053802681284516075   -0.036947776494256304   -4.891089852476109e-05
-0.0014007426626624596   -0.048958420205700084   -0.0006517915956790607
0.0052248631734385315   -0.048806582878148166   -0.00043030863994918963
0.005273839792179968   -0.036807790252826385   -2.996877446541424e-05
-0.0014668875698392388   -0.0488354934608707   -0.0006486370080221269
0.005157813694436303   -0.04868483477077667   -0.00045376242539117327
0.005273839792179968   -0.036807790252826385   -2.996877446541424e-05
-0.0017162644550831805   -0.036776802937096585   -0.00026698194053862914
-0.0014668875698392388   -0.0488354934608707   -0.0006486370080221269
-0.0018210796680811917   -0.036653617127637976   -0.0002275015118772436
0.005157813694436303   -0.04868483477077667   -0.00045376242539117327
-0.0015489159084231044   -0.04872913143372108   -0.0006377416365362873
-0.0018210796680811917   -0.036653617127637976   -0.0002275015118772436
-0.0014668875698392388   -0.0488354934608707   -0.0006486370080221269
0.005157813694436303   -0.04868483477077667   -0.00045376242539117327
-0.0018210796680811917   -0.036653617127637976   -0.0002275015118772436
0.005133596078396808   -0.03666128668900818   2.1362427146606575e-06
0.005273839792179968   -0.036807790252826385   -2.996877446541424e-05
0.005157813694436303   -0.04868483477077667   -0.00045376242539117327
-0.0018210796680811917   -0.036653617127637976   -0.0002275015118772436
0.005273839792179968   -0.036807790252826385   -2.996877446541424e-05
-0.0014668875698392388   -0.0488354934608707   -0.0006486370080221269
-0.0013412126746338217   -0.04910108527414492   -0.0006474989909917753
-0.0015412154898809297   -0.03704238173310068   -0.0003223214874401061
-0.007668414933464959   -0.049041057471471194   -0.0008938483898688017
-0.0014007426626624596   -0.048958420205700084   -0.0006517915956790607
-0.0015412154898809297   -0.03704238173310068   -0.0003223214874401061
-0.008182038346939464   -0.03697050939189895   -0.0005495536411225005
-0.007668414933464959   -0.049041057471471194   -0.0008938483898688017
-0.008265235346143124   -0.036856187752580524   -0.0005124963297074825
-0.0014007426626624596   -0.048958420205700084   -0.0006517915956790607
-0.0077349691089148576   -0.04892254219802767   -0.0008679186931141536
-0.008265235346143124   -0.036856187752580524   -0.0005124963297074825
-0.007668414933464959   -0.049041057471471194   -0.0008938483898688017
-0.0014007426626624596   -0.048958420205700084   -0.0006517915956790607
-0.008265235346143124   -0.036856187752580524   -0.0005124963297074825
-0.0016228374395473222   -0.036905804283889086   -0.0002980246212128337
-0.0015412154898809297   -0.03704238173310068   -0.0003223214874401061
-0.0014007426626624596   -0.048958420205700084   -0.0006517915956790607
-0.008265235346143124   -0.036856187752580524   -0.0005124963297074825
-0.0015412154898809297   -0.03704238173310068   -0.0003223214874401061
-0.007668414933464959   -0.049041057471471194   -0.0008938483898688017
-0.0014007426626624596   -0.048958420205700084   -0.0006517915956790607
-0.0016228374395473222   -0.036905804283889086   -0.0002980246212128337
-0.0077349691089148576   -0.04892254219802767   -0.0008679186931141536
-0.0014668875698392388   -0.0488354934608707   -0.0006486370080221269
-0.0016228374395473222   -0.036905804283889086   -0.0002980246212128337
-0.008265235346143124   -0.036856187752580524   -0.0005124963297074825
-0.0077349691089148576   -0.04892254219802767   -0.0008679186931141536
-0.008350287144321896   -0.036747748971757234   -0.00046901443193736523
-0.0014668875698392388   -0.0488354934608707   -0.0006486370080221269
-0.007802857350025376   -0.04882009581394515   -0.0008342336040997289
-0.008350287144321896   -0.036747748971757234   -0.00046901443193736523
-0.0077349691089148576   -0.04892254219802767   -0.0008679186931141536
-0.0014668875698392388   -0.0488354934608707   -0.0006486370080221269
-0.008350287144321896   -0.036747748971757234   -0.00046901443193736523
-0.0017162644550831805   -0.036776802937096585   -0.00026698194053862914
-0.0016228374395473222   -0.036905804283889086   -0.0002980246212128337
-0.0014668875698392388   -0.0488354934608707   -0.0006486370080221269
-0.008350287144321896   -0.036747748971757234   -0.00046901443193736523
-0.0016228374395473222   -0.036905804283889086   -0.0002980246212128337
-0.0077349691089148576   -0.04892254219802767   -0.0008679186931141536
-0.0014668875698392388   -0.0488354934608707   -0.0006486370080221269
-0.0017162644550831805   -0.036776802937096585   -0.00026698194053862914
-0.007802857350025376   -0.04882009581394515   -0.0008342336040997289
-0.0015489159084231044   -0.04872913143372108   -0.0006377416365362873
-0.0017162644550831805   -0.036776802937096585   -0.00026698194053862914
-0.008350287144321896   -0.036747748971757234   -0.00046901443193736523
-0.007802857350025376   -0.04882009581394515   -0.0008342336040997289
-0.008440734600895608   -0.03664685982583954   -0.0004190353872277637
-0.0015489159084231044   -0.04872913143372108   -0.0006377416365362873
-0.007876475090277313   -0.04873467957795613   -0.0007931544381987431
-0.008440734600895608   -0.03664685982583954   -0.0004190353872277637
-0.007802857350025376   -0.04882009581394515   -0.0008342336040997289
-0.0015489159084231044   -0.04872913143372108   -0.0006377416365362873
-0.008440734600895608   -0.03664685982583954   -0.0004190353872277637
-0.0018210796680811917   -0.036653617127637976   -0.0002275015118772436
-0.0017162644550831805   -0.036776802937096585   -0.00026698194053862914
-0.0015489159084231044   -0.04872913143372108   -0.0006377416365362873
-0.008440734600895608   -0.03664685982583954   -0.0004190353872277637
-0.0017162644550831805   -0.036776802937096585   -0.00026698194053862914
-0.007802857350025376   -0.04882009581394515   -0.0008342336040997289
-0.007668414933464959   -0.049041057471471194   -0.0008938483898688017
-0.008182038346939464   -0.03697050939189895   -0.0005495536411225005
-0.013888623589870712   -0.048929221753832575   -0.001101794528872251
-0.0077349691089148576   -0.04892254219802767   -0.0008679186931141536
-0.008182038346939464   -0.03697050939189895   -0.0005495536411225005
-0.014714964001654984   -0.03688444176339804   -0.0007426530532172918
-0.013888623589870712   -0.048929221753832575   -0.001101794528872251
-0.014797532720964299   -0.03679075910445469   -0.0006928339271574151
-0.0077349691089148576   -0.04892254219802767   -0.0008679186931141536
-0.013957118561429407   -0.04883298463889696   -0.0010456901561097882
-0.014797532720964299   -0.03679075910445469   -0.0006928339271574151
-0.013888623589870712   -0.048929221753832575   -0.001101794528872251
-0.0077349691089148576   -0.04892254219802767   -0.0008679186931141536
-0.014797532720964299   -0.03679075910445469   -0.0006928339271574151
-0.008265235346143124   -0.036856187752580524   -0.0005124963297074825
-0.008182038346939464   -0.03697050939189895   -0.0005495536411225005
-0.0077349691089148576   -0.04892254219802767   -0.0008679186931141536
-0.014797532720964299   -0.03679075910445469   -0.0006928339271574151
-0.008182038346939464   -0.03697050939189895   -0.0005495536411225005
-0.013888623589870712   -0.048929221753832575   -0.001101794528872251
-0.0077349691089148576   -0.04892254219802767   -0.0008679186931141536
-0.008265235346143124   -0.036856187752580524   -0.0005124963297074825
-0.013957118561429407   -0.04883298463889696   -0.0010456901561097882
-0.007802857350025376   -0.04882009581394515   -0.0008342336040997289
-0.008265235346143124   -0.036856187752580524   -0.0005124963297074825
-0.014797532720964299   -0.03679075910445469   -0.0006928339271574151
-0.013957118561429407   -0.04883298463889696   -0.0010456901561097882
-0.014874766694343363   -0.03670329821937558   -0.0006368100710503118
-0.007802857350025376   -0.04882009581394515   -0.0008342336040997289
-0.01401926698036776   -0.048752702747433645   -0.0009820103930737345
-0.014874766694343363   -0.03670329821937558   -0.0006368100710503118
-0.013957118561429407   -0.04883298463889696   -0.0010456901561097882
-0.007802857350025376   -0.04882009581394515   -0.0008342336040997289
-0.014874766694343363   -0.03670329821937558   -0.0006368100710503118
-0.008350287144321896   -0.036747748971757234   -0.00046901443193736523
-0.008265235346143124   -0.036856187752580524   -0.0005124963297074825
-0.007802857350025376   -0.04882009581394515   -0.0008342336040997289
-0.014874766694343363   -0.03670329821937558   -0.0006368100710503118
-0.008265235346143124   -0.036856187752580524   -0.0005124963297074825
-0.013957118561429407   -0.04883298463889696   -0.0010456901561097882
-0.007802857350025376   -0.04882009581394515   -0.0008342336040997289
-0.008350287144321896   -0.036747748971757234   -0.00046901443193736523
-0.01401926698036776   -0.048752702747433645   -0.0009820103930737345
-0.007876475090277313   -0.04873467957795613   -0.0007931544381987431
-0.008350287144321896   -0.036747748971757234   -0.00046901443193736523
-0.014874766694343363   -0.03670329821937558   -0.0006368100710503118
-0.01401926698036776   -0.048752702747433645   -0.0009820103930737345
-0.014952276686408401   -0.036622303380997104   -0.0005748897443488464
-0.007876475090277313   -0.04873467957795613   -0.0007931544381987431
-0.014082003187245309   -0.04868851330511465   -0.0009110449798118807
-0.014952276686408401   -0.036622303380997104   -0.0005748897443488464
-0.01401926698036776   -0.048752702747433645   -0.0009820103930737345
-0.007876475090277313   -0.04873467957795613   -0.0007931544381987431
-0.014952276686408401   -0.036622303380997104   -0.0005748897443488464
-0.008440734600895608   -0.03664685982583954   -0.0004190353872277637
-0.008350287144321896   -0.036747748971757234   -0.00046901443193736523
-0.007876475090277313   -0.04873467957795613   -0.0007931544381987431
-0.014952276686408401   -0.036622303380997104   -0.0005748897443488464
-0.008350287144321896   -0.036747748971757234   -0.00046901443193736523
-0.01401926698036776   -0.048752702747433645   -0.0009820103930737345
-0.013888623589870712   -0.048929221753832575   -0.001101794528872251
-0.014714964001654984   -0.03688444176339804   -0.0007426530532172918
-0.02023197941988421   -0.04876319566145399   -0.001271790777359134
-0.013957118561429407   -0.04883298463889696   -0.0010456901561097882
-0.014714964001654984   -0.03688444176339804   -0.0007426530532172918
-0.021365807821683697   -0.03676816548690018   -0.0008999714105398578
-0.02023197941988421   -0.04876319566145399   -0.001271790777359134
-0.021444887389658655   -0.036696198550246834   -0.0008375416260288346
-0.013957118561429407   -0.04883298463889696   -0.0010456901561097882
-0.02029559911985572   -0.0486894323800787   -0.001185282292548888
-0.021444887389658655   -0.036696198550246834   -0.0008375416260288346
-0.02023197941988421   -0.04876319566145399   -0.001271790777359134
-0.013957118561429407   -0.04883298463889696   -0.0010456901561097882
-0.021444887389658655   -0.036696198550246834   -0.0008375416260288346
-0.014797532720964299   -0.03679075910445469   -0.0006928339271574151
-0.014714964001654984   -0.03688444176339804   -0.0007426530532172918
-0.013957118561429407   -0.04883298463889696   -0.0010456901561097882
-0.021444887389658655   -0.036696198550246834   -0.0008375416260288346
-0.014714964001654984   -0.03688444176339804   -0.0007426530532172918
-0.02023197941988421   -0.04876319566145399   -0.001271790777359134
-0.013957118561429407   -0.04883298463889696   -0.0010456901561097882
-0.014797532720964299   -0.03679075910445469   -0.0006928339271574151
-0.02029559911985572   -0.0486894323800787   -0.001185282292548888
-0.01401926698036776   -0.048752702747433645   -0.0009820103930737345
-0.014797532720964299   -0.03679075910445469   -0.0006928339271574151
-0.021444887389658655   -0.036696198550246834   -0.0008375416260288346
-0.02029559911985572   -0.0486894323800787   -0.001185282292548888
-0.02150489785358159   -0.03662804885468632   -0.0007699354740509286
-0.01401926698036776   -0.048752702747433645   -0.0009820103930737345
-0.02033422101439514   -0.04862957279772857   -0.0010922226306313615
-0.02150489785358159   -0.03662804885468632   -0.0007699354740509286
-0.02029559911985572   -0.0486894323800787   -0.001185282292548888
-0.01401926698036776   -0.048752702747433645   -0.0009820103930737345
-0.02150489785358159   -0.03662804885468632   -0.0007699354740509286
-0.014874766694343363   -0.03670329821937558   -0.0006368100710503118
-0.014797532720964299   -0.03679075910445469   -0.0006928339271574151
-0.01401926698036776   -0.048752702747433645   -0.0009820103930737345
-0.02150489785358159   -0.03662804885468632   -0.0007699354740509286
-0.014797532720964299   -0.03679075910445469   -0.0006928339271574151
-0.02029559911985572   -0.0486894323800787   -0.001185282292548888
-0.01401926698036776   -0.048752702747433645   -0.0009820103930737345
-0.014874766694343363   -0.03670329821937558   -0.0006368100710503118
-0.02033422101439514   -0.04862957279772857   -0.0010922226306313615
-0.014082003187245309   -0.04868851330511465   -0.0009110449798118807
-0.014874766694343363   -0.03670329821937558   -0.0006368100710503118
-0.02150489785358159   -0.03662804885468632   -0.0007699354740509286
-0.02033422101439514   -0.04862957279772857   -0.0010922226306313615
-0.0215644267438818   -0.0365667180319965   -0.0006957985910179301
-0.014082003187245309   -0.04868851330511465   -0.0009110449798118807
-0.02037659776532714   -0.04858719713287633   -0.0009912562925545583
-0.0215644267438818   -0.0365667180319965   -0.0006957985910179301
-0.02033422101439514   -0.04862957279772857   -0.0010922226306313615
-0.014082003187245309   -0.04868851330511465   -0.0009110449798118807
-0.0215644267438818   -0.0365667180319965   -0.0006957985910179301
-0.014952276686408401   -0.036622303380997104   -0.0005748897443488464
-0.014874766694343363   -0.03670329821937558   -0.0006368100710503118
-0.014082003187245309   -0.04868851330511465   -0.0009110449798118807
-0.0215644267438818   -0.0365667180319965   -0.0006957985910179301
-0.014874766694343363   -0.03670329821937558   -0.0006368100710503118
-0.02033422101439514   -0.04862957279772857   -0.0010922226306313615
-0.02023197941988421   -0.04876319566145399   -0.001271790777359134
-0.021365807821683697   -0.03676816548690018   -0.0008999714105398578
-0.02703960783179285   -0.048559100334779864   -0.0014070252921389512
-0.02029559911985572   -0.0486894323800787   -0.001185282292548888
-0.021365807821683697   -0.03676816548690018   -0.0008999714105398578
-0.028414197127466952   -0.03663092524591778   -0.0010168588645012608
-0.02703960783179285   -0.048559100334779864   -0.0014070252921389512
-0.028426629800549223   -0.03657341063032352   -0.0009479961407455758
-0.02029559911985572   -0.0486894323800787   -0.001185282292548888
-0.026993295933391517   -0.048496874946278745   -0.0012918708319598889
-0.028426629800549223   -0.03657341063032352   -0.0009479961407455758
-0.02703960783179285   -0.048559100334779864   -0.0014070252921389512
-0.02029559911985572   -0.0486894323800787   -0.001185282292548888
-0.028426629800549223   -0.03657341063032352   -0.0009479961407455758
-0.021444887389658655   -0.036696198550246834   -0.0008375416260288346
-0.021365807821683697   -0.03676816548690018   -0.0008999714105398578
-0.02029559911985572   -0.0486894323800787   -0.001185282292548888
-0.028426629800549223   -0.03657341063032352   -0.0009479961407455758
-0.021365807821683697   -0.03676816548690018   -0.0008999714105398578
-0.02703960783179285   -0.048559100334779864   -0.0014070252921389512
-0.02029559911985572   -0.0486894323800787   -0.001185282292548888
-0.021444887389658655   -0.036696198550246834   -0.0008375416260288346
-0.026993295933391517   -0.048496874946278745   -0.0012918708319598889
-0.02033422101439514   -0.04862957279772857   -0.0010922226306313615
-0.021444887389658655   -0.036696198550246834   -0.0008375416260288346
-0.028426629800549223   -0.03657341063032352   -0.0009479961407455758
-0.026993295933391517   -0.048496874946278745   -0.0012918708319598889
-0.02843934912064312   -0.0365151780544973   -0.000868706124352988
-0.02033422101439514   -0.04862957279772857   -0.0010922226306313615
-0.02695556256153178   -0.04844663431001288   -0.001164695664941136
-0.02843934912064312   -0.0365151780544973   -0.000868706124352988
-0.026993295933391517   -0.048496874946278745   -0.0012918708319598889
-0.02033422101439514   -0.04862957279772857   -0.0010922226306313615
-0.02843934912064312   -0.0365151780544973   -0.000868706124352988
-0.02150489785358159   -0.03662804885468632   -0.0007699354740509286
-0.021444887389658655   -0.036696198550246834   -0.0008375416260288346
-0.02033422101439514   -0.04862957279772857   -0.0010922226306313615
-0.02843934912064312   -0.0365151780544973   -0.000868706124352988
-0.021444887389658655   -0.036696198550246834   -0.0008375416260288346
-0.026993295933391517   -0.048496874946278745   -0.0012918708319598889
-0.02033422101439514   -0.04862957279772857   -0.0010922226306313615
-0.02150489785358159   -0.03662804885468632   -0.0007699354740509286
-0.02695556256153178   -0.04844663431001288   -0.001164695664941136
-0.02037659776532714   -0.04858719713287633   -0.0009912562925545583
-0.02150489785358159   -0.03662804885468632   -0.0007699354740509286
-0.02843934912064312   -0.0365151780544973   -0.000868706124352988
-0.02695556256153178   -0.04844663431001288   -0.001164695664941136
-0.02841252795795486   -0.036476578731239134   -0.0007802287512374315
-0.02037659776532714   -0.04858719713287633   -0.0009912562925545583
-0.026864458482307778   -0.048430386644337534   -0.0010268714886898643
-0.02841252795795486   -0.036476578731239134   -0.0007802287512374315
-0.02695556256153178   -0.04844663431001288   -0.001164695664941136
-0.02037659776532714   -0.04858719713287633   -0.0009912562925545583
-0.02841252795795486   -0.036476578731239134   -0.0007802287512374315
-0.0215644267438818   -0.0365667180319965   -0.0006957985910179301
-0.02150489785358159   -0.03662804885468632   -0.0007699354740509286
-0.02037659776532714   -0.04858719713287633   -0.0009912562925545583
-0.02841252795795486   -0.036476578731239134   -0.0007802287512374315
-0.02150489785358159   -0.03662804885468632   -0.0007699354740509286
-0.02695556256153178   -0.04844663431001288   -0.001164695664941136
0.0054671246224269445   -0.03710427353624159   -5.406471910789407e-05
0.004898160975422771   -0.0247525580142921   0.0001496453383679667
-0.0015412154898809297   -0.03704238173310068   -0.0003223214874401061
0.0053802681284516075   -0.036947776494256304   -4.891089852476109e-05
0.004898160975422771   -0.0247525580142921   0.0001496453383679667
-0.002160706289264457   -0.02463595540884887   -6.375213353779781e-05
-0.0015412154898809297   -0.03704238173310068   -0.0003223214874401061
-0.002258123530576805   -0.024512254838788994   -1.317412906456094e-05
0.0053802681284516075   -0.036947776494256304   -4.891089852476109e-05
-0.0016228374395473222   -0.036905804283889086   -0.0002980246212128337
-0.002258123530576805   -0.024512254838788994   -1.317412906456094e-05
-0.0015412154898809297   -0.03704238173310068   -0.0003223214874401061
0.0053802681284516075   -0.036947776494256304   -4.891089852476109e-05
-0.002258123530576805   -0.024512254838788994   -1.317412906456094e-05
0.004744562140394008   -0.024603411920256033   0.00021273479612413026
0.004898160975422771   -0.0247525580142921   0.0001496453383679667
0.0053802681284516075   -0.036947776494256304   -4.891089852476109e-05
-0.002258123530576805   -0.024512254838788994   -1.317412906456094e-05
0.004898160975422771   -0.0247525580142921   0.0001496453383679667
-0.0015412154898809297   -0.03704238173310068   -0.0003223214874401061
0.0053802681284516075   -0.036947776494256304   -4.891089852476109e-05
0.004744562140394008   -0.024603411920256033   0.00021273479612413026
-0.0016228374395473222   -0.036905804283889086   -0.0002980246212128337
0.005273839792179968   -0.036807790252826385   -2.996877446541424e-05
0.004744562140394008   -0.024603411920256033   0.00021273479612413026
-0.002258123530576805   -0.024512254838788994   -1.317412906456094e-05
-0.0016228374395473222   -0.036905804283889086   -0.0002980246212128337
-0.002372056526464847   -0.024381664368411122   4.638009578284456e-05
0.005273839792179968   -0.036807790252826385   -2.996877446541424e-05
-0.0017162644550831805   -0.036776802937096585   -0.00026698194053862914
-0.002372056526464847   -0.024381664368411122   4.638009578284456e-05
-0.0016228374395473222   -0.036905804283889086   -0.0002980246212128337
0.005273839792179968   -0.036807790252826385   -2.996877446541424e-05
-0.002372056526464847   -0.024381664368411122   4.638009578284456e-05
0.004573252295020977   -0.024455207668145434   0.0003032274855741742
0.004744562140394008   -0.024603411920256033   0.00021273479612413026
0.005273839792179968   -0.036807790252826385   -2.996877446541424e-05
-0.002372056526464847   -0.024381664368411122   4.638009578284456e-05
0.004744562140394008   -0.024603411920256033   0.00021273479612413026
-0.0016228374395473222   -0.036905804283889086   -0.0002980246212128337
0.005273839792179968   -0.036807790252826385   -2.996877446541424e-05
0.004573252295020977   -0.024455207668145434   0.0003032274855741742
-0.0017162644550831805   -0.036776802937096585   -0.00026698194053862914
0.005133596078396808   -0.03666128668900818   2.1362427146606575e-06
0.004573252295020977   -0.024455207668145434   0.0003032274855741742
-0.002372056526464847   -0.024381664368411122   4.638009578284456e-05
-0.0017162644550831805   -0.036776802937096585   -0.00026698194053862914
-0.0024898734173012136   -0.024242973273223275   0.00011478622662100633
0.005133596078396808   -0.03666128668900818   2.1362427146606575e-06
-0.0018210796680811917   -0.036653617127637976   -0.0002275015118772436
-0.0024898734173012136   -0.024242973273223275   0.00011478622662100633
-0.0017162644550831805   -0.036776802937096585   -0.00026698194053862914
0.005133596078396808   -0.03666128668900818   2.1362427146606575e-06
-0.0024898734173012136   -0.024242973273223275   0.00011478622662100633
0.004363947605444504   -0.024273180955531586   0.0004027810687623401
0.004573252295020977   -0.024455207668145434   0.0003032274855741742
0.005133596078396808   -0.03666128668900818   2.1362427146606575e-06
-0.0024898734173012136   -0.024242973273223275   0.00011478622662100633
0.004573252295020977   -0.024455207668145434   0.0003032274855741742
-0.0017162644550831805   -0.036776802937096585   -0.00026698194053862914
-0.0015412154898809297   -0.03704238173310068   -0.0003223214874401061
-0.002160706289264457   -0.02463595540884887   -6.375213353779781e-05
-0.008182038346939464   -0.03697050939189895   -0.0005495536411225005
-0.0016228374395473222   -0.036905804283889086   -0.0002980246212128337
-0.002160706289264457   -0.02463595540884887   -6.375213353779781e-05
-0.008808312022102804   -0.024605789114826665   -0.0002695363205764598
-0.008182038346939464   -0.03697050939189895   -0.0005495536411225005
-0.00889631802986224   -0.02449775251966782   -0.0002225443675987768
-0.0016228374395473222   -0.036905804283889086   -0.0002980246212128337
-0.008265235346143124   -0.036856187752580524   -0.0005124963297074825
-0.00889631802986224   -0.02449775251966782   -0.0002225443675987768
-0.008182038346939464   -0.03697050939189895   -0.0005495536411225005
-0.0016228374395473222   -0.036905804283889086   -0.0002980246212128337
-0.00889631802986224   -0.02449775251966782   -0.0002225443675987768
-0.002258123530576805   -0.024512254838788994   -1.317412906456094e-05
-0.002160706289264457   -0.02463595540884887   -6.375213353779781e-05
-0.0016228374395473222   -0.036905804283889086   -0.0002980246212128337
-0.00889631802986224   -0.02449775251966782   -0.0002225443675987768
-0.002160706289264457   -0.02463595540884887   -6.375213353779781e-05
-0.008182038346939464   -0.03697050939189895   -0.0005495536411225005
-0.0016228374395473222   -0.036905804283889086   -0.0002980246212128337
-0.002258123530576805   -0.024512254838788994   -1.317412906456094e-05
-0.008265235346143124   -0.036856187752580524   -0.0005124963297074825
-0.0017162644550831805   -0.036776802937096585   -0.00026698194053862914
-0.002258123530576805   -0.024512254838788994   -1.317412906456094e-05
-0.00889631802986224   -0.02449775251966782   -0.0002225443675987768
-0.008265235346143124   -0.036856187752580524   -0.0005124963297074825
-0.00898734273790176   -0.024385360407778577   -0.0001709033467027612
-0.0017162644550831805   -0.036776802937096585   -0.00026698194053862914
-0.008350287144321896   -0.036747748971757234   -0.00046901443193736523
-0.00898734273790176   -0.024385360407778577   -0.0001709033467027612
-0.008265235346143124   -0.036856187752580524   -0.0005124963297074825
-0.0017162644550831805   -0.036776802937096585   -0.00026698194053862914
-0.00898734273790176   -0.024385360407778577   -0.0001709033467027612
-0.002372056526464847   -0.024381664368411122   4.638009578284456e-05
-0.002258123530576805   -0.024512254838788994   -1.317412906456094e-05
-0.0017162644550831805   -0.036776802937096585   -0.00026698194053862914
-0.00898734273790176   -0.024385360407778577   -0.0001709033467027612
-0.002258123530576805   -0.024512254838788994   -1.317412906456094e-05
-0.008265235346143124   -0.036856187752580524   -0.0005124963297074825
-0.0017162644550831805   -0.036776802937096585   -0.00026698194053862914
-0.002372056526464847   -0.024381664368411122   4.638009578284456e-05
-0.008350287144321896   -0.036747748971757234   -0.00046901443193736523
-0.0018210796680811917   -0.036653617127637976   -0.0002275015118772436
-0.002372056526464847   -0.024381664368411122   4.638009578284456e-05
-0.00898734273790176   -0.024385360407778577   -0.0001709033467027612
-0.008350287144321896   -0.036747748971757234   -0.00046901443193736523
-0.00908209356389844   -0.02427060493587347   -0.00011368114175112403
-0.0018210796680811917   -0.036653617127637976   -0.0002275015118772436
-0.008440734600895608   -0.03664685982583954   -0.0004190353872277637
-0.00908209356389844   -0.02427060493587347   -0.00011368114175112403
-0.008350287144321896   -0.036747748971757234   -0.00046901443193736523
-0.0018210796680811917   -0.036653617127637976   -0.0002275015118772436
-0.00908209356389844   -0.02427060493587347   -0.00011368114175112403
-0.0024898734173012136   -0.024242973273223275   0.00011478622662100633
-0.002372056526464847   -0.024381664368411122   4.638009578284456e-05
-0.0018210796680811917   -0.036653617127637976   -0.0002275015118772436
-0.00908209356389844   -0.02427060493587347   -0.00011368114175112403
-0.002372056526464847   -0.024381664368411122   4.638009578284456e-05
-0.008350287144321896   -0.036747748971757234   -0.00046901443193736523
-0.008182038346939464   -0.03697050939189895   -0.0005495536411225005
-0.008808312022102804   -0.024605789114826665   -0.0002695363205764598
-0.014714964001654984   -0.03688444176339804   -0.0007426530532172918
-0.008265235346143124   -0.036856187752580524   -0.0005124963297074825
-0.008808312022102804   -0.024605789114826665   -0.0002695363205764598
-0.015388065298764431   -0.024597417669925424   -0.00045560203348773433
-0.014714964001654984   -0.03688444176339804   -0.0007426530532172918
-0.015472173416744825   -0.024502634114310855   -0.0004108301059268146
-0.008265235346143124   -0.036856187752580524   -0.0005124963297074825
-0.014797532720964299   -0.03679075910445469   -0.0006928339271574151
-0.015472173416744825   -0.024502634114310855   -0.0004108301059268146
-0.014714964001654984   -0.03688444176339804   -0.0007426530532172918
-0.008265235346143124   -0.036856187752580524   -0.0005124963297074825
-0.015472173416744825   -0.024502634114310855   -0.0004108301059268146
-0.00889631802986224   -0.02449775251966782   -0.0002225443675987768
-0.008808312022102804   -0.024605789114826665   -0.0002695363205764598
-0.008265235346143124   -0.036856187752580524   -0.0005124963297074825
-0.015472173416744825   -0.024502634114310855   -0.0004108301059268146
-0.008808312022102804   -0.024605789114826665   -0.0002695363205764598
-0.014714964001654984   -0.03688444176339804   -0.0007426530532172918
-0.008265235346143124   -0.036856187752580524   -0.0005124963297074825
-0.00889631802986224   -0.02449775251966782   -0.0002225443675987768
-0.014797532720964299   -0.03679075910445469   -0.0006928339271574151
-0.008350287144321896   -0.036747748971757234   -0.00046901443193736523
-0.00889631802986224   -0.02449775251966782   -0.0002225443675987768
-0.015472173416744825   -0.024502634114310855   -0.0004108301059268146
-0.014797532720964299   -0.03679075910445469   -0.0006928339271574151
-0.015552293813861645   -0.024406113734169368   -0.0003619951537290743
-0.008350287144321896   -0.036747748971757234   -0.00046901443193736523
-0.014874766694343363   -0.03670329821937558   -0.0006368100710503118
-0.015552293813861645   -0.024406113734169368   -0.0003619951537290743
-0.014797532720964299   -0.03679075910445469   -0.0006928339271574151
-0.008350287144321896   -0.036747748971757234   -0.00046901443193736523
-0.015552293813861645   -0.024406113734169368   -0.0003619951537290743
-0.00898734273790176   -0.024385360407778577   -0.0001709033467027612
-0.00889631802986224   -0.02449775251966782   -0.0002225443675987768
-0.008350287144321896   -0.036747748971757234   -0.00046901443193736523
-0.015552293813861645   -0.024406113734169368   -0.0003619951537290743
-0.00889631802986224   -0.02449775251966782   -0.0002225443675987768
-0.014797532720964299   -0.03679075910445469   -0.0006928339271574151
-0.008350287144321896   -0.036747748971757234   -0.00046901443193736523
-0.00898734273790176   -0.024385360407778577   -0.0001709033467027612
-0.014874766694343363   -0.03670329821937558   -0.0006368100710503118
-0.008440734600895608   -0.03664685982583954   -0.0004190353872277637
-0.00898734273790176   -0.024385360407778577   -0.0001709033467027612
-0.015552293813861645   -0.024406113734169368   -0.0003619951537290743
-0.014874766694343363   -0.03670329821937558   -0.0006368100710503118
-0.01563160677660942   -0.024307309487138697   -0.00030932961331126967
-0.008440734600895608   -0.03664685982583954   -0.0004190353872277637
-0.014952276686408401   -0.036622303380997104   -0.0005748897443488464
-0.01563160677660942   -0.024307309487138697   -0.00030932961331126967
-0.014874766694343363   -0.03670329821937558   -0.0006368100710503118
-0.008440734600895608   -0.03664685982583954   -0.0004190353872277637
-0.01563160677660942   -0.024307309487138697   -0.00030932961331126967
-0.00908209356389844   -0.02427060493587347   -0.00011368114175112403
-0.00898734273790176   -0.024385360407778577   -0.0001709033467027612
-0.008440734600895608   -0.03664685982583954   -0.0004190353872277637
-0.01563160677660942   -0.024307309487138697   -0.00030932961331126967
-0.00898734273790176   -0.024385360407778577   -0.0001709033467027612
-0.014874766694343363   -0.03670329821937558   -0.0006368100710503118
-0.014714964001654984   -0.03688444176339804   -0.0007426530532172918
-0.015388065298764431   -0.024597417669925424   -0.00045560203348773433
-0.021365807821683697   -0.03676816548690018   -0.0008999714105398578
-0.014797532720964299   -0.03679075910445469   -0.0006928339271574151
-0.015388065298764431   -0.024597417669925424   -0.00045560203348773433
-0.02210715715314662   -0.024559272023882837   -0.0006120070447179795
-0.021365807821683697   -0.03676816548690018   -0.0008999714105398578
-0.022187340165869717   -0.02448194164644017   -0.0005696738061757731
-0.014797532720964299   -0.03679075910445469   -0.0006928339271574151
-0.021444887389658655   -0.036696198550246834   -0.0008375416260288346
-0.022187340165869717   -0.02448194164644017   -0.0005696738061757731
-0.021365807821683697   -0.03676816548690018   -0.0008999714105398578
-0.014797532720964299   -0.03679075910445469   -0.0006928339271574151
-0.022187340165869717   -0.02448194164644017   -0.0005696738061757731
-0.015472173416744825   -0.024502634114310855   -0.0004108301059268146
-0.015388065298764431   -0.024597417669925424   -0.00045560203348773433
-0.014797532720964299   -0.03679075910445469   -0.0006928339271574151
-0.022187340165869717   -0.02448194164644017   -0.0005696738061757731
-0.015388065298764431   -0.024597417669925424   -0.00045560203348773433
-0.021365807821683697   -0.03676816548690018   -0.0008999714105398578
-0.014797532720964299   -0.03679075910445469   -0.0006928339271574151
-0.015472173416744825   -0.024502634114310855   -0.0004108301059268146
-0.021444887389658655   -0.036696198550246834   -0.0008375416260288346
-0.014874766694343363   -0.03670329821937558   -0.0006368100710503118
-0.015472173416744825   -0.024502634114310855   -0.0004108301059268146
-0.022187340165869717   -0.02448194164644017   -0.0005696738061757731
-0.021444887389658655   -0.036696198550246834   -0.0008375416260288346
-0.022255308785561825   -0.024400361740937706   -0.0005244619752985006
-0.014874766694343363   -0.03670329821937558   -0.0006368100710503118
-0.02150489785358159   -0.03662804885468632   -0.0007699354740509286
-0.022255308785561825   -0.024400361740937706   -0.0005244619752985006
-0.021444887389658655   -0.036696198550246834   -0.0008375416260288346
-0.014874766694343363   -0.03670329821937558   -0.0006368100710503118
-0.022255308785561825   -0.024400361740937706   -0.0005244619752985006
-0.015552293813861645   -0.024406113734169368   -0.0003619951537290743
-0.015472173416744825   -0.024502634114310855   -0.0004108301059268146
-0.014874766694343363   -0.03670329821937558   -0.0006368100710503118
-0.022255308785561825   -0.024400361740937706   -0.0005244619752985006
-0.015472173416744825   -0.024502634114310855   -0.0004108301059268146
-0.021444887389658655   -0.036696198550246834   -0.0008375416260288346
-0.014874766694343363   -0.03670329821937558   -0.0006368100710503118
-0.015552293813861645   -0.024406113734169368   -0.0003619951537290743
-0.02150489785358159   -0.03662804885468632   -0.0007699354740509286
-0.014952276686408401   -0.036622303380997104   -0.0005748897443488464
-0.015552293813861645   -0.024406113734169368   -0.0003619951537290743
-0.022255308785561825   -0.024400361740937706   -0.0005244619752985006
-0.02150489785358159   -0.03662804885468632   -0.0007699354740509286
-0.022319550800264553   -0.024316615599713466   -0.00047511142869184234
-0.014952276686408401   -0.036622303380997104   -0.0005748897443488464
-0.0215644267438818   -0.0365667180319965   -0.0006957985910179301
-0.022319550800264553   -0.024316615599713466   -0.00047511142869184234
-0.02150489785358159   -0.03662804885468632   -0.0007699354740509286
-0.014952276686408401   -0.036622303380997104   -0.0005748897443488464
-0.022319550800264553   -0.024316615599713466   -0.00047511142869184234
-0.01563160677660942   -0.024307309487138697   -0.00030932961331126967
-0.015552293813861645   -0.024406113734169368   -0.0003619951537290743
-0.014952276686408401   -0.036622303380997104   -0.0005748897443488464
-0.022319550800264553   -0.024316615599713466   -0.00047511142869184234
-0.015552293813861645   -0.024406113734169368   -0.0003619951537290743
-0.02150489785358159   -0.03662804885468632   -0.0007699354740509286
-0.021365807821683697   -0.03676816548690018   -0.0008999714105398578
-0.02210715715314662   -0.024559272023882837   -0.0006120070447179795
-0.028414197127466952   -0.03663092524591778   -0.0010168588645012608
-0.021444887389658655   -0.036696198550246834   -0.0008375416260288346
-0.02210715715314662   -0.024559272023882837   -0.0006120070447179795
-0.02914477745377435   -0.024496513489849506   -0.0007279089768765204
-0.028414197127466952   -0.03663092524591778   -0.0010168588645012608
-0.02919477021913377   -0.024431520458722725   -0.0006962514018777827
-0.021444887389658655   -0.036696198550246834   -0.0008375416260288346
-0.028426629800549223   -0.03657341063032352   -0.0009479961407455758
-0.02919477021913377   -0.024431520458722725   -0.0006962514018777827
-0.028414197127466952   -0.03663092524591778   -0.0010168588645012608
-0.021444887389658655   -0.036696198550246834   -0.0008375416260288346
-0.02919477021913377   -0.024431520458722725   -0.0006962514018777827
-0.022187340165869717   -0.02448194164644017   -0.0005696738061757731
-0.02210715715314662   -0.024559272023882837   -0.0006120070447179795
-0.021444887389658655   -0.036696198550246834   -0.0008375416260288346
-0.02919477021913377   -0.024431520458722725   -0.0006962514018777827
-0.02210715715314662   -0.024559272023882837   -0.0006120070447179795
-0.028414197127466952   -0.03663092524591778   -0.0010168588645012608
-0.021444887389658655   -0.036696198550246834   -0.0008375416260288346
-0.022187340165869717   -0.02448194164644017   -0.0005696738061757731
-0.028426629800549223   -0.03657341063032352   -0.0009479961407455758
-0.02150489785358159   -0.03662804885468632   -0.0007699354740509286
-0.022187340165869717   -0.02448194164644017   -0.0005696738061757731
-0.02919477021913377   -0.024431520458722725   -0.0006962514018777827
-0.028426629800549223   -0.03657341063032352   -0.0009479961407455758
-0.029240482737804434   -0.024358011229266348   -0.0006575185311119021
-0.02150489785358159   -0.03662804885468632   -0.0007699354740509286
-0.02843934912064312   -0.0365151780544973   -0.000868706124352988
-0.029240482737804434   -0.024358011229266348   -0.0006575185311119021
-0.028426629800549223   -0.03657341063032352   -0.0009479961407455758
-0.02150489785358159   -0.03662804885468632   -0.0007699354740509286
-0.029240482737804434   -0.024358011229266348   -0.0006575185311119021
-0.022255308785561825   -0.024400361740937706   -0.0005244619752985006
-0.022187340165869717   -0.02448194164644017   -0.0005696738061757731
-0.02150489785358159   -0.03662804885468632   -0.0007699354740509286
-0.029240482737804434   -0.024358011229266348   -0.0006575185311119021
-0.022187340165869717   -0.02448194164644017   -0.0005696738061757731
-0.028426629800549223   -0.03657341063032352   -0.0009479961407455758
-0.02150489785358159   -0.03662804885468632   -0.0007699354740509286
-0.022255308785561825   -0.024400361740937706   -0.0005244619752985006
-0.02843934912064312   -0.0365151780544973   -0.000868706124352988
-0.0215644267438818   -0.0365667180319965   -0.0006957985910179301
-0.022255308785561825   -0.024400361740937706   -0.0005244619752985006
-0.029240482737804434   -0.024358011229266348   -0.0006575185311119021
-0.02843934912064312   -0.0365151780544973   -0.000868706124352988
-0.029262814944487424   -0.024290455956462106   -0.0006134866706552562
-0.0215644267438818   -0.0365667180319965   -0.0006957985910179301
-0.02841252795795486   -0.036476578731239134   -0.0007802287512374315
-0.029262814944487424   -0.024290455956462106   -0.0006134866706552562
-0.02843934912064312   -0.0365151780544973   -0.000868706124352988
-0.0215644267438818   -0.0365667180319965   -0.0006957985910179301
-0.029262814944487424   -0.024290455956462106   -0.0006134866706552562
-0.022319550800264553   -0.024316615599713466   -0.00047511142869184234
-0.022255308785561825   -0.024400361740937706   -0.0005244619752985006
-0.0215644267438818   -0.0365667180319965   -0.0006957985910179301
-0.029262814944487424   -0.024290455956462106   -0.0006134866706552562
-0.022255308785561825   -0.024400361740937706   -0.0005244619752985006
-0.02843934912064312   -0.0365151780544973   -0.000868706124352988
0.004898160975422771   -0.0247525580142921   0.0001496453383679667
0.0034302749842127626   -0.012427412867316861   0.000160594655675944
-0.002160706289264457   -0.02463595540884887   -6.375213353779781e-05
0.004744562140394008   -0.024603411920256033   0.00021273479612413026
0.0034302749842127626   -0.012427412867316861   0.000160594655675944
-0.0031502508767060245   -0.012265848463610505   8.09723099757713e-05
-0.002160706289264457   -0.02463595540884887   -6.375213353779781e-05
-0.003247092594416464   -0.012203178605845562   0.00015114892904063247
0.004744562140394008   -0.024603411920256033   0.00021273479612413026
-0.002258123530576805   -0.024512254838788994   -1.317412906456094e-05
-0.003247092594416464   -0.012203178605845562   0.00015114892904063247
-0.002160706289264457   -0.02463595540884887   -6.375213353779781e-05
0.004744562140394008   -0.024603411920256033   0.00021273479612413026
-0.003247092594416464   -0.012203178605845562   0.00015114892904063247
0.003128501855665747   -0.012269080966073454   0.0003344063821391212
0.0034302749842127626   -0.012427412867316861   0.000160594655675944
0.004744562140394008   -0.024603411920256033   0.00021273479612413026
-0.003247092594416464   -0.012203178605845562   0.00015114892904063247
0.0034302749842127626   -0.012427412867316861   0.000160594655675944
-0.002160706289264457   -0.02463595540884887   -6.375213353779781e-05
0.004744562140394008   -0.024603411920256033   0.00021273479612413026
0.003128501855665747   -0.012269080966073454   0.0003344063821391212
-0.002258123530576805   -0.024512254838788994   -1.317412906456094e-05
0.004573252295020977   -0.024455207668145434   0.0003032274855741742
0.003128501855665747   -0.012269080966073454   0.0003344063821391212
-0.003247092594416464   -0.012203178605845562   0.00015114892904063247
-0.002258123530576805   -0.024512254838788994   -1.317412906456094e-05
-0.003374256033550438   -0.012091943873936752   0.00023633140995672931
0.004573252295020977   -0.024455207668145434   0.0003032274855741742
-0.002372056526464847   -0.024381664368411122   4.638009578284456e-05
-0.003374256033550438   -0.012091943873936752   0.00023633140995672931
-0.002258123530576805   -0.024512254838788994   -1.317412906456094e-05
0.004573252295020977   -0.024455207668145434   0.0003032274855741742
-0.003374256033550438   -0.012091943873936752   0.00023633140995672931
0.0029517404339061254   -0.012139394354913801   0.00046417766595772253
0.003128501855665747   -0.012269080966073454   0.0003344063821391212
0.004573252295020977   -0.024455207668145434   0.0003032274855741742
-0.003374256033550438   -0.012091943873936752   0.00023633140995672931
0.003128501855665747   -0.012269080966073454   0.0003344063821391212
-0.002258123530576805   -0.024512254838788994   -1.317412906456094e-05
0.004573252295020977   -0.024455207668145434   0.0003032274855741742
0.0029517404339061254   -0.012139394354913801   0.00046417766595772253
-0.002372056526464847   -0.024381664368411122   4.638009578284456e-05
0.004363947605444504   -0.024273180955531586   0.0004027810687623401
0.0029517404339061254   -0.012139394354913801   0.00046417766595772253
-0.003374256033550438   -0.012091943873936752   0.00023633140995672931
-0.002372056526464847   -0.024381664368411122   4.638009578284456e-05
-0.0034811181659837142   -0.011972274296487341   0.0003113232622309154
0.004363947605444504   -0.024273180955531586   0.0004027810687623401
-0.0024898734173012136   -0.024242973273223275   0.00011478622662100633
-0.0034811181659837142   -0.011972274296487341   0.0003113232622309154
-0.002372056526464847   -0.024381664368411122   4.638009578284456e-05
0.004363947605444504   -0.024273180955531586   0.0004027810687623401
-0.0034811181659837142   -0.011972274296487341   0.0003113232622309154
0.002725293881955467   -0.011941350591788906   0.0006127417586116923
0.0029517404339061254   -0.012139394354913801   0.00046417766595772253
0.004363947605444504   -0.024273180955531586   0.0004027810687623401
-0.0034811181659837142   -0.011972274296487341   0.0003113232622309154
0.0029517404339061254   -0.012139394354913801   0.00046417766595772253
-0.002372056526464847   -0.024381664368411122   4.638009578284456e-05
-0.002160706289264457   -0.02463595540884887   -6.375213353779781e-05
-0.0031502508767060245   -0.012265848463610505   8.09723099757713e-05
-0.008808312022102804   -0.024605789114826665   -0.0002695363205764598
-0.002258123530576805   -0.024512254838788994   -1.317412906456094e-05
-0.0031502508767060245   -0.012265848463610505   8.09723099757713e-05
-0.009414791243095706   -0.012446837711086078   -8.300301161531889e-05
-0.008808312022102804   -0.024605789114826665   -0.0002695363205764598
-0.009503862912318351   -0.01235126719759774   -3.333404199944527e-05
-0.002258123530576805   -0.024512254838788994   -1.317412906456094e-05
-0.00889631802986224   -0.02449775251966782   -0.0002225443675987768
-0.009503862912318351   -0.01235126719759774   -3.333404199944527e-05
-0.008808312022102804   -0.024605789114826665   -0.0002695363205764598
-0.002258123530576805   -0.024512254838788994   -1.317412906456094e-05
-0.009503862912318351   -0.01235126719759774   -3.333404199944527e-05
-0.003247092594416464   -0.012203178605845562   0.00015114892904063247
-0.0031502508767060245   -0.012265848463610505   8.09723099757713e-05
-0.002258123530576805   -0.024512254838788994   -1.317412906456094e-05
-0.009503862912318351   -0.01235126719759774   -3.333404199944527e-05
-0.0031502508767060245   -0.012265848463610505   8.09723099757713e-05
-0.008808312022102804   -0.024605789114826665   -0.0002695363205764598
-0.002258123530576805   -0.024512254838788994   -1.317412906456094e-05
-0.003247092594416464   -0.012203178605845562   0.00015114892904063247
-0.00889631802986224   -0.02449775251966782   -0.0002225443675987768
-0.002372056526464847   -0.024381664368411122   4.638009578284456e-05
-0.003247092594416464   -0.012203178605845562   0.00015114892904063247
-0.009503862912318351   -0.01235126719759774   -3.333404199944527e-05
-0.00889631802986224   -0.02449775251966782   -0.0002225443675987768
-0.009597043089350984   -0.012243427625227019   1.9204476076880525e-05
-0.002372056526464847   -0.024381664368411122   4.638009578284456e-05
-0.00898734273790176   -0.024385360407778577   -0.0001709033467027612
-0.009597043089350984   -0.012243427625227019   1.9204476076880525e-05
-0.00889631802986224   -0.02449775251966782   -0.0002225443675987768
-0.002372056526464847   -0.024381664368411122   4.638009578284456e-05
-0.009597043089350984   -0.012243427625227019   1.9204476076880525e-05
-0.003374256033550438   -0.012091943873936752   0.00023633140995672931
-0.003247092594416464   -0.012203178605845562   0.00015114892904063247
-0.002372056526464847   -0.024381664368411122   4.638009578284456e-05
-0.009597043089350984   -0.012243427625227019   1.9204476076880525e-05
-0.003247092594416464   -0.012203178605845562   0.00015114892904063247
-0.00889631802986224   -0.02449775251966782   -0.0002225443675987768
-0.002372056526464847   -0.024381664368411122   4.638009578284456e-05
-0.003374256033550438   -0.012091943873936752   0.00023633140995672931
-0.00898734273790176   -0.024385360407778577   -0.0001709033467027612
-0.0024898734173012136   -0.024242973273223275   0.00011478622662100633
-0.003374256033550438   -0.012091943873936752   0.00023633140995672931
-0.009597043089350984   -0.012243427625227019   1.9204476076880525e-05
-0.00898734273790176   -0.024385360407778577   -0.0001709033467027612
-0.009685565417563534   -0.012125236320606999   7.713022610510254e-05
-0.0024898734173012136   -0.024242973273223275   0.00011478622662100633
-0.00908209356389844   -0.02427060493587347   -0.00011368114175112403
-0.009685565417563534   -0.012125236320606999   7.713022610510254e-05
-0.00898734273790176   -0.024385360407778577   -0.0001709033467027612
-0.0024898734173012136   -0.024242973273223275   0.00011478622662100633
-0.009685565417563534   -0.012125236320606999   7.713022610510254e-05
-0.0034811181659837142   -0.011972274296487341   0.0003113232622309154
-0.003374256033550438   -0.012091943873936752   0.00023633140995672931
-0.0024898734173012136   -0.024242973273223275   0.00011478622662100633
-0.009685565417563534   -0.012125236320606999   7.713022610510254e-05
-0.003374256033550438   -0.012091943873936752   0.00023633140995672931
-0.00898734273790176   -0.024385360407778577   -0.0001709033467027612
-0.008808312022102804   -0.024605789114826665   -0.0002695363205764598
-0.009414791243095706   -0.012446837711086078   -8.300301161531889e-05
-0.015388065298764431   -0.024597417669925424   -0.00045560203348773433
-0.00889631802986224   -0.02449775251966782   -0.0002225443675987768
-0.009414791243095706   -0.012446837711086078   -8.300301161531889e-05
-0.01583358285443476   -0.012588213600112095   -0.0002645677884551376
-0.015388065298764431   -0.024597417669925424   -0.00045560203348773433
-0.01591353864166306   -0.01249011431047575   -0.00022611442740563928
-0.00889631802986224   -0.02449775251966782   -0.0002225443675987768
-0.015472173416744825   -0.024502634114310855   -0.0004108301059268146
-0.01591353864166306   -0.01249011431047575   -0.00022611442740563928
-0.015388065298764431   -0.024597417669925424   -0.00045560203348773433
-0.00889631802986224   -0.02449775251966782   -0.0002225443675987768
-0.01591353864166306   -0.01249011431047575   -0.00022611442740563928
-0.009503862912318351   -0.01235126719759774   -3.333404199944527e-05
-0.009414791243095706   -0.012446837711086078   -8.300301161531889e-05
-0.00889631802986224   -0.02449775251966782   -0.0002225443675987768
-0.01591353864166306   -0.01249011431047575   -0.00022611442740563928
-0.009414791243095706   -0.012446837711086078   -8.300301161531889e-05
-0.015388065298764431   -0.024597417669925424   -0.00045560203348773433
-0.00889631802986224   -0.02449775251966782   -0.0002225443675987768
-0.009503862912318351   -0.01235126719759774   -3.333404199944527e-05
-0.015472173416744825   -0.024502634114310855   -0.0004108301059268146
-0.00898734273790176   -0.024385360407778577   -0.0001709033467027612
-0.009503862912318351   -0.01235126719759774   -3.333404199944527e-05
-0.01591353864166306   -0.01249011431047575   -0.00022611442740563928
-0.015472173416744825   -0.024502634114310855   -0.0004108301059268146
-0.01599003938142909   -0.012386535493092451   -0.00018780607387158007
-0.00898734273790176   -0.024385360407778577   -0.0001709033467027612
-0.015552293813861645   -0.024406113734169368   -0.0003619951537290743
-0.01599003938142909   -0.012386535493092451   -0.00018780607387158007
-0.015472173416744825   -0.024502634114310855   -0.0004108301059268146
-0.00898734273790176   -0.024385360407778577   -0.0001709033467027612
-0.01599003938142909   -0.012386535493092451   -0.00018780607387158007
-0.009597043089350984   -0.012243427625227019   1.9204476076880525e-05
-0.009503862912318351   -0.01235126719759774   -3.333404199944527e-05
-0.00898734273790176   -0.024385360407778577   -0.0001709033467027612
-0.01599003938142909   -0.012386535493092451   -0.00018780607387158007
-0.009503862912318351   -0.01235126719759774   -3.333404199944527e-05
-0.015472173416744825   -0.024502634114310855   -0.0004108301059268146
-0.00898734273790176   -0.024385360407778577   -0.0001709033467027612
-0.009597043089350984   -0.012243427625227019   1.9204476076880525e-05
-0.015552293813861645   -0.024406113734169368   -0.0003619951537290743
-0.00908209356389844   -0.02427060493587347   -0.00011368114175112403
-0.009597043089350984   -0.012243427625227019   1.9204476076880525e-05
-0.01599003938142909   -0.012386535493092451   -0.00018780607387158007
-0.015552293813861645   -0.024406113734169368   -0.0003619951537290743
-0.01606052811370152   -0.01227441475373107   -0.00014612103793560917
-0.00908209356389844   -0.02427060493587347   -0.00011368114175112403
-0.01563160677660942   -0.024307309487138697   -0.00030932961331126967
-0.01606052811370152   -0.01227441475373107   -0.00014612103793560917
-0.015552293813861645   -0.024406113734169368   -0.0003619951537290743
-0.00908209356389844   -0.02427060493587347   -0.00011368114175112403
-0.01606052811370152   -0.01227441475373107   -0.00014612103793560917
-0.009685565417563534   -0.012125236320606999   7.713022610510254e-05
-0.009597043089350984   -0.012243427625227019   1.9204476076880525e-05
-0.00908209356389844   -0.02427060493587347   -0.00011368114175112403
-0.01606052811370152   -0.01227441475373107   -0.00014612103793560917
-0.009597043089350984   -0.012243427625227019   1.9204476076880525e-05
-0.015552293813861645   -0.024406113734169368   -0.0003619951537290743
-0.015388065298764431   -0.024597417669925424   -0.00045560203348773433
-0.01583358285443476   -0.012588213600112095   -0.0002645677884551376
-0.02210715715314662   -0.024559272023882837   -0.0006120070447179795
-0.015472173416744825   -0.024502634114310855   -0.0004108301059268146
-0.01583358285443476   -0.012588213600112095   -0.0002645677884551376
-0.022477821411333577   -0.012646184562121347   -0.000432227902380743
-0.02210715715314662   -0.024559272023882837   -0.0006120070447179795
-0.02254984527227021   -0.012558012615115159   -0.00040422760116894205
-0.015472173416744825   -0.024502634114310855   -0.0004108301059268146
-0.022187340165869717   -0.02448194164644017   -0.0005696738061757731
-0.02254984527227021   -0.012558012615115159   -0.00040422760116894205
-0.02210715715314662   -0.024559272023882837   -0.0006120070447179795
-0.015472173416744825   -0.024502634114310855   -0.0004108301059268146
-0.02254984527227021   -0.012558012615115159   -0.00040422760116894205
-0.01591353864166306   -0.01249011431047575   -0.00022611442740563928
-0.01583358285443476   -0.012588213600112095   -0.0002645677884551376
-0.015472173416744825   -0.024502634114310855   -0.0004108301059268146
-0.02254984527227021   -0.012558012615115159   -0.00040422760116894205
-0.01583358285443476   -0.012588213600112095   -0.0002645677884551376
-0.02210715715314662   -0.024559272023882837   -0.0006120070447179795
-0.015472173416744825   -0.024502634114310855   -0.0004108301059268146
-0.01591353864166306   -0.01249011431047575   -0.00022611442740563928
-0.022187340165869717   -0.02448194164644017   -0.0005696738061757731
-0.015552293813861645   -0.024406113734169368   -0.0003619951537290743
-0.01591353864166306   -0.01249011431047575   -0.00022611442740563928
-0.02254984527227021   -0.012558012615115159   -0.00040422760116894205
-0.022187340165869717   -0.02448194164644017   -0.0005696738061757731
-0.022614024331785585   -0.012462023262037925   -0.0003770445301763546
-0.015552293813861645   -0.024406113734169368   -0.0003619951537290743
-0.022255308785561825   -0.024400361740937706   -0.0005244619752985006
-0.022614024331785585   -0.012462023262037925   -0.0003770445301763546
-0.022187340165869717   -0.02448194164644017   -0.0005696738061757731
-0.015552293813861645   -0.024406113734169368   -0.0003619951537290743
-0.022614024331785585   -0.012462023262037925   -0.0003770445301763546
-0.01599003938142909   -0.012386535493092451   -0.00018780607387158007
-0.01591353864166306   -0.01249011431047575   -0.00022611442740563928
-0.015552293813861645   -0.024406113734169368   -0.0003619951537290743
-0.022614024331785585   -0.012462023262037925   -0.0003770445301763546
-0.01591353864166306   -0.01249011431047575   -0.00022611442740563928
-0.022187340165869717   -0.02448194164644017   -0.0005696738061757731
-0.015552293813861645   -0.024406113734169368   -0.0003619951537290743
-0.01599003938142909   -0.012386535493092451   -0.00018780607387158007
-0.022255308785561825   -0.024400361740937706   -0.0005244619752985006
-0.01563160677660942   -0.024307309487138697   -0.00030932961331126967
-0.01599003938142909   -0.012386535493092451   -0.00018780607387158007
-0.022614024331785585   -0.012462023262037925   -0.0003770445301763546
-0.022255308785561825   -0.024400361740937706   -0.0005244619752985006
-0.02267213215633467   -0.012359865690768723   -0.0003490765171028085
-0.01563160677660942   -0.024307309487138697   -0.00030932961331126967
-0.022319550800264553   -0.024316615599713466   -0.00047511142869184234
-0.02267213215633467   -0.012359865690768723   -0.0003490765171028085
-0.022255308785561825   -0.024400361740937706   -0.0005244619752985006
-0.01563160677660942   -0.024307309487138697   -0.00030932961331126967
-0.02267213215633467   -0.012359865690768723   -0.0003490765171028085
-0.01606052811370152   -0.01227441475373107   -0.00014612103793560917
-0.01599003938142909   -0.012386535493092451   -0.00018780607387158007
-0.01563160677660942   -0.024307309487138697   -0.00030932961331126967
-0.02267213215633467   -0.012359865690768723   -0.0003490765171028085
-0.01599003938142909   -0.012386535493092451   -0.00018780607387158007
-0.022255308785561825   -0.024400361740937706   -0.0005244619752985006
-0.02210715715314662   -0.024559272023882837   -0.0006120070447179795
-0.022477821411333577   -0.012646184562121347   -0.000432227902380743
-0.02914477745377435   -0.024496513489849506   -0.0007279089768765204
-0.022187340165869717   -0.02448194164644017   -0.0005696738061757731
-0.022477821411333577   -0.012646184562121347   -0.000432227902380743
-0.029357933775553898   -0.012652738094647922   -0.000571565751422012
-0.02914477745377435   -0.024496513489849506   -0.0007279089768765204
-0.02941987842854962   -0.012567122030071744   -0.0005596063296929391
-0.022187340165869717   -0.02448194164644017   -0.0005696738061757731
-0.02919477021913377   -0.024431520458722725   -0.0006962514018777827
-0.02941987842854962   -0.012567122030071744   -0.0005596063296929391
-0.02914477745377435   -0.024496513489849506   -0.0007279089768765204
-0.022187340165869717   -0.02448194164644017   -0.0005696738061757731
-0.02941987842854962   -0.012567122030071744   -0.0005596063296929391
-0.02254984527227021   -0.012558012615115159   -0.00040422760116894205
-0.022477821411333577   -0.012646184562121347   -0.000432227902380743
-0.022187340165869717   -0.02448194164644017   -0.0005696738061757731
-0.02941987842854962   -0.012567122030071744   -0.0005596063296929391
-0.022477821411333577   -0.012646184562121347   -0.000432227902380743
-0.02914477745377435   -0.024496513489849506   -0.0007279089768765204
-0.022187340165869717   -0.02448194164644017   -0.0005696738061757731
-0.02254984527227021   -0.012558012615115159   -0.00040422760116894205
-0.02919477021913377   -0.024431520458722725   -0.0006962514018777827
-0.022255308785561825   -0.024400361740937706   -0.0005244619752985006
-0.02254984527227021   -0.012558012615115159   -0.00040422760116894205
-0.02941987842854962   -0.012567122030071744   -0.0005596063296929391
-0.02919477021913377   -0.024431520458722725   -0.0006962514018777827
-0.029475375334972916   -0.012474601916494256   -0.0005456305762573156
-0.022255308785561825   -0.024400361740937706   -0.0005244619752985006
-0.029240482737804434   -0.024358011229266348   -0.0006575185311119021
-0.029475375334972916   -0.012474601916494256   -0.0005456305762573156
-0.02919477021913377   -0.024431520458722725   -0.0006962514018777827
-0.022255308785561825   -0.024400361740937706   -0.0005244619752985006
-0.029475375334972916   -0.012474601916494256   -0.0005456305762573156
-0.022614024331785585   -0.012462023262037925   -0.0003770445301763546
-0.02254984527227021   -0.012558012615115159   -0.00040422760116894205
-0.022255308785561825   -0.024400361740937706   -0.0005244619752985006
-0.029475375334972916   -0.012474601916494256   -0.0005456305762573156
-0.02254984527227021   -0.012558012615115159   -0.00040422760116894205
-0.02919477021913377   -0.024431520458722725   -0.0006962514018777827
-0.022255308785561825   -0.024400361740937706   -0.0005244619752985006
-0.022614024331785585   -0.012462023262037925   -0.0003770445301763546
-0.029240482737804434   -0.024358011229266348   -0.0006575185311119021
-0.022319550800264553   -0.024316615599713466   -0.00047511142869184234
-0.022614024331785585   -0.012462023262037925   -0.0003770445301763546
-0.029475375334972916   -0.012474601916494256   -0.0005456305762573156
-0.029240482737804434   -0.024358011229266348   -0.0006575185311119021
-0.02952212339427363   -0.012376622851721121   -0.000532671827954159
-0.022319550800264553   -0.024316615599713466   -0.00047511142869184234
-0.029262814944487424   -0.024290455956462106   -0.0006134866706552562
-0.02952212339427363   -0.012376622851721121   -0.000532671827954159
-0.029240482737804434   -0.024358011229266348   -0.0006575185311119021
-0.022319550800264553   -0.024316615599713466   -0.00047511142869184234
-0.02952212339427363   -0.012376622851721121   -0.000532671827954159
-0.02267213215633467   -0.012359865690768723   -0.0003490765171028085
-0.022614024331785585   -0.012462023262037925   -0.0003770445301763546
-0.022319550800264553   -0.024316615599713466   -0.00047511142869184234
-0.02952212339427363   -0.012376622851721121   -0.000532671827954159
-0.022614024331785585   -0.012462023262037925   -0.0003770445301763546
-0.029240482737804434   -0.024358011229266348   -0.0006575185311119021
0.0034302749842127626   -0.012427412867316861   0.000160594655675944
0.0   0.0   0.0
-0.0031502508767060245   -0.012265848463610505   8.09723099757713e-05
0.003128501855665747   -0.012269080966073454   0.0003344063821391212
0.0   0.0   0.0
-0.003957835084171316   -0.0009982967393541346   -3.4579981596631365e-05
-0.0031502508767060245   -0.012265848463610505   8.09723099757713e-05
-0.004194194405138157   -0.0007748029567303774   0.00010122761592238415
0.003128501855665747   -0.012269080966073454   0.0003344063821391212
-0.003247092594416464   -0.012203178605845562   0.00015114892904063247
-0.004194194405138157   -0.0007748029567303774   0.00010122761592238415
-0.0031502508767060245   -0.012265848463610505   8.09723099757713e-05
0.003128501855665747   -0.012269080966073454   0.0003344063821391212
-0.004194194405138157   -0.0007748029567303774   0.00010122761592238415
0.0   0.0   0.0
0.0   0.0   0.0
0.003128501855665747   -0.012269080966073454   0.0003344063821391212
-0.004194194405138157   -0.0007748029567303774   0.00010122761592238415
0.0   0.0   0.0
-0.0031502508767060245   -0.012265848463610505   8.09723099757713e-05
0.003128501855665747   -0.012269080966073454   0.0003344063821391212
0.0   0.0   0.0
-0.003247092594416464   -0.012203178605845562   0.00015114892904063247
0.0029517404339061254   -0.012139394354913801   0.00046417766595772253
0.0   0.0   0.0
-0.004194194405138157   -0.0007748029567303774   0.00010122761592238415
-0.003247092594416464   -0.012203178605845562   0.00015114892904063247
-0.004342375893808502   -0.0006669615450605322   0.0001794497579406668
0.0029517404339061254   -0.012139394354913801   0.00046417766595772253
-0.003374256033550438   -0.012091943873936752   0.00023633140995672931
-0.004342375893808502   -0.0006669615450605322   0.0001794497579406668
-0.003247092594416464   -0.012203178605845562   0.00015114892904063247
0.0029517404339061254   -0.012139394354913801   0.00046417766595772253
-0.004342375893808502   -0.0006669615450605322   0.0001794497579406668
0.0   0.0   0.0
0.0   0.0   0.0
0.0029517404339061254   -0.012139394354913801   0.00046417766595772253
-0.004342375893808502   -0.0006669615450605322   0.0001794497579406668
0.0   0.0   0.0
-0.003247092594416464   -0.012203178605845562   0.00015114892904063247
0.0029517404339061254   -0.012139394354913801   0.00046417766595772253
0.0   0.0   0.0
-0.003374256033550438   -0.012091943873936752   0.00023633140995672931
0.002725293881955467   -0.011941350591788906   0.0006127417586116923
0.0   0.0   0.0
-0.004342375893808502   -0.0006669615450605322   0.0001794497579406668
-0.003374256033550438   -0.012091943873936752   0.00023633140995672931
-0.004540774045847198   -0.0005238448931222775   0.0002692025306689209
0.002725293881955467   -0.011941350591788906   0.0006127417586116923
-0.0034811181659837142   -0.011972274296487341   0.0003113232622309154
-0.004540774045847198   -0.0005238448931222775   0.0002692025306689209
-0.003374256033550438   -0.012091943873936752   0.00023633140995672931
0.002725293881955467   -0.011941350591788906   0.0006127417586116923
-0.004540774045847198   -0.0005238448931222775   0.0002692025306689209
0.0   0.0   0.0
0.0   0.0   0.0
0.002725293881955467   -0.011941350591788906   0.0006127417586116923
-0.004540774045847198   -0.0005238448931222775   0.0002692025306689209
0.0   0.0   0.0
-0.003374256033550438   -0.012091943873936752   0.00023633140995672931
-0.0031502508767060245   -0.012265848463610505   8.09723099757713e-05
-0.003957835084171316   -0.0009982967393541346   -3.4579981596631365e-05
-0.009414791243095706   -0.012446837711086078   -8.300301161531889e-05
-0.003247092594416464   -0.012203178605845562   0.00015114892904063247
-0.003957835084171316   -0.0009982967393541346   -3.4579981596631365e-05
-0.009696446471823045   -0.001305713807220873   -3.4439067377997265e-05
-0.009414791243095706   -0.012446837711086078   -8.300301161531889e-05
-0.009818032838431185   -0.0011832430521340255   1.1821907633270678e-07
-0.003247092594416464   -0.012203178605845562   0.00015114892904063247
-0.009503862912318351   -0.01235126719759774   -3.333404199944527e-05
-0.009818032838431185   -0.0011832430521340255   1.1821907633270678e-07
-0.009414791243095706   -0.012446837711086078   -8.300301161531889e-05
-0.003247092594416464   -0.012203178605845562   0.00015114892904063247
-0.009818032838431185   -0.0011832430521340255   1.1821907633270678e-07
-0.004194194405138157   -0.0007748029567303774   0.00010122761592238415
-0.003957835084171316   -0.0009982967393541346   -3.4579981596631365e-05
-0.003247092594416464   -0.012203178605845562   0.00015114892904063247
-0.009818032838431185   -0.0011832430521340255   1.1821907633270678e-07
-0.003957835084171316   -0.0009982967393541346   -3.4579981596631365e-05
-0.009414791243095706   -0.012446837711086078   -8.300301161531889e-05
-0.003247092594416464   -0.012203178605845562   0.00015114892904063247
-0.004194194405138157   -0.0007748029567303774   0.00010122761592238415
-0.009503862912318351   -0.01235126719759774   -3.333404199944527e-05
-0.003374256033550438   -0.012091943873936752   0.00023633140995672931
-0.004194194405138157   -0.0007748029567303774   0.00010122761592238415
-0.009818032838431185   -0.0011832430521340255   1.1821907633270678e-07
-0.009503862912318351   -0.01235126719759774   -3.333404199944527e-05
-0.009939034086906   -0.0010400340795155402   6.221357359355129e-05
-0.003374256033550438   -0.012091943873936752   0.00023633140995672931
-0.009597043089350984   -0.012243427625227019   1.9204476076880525e-05
-0.009939034086906   -0.0010400340795155402   6.221357359355129e-05
-0.009503862912318351   -0.01235126719759774   -3.333404199944527e-05
-0.003374256033550438   -0.012091943873936752   0.00023633140995672931
-0.009939034086906   -0.0010400340795155402   6.221357359355129e-05
-0.004342375893808502   -0.0006669615450605322   0.0001794497579406668
-0.004194194405138157   -0.0007748029567303774   0.00010122761592238415
-0.003374256033550438   -0.012091943873936752   0.00023633140995672931
-0.009939034086906   -0.0010400340795155402   6.221357359355129e-05
-0.004194194405138157   -0.0007748029567303774   0.00010122761592238415
-0.009503862912318351   -0.01235126719759774   -3.333404199944527e-05
-0.003374256033550438   -0.012091943873936752   0.00023633140995672931
-0.004342375893808502   -0.0006669615450605322   0.0001794497579406668
-0.009597043089350984   -0.012243427625227019   1.9204476076880525e-05
-0.0034811181659837142   -0.011972274296487341   0.0003113232622309154
-0.004342375893808502   -0.0006669615450605322   0.0001794497579406668
-0.009939034086906   -0.0010400340795155402   6.221357359355129e-05
-0.009597043089350984   -0.012243427625227019   1.9204476076880525e-05
-0.010072733883733193   -0.0008746604234970322   0.00012154829073907692
-0.0034811181659837142   -0.011972274296487341   0.0003113232622309154
-0.009685565417563534   -0.012125236320606999   7.713022610510254e-05
-0.010072733883733193   -0.0008746604234970322   0.00012154829073907692
-0.009597043089350984   -0.012243427625227019   1.9204476076880525e-05
-0.0034811181659837142   -0.011972274296487341   0.0003113232622309154
-0.010072733883733193   -0.0008746604234970322   0.00012154829073907692
-0.004540774045847198   -0.0005238448931222775   0.0002692025306689209
-0.004342375893808502   -0.0006669615450605322   0.0001794497579406668
-0.0034811181659837142   -0.011972274296487341   0.0003113232622309154
-0.010072733883733193   -0.0008746604234970322   0.00012154829073907692
-0.004342375893808502   -0.0006669615450605322   0.0001794497579406668
-0.009597043089350984   -0.012243427625227019   1.9204476076880525e-05
-0.009414791243095706   -0.012446837711086078   -8.300301161531889e-05
-0.009696446471823045   -0.001305713807220873   -3.4439067377997265e-05
-0.01583358285443476   -0.012588213600112095   -0.0002645677884551376
-0.009503862912318351   -0.01235126719759774   -3.333404199944527e-05
-0.009696446471823045   -0.001305713807220873   -3.4439067377997265e-05
-0.015990514845755834   -0.0013904396247627028   -0.00015006726978260707
-0.01583358285443476   -0.012588213600112095   -0.0002645677884551376
-0.01606414097891655   -0.0012945269109895666   -0.0001406489605733347
-0.009503862912318351   -0.01235126719759774   -3.333404199944527e-05
-0.01591353864166306   -0.01249011431047575   -0.00022611442740563928
-0.01606414097891655   -0.0012945269109895666   -0.0001406489605733347
-0.01583358285443476   -0.012588213600112095   -0.0002645677884551376
-0.009503862912318351   -0.01235126719759774   -3.333404199944527e-05
-0.01606414097891655   -0.0012945269109895666   -0.0001406489605733347
-0.009818032838431185   -0.0011832430521340255   1.1821907633270678e-07
-0.009696446471823045   -0.001305713807220873   -3.4439067377997265e-05
-0.009503862912318351   -0.01235126719759774   -3.333404199944527e-05
-0.01606414097891655   -0.0012945269109895666   -0.0001406489605733347
-0.009696446471823045   -0.001305713807220873   -3.4439067377997265e-05
-0.01583358285443476   -0.012588213600112095   -0.0002645677884551376
-0.009503862912318351   -0.01235126719759774   -3.333404199944527e-05
-0.009818032838431185   -0.0011832430521340255   1.1821907633270678e-07
-0.01591353864166306   -0.01249011431047575   -0.00022611442740563928
-0.009597043089350984   -0.012243427625227019   1.9204476076880525e-05
-0.009818032838431185   -0.0011832430521340255   1.1821907633270678e-07
-0.01606414097891655   -0.0012945269109895666   -0.0001406489605733347
-0.01591353864166306   -0.01249011431047575   -0.00022611442740563928
-0.016140672005289722   -0.0011834108938205902   -0.00012403186991223372
-0.009597043089350984   -0.012243427625227019   1.9204476076880525e-05
-0.01599003938142909   -0.012386535493092451   -0.00018780607387158007
-0.016140672005289722   -0.0011834108938205902   -0.00012403186991223372
-0.01591353864166306   -0.01249011431047575   -0.00022611442740563928
-0.009597043089350984   -0.012243427625227019   1.9204476076880525e-05
-0.016140672005289722   -0.0011834108938205902   -0.00012403186991223372
-0.009939034086906   -0.0010400340795155402   6.221357359355129e-05
-0.009818032838431185   -0.0011832430521340255   1.1821907633270678e-07
-0.009597043089350984   -0.012243427625227019   1.9204476076880525e-05
-0.016140672005289722   -0.0011834108938205902   -0.00012403186991223372
-0.009818032838431185   -0.0011832430521340255   1.1821907633270678e-07
-0.01591353864166306   -0.01249011431047575   -0.00022611442740563928
-0.009597043089350984   -0.012243427625227019   1.9204476076880525e-05
-0.009939034086906   -0.0010400340795155402   6.221357359355129e-05
-0.01599003938142909   -0.012386535493092451   -0.00018780607387158007
-0.009685565417563534   -0.012125236320606999   7.713022610510254e-05
-0.009939034086906   -0.0010400340795155402   6.221357359355129e-05
-0.016140672005289722   -0.0011834108938205902   -0.00012403186991223372
-0.01599003938142909   -0.012386535493092451   -0.00018780607387158007
-0.016213047135455214   -0.0010485576053725736   -0.00010204630215009286
-0.009685565417563534   -0.012125236320606999   7.713022610510254e-05
-0.01606052811370152   -0.01227441475373107   -0.00014612103793560917
-0.016213047135455214   -0.0010485576053725736   -0.00010204630215009286
-0.01599003938142909   -0.012386535493092451   -0.00018780607387158007
-0.009685565417563534   -0.012125236320606999   7.713022610510254e-05
-0.016213047135455214   -0.0010485576053725736   -0.00010204630215009286
-0.010072733883733193   -0.0008746604234970322   0.00012154829073907692
-0.009939034086906   -0.0010400340795155402   6.221357359355129e-05
-0.009685565417563534   -0.012125236320606999   7.713022610510254e-05
-0.016213047135455214   -0.0010485576053725736   -0.00010204630215009286
-0.009939034086906   -0.0010400340795155402   6.221357359355129e-05
-0.01599003938142909   -0.012386535493092451   -0.00018780607387158007
-0.01583358285443476   -0.012588213600112095   -0.0002645677884551376
-0.015990514845755834   -0.0013904396247627028   -0.00015006726978260707
-0.022477821411333577   -0.012646184562121347   -0.000432227902380743
-0.01591353864166306   -0.01249011431047575   -0.00022611442740563928
-0.015990514845755834   -0.0013904396247627028   -0.00015006726978260707
-0.022593929138400914   -0.0013745348122044204   -0.00031531682267512236
-0.022477821411333577   -0.012646184562121347   -0.000432227902380743
-0.022643619816938246   -0.001288039382655952   -0.00031130778662323745
-0.01591353864166306   -0.01249011431047575   -0.00022611442740563928
-0.02254984527227021   -0.012558012615115159   -0.00040422760116894205
-0.022643619816938246   -0.001288039382655952   -0.00031130778662323745
-0.022477821411333577   -0.012646184562121347   -0.000432227902380743
-0.01591353864166306   -0.01249011431047575   -0.00022611442740563928
-0.022643619816938246   -0.001288039382655952   -0.00031130778662323745
-0.01606414097891655   -0.0012945269109895666   -0.0001406489605733347
-0.015990514845755834   -0.0013904396247627028   -0.00015006726978260707
-0.01591353864166306   -0.01249011431047575   -0.00022611442740563928
-0.022643619816938246   -0.001288039382655952   -0.00031130778662323745
-0.015990514845755834   -0.0013904396247627028   -0.00015006726978260707
-0.022477821411333577   -0.012646184562121347   -0.000432227902380743
-0.01591353864166306   -0.01249011431047575   -0.00022611442740563928
-0.01606414097891655   -0.0012945269109895666   -0.0001406489605733347
-0.02254984527227021   -0.012558012615115159   -0.00040422760116894205
-0.01599003938142909   -0.012386535493092451   -0.00018780607387158007
-0.01606414097891655   -0.0012945269109895666   -0.0001406489605733347
-0.022643619816938246   -0.001288039382655952   -0.00031130778662323745
-0.02254984527227021   -0.012558012615115159   -0.00040422760116894205
-0.02269547056189199   -0.001191963043450849   -0.0003086488944165807
-0.01599003938142909   -0.012386535493092451   -0.00018780607387158007
-0.022614024331785585   -0.012462023262037925   -0.0003770445301763546
-0.02269547056189199   -0.001191963043450849   -0.0003086488944165807
-0.02254984527227021   -0.012558012615115159   -0.00040422760116894205
-0.01599003938142909   -0.012386535493092451   -0.00018780607387158007
-0.02269547056189199   -0.001191963043450849   -0.0003086488944165807
-0.016140672005289722   -0.0011834108938205902   -0.00012403186991223372
-0.01606414097891655   -0.0012945269109895666   -0.0001406489605733347
-0.01599003938142909   -0.012386535493092451   -0.00018780607387158007
-0.02269547056189199   -0.001191963043450849   -0.0003086488944165807
-0.01606414097891655   -0.0012945269109895666   -0.0001406489605733347
-0.02254984527227021   -0.012558012615115159   -0.00040422760116894205
-0.01599003938142909   -0.012386535493092451   -0.00018780607387158007
-0.016140672005289722   -0.0011834108938205902   -0.00012403186991223372
-0.022614024331785585   -0.012462023262037925   -0.0003770445301763546
-0.01606052811370152   -0.01227441475373107   -0.00014612103793560917
-0.016140672005289722   -0.0011834108938205902   -0.00012403186991223372
-0.02269547056189199   -0.001191963043450849   -0.0003086488944165807
-0.022614024331785585   -0.012462023262037925   -0.0003770445301763546
-0.02273465762017854   -0.0010881381623985855   -0.00030757314348697946
-0.01606052811370152   -0.01227441475373107   -0.00014612103793560917
-0.02267213215633467   -0.012359865690768723   -0.0003490765171028085
-0.02273465762017854   -0.0010881381623985855   -0.00030757314348697946
-0.022614024331785585   -0.012462023262037925   -0.0003770445301763546
-0.01606052811370152   -0.01227441475373107   -0.00014612103793560917
-0.02273465762017854   -0.0010881381623985855   -0.00030757314348697946
-0.016213047135455214   -0.0010485576053725736   -0.00010204630215009286
-0.016140672005289722   -0.0011834108938205902   -0.00012403186991223372
-0.01606052811370152   -0.01227441475373107   -0.00014612103793560917
-0.02273465762017854   -0.0010881381623985855   -0.00030757314348697946
-0.016140672005289722   -0.0011834108938205902   -0.00012403186991223372
-0.022614024331785585   -0.012462023262037925   -0.0003770445301763546
-0.022477821411333577   -0.012646184562121347   -0.000432227902380743
-0.022593929138400914   -0.0013745348122044204   -0.00031531682267512236
-0.029357933775553898   -0.012652738094647922   -0.000571565751422012
-0.02254984527227021   -0.012558012615115159   -0.00040422760116894205
-0.022593929138400914   -0.0013745348122044204   -0.00031531682267512236
-0.029379076742688814   -0.0013644500775762643   -0.00047789909162753396
-0.029357933775553898   -0.012652738094647922   -0.000571565751422012
-0.029419074018235947   -0.0012705491355673821   -0.000477889413226835
-0.02254984527227021   -0.012558012615115159   -0.00040422760116894205
-0.02941987842854962   -0.012567122030071744   -0.0005596063296929391
-0.029419074018235947   -0.0012705491355673821   -0.000477889413226835
-0.029357933775553898   -0.012652738094647922   -0.000571565751422012
-0.02254984527227021   -0.012558012615115159   -0.00040422760116894205
-0.029419074018235947   -0.0012705491355673821   -0.000477889413226835
-0.022643619816938246   -0.001288039382655952   -0.00031130778662323745
-0.022593929138400914   -0.0013745348122044204   -0.00031531682267512236
-0.02254984527227021   -0.012558012615115159   -0.00040422760116894205
-0.029419074018235947   -0.0012705491355673821   -0.000477889413226835
-0.022593929138400914   -0.0013745348122044204   -0.00031531682267512236
-0.029357933775553898   -0.012652738094647922   -0.000571565751422012
-0.02254984527227021   -0.012558012615115159   -0.00040422760116894205
-0.022643619816938246   -0.001288039382655952   -0.00031130778662323745
-0.02941987842854962   -0.012567122030071744   -0.0005596063296929391
-0.022614024331785585   -0.012462023262037925   -0.0003770445301763546
-0.022643619816938246   -0.001288039382655952   -0.00031130778662323745
-0.029419074018235947   -0.0012705491355673821   -0.000477889413226835
-0.02941987842854962   -0.012567122030071744   -0.0005596063296929391
-0.029462997751964422   -0.0011768743514100355   -0.0004851997242060131
-0.022614024331785585   -0.012462023262037925   -0.0003770445301763546
-0.029475375334972916   -0.012474601916494256   -0.0005456305762573156
-0.029462997751964422   -0.0011768743514100355   -0.0004851997242060131
-0.02941987842854962   -0.012567122030071744   -0.0005596063296929391
-0.022614024331785585   -0.012462023262037925   -0.0003770445301763546
-0.029462997751964422   -0.0011768743514100355   -0.0004851997242060131
-0.02269547056189199   -0.001191963043450849   -0.0003086488944165807
-0.022643619816938246   -0.001288039382655952   -0.00031130778662323745
-0.022614024331785585   -0.012462023262037925   -0.0003770445301763546
-0.029462997751964422   -0.0011768743514100355   -0.0004851997242060131
-0.022643619816938246   -0.001288039382655952   -0.00031130778662323745
-0.02941987842854962   -0.012567122030071744   -0.0005596063296929391
-0.022614024331785585   -0.012462023262037925   -0.0003770445301763546
-0.02269547056189199   -0.001191963043450849   -0.0003086488944165807
-0.029475375334972916   -0.012474601916494256   -0.0005456305762573156
-0.02267213215633467   -0.012359865690768723   -0.0003490765171028085
-0.02269547056189199   -0.001191963043450849   -0.0003086488944165807
-0.029462997751964422   -0.0011768743514100355   -0.0004851997242060131
-0.029475375334972916   -0.012474601916494256   -0.0005456305762573156
-0.02949529390063357   -0.0010749822871286001   -0.0004930037766486384
-0.02267213215633467   -0.012359865690768723   -0.0003490765171028085
-0.02952212339427363   -0.012376622851721121   -0.000532671827954159
-0.02949529390063357   -0.0010749822871286001   -0.0004930037766486384
-0.029475375334972916   -0.012474601916494256   -0.0005456305762573156
-0.02267213215633467   -0.012359865690768723   -0.0003490765171028085
-0.02949529390063357   -0.0010749822871286001   -0.0004930037766486384
-0.02273465762017854   -0.0010881381623985855   -0.00030757314348697946
-0.02269547056189199   -0.001191963043450849   -0.0003086488944165807
-0.02267213215633467   -0.012359865690768723   -0.0003490765171028085
-0.02949529390063357   -0.0010749822871286001   -0.0004930037766486384
-0.02269547056189199   -0.001191963043450849   -0.0003086488944165807
-0.029475375334972916   -0.012474601916494256   -0.0005456305762573156
              </DataArray>   
          </PointData>  
       </Piece>  
   </UnstructuredGrid> 
</VTKFile> 
