<?xml version="1.0"?> 
<VTKFile type="UnstructuredGrid"> 
   <UnstructuredGrid> 
      <Piece NumberOfPoints="6000"  NumberOfCells="1500">  
          <Points>  
             <DataArray type="Float64" NumberOfComponents="3" format="ascii">   
-500.0   0.0   0.0
-450.0   0.0   0.0
-500.0   30.0   0.0
-500.0   0.0   16.666666666666668
-450.0   0.0   0.0
-450.0   30.0   0.0
-500.0   30.0   0.0
-450.0   30.0   16.666666666666668
-500.0   0.0   16.666666666666668
-500.0   30.0   16.666666666666668
-450.0   30.0   16.666666666666668
-500.0   30.0   0.0
-500.0   0.0   16.666666666666668
-450.0   30.0   16.666666666666668
-450.0   0.0   16.666666666666668
-450.0   0.0   0.0
-500.0   0.0   16.666666666666668
-450.0   30.0   16.666666666666668
-450.0   0.0   0.0
-500.0   30.0   0.0
-500.0   0.0   16.666666666666668
-450.0   0.0   16.666666666666668
-500.0   30.0   16.666666666666668
-500.0   0.0   33.333333333333336
-450.0   0.0   16.666666666666668
-450.0   30.0   16.666666666666668
-500.0   30.0   16.666666666666668
-450.0   30.0   33.333333333333336
-500.0   0.0   33.333333333333336
-500.0   30.0   33.333333333333336
-450.0   30.0   33.333333333333336
-500.0   30.0   16.666666666666668
-500.0   0.0   33.333333333333336
-450.0   30.0   33.333333333333336
-450.0   0.0   33.333333333333336
-450.0   0.0   16.666666666666668
-500.0   0.0   33.333333333333336
-450.0   30.0   33.333333333333336
-450.0   0.0   16.666666666666668
-500.0   30.0   16.666666666666668
-500.0   0.0   33.333333333333336
-450.0   0.0   33.333333333333336
-500.0   30.0   33.333333333333336
-500.0   0.0   50.0
-450.0   0.0   33.333333333333336
-450.0   30.0   33.333333333333336
-500.0   30.0   33.333333333333336
-450.0   30.0   50.0
-500.0   0.0   50.0
-500.0   30.0   50.0
-450.0   30.0   50.0
-500.0   30.0   33.333333333333336
-500.0   0.0   50.0
-450.0   30.0   50.0
-450.0   0.0   50.0
-450.0   0.0   33.333333333333336
-500.0   0.0   50.0
-450.0   30.0   50.0
-450.0   0.0   33.333333333333336
-500.0   30.0   33.333333333333336
-500.0   30.0   0.0
-450.0   30.0   0.0
-500.0   60.0   0.0
-500.0   30.0   16.666666666666668
-450.0   30.0   0.0
-450.0   60.0   0.0
-500.0   60.0   0.0
-450.0   60.0   16.666666666666668
-500.0   30.0   16.666666666666668
-500.0   60.0   16.666666666666668
-450.0   60.0   16.666666666666668
-500.0   60.0   0.0
-500.0   30.0   16.666666666666668
-450.0   60.0   16.666666666666668
-450.0   30.0   16.666666666666668
-450.0   30.0   0.0
-500.0   30.0   16.666666666666668
-450.0   60.0   16.666666666666668
-450.0   30.0   0.0
-500.0   60.0   0.0
-500.0   30.0   16.666666666666668
-450.0   30.0   16.666666666666668
-500.0   60.0   16.666666666666668
-500.0   30.0   33.333333333333336
-450.0   30.0   16.666666666666668
-450.0   60.0   16.666666666666668
-500.0   60.0   16.666666666666668
-450.0   60.0   33.333333333333336
-500.0   30.0   33.333333333333336
-500.0   60.0   33.333333333333336
-450.0   60.0   33.333333333333336
-500.0   60.0   16.666666666666668
-500.0   30.0   33.333333333333336
-450.0   60.0   33.333333333333336
-450.0   30.0   33.333333333333336
-450.0   30.0   16.666666666666668
-500.0   30.0   33.333333333333336
-450.0   60.0   33.333333333333336
-450.0   30.0   16.666666666666668
-500.0   60.0   16.666666666666668
-500.0   30.0   33.333333333333336
-450.0   30.0   33.333333333333336
-500.0   60.0   33.333333333333336
-500.0   30.0   50.0
-450.0   30.0   33.333333333333336
-450.0   60.0   33.333333333333336
-500.0   60.0   33.333333333333336
-450.0   60.0   50.0
-500.0   30.0   50.0
-500.0   60.0   50.0
-450.0   60.0   50.0
-500.0   60.0   33.333333333333336
-500.0   30.0   50.0
-450.0   60.0   50.0
-450.0   30.0   50.0
-450.0   30.0   33.333333333333336
-500.0   30.0   50.0
-450.0   60.0   50.0
-450.0   30.0   33.333333333333336
-500.0   60.0   33.333333333333336
-500.0   60.0   0.0
-450.0   60.0   0.0
-500.0   90.0   0.0
-500.0   60.0   16.666666666666668
-450.0   60.0   0.0
-450.0   90.0   0.0
-500.0   90.0   0.0
-450.0   90.0   16.666666666666668
-500.0   60.0   16.666666666666668
-500.0   90.0   16.666666666666668
-450.0   90.0   16.666666666666668
-500.0   90.0   0.0
-500.0   60.0   16.666666666666668
-450.0   90.0   16.666666666666668
-450.0   60.0   16.666666666666668
-450.0   60.0   0.0
-500.0   60.0   16.666666666666668
-450.0   90.0   16.666666666666668
-450.0   60.0   0.0
-500.0   90.0   0.0
-500.0   60.0   16.666666666666668
-450.0   60.0   16.666666666666668
-500.0   90.0   16.666666666666668
-500.0   60.0   33.333333333333336
-450.0   60.0   16.666666666666668
-450.0   90.0   16.666666666666668
-500.0   90.0   16.666666666666668
-450.0   90.0   33.333333333333336
-500.0   60.0   33.333333333333336
-500.0   90.0   33.333333333333336
-450.0   90.0   33.333333333333336
-500.0   90.0   16.666666666666668
-500.0   60.0   33.333333333333336
-450.0   90.0   33.333333333333336
-450.0   60.0   33.333333333333336
-450.0   60.0   16.666666666666668
-500.0   60.0   33.333333333333336
-450.0   90.0   33.333333333333336
-450.0   60.0   16.666666666666668
-500.0   90.0   16.666666666666668
-500.0   60.0   33.333333333333336
-450.0   60.0   33.333333333333336
-500.0   90.0   33.333333333333336
-500.0   60.0   50.0
-450.0   60.0   33.333333333333336
-450.0   90.0   33.333333333333336
-500.0   90.0   33.333333333333336
-450.0   90.0   50.0
-500.0   60.0   50.0
-500.0   90.0   50.0
-450.0   90.0   50.0
-500.0   90.0   33.333333333333336
-500.0   60.0   50.0
-450.0   90.0   50.0
-450.0   60.0   50.0
-450.0   60.0   33.333333333333336
-500.0   60.0   50.0
-450.0   90.0   50.0
-450.0   60.0   33.333333333333336
-500.0   90.0   33.333333333333336
-500.0   90.0   0.0
-450.0   90.0   0.0
-500.0   120.0   0.0
-500.0   90.0   16.666666666666668
-450.0   90.0   0.0
-450.0   120.0   0.0
-500.0   120.0   0.0
-450.0   120.0   16.666666666666668
-500.0   90.0   16.666666666666668
-500.0   120.0   16.666666666666668
-450.0   120.0   16.666666666666668
-500.0   120.0   0.0
-500.0   90.0   16.666666666666668
-450.0   120.0   16.666666666666668
-450.0   90.0   16.666666666666668
-450.0   90.0   0.0
-500.0   90.0   16.666666666666668
-450.0   120.0   16.666666666666668
-450.0   90.0   0.0
-500.0   120.0   0.0
-500.0   90.0   16.666666666666668
-450.0   90.0   16.666666666666668
-500.0   120.0   16.666666666666668
-500.0   90.0   33.333333333333336
-450.0   90.0   16.666666666666668
-450.0   120.0   16.666666666666668
-500.0   120.0   16.666666666666668
-450.0   120.0   33.333333333333336
-500.0   90.0   33.333333333333336
-500.0   120.0   33.333333333333336
-450.0   120.0   33.333333333333336
-500.0   120.0   16.666666666666668
-500.0   90.0   33.333333333333336
-450.0   120.0   33.333333333333336
-450.0   90.0   33.333333333333336
-450.0   90.0   16.666666666666668
-500.0   90.0   33.333333333333336
-450.0   120.0   33.333333333333336
-450.0   90.0   16.666666666666668
-500.0   120.0   16.666666666666668
-500.0   90.0   33.333333333333336
-450.0   90.0   33.333333333333336
-500.0   120.0   33.333333333333336
-500.0   90.0   50.0
-450.0   90.0   33.333333333333336
-450.0   120.0   33.333333333333336
-500.0   120.0   33.333333333333336
-450.0   120.0   50.0
-500.0   90.0   50.0
-500.0   120.0   50.0
-450.0   120.0   50.0
-500.0   120.0   33.333333333333336
-500.0   90.0   50.0
-450.0   120.0   50.0
-450.0   90.0   50.0
-450.0   90.0   33.333333333333336
-500.0   90.0   50.0
-450.0   120.0   50.0
-450.0   90.0   33.333333333333336
-500.0   120.0   33.333333333333336
-500.0   120.0   0.0
-450.0   120.0   0.0
-500.0   150.0   0.0
-500.0   120.0   16.666666666666668
-450.0   120.0   0.0
-450.0   150.0   0.0
-500.0   150.0   0.0
-450.0   150.0   16.666666666666668
-500.0   120.0   16.666666666666668
-500.0   150.0   16.666666666666668
-450.0   150.0   16.666666666666668
-500.0   150.0   0.0
-500.0   120.0   16.666666666666668
-450.0   150.0   16.666666666666668
-450.0   120.0   16.666666666666668
-450.0   120.0   0.0
-500.0   120.0   16.666666666666668
-450.0   150.0   16.666666666666668
-450.0   120.0   0.0
-500.0   150.0   0.0
-500.0   120.0   16.666666666666668
-450.0   120.0   16.666666666666668
-500.0   150.0   16.666666666666668
-500.0   120.0   33.333333333333336
-450.0   120.0   16.666666666666668
-450.0   150.0   16.666666666666668
-500.0   150.0   16.666666666666668
-450.0   150.0   33.333333333333336
-500.0   120.0   33.333333333333336
-500.0   150.0   33.333333333333336
-450.0   150.0   33.333333333333336
-500.0   150.0   16.666666666666668
-500.0   120.0   33.333333333333336
-450.0   150.0   33.333333333333336
-450.0   120.0   33.333333333333336
-450.0   120.0   16.666666666666668
-500.0   120.0   33.333333333333336
-450.0   150.0   33.333333333333336
-450.0   120.0   16.666666666666668
-500.0   150.0   16.666666666666668
-500.0   120.0   33.333333333333336
-450.0   120.0   33.333333333333336
-500.0   150.0   33.333333333333336
-500.0   120.0   50.0
-450.0   120.0   33.333333333333336
-450.0   150.0   33.333333333333336
-500.0   150.0   33.333333333333336
-450.0   150.0   50.0
-500.0   120.0   50.0
-500.0   150.0   50.0
-450.0   150.0   50.0
-500.0   150.0   33.333333333333336
-500.0   120.0   50.0
-450.0   150.0   50.0
-450.0   120.0   50.0
-450.0   120.0   33.333333333333336
-500.0   120.0   50.0
-450.0   150.0   50.0
-450.0   120.0   33.333333333333336
-500.0   150.0   33.333333333333336
-450.0   0.0   0.0
-400.0   0.0   0.0
-450.0   30.0   0.0
-450.0   0.0   16.666666666666668
-400.0   0.0   0.0
-400.0   30.0   0.0
-450.0   30.0   0.0
-400.0   30.0   16.666666666666668
-450.0   0.0   16.666666666666668
-450.0   30.0   16.666666666666668
-400.0   30.0   16.666666666666668
-450.0   30.0   0.0
-450.0   0.0   16.666666666666668
-400.0   30.0   16.666666666666668
-400.0   0.0   16.666666666666668
-400.0   0.0   0.0
-450.0   0.0   16.666666666666668
-400.0   30.0   16.666666666666668
-400.0   0.0   0.0
-450.0   30.0   0.0
-450.0   0.0   16.666666666666668
-400.0   0.0   16.666666666666668
-450.0   30.0   16.666666666666668
-450.0   0.0   33.333333333333336
-400.0   0.0   16.666666666666668
-400.0   30.0   16.666666666666668
-450.0   30.0   16.666666666666668
-400.0   30.0   33.333333333333336
-450.0   0.0   33.333333333333336
-450.0   30.0   33.333333333333336
-400.0   30.0   33.333333333333336
-450.0   30.0   16.666666666666668
-450.0   0.0   33.333333333333336
-400.0   30.0   33.333333333333336
-400.0   0.0   33.333333333333336
-400.0   0.0   16.666666666666668
-450.0   0.0   33.333333333333336
-400.0   30.0   33.333333333333336
-400.0   0.0   16.666666666666668
-450.0   30.0   16.666666666666668
-450.0   0.0   33.333333333333336
-400.0   0.0   33.333333333333336
-450.0   30.0   33.333333333333336
-450.0   0.0   50.0
-400.0   0.0   33.333333333333336
-400.0   30.0   33.333333333333336
-450.0   30.0   33.333333333333336
-400.0   30.0   50.0
-450.0   0.0   50.0
-450.0   30.0   50.0
-400.0   30.0   50.0
-450.0   30.0   33.333333333333336
-450.0   0.0   50.0
-400.0   30.0   50.0
-400.0   0.0   50.0
-400.0   0.0   33.333333333333336
-450.0   0.0   50.0
-400.0   30.0   50.0
-400.0   0.0   33.333333333333336
-450.0   30.0   33.333333333333336
-450.0   30.0   0.0
-400.0   30.0   0.0
-450.0   60.0   0.0
-450.0   30.0   16.666666666666668
-400.0   30.0   0.0
-400.0   60.0   0.0
-450.0   60.0   0.0
-400.0   60.0   16.666666666666668
-450.0   30.0   16.666666666666668
-450.0   60.0   16.666666666666668
-400.0   60.0   16.666666666666668
-450.0   60.0   0.0
-450.0   30.0   16.666666666666668
-400.0   60.0   16.666666666666668
-400.0   30.0   16.666666666666668
-400.0   30.0   0.0
-450.0   30.0   16.666666666666668
-400.0   60.0   16.666666666666668
-400.0   30.0   0.0
-450.0   60.0   0.0
-450.0   30.0   16.666666666666668
-400.0   30.0   16.666666666666668
-450.0   60.0   16.666666666666668
-450.0   30.0   33.333333333333336
-400.0   30.0   16.666666666666668
-400.0   60.0   16.666666666666668
-450.0   60.0   16.666666666666668
-400.0   60.0   33.333333333333336
-450.0   30.0   33.333333333333336
-450.0   60.0   33.333333333333336
-400.0   60.0   33.333333333333336
-450.0   60.0   16.666666666666668
-450.0   30.0   33.333333333333336
-400.0   60.0   33.333333333333336
-400.0   30.0   33.333333333333336
-400.0   30.0   16.666666666666668
-450.0   30.0   33.333333333333336
-400.0   60.0   33.333333333333336
-400.0   30.0   16.666666666666668
-450.0   60.0   16.666666666666668
-450.0   30.0   33.333333333333336
-400.0   30.0   33.333333333333336
-450.0   60.0   33.333333333333336
-450.0   30.0   50.0
-400.0   30.0   33.333333333333336
-400.0   60.0   33.333333333333336
-450.0   60.0   33.333333333333336
-400.0   60.0   50.0
-450.0   30.0   50.0
-450.0   60.0   50.0
-400.0   60.0   50.0
-450.0   60.0   33.333333333333336
-450.0   30.0   50.0
-400.0   60.0   50.0
-400.0   30.0   50.0
-400.0   30.0   33.333333333333336
-450.0   30.0   50.0
-400.0   60.0   50.0
-400.0   30.0   33.333333333333336
-450.0   60.0   33.333333333333336
-450.0   60.0   0.0
-400.0   60.0   0.0
-450.0   90.0   0.0
-450.0   60.0   16.666666666666668
-400.0   60.0   0.0
-400.0   90.0   0.0
-450.0   90.0   0.0
-400.0   90.0   16.666666666666668
-450.0   60.0   16.666666666666668
-450.0   90.0   16.666666666666668
-400.0   90.0   16.666666666666668
-450.0   90.0   0.0
-450.0   60.0   16.666666666666668
-400.0   90.0   16.666666666666668
-400.0   60.0   16.666666666666668
-400.0   60.0   0.0
-450.0   60.0   16.666666666666668
-400.0   90.0   16.666666666666668
-400.0   60.0   0.0
-450.0   90.0   0.0
-450.0   60.0   16.666666666666668
-400.0   60.0   16.666666666666668
-450.0   90.0   16.666666666666668
-450.0   60.0   33.333333333333336
-400.0   60.0   16.666666666666668
-400.0   90.0   16.666666666666668
-450.0   90.0   16.666666666666668
-400.0   90.0   33.333333333333336
-450.0   60.0   33.333333333333336
-450.0   90.0   33.333333333333336
-400.0   90.0   33.333333333333336
-450.0   90.0   16.666666666666668
-450.0   60.0   33.333333333333336
-400.0   90.0   33.333333333333336
-400.0   60.0   33.333333333333336
-400.0   60.0   16.666666666666668
-450.0   60.0   33.333333333333336
-400.0   90.0   33.333333333333336
-400.0   60.0   16.666666666666668
-450.0   90.0   16.666666666666668
-450.0   60.0   33.333333333333336
-400.0   60.0   33.333333333333336
-450.0   90.0   33.333333333333336
-450.0   60.0   50.0
-400.0   60.0   33.333333333333336
-400.0   90.0   33.333333333333336
-450.0   90.0   33.333333333333336
-400.0   90.0   50.0
-450.0   60.0   50.0
-450.0   90.0   50.0
-400.0   90.0   50.0
-450.0   90.0   33.333333333333336
-450.0   60.0   50.0
-400.0   90.0   50.0
-400.0   60.0   50.0
-400.0   60.0   33.333333333333336
-450.0   60.0   50.0
-400.0   90.0   50.0
-400.0   60.0   33.333333333333336
-450.0   90.0   33.333333333333336
-450.0   90.0   0.0
-400.0   90.0   0.0
-450.0   120.0   0.0
-450.0   90.0   16.666666666666668
-400.0   90.0   0.0
-400.0   120.0   0.0
-450.0   120.0   0.0
-400.0   120.0   16.666666666666668
-450.0   90.0   16.666666666666668
-450.0   120.0   16.666666666666668
-400.0   120.0   16.666666666666668
-450.0   120.0   0.0
-450.0   90.0   16.666666666666668
-400.0   120.0   16.666666666666668
-400.0   90.0   16.666666666666668
-400.0   90.0   0.0
-450.0   90.0   16.666666666666668
-400.0   120.0   16.666666666666668
-400.0   90.0   0.0
-450.0   120.0   0.0
-450.0   90.0   16.666666666666668
-400.0   90.0   16.666666666666668
-450.0   120.0   16.666666666666668
-450.0   90.0   33.333333333333336
-400.0   90.0   16.666666666666668
-400.0   120.0   16.666666666666668
-450.0   120.0   16.666666666666668
-400.0   120.0   33.333333333333336
-450.0   90.0   33.333333333333336
-450.0   120.0   33.333333333333336
-400.0   120.0   33.333333333333336
-450.0   120.0   16.666666666666668
-450.0   90.0   33.333333333333336
-400.0   120.0   33.333333333333336
-400.0   90.0   33.333333333333336
-400.0   90.0   16.666666666666668
-450.0   90.0   33.333333333333336
-400.0   120.0   33.333333333333336
-400.0   90.0   16.666666666666668
-450.0   120.0   16.666666666666668
-450.0   90.0   33.333333333333336
-400.0   90.0   33.333333333333336
-450.0   120.0   33.333333333333336
-450.0   90.0   50.0
-400.0   90.0   33.333333333333336
-400.0   120.0   33.333333333333336
-450.0   120.0   33.333333333333336
-400.0   120.0   50.0
-450.0   90.0   50.0
-450.0   120.0   50.0
-400.0   120.0   50.0
-450.0   120.0   33.333333333333336
-450.0   90.0   50.0
-400.0   120.0   50.0
-400.0   90.0   50.0
-400.0   90.0   33.333333333333336
-450.0   90.0   50.0
-400.0   120.0   50.0
-400.0   90.0   33.333333333333336
-450.0   120.0   33.333333333333336
-450.0   120.0   0.0
-400.0   120.0   0.0
-450.0   150.0   0.0
-450.0   120.0   16.666666666666668
-400.0   120.0   0.0
-400.0   150.0   0.0
-450.0   150.0   0.0
-400.0   150.0   16.666666666666668
-450.0   120.0   16.666666666666668
-450.0   150.0   16.666666666666668
-400.0   150.0   16.666666666666668
-450.0   150.0   0.0
-450.0   120.0   16.666666666666668
-400.0   150.0   16.666666666666668
-400.0   120.0   16.666666666666668
-400.0   120.0   0.0
-450.0   120.0   16.666666666666668
-400.0   150.0   16.666666666666668
-400.0   120.0   0.0
-450.0   150.0   0.0
-450.0   120.0   16.666666666666668
-400.0   120.0   16.666666666666668
-450.0   150.0   16.666666666666668
-450.0   120.0   33.333333333333336
-400.0   120.0   16.666666666666668
-400.0   150.0   16.666666666666668
-450.0   150.0   16.666666666666668
-400.0   150.0   33.333333333333336
-450.0   120.0   33.333333333333336
-450.0   150.0   33.333333333333336
-400.0   150.0   33.333333333333336
-450.0   150.0   16.666666666666668
-450.0   120.0   33.333333333333336
-400.0   150.0   33.333333333333336
-400.0   120.0   33.333333333333336
-400.0   120.0   16.666666666666668
-450.0   120.0   33.333333333333336
-400.0   150.0   33.333333333333336
-400.0   120.0   16.666666666666668
-450.0   150.0   16.666666666666668
-450.0   120.0   33.333333333333336
-400.0   120.0   33.333333333333336
-450.0   150.0   33.333333333333336
-450.0   120.0   50.0
-400.0   120.0   33.333333333333336
-400.0   150.0   33.333333333333336
-450.0   150.0   33.333333333333336
-400.0   150.0   50.0
-450.0   120.0   50.0
-450.0   150.0   50.0
-400.0   150.0   50.0
-450.0   150.0   33.333333333333336
-450.0   120.0   50.0
-400.0   150.0   50.0
-400.0   120.0   50.0
-400.0   120.0   33.333333333333336
-450.0   120.0   50.0
-400.0   150.0   50.0
-400.0   120.0   33.333333333333336
-450.0   150.0   33.333333333333336
-400.0   0.0   0.0
-350.0   0.0   0.0
-400.0   30.0   0.0
-400.0   0.0   16.666666666666668
-350.0   0.0   0.0
-350.0   30.0   0.0
-400.0   30.0   0.0
-350.0   30.0   16.666666666666668
-400.0   0.0   16.666666666666668
-400.0   30.0   16.666666666666668
-350.0   30.0   16.666666666666668
-400.0   30.0   0.0
-400.0   0.0   16.666666666666668
-350.0   30.0   16.666666666666668
-350.0   0.0   16.666666666666668
-350.0   0.0   0.0
-400.0   0.0   16.666666666666668
-350.0   30.0   16.666666666666668
-350.0   0.0   0.0
-400.0   30.0   0.0
-400.0   0.0   16.666666666666668
-350.0   0.0   16.666666666666668
-400.0   30.0   16.666666666666668
-400.0   0.0   33.333333333333336
-350.0   0.0   16.666666666666668
-350.0   30.0   16.666666666666668
-400.0   30.0   16.666666666666668
-350.0   30.0   33.333333333333336
-400.0   0.0   33.333333333333336
-400.0   30.0   33.333333333333336
-350.0   30.0   33.333333333333336
-400.0   30.0   16.666666666666668
-400.0   0.0   33.333333333333336
-350.0   30.0   33.333333333333336
-350.0   0.0   33.333333333333336
-350.0   0.0   16.666666666666668
-400.0   0.0   33.333333333333336
-350.0   30.0   33.333333333333336
-350.0   0.0   16.666666666666668
-400.0   30.0   16.666666666666668
-400.0   0.0   33.333333333333336
-350.0   0.0   33.333333333333336
-400.0   30.0   33.333333333333336
-400.0   0.0   50.0
-350.0   0.0   33.333333333333336
-350.0   30.0   33.333333333333336
-400.0   30.0   33.333333333333336
-350.0   30.0   50.0
-400.0   0.0   50.0
-400.0   30.0   50.0
-350.0   30.0   50.0
-400.0   30.0   33.333333333333336
-400.0   0.0   50.0
-350.0   30.0   50.0
-350.0   0.0   50.0
-350.0   0.0   33.333333333333336
-400.0   0.0   50.0
-350.0   30.0   50.0
-350.0   0.0   33.333333333333336
-400.0   30.0   33.333333333333336
-400.0   30.0   0.0
-350.0   30.0   0.0
-400.0   60.0   0.0
-400.0   30.0   16.666666666666668
-350.0   30.0   0.0
-350.0   60.0   0.0
-400.0   60.0   0.0
-350.0   60.0   16.666666666666668
-400.0   30.0   16.666666666666668
-400.0   60.0   16.666666666666668
-350.0   60.0   16.666666666666668
-400.0   60.0   0.0
-400.0   30.0   16.666666666666668
-350.0   60.0   16.666666666666668
-350.0   30.0   16.666666666666668
-350.0   30.0   0.0
-400.0   30.0   16.666666666666668
-350.0   60.0   16.666666666666668
-350.0   30.0   0.0
-400.0   60.0   0.0
-400.0   30.0   16.666666666666668
-350.0   30.0   16.666666666666668
-400.0   60.0   16.666666666666668
-400.0   30.0   33.333333333333336
-350.0   30.0   16.666666666666668
-350.0   60.0   16.666666666666668
-400.0   60.0   16.666666666666668
-350.0   60.0   33.333333333333336
-400.0   30.0   33.333333333333336
-400.0   60.0   33.333333333333336
-350.0   60.0   33.333333333333336
-400.0   60.0   16.666666666666668
-400.0   30.0   33.333333333333336
-350.0   60.0   33.333333333333336
-350.0   30.0   33.333333333333336
-350.0   30.0   16.666666666666668
-400.0   30.0   33.333333333333336
-350.0   60.0   33.333333333333336
-350.0   30.0   16.666666666666668
-400.0   60.0   16.666666666666668
-400.0   30.0   33.333333333333336
-350.0   30.0   33.333333333333336
-400.0   60.0   33.333333333333336
-400.0   30.0   50.0
-350.0   30.0   33.333333333333336
-350.0   60.0   33.333333333333336
-400.0   60.0   33.333333333333336
-350.0   60.0   50.0
-400.0   30.0   50.0
-400.0   60.0   50.0
-350.0   60.0   50.0
-400.0   60.0   33.333333333333336
-400.0   30.0   50.0
-350.0   60.0   50.0
-350.0   30.0   50.0
-350.0   30.0   33.333333333333336
-400.0   30.0   50.0
-350.0   60.0   50.0
-350.0   30.0   33.333333333333336
-400.0   60.0   33.333333333333336
-400.0   60.0   0.0
-350.0   60.0   0.0
-400.0   90.0   0.0
-400.0   60.0   16.666666666666668
-350.0   60.0   0.0
-350.0   90.0   0.0
-400.0   90.0   0.0
-350.0   90.0   16.666666666666668
-400.0   60.0   16.666666666666668
-400.0   90.0   16.666666666666668
-350.0   90.0   16.666666666666668
-400.0   90.0   0.0
-400.0   60.0   16.666666666666668
-350.0   90.0   16.666666666666668
-350.0   60.0   16.666666666666668
-350.0   60.0   0.0
-400.0   60.0   16.666666666666668
-350.0   90.0   16.666666666666668
-350.0   60.0   0.0
-400.0   90.0   0.0
-400.0   60.0   16.666666666666668
-350.0   60.0   16.666666666666668
-400.0   90.0   16.666666666666668
-400.0   60.0   33.333333333333336
-350.0   60.0   16.666666666666668
-350.0   90.0   16.666666666666668
-400.0   90.0   16.666666666666668
-350.0   90.0   33.333333333333336
-400.0   60.0   33.333333333333336
-400.0   90.0   33.333333333333336
-350.0   90.0   33.333333333333336
-400.0   90.0   16.666666666666668
-400.0   60.0   33.333333333333336
-350.0   90.0   33.333333333333336
-350.0   60.0   33.333333333333336
-350.0   60.0   16.666666666666668
-400.0   60.0   33.333333333333336
-350.0   90.0   33.333333333333336
-350.0   60.0   16.666666666666668
-400.0   90.0   16.666666666666668
-400.0   60.0   33.333333333333336
-350.0   60.0   33.333333333333336
-400.0   90.0   33.333333333333336
-400.0   60.0   50.0
-350.0   60.0   33.333333333333336
-350.0   90.0   33.333333333333336
-400.0   90.0   33.333333333333336
-350.0   90.0   50.0
-400.0   60.0   50.0
-400.0   90.0   50.0
-350.0   90.0   50.0
-400.0   90.0   33.333333333333336
-400.0   60.0   50.0
-350.0   90.0   50.0
-350.0   60.0   50.0
-350.0   60.0   33.333333333333336
-400.0   60.0   50.0
-350.0   90.0   50.0
-350.0   60.0   33.333333333333336
-400.0   90.0   33.333333333333336
-400.0   90.0   0.0
-350.0   90.0   0.0
-400.0   120.0   0.0
-400.0   90.0   16.666666666666668
-350.0   90.0   0.0
-350.0   120.0   0.0
-400.0   120.0   0.0
-350.0   120.0   16.666666666666668
-400.0   90.0   16.666666666666668
-400.0   120.0   16.666666666666668
-350.0   120.0   16.666666666666668
-400.0   120.0   0.0
-400.0   90.0   16.666666666666668
-350.0   120.0   16.666666666666668
-350.0   90.0   16.666666666666668
-350.0   90.0   0.0
-400.0   90.0   16.666666666666668
-350.0   120.0   16.666666666666668
-350.0   90.0   0.0
-400.0   120.0   0.0
-400.0   90.0   16.666666666666668
-350.0   90.0   16.666666666666668
-400.0   120.0   16.666666666666668
-400.0   90.0   33.333333333333336
-350.0   90.0   16.666666666666668
-350.0   120.0   16.666666666666668
-400.0   120.0   16.666666666666668
-350.0   120.0   33.333333333333336
-400.0   90.0   33.333333333333336
-400.0   120.0   33.333333333333336
-350.0   120.0   33.333333333333336
-400.0   120.0   16.666666666666668
-400.0   90.0   33.333333333333336
-350.0   120.0   33.333333333333336
-350.0   90.0   33.333333333333336
-350.0   90.0   16.666666666666668
-400.0   90.0   33.333333333333336
-350.0   120.0   33.333333333333336
-350.0   90.0   16.666666666666668
-400.0   120.0   16.666666666666668
-400.0   90.0   33.333333333333336
-350.0   90.0   33.333333333333336
-400.0   120.0   33.333333333333336
-400.0   90.0   50.0
-350.0   90.0   33.333333333333336
-350.0   120.0   33.333333333333336
-400.0   120.0   33.333333333333336
-350.0   120.0   50.0
-400.0   90.0   50.0
-400.0   120.0   50.0
-350.0   120.0   50.0
-400.0   120.0   33.333333333333336
-400.0   90.0   50.0
-350.0   120.0   50.0
-350.0   90.0   50.0
-350.0   90.0   33.333333333333336
-400.0   90.0   50.0
-350.0   120.0   50.0
-350.0   90.0   33.333333333333336
-400.0   120.0   33.333333333333336
-400.0   120.0   0.0
-350.0   120.0   0.0
-400.0   150.0   0.0
-400.0   120.0   16.666666666666668
-350.0   120.0   0.0
-350.0   150.0   0.0
-400.0   150.0   0.0
-350.0   150.0   16.666666666666668
-400.0   120.0   16.666666666666668
-400.0   150.0   16.666666666666668
-350.0   150.0   16.666666666666668
-400.0   150.0   0.0
-400.0   120.0   16.666666666666668
-350.0   150.0   16.666666666666668
-350.0   120.0   16.666666666666668
-350.0   120.0   0.0
-400.0   120.0   16.666666666666668
-350.0   150.0   16.666666666666668
-350.0   120.0   0.0
-400.0   150.0   0.0
-400.0   120.0   16.666666666666668
-350.0   120.0   16.666666666666668
-400.0   150.0   16.666666666666668
-400.0   120.0   33.333333333333336
-350.0   120.0   16.666666666666668
-350.0   150.0   16.666666666666668
-400.0   150.0   16.666666666666668
-350.0   150.0   33.333333333333336
-400.0   120.0   33.333333333333336
-400.0   150.0   33.333333333333336
-350.0   150.0   33.333333333333336
-400.0   150.0   16.666666666666668
-400.0   120.0   33.333333333333336
-350.0   150.0   33.333333333333336
-350.0   120.0   33.333333333333336
-350.0   120.0   16.666666666666668
-400.0   120.0   33.333333333333336
-350.0   150.0   33.333333333333336
-350.0   120.0   16.666666666666668
-400.0   150.0   16.666666666666668
-400.0   120.0   33.333333333333336
-350.0   120.0   33.333333333333336
-400.0   150.0   33.333333333333336
-400.0   120.0   50.0
-350.0   120.0   33.333333333333336
-350.0   150.0   33.333333333333336
-400.0   150.0   33.333333333333336
-350.0   150.0   50.0
-400.0   120.0   50.0
-400.0   150.0   50.0
-350.0   150.0   50.0
-400.0   150.0   33.333333333333336
-400.0   120.0   50.0
-350.0   150.0   50.0
-350.0   120.0   50.0
-350.0   120.0   33.333333333333336
-400.0   120.0   50.0
-350.0   150.0   50.0
-350.0   120.0   33.333333333333336
-400.0   150.0   33.333333333333336
-350.0   0.0   0.0
-300.0   0.0   0.0
-350.0   30.0   0.0
-350.0   0.0   16.666666666666668
-300.0   0.0   0.0
-300.0   30.0   0.0
-350.0   30.0   0.0
-300.0   30.0   16.666666666666668
-350.0   0.0   16.666666666666668
-350.0   30.0   16.666666666666668
-300.0   30.0   16.666666666666668
-350.0   30.0   0.0
-350.0   0.0   16.666666666666668
-300.0   30.0   16.666666666666668
-300.0   0.0   16.666666666666668
-300.0   0.0   0.0
-350.0   0.0   16.666666666666668
-300.0   30.0   16.666666666666668
-300.0   0.0   0.0
-350.0   30.0   0.0
-350.0   0.0   16.666666666666668
-300.0   0.0   16.666666666666668
-350.0   30.0   16.666666666666668
-350.0   0.0   33.333333333333336
-300.0   0.0   16.666666666666668
-300.0   30.0   16.666666666666668
-350.0   30.0   16.666666666666668
-300.0   30.0   33.333333333333336
-350.0   0.0   33.333333333333336
-350.0   30.0   33.333333333333336
-300.0   30.0   33.333333333333336
-350.0   30.0   16.666666666666668
-350.0   0.0   33.333333333333336
-300.0   30.0   33.333333333333336
-300.0   0.0   33.333333333333336
-300.0   0.0   16.666666666666668
-350.0   0.0   33.333333333333336
-300.0   30.0   33.333333333333336
-300.0   0.0   16.666666666666668
-350.0   30.0   16.666666666666668
-350.0   0.0   33.333333333333336
-300.0   0.0   33.333333333333336
-350.0   30.0   33.333333333333336
-350.0   0.0   50.0
-300.0   0.0   33.333333333333336
-300.0   30.0   33.333333333333336
-350.0   30.0   33.333333333333336
-300.0   30.0   50.0
-350.0   0.0   50.0
-350.0   30.0   50.0
-300.0   30.0   50.0
-350.0   30.0   33.333333333333336
-350.0   0.0   50.0
-300.0   30.0   50.0
-300.0   0.0   50.0
-300.0   0.0   33.333333333333336
-350.0   0.0   50.0
-300.0   30.0   50.0
-300.0   0.0   33.333333333333336
-350.0   30.0   33.333333333333336
-350.0   30.0   0.0
-300.0   30.0   0.0
-350.0   60.0   0.0
-350.0   30.0   16.666666666666668
-300.0   30.0   0.0
-300.0   60.0   0.0
-350.0   60.0   0.0
-300.0   60.0   16.666666666666668
-350.0   30.0   16.666666666666668
-350.0   60.0   16.666666666666668
-300.0   60.0   16.666666666666668
-350.0   60.0   0.0
-350.0   30.0   16.666666666666668
-300.0   60.0   16.666666666666668
-300.0   30.0   16.666666666666668
-300.0   30.0   0.0
-350.0   30.0   16.666666666666668
-300.0   60.0   16.666666666666668
-300.0   30.0   0.0
-350.0   60.0   0.0
-350.0   30.0   16.666666666666668
-300.0   30.0   16.666666666666668
-350.0   60.0   16.666666666666668
-350.0   30.0   33.333333333333336
-300.0   30.0   16.666666666666668
-300.0   60.0   16.666666666666668
-350.0   60.0   16.666666666666668
-300.0   60.0   33.333333333333336
-350.0   30.0   33.333333333333336
-350.0   60.0   33.333333333333336
-300.0   60.0   33.333333333333336
-350.0   60.0   16.666666666666668
-350.0   30.0   33.333333333333336
-300.0   60.0   33.333333333333336
-300.0   30.0   33.333333333333336
-300.0   30.0   16.666666666666668
-350.0   30.0   33.333333333333336
-300.0   60.0   33.333333333333336
-300.0   30.0   16.666666666666668
-350.0   60.0   16.666666666666668
-350.0   30.0   33.333333333333336
-300.0   30.0   33.333333333333336
-350.0   60.0   33.333333333333336
-350.0   30.0   50.0
-300.0   30.0   33.333333333333336
-300.0   60.0   33.333333333333336
-350.0   60.0   33.333333333333336
-300.0   60.0   50.0
-350.0   30.0   50.0
-350.0   60.0   50.0
-300.0   60.0   50.0
-350.0   60.0   33.333333333333336
-350.0   30.0   50.0
-300.0   60.0   50.0
-300.0   30.0   50.0
-300.0   30.0   33.333333333333336
-350.0   30.0   50.0
-300.0   60.0   50.0
-300.0   30.0   33.333333333333336
-350.0   60.0   33.333333333333336
-350.0   60.0   0.0
-300.0   60.0   0.0
-350.0   90.0   0.0
-350.0   60.0   16.666666666666668
-300.0   60.0   0.0
-300.0   90.0   0.0
-350.0   90.0   0.0
-300.0   90.0   16.666666666666668
-350.0   60.0   16.666666666666668
-350.0   90.0   16.666666666666668
-300.0   90.0   16.666666666666668
-350.0   90.0   0.0
-350.0   60.0   16.666666666666668
-300.0   90.0   16.666666666666668
-300.0   60.0   16.666666666666668
-300.0   60.0   0.0
-350.0   60.0   16.666666666666668
-300.0   90.0   16.666666666666668
-300.0   60.0   0.0
-350.0   90.0   0.0
-350.0   60.0   16.666666666666668
-300.0   60.0   16.666666666666668
-350.0   90.0   16.666666666666668
-350.0   60.0   33.333333333333336
-300.0   60.0   16.666666666666668
-300.0   90.0   16.666666666666668
-350.0   90.0   16.666666666666668
-300.0   90.0   33.333333333333336
-350.0   60.0   33.333333333333336
-350.0   90.0   33.333333333333336
-300.0   90.0   33.333333333333336
-350.0   90.0   16.666666666666668
-350.0   60.0   33.333333333333336
-300.0   90.0   33.333333333333336
-300.0   60.0   33.333333333333336
-300.0   60.0   16.666666666666668
-350.0   60.0   33.333333333333336
-300.0   90.0   33.333333333333336
-300.0   60.0   16.666666666666668
-350.0   90.0   16.666666666666668
-350.0   60.0   33.333333333333336
-300.0   60.0   33.333333333333336
-350.0   90.0   33.333333333333336
-350.0   60.0   50.0
-300.0   60.0   33.333333333333336
-300.0   90.0   33.333333333333336
-350.0   90.0   33.333333333333336
-300.0   90.0   50.0
-350.0   60.0   50.0
-350.0   90.0   50.0
-300.0   90.0   50.0
-350.0   90.0   33.333333333333336
-350.0   60.0   50.0
-300.0   90.0   50.0
-300.0   60.0   50.0
-300.0   60.0   33.333333333333336
-350.0   60.0   50.0
-300.0   90.0   50.0
-300.0   60.0   33.333333333333336
-350.0   90.0   33.333333333333336
-350.0   90.0   0.0
-300.0   90.0   0.0
-350.0   120.0   0.0
-350.0   90.0   16.666666666666668
-300.0   90.0   0.0
-300.0   120.0   0.0
-350.0   120.0   0.0
-300.0   120.0   16.666666666666668
-350.0   90.0   16.666666666666668
-350.0   120.0   16.666666666666668
-300.0   120.0   16.666666666666668
-350.0   120.0   0.0
-350.0   90.0   16.666666666666668
-300.0   120.0   16.666666666666668
-300.0   90.0   16.666666666666668
-300.0   90.0   0.0
-350.0   90.0   16.666666666666668
-300.0   120.0   16.666666666666668
-300.0   90.0   0.0
-350.0   120.0   0.0
-350.0   90.0   16.666666666666668
-300.0   90.0   16.666666666666668
-350.0   120.0   16.666666666666668
-350.0   90.0   33.333333333333336
-300.0   90.0   16.666666666666668
-300.0   120.0   16.666666666666668
-350.0   120.0   16.666666666666668
-300.0   120.0   33.333333333333336
-350.0   90.0   33.333333333333336
-350.0   120.0   33.333333333333336
-300.0   120.0   33.333333333333336
-350.0   120.0   16.666666666666668
-350.0   90.0   33.333333333333336
-300.0   120.0   33.333333333333336
-300.0   90.0   33.333333333333336
-300.0   90.0   16.666666666666668
-350.0   90.0   33.333333333333336
-300.0   120.0   33.333333333333336
-300.0   90.0   16.666666666666668
-350.0   120.0   16.666666666666668
-350.0   90.0   33.333333333333336
-300.0   90.0   33.333333333333336
-350.0   120.0   33.333333333333336
-350.0   90.0   50.0
-300.0   90.0   33.333333333333336
-300.0   120.0   33.333333333333336
-350.0   120.0   33.333333333333336
-300.0   120.0   50.0
-350.0   90.0   50.0
-350.0   120.0   50.0
-300.0   120.0   50.0
-350.0   120.0   33.333333333333336
-350.0   90.0   50.0
-300.0   120.0   50.0
-300.0   90.0   50.0
-300.0   90.0   33.333333333333336
-350.0   90.0   50.0
-300.0   120.0   50.0
-300.0   90.0   33.333333333333336
-350.0   120.0   33.333333333333336
-350.0   120.0   0.0
-300.0   120.0   0.0
-350.0   150.0   0.0
-350.0   120.0   16.666666666666668
-300.0   120.0   0.0
-300.0   150.0   0.0
-350.0   150.0   0.0
-300.0   150.0   16.666666666666668
-350.0   120.0   16.666666666666668
-350.0   150.0   16.666666666666668
-300.0   150.0   16.666666666666668
-350.0   150.0   0.0
-350.0   120.0   16.666666666666668
-300.0   150.0   16.666666666666668
-300.0   120.0   16.666666666666668
-300.0   120.0   0.0
-350.0   120.0   16.666666666666668
-300.0   150.0   16.666666666666668
-300.0   120.0   0.0
-350.0   150.0   0.0
-350.0   120.0   16.666666666666668
-300.0   120.0   16.666666666666668
-350.0   150.0   16.666666666666668
-350.0   120.0   33.333333333333336
-300.0   120.0   16.666666666666668
-300.0   150.0   16.666666666666668
-350.0   150.0   16.666666666666668
-300.0   150.0   33.333333333333336
-350.0   120.0   33.333333333333336
-350.0   150.0   33.333333333333336
-300.0   150.0   33.333333333333336
-350.0   150.0   16.666666666666668
-350.0   120.0   33.333333333333336
-300.0   150.0   33.333333333333336
-300.0   120.0   33.333333333333336
-300.0   120.0   16.666666666666668
-350.0   120.0   33.333333333333336
-300.0   150.0   33.333333333333336
-300.0   120.0   16.666666666666668
-350.0   150.0   16.666666666666668
-350.0   120.0   33.333333333333336
-300.0   120.0   33.333333333333336
-350.0   150.0   33.333333333333336
-350.0   120.0   50.0
-300.0   120.0   33.333333333333336
-300.0   150.0   33.333333333333336
-350.0   150.0   33.333333333333336
-300.0   150.0   50.0
-350.0   120.0   50.0
-350.0   150.0   50.0
-300.0   150.0   50.0
-350.0   150.0   33.333333333333336
-350.0   120.0   50.0
-300.0   150.0   50.0
-300.0   120.0   50.0
-300.0   120.0   33.333333333333336
-350.0   120.0   50.0
-300.0   150.0   50.0
-300.0   120.0   33.333333333333336
-350.0   150.0   33.333333333333336
-300.0   0.0   0.0
-250.0   0.0   0.0
-300.0   30.0   0.0
-300.0   0.0   16.666666666666668
-250.0   0.0   0.0
-250.0   30.0   0.0
-300.0   30.0   0.0
-250.0   30.0   16.666666666666668
-300.0   0.0   16.666666666666668
-300.0   30.0   16.666666666666668
-250.0   30.0   16.666666666666668
-300.0   30.0   0.0
-300.0   0.0   16.666666666666668
-250.0   30.0   16.666666666666668
-250.0   0.0   16.666666666666668
-250.0   0.0   0.0
-300.0   0.0   16.666666666666668
-250.0   30.0   16.666666666666668
-250.0   0.0   0.0
-300.0   30.0   0.0
-300.0   0.0   16.666666666666668
-250.0   0.0   16.666666666666668
-300.0   30.0   16.666666666666668
-300.0   0.0   33.333333333333336
-250.0   0.0   16.666666666666668
-250.0   30.0   16.666666666666668
-300.0   30.0   16.666666666666668
-250.0   30.0   33.333333333333336
-300.0   0.0   33.333333333333336
-300.0   30.0   33.333333333333336
-250.0   30.0   33.333333333333336
-300.0   30.0   16.666666666666668
-300.0   0.0   33.333333333333336
-250.0   30.0   33.333333333333336
-250.0   0.0   33.333333333333336
-250.0   0.0   16.666666666666668
-300.0   0.0   33.333333333333336
-250.0   30.0   33.333333333333336
-250.0   0.0   16.666666666666668
-300.0   30.0   16.666666666666668
-300.0   0.0   33.333333333333336
-250.0   0.0   33.333333333333336
-300.0   30.0   33.333333333333336
-300.0   0.0   50.0
-250.0   0.0   33.333333333333336
-250.0   30.0   33.333333333333336
-300.0   30.0   33.333333333333336
-250.0   30.0   50.0
-300.0   0.0   50.0
-300.0   30.0   50.0
-250.0   30.0   50.0
-300.0   30.0   33.333333333333336
-300.0   0.0   50.0
-250.0   30.0   50.0
-250.0   0.0   50.0
-250.0   0.0   33.333333333333336
-300.0   0.0   50.0
-250.0   30.0   50.0
-250.0   0.0   33.333333333333336
-300.0   30.0   33.333333333333336
-300.0   30.0   0.0
-250.0   30.0   0.0
-300.0   60.0   0.0
-300.0   30.0   16.666666666666668
-250.0   30.0   0.0
-250.0   60.0   0.0
-300.0   60.0   0.0
-250.0   60.0   16.666666666666668
-300.0   30.0   16.666666666666668
-300.0   60.0   16.666666666666668
-250.0   60.0   16.666666666666668
-300.0   60.0   0.0
-300.0   30.0   16.666666666666668
-250.0   60.0   16.666666666666668
-250.0   30.0   16.666666666666668
-250.0   30.0   0.0
-300.0   30.0   16.666666666666668
-250.0   60.0   16.666666666666668
-250.0   30.0   0.0
-300.0   60.0   0.0
-300.0   30.0   16.666666666666668
-250.0   30.0   16.666666666666668
-300.0   60.0   16.666666666666668
-300.0   30.0   33.333333333333336
-250.0   30.0   16.666666666666668
-250.0   60.0   16.666666666666668
-300.0   60.0   16.666666666666668
-250.0   60.0   33.333333333333336
-300.0   30.0   33.333333333333336
-300.0   60.0   33.333333333333336
-250.0   60.0   33.333333333333336
-300.0   60.0   16.666666666666668
-300.0   30.0   33.333333333333336
-250.0   60.0   33.333333333333336
-250.0   30.0   33.333333333333336
-250.0   30.0   16.666666666666668
-300.0   30.0   33.333333333333336
-250.0   60.0   33.333333333333336
-250.0   30.0   16.666666666666668
-300.0   60.0   16.666666666666668
-300.0   30.0   33.333333333333336
-250.0   30.0   33.333333333333336
-300.0   60.0   33.333333333333336
-300.0   30.0   50.0
-250.0   30.0   33.333333333333336
-250.0   60.0   33.333333333333336
-300.0   60.0   33.333333333333336
-250.0   60.0   50.0
-300.0   30.0   50.0
-300.0   60.0   50.0
-250.0   60.0   50.0
-300.0   60.0   33.333333333333336
-300.0   30.0   50.0
-250.0   60.0   50.0
-250.0   30.0   50.0
-250.0   30.0   33.333333333333336
-300.0   30.0   50.0
-250.0   60.0   50.0
-250.0   30.0   33.333333333333336
-300.0   60.0   33.333333333333336
-300.0   60.0   0.0
-250.0   60.0   0.0
-300.0   90.0   0.0
-300.0   60.0   16.666666666666668
-250.0   60.0   0.0
-250.0   90.0   0.0
-300.0   90.0   0.0
-250.0   90.0   16.666666666666668
-300.0   60.0   16.666666666666668
-300.0   90.0   16.666666666666668
-250.0   90.0   16.666666666666668
-300.0   90.0   0.0
-300.0   60.0   16.666666666666668
-250.0   90.0   16.666666666666668
-250.0   60.0   16.666666666666668
-250.0   60.0   0.0
-300.0   60.0   16.666666666666668
-250.0   90.0   16.666666666666668
-250.0   60.0   0.0
-300.0   90.0   0.0
-300.0   60.0   16.666666666666668
-250.0   60.0   16.666666666666668
-300.0   90.0   16.666666666666668
-300.0   60.0   33.333333333333336
-250.0   60.0   16.666666666666668
-250.0   90.0   16.666666666666668
-300.0   90.0   16.666666666666668
-250.0   90.0   33.333333333333336
-300.0   60.0   33.333333333333336
-300.0   90.0   33.333333333333336
-250.0   90.0   33.333333333333336
-300.0   90.0   16.666666666666668
-300.0   60.0   33.333333333333336
-250.0   90.0   33.333333333333336
-250.0   60.0   33.333333333333336
-250.0   60.0   16.666666666666668
-300.0   60.0   33.333333333333336
-250.0   90.0   33.333333333333336
-250.0   60.0   16.666666666666668
-300.0   90.0   16.666666666666668
-300.0   60.0   33.333333333333336
-250.0   60.0   33.333333333333336
-300.0   90.0   33.333333333333336
-300.0   60.0   50.0
-250.0   60.0   33.333333333333336
-250.0   90.0   33.333333333333336
-300.0   90.0   33.333333333333336
-250.0   90.0   50.0
-300.0   60.0   50.0
-300.0   90.0   50.0
-250.0   90.0   50.0
-300.0   90.0   33.333333333333336
-300.0   60.0   50.0
-250.0   90.0   50.0
-250.0   60.0   50.0
-250.0   60.0   33.333333333333336
-300.0   60.0   50.0
-250.0   90.0   50.0
-250.0   60.0   33.333333333333336
-300.0   90.0   33.333333333333336
-300.0   90.0   0.0
-250.0   90.0   0.0
-300.0   120.0   0.0
-300.0   90.0   16.666666666666668
-250.0   90.0   0.0
-250.0   120.0   0.0
-300.0   120.0   0.0
-250.0   120.0   16.666666666666668
-300.0   90.0   16.666666666666668
-300.0   120.0   16.666666666666668
-250.0   120.0   16.666666666666668
-300.0   120.0   0.0
-300.0   90.0   16.666666666666668
-250.0   120.0   16.666666666666668
-250.0   90.0   16.666666666666668
-250.0   90.0   0.0
-300.0   90.0   16.666666666666668
-250.0   120.0   16.666666666666668
-250.0   90.0   0.0
-300.0   120.0   0.0
-300.0   90.0   16.666666666666668
-250.0   90.0   16.666666666666668
-300.0   120.0   16.666666666666668
-300.0   90.0   33.333333333333336
-250.0   90.0   16.666666666666668
-250.0   120.0   16.666666666666668
-300.0   120.0   16.666666666666668
-250.0   120.0   33.333333333333336
-300.0   90.0   33.333333333333336
-300.0   120.0   33.333333333333336
-250.0   120.0   33.333333333333336
-300.0   120.0   16.666666666666668
-300.0   90.0   33.333333333333336
-250.0   120.0   33.333333333333336
-250.0   90.0   33.333333333333336
-250.0   90.0   16.666666666666668
-300.0   90.0   33.333333333333336
-250.0   120.0   33.333333333333336
-250.0   90.0   16.666666666666668
-300.0   120.0   16.666666666666668
-300.0   90.0   33.333333333333336
-250.0   90.0   33.333333333333336
-300.0   120.0   33.333333333333336
-300.0   90.0   50.0
-250.0   90.0   33.333333333333336
-250.0   120.0   33.333333333333336
-300.0   120.0   33.333333333333336
-250.0   120.0   50.0
-300.0   90.0   50.0
-300.0   120.0   50.0
-250.0   120.0   50.0
-300.0   120.0   33.333333333333336
-300.0   90.0   50.0
-250.0   120.0   50.0
-250.0   90.0   50.0
-250.0   90.0   33.333333333333336
-300.0   90.0   50.0
-250.0   120.0   50.0
-250.0   90.0   33.333333333333336
-300.0   120.0   33.333333333333336
-300.0   120.0   0.0
-250.0   120.0   0.0
-300.0   150.0   0.0
-300.0   120.0   16.666666666666668
-250.0   120.0   0.0
-250.0   150.0   0.0
-300.0   150.0   0.0
-250.0   150.0   16.666666666666668
-300.0   120.0   16.666666666666668
-300.0   150.0   16.666666666666668
-250.0   150.0   16.666666666666668
-300.0   150.0   0.0
-300.0   120.0   16.666666666666668
-250.0   150.0   16.666666666666668
-250.0   120.0   16.666666666666668
-250.0   120.0   0.0
-300.0   120.0   16.666666666666668
-250.0   150.0   16.666666666666668
-250.0   120.0   0.0
-300.0   150.0   0.0
-300.0   120.0   16.666666666666668
-250.0   120.0   16.666666666666668
-300.0   150.0   16.666666666666668
-300.0   120.0   33.333333333333336
-250.0   120.0   16.666666666666668
-250.0   150.0   16.666666666666668
-300.0   150.0   16.666666666666668
-250.0   150.0   33.333333333333336
-300.0   120.0   33.333333333333336
-300.0   150.0   33.333333333333336
-250.0   150.0   33.333333333333336
-300.0   150.0   16.666666666666668
-300.0   120.0   33.333333333333336
-250.0   150.0   33.333333333333336
-250.0   120.0   33.333333333333336
-250.0   120.0   16.666666666666668
-300.0   120.0   33.333333333333336
-250.0   150.0   33.333333333333336
-250.0   120.0   16.666666666666668
-300.0   150.0   16.666666666666668
-300.0   120.0   33.333333333333336
-250.0   120.0   33.333333333333336
-300.0   150.0   33.333333333333336
-300.0   120.0   50.0
-250.0   120.0   33.333333333333336
-250.0   150.0   33.333333333333336
-300.0   150.0   33.333333333333336
-250.0   150.0   50.0
-300.0   120.0   50.0
-300.0   150.0   50.0
-250.0   150.0   50.0
-300.0   150.0   33.333333333333336
-300.0   120.0   50.0
-250.0   150.0   50.0
-250.0   120.0   50.0
-250.0   120.0   33.333333333333336
-300.0   120.0   50.0
-250.0   150.0   50.0
-250.0   120.0   33.333333333333336
-300.0   150.0   33.333333333333336
-250.0   0.0   0.0
-200.0   0.0   0.0
-250.0   30.0   0.0
-250.0   0.0   16.666666666666668
-200.0   0.0   0.0
-200.0   30.0   0.0
-250.0   30.0   0.0
-200.0   30.0   16.666666666666668
-250.0   0.0   16.666666666666668
-250.0   30.0   16.666666666666668
-200.0   30.0   16.666666666666668
-250.0   30.0   0.0
-250.0   0.0   16.666666666666668
-200.0   30.0   16.666666666666668
-200.0   0.0   16.666666666666668
-200.0   0.0   0.0
-250.0   0.0   16.666666666666668
-200.0   30.0   16.666666666666668
-200.0   0.0   0.0
-250.0   30.0   0.0
-250.0   0.0   16.666666666666668
-200.0   0.0   16.666666666666668
-250.0   30.0   16.666666666666668
-250.0   0.0   33.333333333333336
-200.0   0.0   16.666666666666668
-200.0   30.0   16.666666666666668
-250.0   30.0   16.666666666666668
-200.0   30.0   33.333333333333336
-250.0   0.0   33.333333333333336
-250.0   30.0   33.333333333333336
-200.0   30.0   33.333333333333336
-250.0   30.0   16.666666666666668
-250.0   0.0   33.333333333333336
-200.0   30.0   33.333333333333336
-200.0   0.0   33.333333333333336
-200.0   0.0   16.666666666666668
-250.0   0.0   33.333333333333336
-200.0   30.0   33.333333333333336
-200.0   0.0   16.666666666666668
-250.0   30.0   16.666666666666668
-250.0   0.0   33.333333333333336
-200.0   0.0   33.333333333333336
-250.0   30.0   33.333333333333336
-250.0   0.0   50.0
-200.0   0.0   33.333333333333336
-200.0   30.0   33.333333333333336
-250.0   30.0   33.333333333333336
-200.0   30.0   50.0
-250.0   0.0   50.0
-250.0   30.0   50.0
-200.0   30.0   50.0
-250.0   30.0   33.333333333333336
-250.0   0.0   50.0
-200.0   30.0   50.0
-200.0   0.0   50.0
-200.0   0.0   33.333333333333336
-250.0   0.0   50.0
-200.0   30.0   50.0
-200.0   0.0   33.333333333333336
-250.0   30.0   33.333333333333336
-250.0   30.0   0.0
-200.0   30.0   0.0
-250.0   60.0   0.0
-250.0   30.0   16.666666666666668
-200.0   30.0   0.0
-200.0   60.0   0.0
-250.0   60.0   0.0
-200.0   60.0   16.666666666666668
-250.0   30.0   16.666666666666668
-250.0   60.0   16.666666666666668
-200.0   60.0   16.666666666666668
-250.0   60.0   0.0
-250.0   30.0   16.666666666666668
-200.0   60.0   16.666666666666668
-200.0   30.0   16.666666666666668
-200.0   30.0   0.0
-250.0   30.0   16.666666666666668
-200.0   60.0   16.666666666666668
-200.0   30.0   0.0
-250.0   60.0   0.0
-250.0   30.0   16.666666666666668
-200.0   30.0   16.666666666666668
-250.0   60.0   16.666666666666668
-250.0   30.0   33.333333333333336
-200.0   30.0   16.666666666666668
-200.0   60.0   16.666666666666668
-250.0   60.0   16.666666666666668
-200.0   60.0   33.333333333333336
-250.0   30.0   33.333333333333336
-250.0   60.0   33.333333333333336
-200.0   60.0   33.333333333333336
-250.0   60.0   16.666666666666668
-250.0   30.0   33.333333333333336
-200.0   60.0   33.333333333333336
-200.0   30.0   33.333333333333336
-200.0   30.0   16.666666666666668
-250.0   30.0   33.333333333333336
-200.0   60.0   33.333333333333336
-200.0   30.0   16.666666666666668
-250.0   60.0   16.666666666666668
-250.0   30.0   33.333333333333336
-200.0   30.0   33.333333333333336
-250.0   60.0   33.333333333333336
-250.0   30.0   50.0
-200.0   30.0   33.333333333333336
-200.0   60.0   33.333333333333336
-250.0   60.0   33.333333333333336
-200.0   60.0   50.0
-250.0   30.0   50.0
-250.0   60.0   50.0
-200.0   60.0   50.0
-250.0   60.0   33.333333333333336
-250.0   30.0   50.0
-200.0   60.0   50.0
-200.0   30.0   50.0
-200.0   30.0   33.333333333333336
-250.0   30.0   50.0
-200.0   60.0   50.0
-200.0   30.0   33.333333333333336
-250.0   60.0   33.333333333333336
-250.0   60.0   0.0
-200.0   60.0   0.0
-250.0   90.0   0.0
-250.0   60.0   16.666666666666668
-200.0   60.0   0.0
-200.0   90.0   0.0
-250.0   90.0   0.0
-200.0   90.0   16.666666666666668
-250.0   60.0   16.666666666666668
-250.0   90.0   16.666666666666668
-200.0   90.0   16.666666666666668
-250.0   90.0   0.0
-250.0   60.0   16.666666666666668
-200.0   90.0   16.666666666666668
-200.0   60.0   16.666666666666668
-200.0   60.0   0.0
-250.0   60.0   16.666666666666668
-200.0   90.0   16.666666666666668
-200.0   60.0   0.0
-250.0   90.0   0.0
-250.0   60.0   16.666666666666668
-200.0   60.0   16.666666666666668
-250.0   90.0   16.666666666666668
-250.0   60.0   33.333333333333336
-200.0   60.0   16.666666666666668
-200.0   90.0   16.666666666666668
-250.0   90.0   16.666666666666668
-200.0   90.0   33.333333333333336
-250.0   60.0   33.333333333333336
-250.0   90.0   33.333333333333336
-200.0   90.0   33.333333333333336
-250.0   90.0   16.666666666666668
-250.0   60.0   33.333333333333336
-200.0   90.0   33.333333333333336
-200.0   60.0   33.333333333333336
-200.0   60.0   16.666666666666668
-250.0   60.0   33.333333333333336
-200.0   90.0   33.333333333333336
-200.0   60.0   16.666666666666668
-250.0   90.0   16.666666666666668
-250.0   60.0   33.333333333333336
-200.0   60.0   33.333333333333336
-250.0   90.0   33.333333333333336
-250.0   60.0   50.0
-200.0   60.0   33.333333333333336
-200.0   90.0   33.333333333333336
-250.0   90.0   33.333333333333336
-200.0   90.0   50.0
-250.0   60.0   50.0
-250.0   90.0   50.0
-200.0   90.0   50.0
-250.0   90.0   33.333333333333336
-250.0   60.0   50.0
-200.0   90.0   50.0
-200.0   60.0   50.0
-200.0   60.0   33.333333333333336
-250.0   60.0   50.0
-200.0   90.0   50.0
-200.0   60.0   33.333333333333336
-250.0   90.0   33.333333333333336
-250.0   90.0   0.0
-200.0   90.0   0.0
-250.0   120.0   0.0
-250.0   90.0   16.666666666666668
-200.0   90.0   0.0
-200.0   120.0   0.0
-250.0   120.0   0.0
-200.0   120.0   16.666666666666668
-250.0   90.0   16.666666666666668
-250.0   120.0   16.666666666666668
-200.0   120.0   16.666666666666668
-250.0   120.0   0.0
-250.0   90.0   16.666666666666668
-200.0   120.0   16.666666666666668
-200.0   90.0   16.666666666666668
-200.0   90.0   0.0
-250.0   90.0   16.666666666666668
-200.0   120.0   16.666666666666668
-200.0   90.0   0.0
-250.0   120.0   0.0
-250.0   90.0   16.666666666666668
-200.0   90.0   16.666666666666668
-250.0   120.0   16.666666666666668
-250.0   90.0   33.333333333333336
-200.0   90.0   16.666666666666668
-200.0   120.0   16.666666666666668
-250.0   120.0   16.666666666666668
-200.0   120.0   33.333333333333336
-250.0   90.0   33.333333333333336
-250.0   120.0   33.333333333333336
-200.0   120.0   33.333333333333336
-250.0   120.0   16.666666666666668
-250.0   90.0   33.333333333333336
-200.0   120.0   33.333333333333336
-200.0   90.0   33.333333333333336
-200.0   90.0   16.666666666666668
-250.0   90.0   33.333333333333336
-200.0   120.0   33.333333333333336
-200.0   90.0   16.666666666666668
-250.0   120.0   16.666666666666668
-250.0   90.0   33.333333333333336
-200.0   90.0   33.333333333333336
-250.0   120.0   33.333333333333336
-250.0   90.0   50.0
-200.0   90.0   33.333333333333336
-200.0   120.0   33.333333333333336
-250.0   120.0   33.333333333333336
-200.0   120.0   50.0
-250.0   90.0   50.0
-250.0   120.0   50.0
-200.0   120.0   50.0
-250.0   120.0   33.333333333333336
-250.0   90.0   50.0
-200.0   120.0   50.0
-200.0   90.0   50.0
-200.0   90.0   33.333333333333336
-250.0   90.0   50.0
-200.0   120.0   50.0
-200.0   90.0   33.333333333333336
-250.0   120.0   33.333333333333336
-250.0   120.0   0.0
-200.0   120.0   0.0
-250.0   150.0   0.0
-250.0   120.0   16.666666666666668
-200.0   120.0   0.0
-200.0   150.0   0.0
-250.0   150.0   0.0
-200.0   150.0   16.666666666666668
-250.0   120.0   16.666666666666668
-250.0   150.0   16.666666666666668
-200.0   150.0   16.666666666666668
-250.0   150.0   0.0
-250.0   120.0   16.666666666666668
-200.0   150.0   16.666666666666668
-200.0   120.0   16.666666666666668
-200.0   120.0   0.0
-250.0   120.0   16.666666666666668
-200.0   150.0   16.666666666666668
-200.0   120.0   0.0
-250.0   150.0   0.0
-250.0   120.0   16.666666666666668
-200.0   120.0   16.666666666666668
-250.0   150.0   16.666666666666668
-250.0   120.0   33.333333333333336
-200.0   120.0   16.666666666666668
-200.0   150.0   16.666666666666668
-250.0   150.0   16.666666666666668
-200.0   150.0   33.333333333333336
-250.0   120.0   33.333333333333336
-250.0   150.0   33.333333333333336
-200.0   150.0   33.333333333333336
-250.0   150.0   16.666666666666668
-250.0   120.0   33.333333333333336
-200.0   150.0   33.333333333333336
-200.0   120.0   33.333333333333336
-200.0   120.0   16.666666666666668
-250.0   120.0   33.333333333333336
-200.0   150.0   33.333333333333336
-200.0   120.0   16.666666666666668
-250.0   150.0   16.666666666666668
-250.0   120.0   33.333333333333336
-200.0   120.0   33.333333333333336
-250.0   150.0   33.333333333333336
-250.0   120.0   50.0
-200.0   120.0   33.333333333333336
-200.0   150.0   33.333333333333336
-250.0   150.0   33.333333333333336
-200.0   150.0   50.0
-250.0   120.0   50.0
-250.0   150.0   50.0
-200.0   150.0   50.0
-250.0   150.0   33.333333333333336
-250.0   120.0   50.0
-200.0   150.0   50.0
-200.0   120.0   50.0
-200.0   120.0   33.333333333333336
-250.0   120.0   50.0
-200.0   150.0   50.0
-200.0   120.0   33.333333333333336
-250.0   150.0   33.333333333333336
-200.0   0.0   0.0
-150.0   0.0   0.0
-200.0   30.0   0.0
-200.0   0.0   16.666666666666668
-150.0   0.0   0.0
-150.0   30.0   0.0
-200.0   30.0   0.0
-150.0   30.0   16.666666666666668
-200.0   0.0   16.666666666666668
-200.0   30.0   16.666666666666668
-150.0   30.0   16.666666666666668
-200.0   30.0   0.0
-200.0   0.0   16.666666666666668
-150.0   30.0   16.666666666666668
-150.0   0.0   16.666666666666668
-150.0   0.0   0.0
-200.0   0.0   16.666666666666668
-150.0   30.0   16.666666666666668
-150.0   0.0   0.0
-200.0   30.0   0.0
-200.0   0.0   16.666666666666668
-150.0   0.0   16.666666666666668
-200.0   30.0   16.666666666666668
-200.0   0.0   33.333333333333336
-150.0   0.0   16.666666666666668
-150.0   30.0   16.666666666666668
-200.0   30.0   16.666666666666668
-150.0   30.0   33.333333333333336
-200.0   0.0   33.333333333333336
-200.0   30.0   33.333333333333336
-150.0   30.0   33.333333333333336
-200.0   30.0   16.666666666666668
-200.0   0.0   33.333333333333336
-150.0   30.0   33.333333333333336
-150.0   0.0   33.333333333333336
-150.0   0.0   16.666666666666668
-200.0   0.0   33.333333333333336
-150.0   30.0   33.333333333333336
-150.0   0.0   16.666666666666668
-200.0   30.0   16.666666666666668
-200.0   0.0   33.333333333333336
-150.0   0.0   33.333333333333336
-200.0   30.0   33.333333333333336
-200.0   0.0   50.0
-150.0   0.0   33.333333333333336
-150.0   30.0   33.333333333333336
-200.0   30.0   33.333333333333336
-150.0   30.0   50.0
-200.0   0.0   50.0
-200.0   30.0   50.0
-150.0   30.0   50.0
-200.0   30.0   33.333333333333336
-200.0   0.0   50.0
-150.0   30.0   50.0
-150.0   0.0   50.0
-150.0   0.0   33.333333333333336
-200.0   0.0   50.0
-150.0   30.0   50.0
-150.0   0.0   33.333333333333336
-200.0   30.0   33.333333333333336
-200.0   30.0   0.0
-150.0   30.0   0.0
-200.0   60.0   0.0
-200.0   30.0   16.666666666666668
-150.0   30.0   0.0
-150.0   60.0   0.0
-200.0   60.0   0.0
-150.0   60.0   16.666666666666668
-200.0   30.0   16.666666666666668
-200.0   60.0   16.666666666666668
-150.0   60.0   16.666666666666668
-200.0   60.0   0.0
-200.0   30.0   16.666666666666668
-150.0   60.0   16.666666666666668
-150.0   30.0   16.666666666666668
-150.0   30.0   0.0
-200.0   30.0   16.666666666666668
-150.0   60.0   16.666666666666668
-150.0   30.0   0.0
-200.0   60.0   0.0
-200.0   30.0   16.666666666666668
-150.0   30.0   16.666666666666668
-200.0   60.0   16.666666666666668
-200.0   30.0   33.333333333333336
-150.0   30.0   16.666666666666668
-150.0   60.0   16.666666666666668
-200.0   60.0   16.666666666666668
-150.0   60.0   33.333333333333336
-200.0   30.0   33.333333333333336
-200.0   60.0   33.333333333333336
-150.0   60.0   33.333333333333336
-200.0   60.0   16.666666666666668
-200.0   30.0   33.333333333333336
-150.0   60.0   33.333333333333336
-150.0   30.0   33.333333333333336
-150.0   30.0   16.666666666666668
-200.0   30.0   33.333333333333336
-150.0   60.0   33.333333333333336
-150.0   30.0   16.666666666666668
-200.0   60.0   16.666666666666668
-200.0   30.0   33.333333333333336
-150.0   30.0   33.333333333333336
-200.0   60.0   33.333333333333336
-200.0   30.0   50.0
-150.0   30.0   33.333333333333336
-150.0   60.0   33.333333333333336
-200.0   60.0   33.333333333333336
-150.0   60.0   50.0
-200.0   30.0   50.0
-200.0   60.0   50.0
-150.0   60.0   50.0
-200.0   60.0   33.333333333333336
-200.0   30.0   50.0
-150.0   60.0   50.0
-150.0   30.0   50.0
-150.0   30.0   33.333333333333336
-200.0   30.0   50.0
-150.0   60.0   50.0
-150.0   30.0   33.333333333333336
-200.0   60.0   33.333333333333336
-200.0   60.0   0.0
-150.0   60.0   0.0
-200.0   90.0   0.0
-200.0   60.0   16.666666666666668
-150.0   60.0   0.0
-150.0   90.0   0.0
-200.0   90.0   0.0
-150.0   90.0   16.666666666666668
-200.0   60.0   16.666666666666668
-200.0   90.0   16.666666666666668
-150.0   90.0   16.666666666666668
-200.0   90.0   0.0
-200.0   60.0   16.666666666666668
-150.0   90.0   16.666666666666668
-150.0   60.0   16.666666666666668
-150.0   60.0   0.0
-200.0   60.0   16.666666666666668
-150.0   90.0   16.666666666666668
-150.0   60.0   0.0
-200.0   90.0   0.0
-200.0   60.0   16.666666666666668
-150.0   60.0   16.666666666666668
-200.0   90.0   16.666666666666668
-200.0   60.0   33.333333333333336
-150.0   60.0   16.666666666666668
-150.0   90.0   16.666666666666668
-200.0   90.0   16.666666666666668
-150.0   90.0   33.333333333333336
-200.0   60.0   33.333333333333336
-200.0   90.0   33.333333333333336
-150.0   90.0   33.333333333333336
-200.0   90.0   16.666666666666668
-200.0   60.0   33.333333333333336
-150.0   90.0   33.333333333333336
-150.0   60.0   33.333333333333336
-150.0   60.0   16.666666666666668
-200.0   60.0   33.333333333333336
-150.0   90.0   33.333333333333336
-150.0   60.0   16.666666666666668
-200.0   90.0   16.666666666666668
-200.0   60.0   33.333333333333336
-150.0   60.0   33.333333333333336
-200.0   90.0   33.333333333333336
-200.0   60.0   50.0
-150.0   60.0   33.333333333333336
-150.0   90.0   33.333333333333336
-200.0   90.0   33.333333333333336
-150.0   90.0   50.0
-200.0   60.0   50.0
-200.0   90.0   50.0
-150.0   90.0   50.0
-200.0   90.0   33.333333333333336
-200.0   60.0   50.0
-150.0   90.0   50.0
-150.0   60.0   50.0
-150.0   60.0   33.333333333333336
-200.0   60.0   50.0
-150.0   90.0   50.0
-150.0   60.0   33.333333333333336
-200.0   90.0   33.333333333333336
-200.0   90.0   0.0
-150.0   90.0   0.0
-200.0   120.0   0.0
-200.0   90.0   16.666666666666668
-150.0   90.0   0.0
-150.0   120.0   0.0
-200.0   120.0   0.0
-150.0   120.0   16.666666666666668
-200.0   90.0   16.666666666666668
-200.0   120.0   16.666666666666668
-150.0   120.0   16.666666666666668
-200.0   120.0   0.0
-200.0   90.0   16.666666666666668
-150.0   120.0   16.666666666666668
-150.0   90.0   16.666666666666668
-150.0   90.0   0.0
-200.0   90.0   16.666666666666668
-150.0   120.0   16.666666666666668
-150.0   90.0   0.0
-200.0   120.0   0.0
-200.0   90.0   16.666666666666668
-150.0   90.0   16.666666666666668
-200.0   120.0   16.666666666666668
-200.0   90.0   33.333333333333336
-150.0   90.0   16.666666666666668
-150.0   120.0   16.666666666666668
-200.0   120.0   16.666666666666668
-150.0   120.0   33.333333333333336
-200.0   90.0   33.333333333333336
-200.0   120.0   33.333333333333336
-150.0   120.0   33.333333333333336
-200.0   120.0   16.666666666666668
-200.0   90.0   33.333333333333336
-150.0   120.0   33.333333333333336
-150.0   90.0   33.333333333333336
-150.0   90.0   16.666666666666668
-200.0   90.0   33.333333333333336
-150.0   120.0   33.333333333333336
-150.0   90.0   16.666666666666668
-200.0   120.0   16.666666666666668
-200.0   90.0   33.333333333333336
-150.0   90.0   33.333333333333336
-200.0   120.0   33.333333333333336
-200.0   90.0   50.0
-150.0   90.0   33.333333333333336
-150.0   120.0   33.333333333333336
-200.0   120.0   33.333333333333336
-150.0   120.0   50.0
-200.0   90.0   50.0
-200.0   120.0   50.0
-150.0   120.0   50.0
-200.0   120.0   33.333333333333336
-200.0   90.0   50.0
-150.0   120.0   50.0
-150.0   90.0   50.0
-150.0   90.0   33.333333333333336
-200.0   90.0   50.0
-150.0   120.0   50.0
-150.0   90.0   33.333333333333336
-200.0   120.0   33.333333333333336
-200.0   120.0   0.0
-150.0   120.0   0.0
-200.0   150.0   0.0
-200.0   120.0   16.666666666666668
-150.0   120.0   0.0
-150.0   150.0   0.0
-200.0   150.0   0.0
-150.0   150.0   16.666666666666668
-200.0   120.0   16.666666666666668
-200.0   150.0   16.666666666666668
-150.0   150.0   16.666666666666668
-200.0   150.0   0.0
-200.0   120.0   16.666666666666668
-150.0   150.0   16.666666666666668
-150.0   120.0   16.666666666666668
-150.0   120.0   0.0
-200.0   120.0   16.666666666666668
-150.0   150.0   16.666666666666668
-150.0   120.0   0.0
-200.0   150.0   0.0
-200.0   120.0   16.666666666666668
-150.0   120.0   16.666666666666668
-200.0   150.0   16.666666666666668
-200.0   120.0   33.333333333333336
-150.0   120.0   16.666666666666668
-150.0   150.0   16.666666666666668
-200.0   150.0   16.666666666666668
-150.0   150.0   33.333333333333336
-200.0   120.0   33.333333333333336
-200.0   150.0   33.333333333333336
-150.0   150.0   33.333333333333336
-200.0   150.0   16.666666666666668
-200.0   120.0   33.333333333333336
-150.0   150.0   33.333333333333336
-150.0   120.0   33.333333333333336
-150.0   120.0   16.666666666666668
-200.0   120.0   33.333333333333336
-150.0   150.0   33.333333333333336
-150.0   120.0   16.666666666666668
-200.0   150.0   16.666666666666668
-200.0   120.0   33.333333333333336
-150.0   120.0   33.333333333333336
-200.0   150.0   33.333333333333336
-200.0   120.0   50.0
-150.0   120.0   33.333333333333336
-150.0   150.0   33.333333333333336
-200.0   150.0   33.333333333333336
-150.0   150.0   50.0
-200.0   120.0   50.0
-200.0   150.0   50.0
-150.0   150.0   50.0
-200.0   150.0   33.333333333333336
-200.0   120.0   50.0
-150.0   150.0   50.0
-150.0   120.0   50.0
-150.0   120.0   33.333333333333336
-200.0   120.0   50.0
-150.0   150.0   50.0
-150.0   120.0   33.333333333333336
-200.0   150.0   33.333333333333336
-150.0   0.0   0.0
-100.0   0.0   0.0
-150.0   30.0   0.0
-150.0   0.0   16.666666666666668
-100.0   0.0   0.0
-100.0   30.0   0.0
-150.0   30.0   0.0
-100.0   30.0   16.666666666666668
-150.0   0.0   16.666666666666668
-150.0   30.0   16.666666666666668
-100.0   30.0   16.666666666666668
-150.0   30.0   0.0
-150.0   0.0   16.666666666666668
-100.0   30.0   16.666666666666668
-100.0   0.0   16.666666666666668
-100.0   0.0   0.0
-150.0   0.0   16.666666666666668
-100.0   30.0   16.666666666666668
-100.0   0.0   0.0
-150.0   30.0   0.0
-150.0   0.0   16.666666666666668
-100.0   0.0   16.666666666666668
-150.0   30.0   16.666666666666668
-150.0   0.0   33.333333333333336
-100.0   0.0   16.666666666666668
-100.0   30.0   16.666666666666668
-150.0   30.0   16.666666666666668
-100.0   30.0   33.333333333333336
-150.0   0.0   33.333333333333336
-150.0   30.0   33.333333333333336
-100.0   30.0   33.333333333333336
-150.0   30.0   16.666666666666668
-150.0   0.0   33.333333333333336
-100.0   30.0   33.333333333333336
-100.0   0.0   33.333333333333336
-100.0   0.0   16.666666666666668
-150.0   0.0   33.333333333333336
-100.0   30.0   33.333333333333336
-100.0   0.0   16.666666666666668
-150.0   30.0   16.666666666666668
-150.0   0.0   33.333333333333336
-100.0   0.0   33.333333333333336
-150.0   30.0   33.333333333333336
-150.0   0.0   50.0
-100.0   0.0   33.333333333333336
-100.0   30.0   33.333333333333336
-150.0   30.0   33.333333333333336
-100.0   30.0   50.0
-150.0   0.0   50.0
-150.0   30.0   50.0
-100.0   30.0   50.0
-150.0   30.0   33.333333333333336
-150.0   0.0   50.0
-100.0   30.0   50.0
-100.0   0.0   50.0
-100.0   0.0   33.333333333333336
-150.0   0.0   50.0
-100.0   30.0   50.0
-100.0   0.0   33.333333333333336
-150.0   30.0   33.333333333333336
-150.0   30.0   0.0
-100.0   30.0   0.0
-150.0   60.0   0.0
-150.0   30.0   16.666666666666668
-100.0   30.0   0.0
-100.0   60.0   0.0
-150.0   60.0   0.0
-100.0   60.0   16.666666666666668
-150.0   30.0   16.666666666666668
-150.0   60.0   16.666666666666668
-100.0   60.0   16.666666666666668
-150.0   60.0   0.0
-150.0   30.0   16.666666666666668
-100.0   60.0   16.666666666666668
-100.0   30.0   16.666666666666668
-100.0   30.0   0.0
-150.0   30.0   16.666666666666668
-100.0   60.0   16.666666666666668
-100.0   30.0   0.0
-150.0   60.0   0.0
-150.0   30.0   16.666666666666668
-100.0   30.0   16.666666666666668
-150.0   60.0   16.666666666666668
-150.0   30.0   33.333333333333336
-100.0   30.0   16.666666666666668
-100.0   60.0   16.666666666666668
-150.0   60.0   16.666666666666668
-100.0   60.0   33.333333333333336
-150.0   30.0   33.333333333333336
-150.0   60.0   33.333333333333336
-100.0   60.0   33.333333333333336
-150.0   60.0   16.666666666666668
-150.0   30.0   33.333333333333336
-100.0   60.0   33.333333333333336
-100.0   30.0   33.333333333333336
-100.0   30.0   16.666666666666668
-150.0   30.0   33.333333333333336
-100.0   60.0   33.333333333333336
-100.0   30.0   16.666666666666668
-150.0   60.0   16.666666666666668
-150.0   30.0   33.333333333333336
-100.0   30.0   33.333333333333336
-150.0   60.0   33.333333333333336
-150.0   30.0   50.0
-100.0   30.0   33.333333333333336
-100.0   60.0   33.333333333333336
-150.0   60.0   33.333333333333336
-100.0   60.0   50.0
-150.0   30.0   50.0
-150.0   60.0   50.0
-100.0   60.0   50.0
-150.0   60.0   33.333333333333336
-150.0   30.0   50.0
-100.0   60.0   50.0
-100.0   30.0   50.0
-100.0   30.0   33.333333333333336
-150.0   30.0   50.0
-100.0   60.0   50.0
-100.0   30.0   33.333333333333336
-150.0   60.0   33.333333333333336
-150.0   60.0   0.0
-100.0   60.0   0.0
-150.0   90.0   0.0
-150.0   60.0   16.666666666666668
-100.0   60.0   0.0
-100.0   90.0   0.0
-150.0   90.0   0.0
-100.0   90.0   16.666666666666668
-150.0   60.0   16.666666666666668
-150.0   90.0   16.666666666666668
-100.0   90.0   16.666666666666668
-150.0   90.0   0.0
-150.0   60.0   16.666666666666668
-100.0   90.0   16.666666666666668
-100.0   60.0   16.666666666666668
-100.0   60.0   0.0
-150.0   60.0   16.666666666666668
-100.0   90.0   16.666666666666668
-100.0   60.0   0.0
-150.0   90.0   0.0
-150.0   60.0   16.666666666666668
-100.0   60.0   16.666666666666668
-150.0   90.0   16.666666666666668
-150.0   60.0   33.333333333333336
-100.0   60.0   16.666666666666668
-100.0   90.0   16.666666666666668
-150.0   90.0   16.666666666666668
-100.0   90.0   33.333333333333336
-150.0   60.0   33.333333333333336
-150.0   90.0   33.333333333333336
-100.0   90.0   33.333333333333336
-150.0   90.0   16.666666666666668
-150.0   60.0   33.333333333333336
-100.0   90.0   33.333333333333336
-100.0   60.0   33.333333333333336
-100.0   60.0   16.666666666666668
-150.0   60.0   33.333333333333336
-100.0   90.0   33.333333333333336
-100.0   60.0   16.666666666666668
-150.0   90.0   16.666666666666668
-150.0   60.0   33.333333333333336
-100.0   60.0   33.333333333333336
-150.0   90.0   33.333333333333336
-150.0   60.0   50.0
-100.0   60.0   33.333333333333336
-100.0   90.0   33.333333333333336
-150.0   90.0   33.333333333333336
-100.0   90.0   50.0
-150.0   60.0   50.0
-150.0   90.0   50.0
-100.0   90.0   50.0
-150.0   90.0   33.333333333333336
-150.0   60.0   50.0
-100.0   90.0   50.0
-100.0   60.0   50.0
-100.0   60.0   33.333333333333336
-150.0   60.0   50.0
-100.0   90.0   50.0
-100.0   60.0   33.333333333333336
-150.0   90.0   33.333333333333336
-150.0   90.0   0.0
-100.0   90.0   0.0
-150.0   120.0   0.0
-150.0   90.0   16.666666666666668
-100.0   90.0   0.0
-100.0   120.0   0.0
-150.0   120.0   0.0
-100.0   120.0   16.666666666666668
-150.0   90.0   16.666666666666668
-150.0   120.0   16.666666666666668
-100.0   120.0   16.666666666666668
-150.0   120.0   0.0
-150.0   90.0   16.666666666666668
-100.0   120.0   16.666666666666668
-100.0   90.0   16.666666666666668
-100.0   90.0   0.0
-150.0   90.0   16.666666666666668
-100.0   120.0   16.666666666666668
-100.0   90.0   0.0
-150.0   120.0   0.0
-150.0   90.0   16.666666666666668
-100.0   90.0   16.666666666666668
-150.0   120.0   16.666666666666668
-150.0   90.0   33.333333333333336
-100.0   90.0   16.666666666666668
-100.0   120.0   16.666666666666668
-150.0   120.0   16.666666666666668
-100.0   120.0   33.333333333333336
-150.0   90.0   33.333333333333336
-150.0   120.0   33.333333333333336
-100.0   120.0   33.333333333333336
-150.0   120.0   16.666666666666668
-150.0   90.0   33.333333333333336
-100.0   120.0   33.333333333333336
-100.0   90.0   33.333333333333336
-100.0   90.0   16.666666666666668
-150.0   90.0   33.333333333333336
-100.0   120.0   33.333333333333336
-100.0   90.0   16.666666666666668
-150.0   120.0   16.666666666666668
-150.0   90.0   33.333333333333336
-100.0   90.0   33.333333333333336
-150.0   120.0   33.333333333333336
-150.0   90.0   50.0
-100.0   90.0   33.333333333333336
-100.0   120.0   33.333333333333336
-150.0   120.0   33.333333333333336
-100.0   120.0   50.0
-150.0   90.0   50.0
-150.0   120.0   50.0
-100.0   120.0   50.0
-150.0   120.0   33.333333333333336
-150.0   90.0   50.0
-100.0   120.0   50.0
-100.0   90.0   50.0
-100.0   90.0   33.333333333333336
-150.0   90.0   50.0
-100.0   120.0   50.0
-100.0   90.0   33.333333333333336
-150.0   120.0   33.333333333333336
-150.0   120.0   0.0
-100.0   120.0   0.0
-150.0   150.0   0.0
-150.0   120.0   16.666666666666668
-100.0   120.0   0.0
-100.0   150.0   0.0
-150.0   150.0   0.0
-100.0   150.0   16.666666666666668
-150.0   120.0   16.666666666666668
-150.0   150.0   16.666666666666668
-100.0   150.0   16.666666666666668
-150.0   150.0   0.0
-150.0   120.0   16.666666666666668
-100.0   150.0   16.666666666666668
-100.0   120.0   16.666666666666668
-100.0   120.0   0.0
-150.0   120.0   16.666666666666668
-100.0   150.0   16.666666666666668
-100.0   120.0   0.0
-150.0   150.0   0.0
-150.0   120.0   16.666666666666668
-100.0   120.0   16.666666666666668
-150.0   150.0   16.666666666666668
-150.0   120.0   33.333333333333336
-100.0   120.0   16.666666666666668
-100.0   150.0   16.666666666666668
-150.0   150.0   16.666666666666668
-100.0   150.0   33.333333333333336
-150.0   120.0   33.333333333333336
-150.0   150.0   33.333333333333336
-100.0   150.0   33.333333333333336
-150.0   150.0   16.666666666666668
-150.0   120.0   33.333333333333336
-100.0   150.0   33.333333333333336
-100.0   120.0   33.333333333333336
-100.0   120.0   16.666666666666668
-150.0   120.0   33.333333333333336
-100.0   150.0   33.333333333333336
-100.0   120.0   16.666666666666668
-150.0   150.0   16.666666666666668
-150.0   120.0   33.333333333333336
-100.0   120.0   33.333333333333336
-150.0   150.0   33.333333333333336
-150.0   120.0   50.0
-100.0   120.0   33.333333333333336
-100.0   150.0   33.333333333333336
-150.0   150.0   33.333333333333336
-100.0   150.0   50.0
-150.0   120.0   50.0
-150.0   150.0   50.0
-100.0   150.0   50.0
-150.0   150.0   33.333333333333336
-150.0   120.0   50.0
-100.0   150.0   50.0
-100.0   120.0   50.0
-100.0   120.0   33.333333333333336
-150.0   120.0   50.0
-100.0   150.0   50.0
-100.0   120.0   33.333333333333336
-150.0   150.0   33.333333333333336
-100.0   0.0   0.0
-50.0   0.0   0.0
-100.0   30.0   0.0
-100.0   0.0   16.666666666666668
-50.0   0.0   0.0
-50.0   30.0   0.0
-100.0   30.0   0.0
-50.0   30.0   16.666666666666668
-100.0   0.0   16.666666666666668
-100.0   30.0   16.666666666666668
-50.0   30.0   16.666666666666668
-100.0   30.0   0.0
-100.0   0.0   16.666666666666668
-50.0   30.0   16.666666666666668
-50.0   0.0   16.666666666666668
-50.0   0.0   0.0
-100.0   0.0   16.666666666666668
-50.0   30.0   16.666666666666668
-50.0   0.0   0.0
-100.0   30.0   0.0
-100.0   0.0   16.666666666666668
-50.0   0.0   16.666666666666668
-100.0   30.0   16.666666666666668
-100.0   0.0   33.333333333333336
-50.0   0.0   16.666666666666668
-50.0   30.0   16.666666666666668
-100.0   30.0   16.666666666666668
-50.0   30.0   33.333333333333336
-100.0   0.0   33.333333333333336
-100.0   30.0   33.333333333333336
-50.0   30.0   33.333333333333336
-100.0   30.0   16.666666666666668
-100.0   0.0   33.333333333333336
-50.0   30.0   33.333333333333336
-50.0   0.0   33.333333333333336
-50.0   0.0   16.666666666666668
-100.0   0.0   33.333333333333336
-50.0   30.0   33.333333333333336
-50.0   0.0   16.666666666666668
-100.0   30.0   16.666666666666668
-100.0   0.0   33.333333333333336
-50.0   0.0   33.333333333333336
-100.0   30.0   33.333333333333336
-100.0   0.0   50.0
-50.0   0.0   33.333333333333336
-50.0   30.0   33.333333333333336
-100.0   30.0   33.333333333333336
-50.0   30.0   50.0
-100.0   0.0   50.0
-100.0   30.0   50.0
-50.0   30.0   50.0
-100.0   30.0   33.333333333333336
-100.0   0.0   50.0
-50.0   30.0   50.0
-50.0   0.0   50.0
-50.0   0.0   33.333333333333336
-100.0   0.0   50.0
-50.0   30.0   50.0
-50.0   0.0   33.333333333333336
-100.0   30.0   33.333333333333336
-100.0   30.0   0.0
-50.0   30.0   0.0
-100.0   60.0   0.0
-100.0   30.0   16.666666666666668
-50.0   30.0   0.0
-50.0   60.0   0.0
-100.0   60.0   0.0
-50.0   60.0   16.666666666666668
-100.0   30.0   16.666666666666668
-100.0   60.0   16.666666666666668
-50.0   60.0   16.666666666666668
-100.0   60.0   0.0
-100.0   30.0   16.666666666666668
-50.0   60.0   16.666666666666668
-50.0   30.0   16.666666666666668
-50.0   30.0   0.0
-100.0   30.0   16.666666666666668
-50.0   60.0   16.666666666666668
-50.0   30.0   0.0
-100.0   60.0   0.0
-100.0   30.0   16.666666666666668
-50.0   30.0   16.666666666666668
-100.0   60.0   16.666666666666668
-100.0   30.0   33.333333333333336
-50.0   30.0   16.666666666666668
-50.0   60.0   16.666666666666668
-100.0   60.0   16.666666666666668
-50.0   60.0   33.333333333333336
-100.0   30.0   33.333333333333336
-100.0   60.0   33.333333333333336
-50.0   60.0   33.333333333333336
-100.0   60.0   16.666666666666668
-100.0   30.0   33.333333333333336
-50.0   60.0   33.333333333333336
-50.0   30.0   33.333333333333336
-50.0   30.0   16.666666666666668
-100.0   30.0   33.333333333333336
-50.0   60.0   33.333333333333336
-50.0   30.0   16.666666666666668
-100.0   60.0   16.666666666666668
-100.0   30.0   33.333333333333336
-50.0   30.0   33.333333333333336
-100.0   60.0   33.333333333333336
-100.0   30.0   50.0
-50.0   30.0   33.333333333333336
-50.0   60.0   33.333333333333336
-100.0   60.0   33.333333333333336
-50.0   60.0   50.0
-100.0   30.0   50.0
-100.0   60.0   50.0
-50.0   60.0   50.0
-100.0   60.0   33.333333333333336
-100.0   30.0   50.0
-50.0   60.0   50.0
-50.0   30.0   50.0
-50.0   30.0   33.333333333333336
-100.0   30.0   50.0
-50.0   60.0   50.0
-50.0   30.0   33.333333333333336
-100.0   60.0   33.333333333333336
-100.0   60.0   0.0
-50.0   60.0   0.0
-100.0   90.0   0.0
-100.0   60.0   16.666666666666668
-50.0   60.0   0.0
-50.0   90.0   0.0
-100.0   90.0   0.0
-50.0   90.0   16.666666666666668
-100.0   60.0   16.666666666666668
-100.0   90.0   16.666666666666668
-50.0   90.0   16.666666666666668
-100.0   90.0   0.0
-100.0   60.0   16.666666666666668
-50.0   90.0   16.666666666666668
-50.0   60.0   16.666666666666668
-50.0   60.0   0.0
-100.0   60.0   16.666666666666668
-50.0   90.0   16.666666666666668
-50.0   60.0   0.0
-100.0   90.0   0.0
-100.0   60.0   16.666666666666668
-50.0   60.0   16.666666666666668
-100.0   90.0   16.666666666666668
-100.0   60.0   33.333333333333336
-50.0   60.0   16.666666666666668
-50.0   90.0   16.666666666666668
-100.0   90.0   16.666666666666668
-50.0   90.0   33.333333333333336
-100.0   60.0   33.333333333333336
-100.0   90.0   33.333333333333336
-50.0   90.0   33.333333333333336
-100.0   90.0   16.666666666666668
-100.0   60.0   33.333333333333336
-50.0   90.0   33.333333333333336
-50.0   60.0   33.333333333333336
-50.0   60.0   16.666666666666668
-100.0   60.0   33.333333333333336
-50.0   90.0   33.333333333333336
-50.0   60.0   16.666666666666668
-100.0   90.0   16.666666666666668
-100.0   60.0   33.333333333333336
-50.0   60.0   33.333333333333336
-100.0   90.0   33.333333333333336
-100.0   60.0   50.0
-50.0   60.0   33.333333333333336
-50.0   90.0   33.333333333333336
-100.0   90.0   33.333333333333336
-50.0   90.0   50.0
-100.0   60.0   50.0
-100.0   90.0   50.0
-50.0   90.0   50.0
-100.0   90.0   33.333333333333336
-100.0   60.0   50.0
-50.0   90.0   50.0
-50.0   60.0   50.0
-50.0   60.0   33.333333333333336
-100.0   60.0   50.0
-50.0   90.0   50.0
-50.0   60.0   33.333333333333336
-100.0   90.0   33.333333333333336
-100.0   90.0   0.0
-50.0   90.0   0.0
-100.0   120.0   0.0
-100.0   90.0   16.666666666666668
-50.0   90.0   0.0
-50.0   120.0   0.0
-100.0   120.0   0.0
-50.0   120.0   16.666666666666668
-100.0   90.0   16.666666666666668
-100.0   120.0   16.666666666666668
-50.0   120.0   16.666666666666668
-100.0   120.0   0.0
-100.0   90.0   16.666666666666668
-50.0   120.0   16.666666666666668
-50.0   90.0   16.666666666666668
-50.0   90.0   0.0
-100.0   90.0   16.666666666666668
-50.0   120.0   16.666666666666668
-50.0   90.0   0.0
-100.0   120.0   0.0
-100.0   90.0   16.666666666666668
-50.0   90.0   16.666666666666668
-100.0   120.0   16.666666666666668
-100.0   90.0   33.333333333333336
-50.0   90.0   16.666666666666668
-50.0   120.0   16.666666666666668
-100.0   120.0   16.666666666666668
-50.0   120.0   33.333333333333336
-100.0   90.0   33.333333333333336
-100.0   120.0   33.333333333333336
-50.0   120.0   33.333333333333336
-100.0   120.0   16.666666666666668
-100.0   90.0   33.333333333333336
-50.0   120.0   33.333333333333336
-50.0   90.0   33.333333333333336
-50.0   90.0   16.666666666666668
-100.0   90.0   33.333333333333336
-50.0   120.0   33.333333333333336
-50.0   90.0   16.666666666666668
-100.0   120.0   16.666666666666668
-100.0   90.0   33.333333333333336
-50.0   90.0   33.333333333333336
-100.0   120.0   33.333333333333336
-100.0   90.0   50.0
-50.0   90.0   33.333333333333336
-50.0   120.0   33.333333333333336
-100.0   120.0   33.333333333333336
-50.0   120.0   50.0
-100.0   90.0   50.0
-100.0   120.0   50.0
-50.0   120.0   50.0
-100.0   120.0   33.333333333333336
-100.0   90.0   50.0
-50.0   120.0   50.0
-50.0   90.0   50.0
-50.0   90.0   33.333333333333336
-100.0   90.0   50.0
-50.0   120.0   50.0
-50.0   90.0   33.333333333333336
-100.0   120.0   33.333333333333336
-100.0   120.0   0.0
-50.0   120.0   0.0
-100.0   150.0   0.0
-100.0   120.0   16.666666666666668
-50.0   120.0   0.0
-50.0   150.0   0.0
-100.0   150.0   0.0
-50.0   150.0   16.666666666666668
-100.0   120.0   16.666666666666668
-100.0   150.0   16.666666666666668
-50.0   150.0   16.666666666666668
-100.0   150.0   0.0
-100.0   120.0   16.666666666666668
-50.0   150.0   16.666666666666668
-50.0   120.0   16.666666666666668
-50.0   120.0   0.0
-100.0   120.0   16.666666666666668
-50.0   150.0   16.666666666666668
-50.0   120.0   0.0
-100.0   150.0   0.0
-100.0   120.0   16.666666666666668
-50.0   120.0   16.666666666666668
-100.0   150.0   16.666666666666668
-100.0   120.0   33.333333333333336
-50.0   120.0   16.666666666666668
-50.0   150.0   16.666666666666668
-100.0   150.0   16.666666666666668
-50.0   150.0   33.333333333333336
-100.0   120.0   33.333333333333336
-100.0   150.0   33.333333333333336
-50.0   150.0   33.333333333333336
-100.0   150.0   16.666666666666668
-100.0   120.0   33.333333333333336
-50.0   150.0   33.333333333333336
-50.0   120.0   33.333333333333336
-50.0   120.0   16.666666666666668
-100.0   120.0   33.333333333333336
-50.0   150.0   33.333333333333336
-50.0   120.0   16.666666666666668
-100.0   150.0   16.666666666666668
-100.0   120.0   33.333333333333336
-50.0   120.0   33.333333333333336
-100.0   150.0   33.333333333333336
-100.0   120.0   50.0
-50.0   120.0   33.333333333333336
-50.0   150.0   33.333333333333336
-100.0   150.0   33.333333333333336
-50.0   150.0   50.0
-100.0   120.0   50.0
-100.0   150.0   50.0
-50.0   150.0   50.0
-100.0   150.0   33.333333333333336
-100.0   120.0   50.0
-50.0   150.0   50.0
-50.0   120.0   50.0
-50.0   120.0   33.333333333333336
-100.0   120.0   50.0
-50.0   150.0   50.0
-50.0   120.0   33.333333333333336
-100.0   150.0   33.333333333333336
-50.0   0.0   0.0
0.0   0.0   0.0
-50.0   30.0   0.0
-50.0   0.0   16.666666666666668
0.0   0.0   0.0
0.0   30.0   0.0
-50.0   30.0   0.0
0.0   30.0   16.666666666666668
-50.0   0.0   16.666666666666668
-50.0   30.0   16.666666666666668
0.0   30.0   16.666666666666668
-50.0   30.0   0.0
-50.0   0.0   16.666666666666668
0.0   30.0   16.666666666666668
0.0   0.0   16.666666666666668
0.0   0.0   0.0
-50.0   0.0   16.666666666666668
0.0   30.0   16.666666666666668
0.0   0.0   0.0
-50.0   30.0   0.0
-50.0   0.0   16.666666666666668
0.0   0.0   16.666666666666668
-50.0   30.0   16.666666666666668
-50.0   0.0   33.333333333333336
0.0   0.0   16.666666666666668
0.0   30.0   16.666666666666668
-50.0   30.0   16.666666666666668
0.0   30.0   33.333333333333336
-50.0   0.0   33.333333333333336
-50.0   30.0   33.333333333333336
0.0   30.0   33.333333333333336
-50.0   30.0   16.666666666666668
-50.0   0.0   33.333333333333336
0.0   30.0   33.333333333333336
0.0   0.0   33.333333333333336
0.0   0.0   16.666666666666668
-50.0   0.0   33.333333333333336
0.0   30.0   33.333333333333336
0.0   0.0   16.666666666666668
-50.0   30.0   16.666666666666668
-50.0   0.0   33.333333333333336
0.0   0.0   33.333333333333336
-50.0   30.0   33.333333333333336
-50.0   0.0   50.0
0.0   0.0   33.333333333333336
0.0   30.0   33.333333333333336
-50.0   30.0   33.333333333333336
0.0   30.0   50.0
-50.0   0.0   50.0
-50.0   30.0   50.0
0.0   30.0   50.0
-50.0   30.0   33.333333333333336
-50.0   0.0   50.0
0.0   30.0   50.0
0.0   0.0   50.0
0.0   0.0   33.333333333333336
-50.0   0.0   50.0
0.0   30.0   50.0
0.0   0.0   33.333333333333336
-50.0   30.0   33.333333333333336
-50.0   30.0   0.0
0.0   30.0   0.0
-50.0   60.0   0.0
-50.0   30.0   16.666666666666668
0.0   30.0   0.0
0.0   60.0   0.0
-50.0   60.0   0.0
0.0   60.0   16.666666666666668
-50.0   30.0   16.666666666666668
-50.0   60.0   16.666666666666668
0.0   60.0   16.666666666666668
-50.0   60.0   0.0
-50.0   30.0   16.666666666666668
0.0   60.0   16.666666666666668
0.0   30.0   16.666666666666668
0.0   30.0   0.0
-50.0   30.0   16.666666666666668
0.0   60.0   16.666666666666668
0.0   30.0   0.0
-50.0   60.0   0.0
-50.0   30.0   16.666666666666668
0.0   30.0   16.666666666666668
-50.0   60.0   16.666666666666668
-50.0   30.0   33.333333333333336
0.0   30.0   16.666666666666668
0.0   60.0   16.666666666666668
-50.0   60.0   16.666666666666668
0.0   60.0   33.333333333333336
-50.0   30.0   33.333333333333336
-50.0   60.0   33.333333333333336
0.0   60.0   33.333333333333336
-50.0   60.0   16.666666666666668
-50.0   30.0   33.333333333333336
0.0   60.0   33.333333333333336
0.0   30.0   33.333333333333336
0.0   30.0   16.666666666666668
-50.0   30.0   33.333333333333336
0.0   60.0   33.333333333333336
0.0   30.0   16.666666666666668
-50.0   60.0   16.666666666666668
-50.0   30.0   33.333333333333336
0.0   30.0   33.333333333333336
-50.0   60.0   33.333333333333336
-50.0   30.0   50.0
0.0   30.0   33.333333333333336
0.0   60.0   33.333333333333336
-50.0   60.0   33.333333333333336
0.0   60.0   50.0
-50.0   30.0   50.0
-50.0   60.0   50.0
0.0   60.0   50.0
-50.0   60.0   33.333333333333336
-50.0   30.0   50.0
0.0   60.0   50.0
0.0   30.0   50.0
0.0   30.0   33.333333333333336
-50.0   30.0   50.0
0.0   60.0   50.0
0.0   30.0   33.333333333333336
-50.0   60.0   33.333333333333336
-50.0   60.0   0.0
0.0   60.0   0.0
-50.0   90.0   0.0
-50.0   60.0   16.666666666666668
0.0   60.0   0.0
0.0   90.0   0.0
-50.0   90.0   0.0
0.0   90.0   16.666666666666668
-50.0   60.0   16.666666666666668
-50.0   90.0   16.666666666666668
0.0   90.0   16.666666666666668
-50.0   90.0   0.0
-50.0   60.0   16.666666666666668
0.0   90.0   16.666666666666668
0.0   60.0   16.666666666666668
0.0   60.0   0.0
-50.0   60.0   16.666666666666668
0.0   90.0   16.666666666666668
0.0   60.0   0.0
-50.0   90.0   0.0
-50.0   60.0   16.666666666666668
0.0   60.0   16.666666666666668
-50.0   90.0   16.666666666666668
-50.0   60.0   33.333333333333336
0.0   60.0   16.666666666666668
0.0   90.0   16.666666666666668
-50.0   90.0   16.666666666666668
0.0   90.0   33.333333333333336
-50.0   60.0   33.333333333333336
-50.0   90.0   33.333333333333336
0.0   90.0   33.333333333333336
-50.0   90.0   16.666666666666668
-50.0   60.0   33.333333333333336
0.0   90.0   33.333333333333336
0.0   60.0   33.333333333333336
0.0   60.0   16.666666666666668
-50.0   60.0   33.333333333333336
0.0   90.0   33.333333333333336
0.0   60.0   16.666666666666668
-50.0   90.0   16.666666666666668
-50.0   60.0   33.333333333333336
0.0   60.0   33.333333333333336
-50.0   90.0   33.333333333333336
-50.0   60.0   50.0
0.0   60.0   33.333333333333336
0.0   90.0   33.333333333333336
-50.0   90.0   33.333333333333336
0.0   90.0   50.0
-50.0   60.0   50.0
-50.0   90.0   50.0
0.0   90.0   50.0
-50.0   90.0   33.333333333333336
-50.0   60.0   50.0
0.0   90.0   50.0
0.0   60.0   50.0
0.0   60.0   33.333333333333336
-50.0   60.0   50.0
0.0   90.0   50.0
0.0   60.0   33.333333333333336
-50.0   90.0   33.333333333333336
-50.0   90.0   0.0
0.0   90.0   0.0
-50.0   120.0   0.0
-50.0   90.0   16.666666666666668
0.0   90.0   0.0
0.0   120.0   0.0
-50.0   120.0   0.0
0.0   120.0   16.666666666666668
-50.0   90.0   16.666666666666668
-50.0   120.0   16.666666666666668
0.0   120.0   16.666666666666668
-50.0   120.0   0.0
-50.0   90.0   16.666666666666668
0.0   120.0   16.666666666666668
0.0   90.0   16.666666666666668
0.0   90.0   0.0
-50.0   90.0   16.666666666666668
0.0   120.0   16.666666666666668
0.0   90.0   0.0
-50.0   120.0   0.0
-50.0   90.0   16.666666666666668
0.0   90.0   16.666666666666668
-50.0   120.0   16.666666666666668
-50.0   90.0   33.333333333333336
0.0   90.0   16.666666666666668
0.0   120.0   16.666666666666668
-50.0   120.0   16.666666666666668
0.0   120.0   33.333333333333336
-50.0   90.0   33.333333333333336
-50.0   120.0   33.333333333333336
0.0   120.0   33.333333333333336
-50.0   120.0   16.666666666666668
-50.0   90.0   33.333333333333336
0.0   120.0   33.333333333333336
0.0   90.0   33.333333333333336
0.0   90.0   16.666666666666668
-50.0   90.0   33.333333333333336
0.0   120.0   33.333333333333336
0.0   90.0   16.666666666666668
-50.0   120.0   16.666666666666668
-50.0   90.0   33.333333333333336
0.0   90.0   33.333333333333336
-50.0   120.0   33.333333333333336
-50.0   90.0   50.0
0.0   90.0   33.333333333333336
0.0   120.0   33.333333333333336
-50.0   120.0   33.333333333333336
0.0   120.0   50.0
-50.0   90.0   50.0
-50.0   120.0   50.0
0.0   120.0   50.0
-50.0   120.0   33.333333333333336
-50.0   90.0   50.0
0.0   120.0   50.0
0.0   90.0   50.0
0.0   90.0   33.333333333333336
-50.0   90.0   50.0
0.0   120.0   50.0
0.0   90.0   33.333333333333336
-50.0   120.0   33.333333333333336
-50.0   120.0   0.0
0.0   120.0   0.0
-50.0   150.0   0.0
-50.0   120.0   16.666666666666668
0.0   120.0   0.0
0.0   150.0   0.0
-50.0   150.0   0.0
0.0   150.0   16.666666666666668
-50.0   120.0   16.666666666666668
-50.0   150.0   16.666666666666668
0.0   150.0   16.666666666666668
-50.0   150.0   0.0
-50.0   120.0   16.666666666666668
0.0   150.0   16.666666666666668
0.0   120.0   16.666666666666668
0.0   120.0   0.0
-50.0   120.0   16.666666666666668
0.0   150.0   16.666666666666668
0.0   120.0   0.0
-50.0   150.0   0.0
-50.0   120.0   16.666666666666668
0.0   120.0   16.666666666666668
-50.0   150.0   16.666666666666668
-50.0   120.0   33.333333333333336
0.0   120.0   16.666666666666668
0.0   150.0   16.666666666666668
-50.0   150.0   16.666666666666668
0.0   150.0   33.333333333333336
-50.0   120.0   33.333333333333336
-50.0   150.0   33.333333333333336
0.0   150.0   33.333333333333336
-50.0   150.0   16.666666666666668
-50.0   120.0   33.333333333333336
0.0   150.0   33.333333333333336
0.0   120.0   33.333333333333336
0.0   120.0   16.666666666666668
-50.0   120.0   33.333333333333336
0.0   150.0   33.333333333333336
0.0   120.0   16.666666666666668
-50.0   150.0   16.666666666666668
-50.0   120.0   33.333333333333336
0.0   120.0   33.333333333333336
-50.0   150.0   33.333333333333336
-50.0   120.0   50.0
0.0   120.0   33.333333333333336
0.0   150.0   33.333333333333336
-50.0   150.0   33.333333333333336
0.0   150.0   50.0
-50.0   120.0   50.0
-50.0   150.0   50.0
0.0   150.0   50.0
-50.0   150.0   33.333333333333336
-50.0   120.0   50.0
0.0   150.0   50.0
0.0   120.0   50.0
0.0   120.0   33.333333333333336
-50.0   120.0   50.0
0.0   150.0   50.0
0.0   120.0   33.333333333333336
-50.0   150.0   33.333333333333336
0.0   0.0   0.0
50.0   0.0   0.0
0.0   30.0   0.0
0.0   0.0   16.666666666666668
50.0   0.0   0.0
50.0   30.0   0.0
0.0   30.0   0.0
50.0   30.0   16.666666666666668
0.0   0.0   16.666666666666668
0.0   30.0   16.666666666666668
50.0   30.0   16.666666666666668
0.0   30.0   0.0
0.0   0.0   16.666666666666668
50.0   30.0   16.666666666666668
50.0   0.0   16.666666666666668
50.0   0.0   0.0
0.0   0.0   16.666666666666668
50.0   30.0   16.666666666666668
50.0   0.0   0.0
0.0   30.0   0.0
0.0   0.0   16.666666666666668
50.0   0.0   16.666666666666668
0.0   30.0   16.666666666666668
0.0   0.0   33.333333333333336
50.0   0.0   16.666666666666668
50.0   30.0   16.666666666666668
0.0   30.0   16.666666666666668
50.0   30.0   33.333333333333336
0.0   0.0   33.333333333333336
0.0   30.0   33.333333333333336
50.0   30.0   33.333333333333336
0.0   30.0   16.666666666666668
0.0   0.0   33.333333333333336
50.0   30.0   33.333333333333336
50.0   0.0   33.333333333333336
50.0   0.0   16.666666666666668
0.0   0.0   33.333333333333336
50.0   30.0   33.333333333333336
50.0   0.0   16.666666666666668
0.0   30.0   16.666666666666668
0.0   0.0   33.333333333333336
50.0   0.0   33.333333333333336
0.0   30.0   33.333333333333336
0.0   0.0   50.0
50.0   0.0   33.333333333333336
50.0   30.0   33.333333333333336
0.0   30.0   33.333333333333336
50.0   30.0   50.0
0.0   0.0   50.0
0.0   30.0   50.0
50.0   30.0   50.0
0.0   30.0   33.333333333333336
0.0   0.0   50.0
50.0   30.0   50.0
50.0   0.0   50.0
50.0   0.0   33.333333333333336
0.0   0.0   50.0
50.0   30.0   50.0
50.0   0.0   33.333333333333336
0.0   30.0   33.333333333333336
0.0   30.0   0.0
50.0   30.0   0.0
0.0   60.0   0.0
0.0   30.0   16.666666666666668
50.0   30.0   0.0
50.0   60.0   0.0
0.0   60.0   0.0
50.0   60.0   16.666666666666668
0.0   30.0   16.666666666666668
0.0   60.0   16.666666666666668
50.0   60.0   16.666666666666668
0.0   60.0   0.0
0.0   30.0   16.666666666666668
50.0   60.0   16.666666666666668
50.0   30.0   16.666666666666668
50.0   30.0   0.0
0.0   30.0   16.666666666666668
50.0   60.0   16.666666666666668
50.0   30.0   0.0
0.0   60.0   0.0
0.0   30.0   16.666666666666668
50.0   30.0   16.666666666666668
0.0   60.0   16.666666666666668
0.0   30.0   33.333333333333336
50.0   30.0   16.666666666666668
50.0   60.0   16.666666666666668
0.0   60.0   16.666666666666668
50.0   60.0   33.333333333333336
0.0   30.0   33.333333333333336
0.0   60.0   33.333333333333336
50.0   60.0   33.333333333333336
0.0   60.0   16.666666666666668
0.0   30.0   33.333333333333336
50.0   60.0   33.333333333333336
50.0   30.0   33.333333333333336
50.0   30.0   16.666666666666668
0.0   30.0   33.333333333333336
50.0   60.0   33.333333333333336
50.0   30.0   16.666666666666668
0.0   60.0   16.666666666666668
0.0   30.0   33.333333333333336
50.0   30.0   33.333333333333336
0.0   60.0   33.333333333333336
0.0   30.0   50.0
50.0   30.0   33.333333333333336
50.0   60.0   33.333333333333336
0.0   60.0   33.333333333333336
50.0   60.0   50.0
0.0   30.0   50.0
0.0   60.0   50.0
50.0   60.0   50.0
0.0   60.0   33.333333333333336
0.0   30.0   50.0
50.0   60.0   50.0
50.0   30.0   50.0
50.0   30.0   33.333333333333336
0.0   30.0   50.0
50.0   60.0   50.0
50.0   30.0   33.333333333333336
0.0   60.0   33.333333333333336
0.0   60.0   0.0
50.0   60.0   0.0
0.0   90.0   0.0
0.0   60.0   16.666666666666668
50.0   60.0   0.0
50.0   90.0   0.0
0.0   90.0   0.0
50.0   90.0   16.666666666666668
0.0   60.0   16.666666666666668
0.0   90.0   16.666666666666668
50.0   90.0   16.666666666666668
0.0   90.0   0.0
0.0   60.0   16.666666666666668
50.0   90.0   16.666666666666668
50.0   60.0   16.666666666666668
50.0   60.0   0.0
0.0   60.0   16.666666666666668
50.0   90.0   16.666666666666668
50.0   60.0   0.0
0.0   90.0   0.0
0.0   60.0   16.666666666666668
50.0   60.0   16.666666666666668
0.0   90.0   16.666666666666668
0.0   60.0   33.333333333333336
50.0   60.0   16.666666666666668
50.0   90.0   16.666666666666668
0.0   90.0   16.666666666666668
50.0   90.0   33.333333333333336
0.0   60.0   33.333333333333336
0.0   90.0   33.333333333333336
50.0   90.0   33.333333333333336
0.0   90.0   16.666666666666668
0.0   60.0   33.333333333333336
50.0   90.0   33.333333333333336
50.0   60.0   33.333333333333336
50.0   60.0   16.666666666666668
0.0   60.0   33.333333333333336
50.0   90.0   33.333333333333336
50.0   60.0   16.666666666666668
0.0   90.0   16.666666666666668
0.0   60.0   33.333333333333336
50.0   60.0   33.333333333333336
0.0   90.0   33.333333333333336
0.0   60.0   50.0
50.0   60.0   33.333333333333336
50.0   90.0   33.333333333333336
0.0   90.0   33.333333333333336
50.0   90.0   50.0
0.0   60.0   50.0
0.0   90.0   50.0
50.0   90.0   50.0
0.0   90.0   33.333333333333336
0.0   60.0   50.0
50.0   90.0   50.0
50.0   60.0   50.0
50.0   60.0   33.333333333333336
0.0   60.0   50.0
50.0   90.0   50.0
50.0   60.0   33.333333333333336
0.0   90.0   33.333333333333336
0.0   90.0   0.0
50.0   90.0   0.0
0.0   120.0   0.0
0.0   90.0   16.666666666666668
50.0   90.0   0.0
50.0   120.0   0.0
0.0   120.0   0.0
50.0   120.0   16.666666666666668
0.0   90.0   16.666666666666668
0.0   120.0   16.666666666666668
50.0   120.0   16.666666666666668
0.0   120.0   0.0
0.0   90.0   16.666666666666668
50.0   120.0   16.666666666666668
50.0   90.0   16.666666666666668
50.0   90.0   0.0
0.0   90.0   16.666666666666668
50.0   120.0   16.666666666666668
50.0   90.0   0.0
0.0   120.0   0.0
0.0   90.0   16.666666666666668
50.0   90.0   16.666666666666668
0.0   120.0   16.666666666666668
0.0   90.0   33.333333333333336
50.0   90.0   16.666666666666668
50.0   120.0   16.666666666666668
0.0   120.0   16.666666666666668
50.0   120.0   33.333333333333336
0.0   90.0   33.333333333333336
0.0   120.0   33.333333333333336
50.0   120.0   33.333333333333336
0.0   120.0   16.666666666666668
0.0   90.0   33.333333333333336
50.0   120.0   33.333333333333336
50.0   90.0   33.333333333333336
50.0   90.0   16.666666666666668
0.0   90.0   33.333333333333336
50.0   120.0   33.333333333333336
50.0   90.0   16.666666666666668
0.0   120.0   16.666666666666668
0.0   90.0   33.333333333333336
50.0   90.0   33.333333333333336
0.0   120.0   33.333333333333336
0.0   90.0   50.0
50.0   90.0   33.333333333333336
50.0   120.0   33.333333333333336
0.0   120.0   33.333333333333336
50.0   120.0   50.0
0.0   90.0   50.0
0.0   120.0   50.0
50.0   120.0   50.0
0.0   120.0   33.333333333333336
0.0   90.0   50.0
50.0   120.0   50.0
50.0   90.0   50.0
50.0   90.0   33.333333333333336
0.0   90.0   50.0
50.0   120.0   50.0
50.0   90.0   33.333333333333336
0.0   120.0   33.333333333333336
0.0   120.0   0.0
50.0   120.0   0.0
0.0   150.0   0.0
0.0   120.0   16.666666666666668
50.0   120.0   0.0
50.0   150.0   0.0
0.0   150.0   0.0
50.0   150.0   16.666666666666668
0.0   120.0   16.666666666666668
0.0   150.0   16.666666666666668
50.0   150.0   16.666666666666668
0.0   150.0   0.0
0.0   120.0   16.666666666666668
50.0   150.0   16.666666666666668
50.0   120.0   16.666666666666668
50.0   120.0   0.0
0.0   120.0   16.666666666666668
50.0   150.0   16.666666666666668
50.0   120.0   0.0
0.0   150.0   0.0
0.0   120.0   16.666666666666668
50.0   120.0   16.666666666666668
0.0   150.0   16.666666666666668
0.0   120.0   33.333333333333336
50.0   120.0   16.666666666666668
50.0   150.0   16.666666666666668
0.0   150.0   16.666666666666668
50.0   150.0   33.333333333333336
0.0   120.0   33.333333333333336
0.0   150.0   33.333333333333336
50.0   150.0   33.333333333333336
0.0   150.0   16.666666666666668
0.0   120.0   33.333333333333336
50.0   150.0   33.333333333333336
50.0   120.0   33.333333333333336
50.0   120.0   16.666666666666668
0.0   120.0   33.333333333333336
50.0   150.0   33.333333333333336
50.0   120.0   16.666666666666668
0.0   150.0   16.666666666666668
0.0   120.0   33.333333333333336
50.0   120.0   33.333333333333336
0.0   150.0   33.333333333333336
0.0   120.0   50.0
50.0   120.0   33.333333333333336
50.0   150.0   33.333333333333336
0.0   150.0   33.333333333333336
50.0   150.0   50.0
0.0   120.0   50.0
0.0   150.0   50.0
50.0   150.0   50.0
0.0   150.0   33.333333333333336
0.0   120.0   50.0
50.0   150.0   50.0
50.0   120.0   50.0
50.0   120.0   33.333333333333336
0.0   120.0   50.0
50.0   150.0   50.0
50.0   120.0   33.333333333333336
0.0   150.0   33.333333333333336
50.0   0.0   0.0
100.0   0.0   0.0
50.0   30.0   0.0
50.0   0.0   16.666666666666668
100.0   0.0   0.0
100.0   30.0   0.0
50.0   30.0   0.0
100.0   30.0   16.666666666666668
50.0   0.0   16.666666666666668
50.0   30.0   16.666666666666668
100.0   30.0   16.666666666666668
50.0   30.0   0.0
50.0   0.0   16.666666666666668
100.0   30.0   16.666666666666668
100.0   0.0   16.666666666666668
100.0   0.0   0.0
50.0   0.0   16.666666666666668
100.0   30.0   16.666666666666668
100.0   0.0   0.0
50.0   30.0   0.0
50.0   0.0   16.666666666666668
100.0   0.0   16.666666666666668
50.0   30.0   16.666666666666668
50.0   0.0   33.333333333333336
100.0   0.0   16.666666666666668
100.0   30.0   16.666666666666668
50.0   30.0   16.666666666666668
100.0   30.0   33.333333333333336
50.0   0.0   33.333333333333336
50.0   30.0   33.333333333333336
100.0   30.0   33.333333333333336
50.0   30.0   16.666666666666668
50.0   0.0   33.333333333333336
100.0   30.0   33.333333333333336
100.0   0.0   33.333333333333336
100.0   0.0   16.666666666666668
50.0   0.0   33.333333333333336
100.0   30.0   33.333333333333336
100.0   0.0   16.666666666666668
50.0   30.0   16.666666666666668
50.0   0.0   33.333333333333336
100.0   0.0   33.333333333333336
50.0   30.0   33.333333333333336
50.0   0.0   50.0
100.0   0.0   33.333333333333336
100.0   30.0   33.333333333333336
50.0   30.0   33.333333333333336
100.0   30.0   50.0
50.0   0.0   50.0
50.0   30.0   50.0
100.0   30.0   50.0
50.0   30.0   33.333333333333336
50.0   0.0   50.0
100.0   30.0   50.0
100.0   0.0   50.0
100.0   0.0   33.333333333333336
50.0   0.0   50.0
100.0   30.0   50.0
100.0   0.0   33.333333333333336
50.0   30.0   33.333333333333336
50.0   30.0   0.0
100.0   30.0   0.0
50.0   60.0   0.0
50.0   30.0   16.666666666666668
100.0   30.0   0.0
100.0   60.0   0.0
50.0   60.0   0.0
100.0   60.0   16.666666666666668
50.0   30.0   16.666666666666668
50.0   60.0   16.666666666666668
100.0   60.0   16.666666666666668
50.0   60.0   0.0
50.0   30.0   16.666666666666668
100.0   60.0   16.666666666666668
100.0   30.0   16.666666666666668
100.0   30.0   0.0
50.0   30.0   16.666666666666668
100.0   60.0   16.666666666666668
100.0   30.0   0.0
50.0   60.0   0.0
50.0   30.0   16.666666666666668
100.0   30.0   16.666666666666668
50.0   60.0   16.666666666666668
50.0   30.0   33.333333333333336
100.0   30.0   16.666666666666668
100.0   60.0   16.666666666666668
50.0   60.0   16.666666666666668
100.0   60.0   33.333333333333336
50.0   30.0   33.333333333333336
50.0   60.0   33.333333333333336
100.0   60.0   33.333333333333336
50.0   60.0   16.666666666666668
50.0   30.0   33.333333333333336
100.0   60.0   33.333333333333336
100.0   30.0   33.333333333333336
100.0   30.0   16.666666666666668
50.0   30.0   33.333333333333336
100.0   60.0   33.333333333333336
100.0   30.0   16.666666666666668
50.0   60.0   16.666666666666668
50.0   30.0   33.333333333333336
100.0   30.0   33.333333333333336
50.0   60.0   33.333333333333336
50.0   30.0   50.0
100.0   30.0   33.333333333333336
100.0   60.0   33.333333333333336
50.0   60.0   33.333333333333336
100.0   60.0   50.0
50.0   30.0   50.0
50.0   60.0   50.0
100.0   60.0   50.0
50.0   60.0   33.333333333333336
50.0   30.0   50.0
100.0   60.0   50.0
100.0   30.0   50.0
100.0   30.0   33.333333333333336
50.0   30.0   50.0
100.0   60.0   50.0
100.0   30.0   33.333333333333336
50.0   60.0   33.333333333333336
50.0   60.0   0.0
100.0   60.0   0.0
50.0   90.0   0.0
50.0   60.0   16.666666666666668
100.0   60.0   0.0
100.0   90.0   0.0
50.0   90.0   0.0
100.0   90.0   16.666666666666668
50.0   60.0   16.666666666666668
50.0   90.0   16.666666666666668
100.0   90.0   16.666666666666668
50.0   90.0   0.0
50.0   60.0   16.666666666666668
100.0   90.0   16.666666666666668
100.0   60.0   16.666666666666668
100.0   60.0   0.0
50.0   60.0   16.666666666666668
100.0   90.0   16.666666666666668
100.0   60.0   0.0
50.0   90.0   0.0
50.0   60.0   16.666666666666668
100.0   60.0   16.666666666666668
50.0   90.0   16.666666666666668
50.0   60.0   33.333333333333336
100.0   60.0   16.666666666666668
100.0   90.0   16.666666666666668
50.0   90.0   16.666666666666668
100.0   90.0   33.333333333333336
50.0   60.0   33.333333333333336
50.0   90.0   33.333333333333336
100.0   90.0   33.333333333333336
50.0   90.0   16.666666666666668
50.0   60.0   33.333333333333336
100.0   90.0   33.333333333333336
100.0   60.0   33.333333333333336
100.0   60.0   16.666666666666668
50.0   60.0   33.333333333333336
100.0   90.0   33.333333333333336
100.0   60.0   16.666666666666668
50.0   90.0   16.666666666666668
50.0   60.0   33.333333333333336
100.0   60.0   33.333333333333336
50.0   90.0   33.333333333333336
50.0   60.0   50.0
100.0   60.0   33.333333333333336
100.0   90.0   33.333333333333336
50.0   90.0   33.333333333333336
100.0   90.0   50.0
50.0   60.0   50.0
50.0   90.0   50.0
100.0   90.0   50.0
50.0   90.0   33.333333333333336
50.0   60.0   50.0
100.0   90.0   50.0
100.0   60.0   50.0
100.0   60.0   33.333333333333336
50.0   60.0   50.0
100.0   90.0   50.0
100.0   60.0   33.333333333333336
50.0   90.0   33.333333333333336
50.0   90.0   0.0
100.0   90.0   0.0
50.0   120.0   0.0
50.0   90.0   16.666666666666668
100.0   90.0   0.0
100.0   120.0   0.0
50.0   120.0   0.0
100.0   120.0   16.666666666666668
50.0   90.0   16.666666666666668
50.0   120.0   16.666666666666668
100.0   120.0   16.666666666666668
50.0   120.0   0.0
50.0   90.0   16.666666666666668
100.0   120.0   16.666666666666668
100.0   90.0   16.666666666666668
100.0   90.0   0.0
50.0   90.0   16.666666666666668
100.0   120.0   16.666666666666668
100.0   90.0   0.0
50.0   120.0   0.0
50.0   90.0   16.666666666666668
100.0   90.0   16.666666666666668
50.0   120.0   16.666666666666668
50.0   90.0   33.333333333333336
100.0   90.0   16.666666666666668
100.0   120.0   16.666666666666668
50.0   120.0   16.666666666666668
100.0   120.0   33.333333333333336
50.0   90.0   33.333333333333336
50.0   120.0   33.333333333333336
100.0   120.0   33.333333333333336
50.0   120.0   16.666666666666668
50.0   90.0   33.333333333333336
100.0   120.0   33.333333333333336
100.0   90.0   33.333333333333336
100.0   90.0   16.666666666666668
50.0   90.0   33.333333333333336
100.0   120.0   33.333333333333336
100.0   90.0   16.666666666666668
50.0   120.0   16.666666666666668
50.0   90.0   33.333333333333336
100.0   90.0   33.333333333333336
50.0   120.0   33.333333333333336
50.0   90.0   50.0
100.0   90.0   33.333333333333336
100.0   120.0   33.333333333333336
50.0   120.0   33.333333333333336
100.0   120.0   50.0
50.0   90.0   50.0
50.0   120.0   50.0
100.0   120.0   50.0
50.0   120.0   33.333333333333336
50.0   90.0   50.0
100.0   120.0   50.0
100.0   90.0   50.0
100.0   90.0   33.333333333333336
50.0   90.0   50.0
100.0   120.0   50.0
100.0   90.0   33.333333333333336
50.0   120.0   33.333333333333336
50.0   120.0   0.0
100.0   120.0   0.0
50.0   150.0   0.0
50.0   120.0   16.666666666666668
100.0   120.0   0.0
100.0   150.0   0.0
50.0   150.0   0.0
100.0   150.0   16.666666666666668
50.0   120.0   16.666666666666668
50.0   150.0   16.666666666666668
100.0   150.0   16.666666666666668
50.0   150.0   0.0
50.0   120.0   16.666666666666668
100.0   150.0   16.666666666666668
100.0   120.0   16.666666666666668
100.0   120.0   0.0
50.0   120.0   16.666666666666668
100.0   150.0   16.666666666666668
100.0   120.0   0.0
50.0   150.0   0.0
50.0   120.0   16.666666666666668
100.0   120.0   16.666666666666668
50.0   150.0   16.666666666666668
50.0   120.0   33.333333333333336
100.0   120.0   16.666666666666668
100.0   150.0   16.666666666666668
50.0   150.0   16.666666666666668
100.0   150.0   33.333333333333336
50.0   120.0   33.333333333333336
50.0   150.0   33.333333333333336
100.0   150.0   33.333333333333336
50.0   150.0   16.666666666666668
50.0   120.0   33.333333333333336
100.0   150.0   33.333333333333336
100.0   120.0   33.333333333333336
100.0   120.0   16.666666666666668
50.0   120.0   33.333333333333336
100.0   150.0   33.333333333333336
100.0   120.0   16.666666666666668
50.0   150.0   16.666666666666668
50.0   120.0   33.333333333333336
100.0   120.0   33.333333333333336
50.0   150.0   33.333333333333336
50.0   120.0   50.0
100.0   120.0   33.333333333333336
100.0   150.0   33.333333333333336
50.0   150.0   33.333333333333336
100.0   150.0   50.0
50.0   120.0   50.0
50.0   150.0   50.0
100.0   150.0   50.0
50.0   150.0   33.333333333333336
50.0   120.0   50.0
100.0   150.0   50.0
100.0   120.0   50.0
100.0   120.0   33.333333333333336
50.0   120.0   50.0
100.0   150.0   50.0
100.0   120.0   33.333333333333336
50.0   150.0   33.333333333333336
100.0   0.0   0.0
150.0   0.0   0.0
100.0   30.0   0.0
100.0   0.0   16.666666666666668
150.0   0.0   0.0
150.0   30.0   0.0
100.0   30.0   0.0
150.0   30.0   16.666666666666668
100.0   0.0   16.666666666666668
100.0   30.0   16.666666666666668
150.0   30.0   16.666666666666668
100.0   30.0   0.0
100.0   0.0   16.666666666666668
150.0   30.0   16.666666666666668
150.0   0.0   16.666666666666668
150.0   0.0   0.0
100.0   0.0   16.666666666666668
150.0   30.0   16.666666666666668
150.0   0.0   0.0
100.0   30.0   0.0
100.0   0.0   16.666666666666668
150.0   0.0   16.666666666666668
100.0   30.0   16.666666666666668
100.0   0.0   33.333333333333336
150.0   0.0   16.666666666666668
150.0   30.0   16.666666666666668
100.0   30.0   16.666666666666668
150.0   30.0   33.333333333333336
100.0   0.0   33.333333333333336
100.0   30.0   33.333333333333336
150.0   30.0   33.333333333333336
100.0   30.0   16.666666666666668
100.0   0.0   33.333333333333336
150.0   30.0   33.333333333333336
150.0   0.0   33.333333333333336
150.0   0.0   16.666666666666668
100.0   0.0   33.333333333333336
150.0   30.0   33.333333333333336
150.0   0.0   16.666666666666668
100.0   30.0   16.666666666666668
100.0   0.0   33.333333333333336
150.0   0.0   33.333333333333336
100.0   30.0   33.333333333333336
100.0   0.0   50.0
150.0   0.0   33.333333333333336
150.0   30.0   33.333333333333336
100.0   30.0   33.333333333333336
150.0   30.0   50.0
100.0   0.0   50.0
100.0   30.0   50.0
150.0   30.0   50.0
100.0   30.0   33.333333333333336
100.0   0.0   50.0
150.0   30.0   50.0
150.0   0.0   50.0
150.0   0.0   33.333333333333336
100.0   0.0   50.0
150.0   30.0   50.0
150.0   0.0   33.333333333333336
100.0   30.0   33.333333333333336
100.0   30.0   0.0
150.0   30.0   0.0
100.0   60.0   0.0
100.0   30.0   16.666666666666668
150.0   30.0   0.0
150.0   60.0   0.0
100.0   60.0   0.0
150.0   60.0   16.666666666666668
100.0   30.0   16.666666666666668
100.0   60.0   16.666666666666668
150.0   60.0   16.666666666666668
100.0   60.0   0.0
100.0   30.0   16.666666666666668
150.0   60.0   16.666666666666668
150.0   30.0   16.666666666666668
150.0   30.0   0.0
100.0   30.0   16.666666666666668
150.0   60.0   16.666666666666668
150.0   30.0   0.0
100.0   60.0   0.0
100.0   30.0   16.666666666666668
150.0   30.0   16.666666666666668
100.0   60.0   16.666666666666668
100.0   30.0   33.333333333333336
150.0   30.0   16.666666666666668
150.0   60.0   16.666666666666668
100.0   60.0   16.666666666666668
150.0   60.0   33.333333333333336
100.0   30.0   33.333333333333336
100.0   60.0   33.333333333333336
150.0   60.0   33.333333333333336
100.0   60.0   16.666666666666668
100.0   30.0   33.333333333333336
150.0   60.0   33.333333333333336
150.0   30.0   33.333333333333336
150.0   30.0   16.666666666666668
100.0   30.0   33.333333333333336
150.0   60.0   33.333333333333336
150.0   30.0   16.666666666666668
100.0   60.0   16.666666666666668
100.0   30.0   33.333333333333336
150.0   30.0   33.333333333333336
100.0   60.0   33.333333333333336
100.0   30.0   50.0
150.0   30.0   33.333333333333336
150.0   60.0   33.333333333333336
100.0   60.0   33.333333333333336
150.0   60.0   50.0
100.0   30.0   50.0
100.0   60.0   50.0
150.0   60.0   50.0
100.0   60.0   33.333333333333336
100.0   30.0   50.0
150.0   60.0   50.0
150.0   30.0   50.0
150.0   30.0   33.333333333333336
100.0   30.0   50.0
150.0   60.0   50.0
150.0   30.0   33.333333333333336
100.0   60.0   33.333333333333336
100.0   60.0   0.0
150.0   60.0   0.0
100.0   90.0   0.0
100.0   60.0   16.666666666666668
150.0   60.0   0.0
150.0   90.0   0.0
100.0   90.0   0.0
150.0   90.0   16.666666666666668
100.0   60.0   16.666666666666668
100.0   90.0   16.666666666666668
150.0   90.0   16.666666666666668
100.0   90.0   0.0
100.0   60.0   16.666666666666668
150.0   90.0   16.666666666666668
150.0   60.0   16.666666666666668
150.0   60.0   0.0
100.0   60.0   16.666666666666668
150.0   90.0   16.666666666666668
150.0   60.0   0.0
100.0   90.0   0.0
100.0   60.0   16.666666666666668
150.0   60.0   16.666666666666668
100.0   90.0   16.666666666666668
100.0   60.0   33.333333333333336
150.0   60.0   16.666666666666668
150.0   90.0   16.666666666666668
100.0   90.0   16.666666666666668
150.0   90.0   33.333333333333336
100.0   60.0   33.333333333333336
100.0   90.0   33.333333333333336
150.0   90.0   33.333333333333336
100.0   90.0   16.666666666666668
100.0   60.0   33.333333333333336
150.0   90.0   33.333333333333336
150.0   60.0   33.333333333333336
150.0   60.0   16.666666666666668
100.0   60.0   33.333333333333336
150.0   90.0   33.333333333333336
150.0   60.0   16.666666666666668
100.0   90.0   16.666666666666668
100.0   60.0   33.333333333333336
150.0   60.0   33.333333333333336
100.0   90.0   33.333333333333336
100.0   60.0   50.0
150.0   60.0   33.333333333333336
150.0   90.0   33.333333333333336
100.0   90.0   33.333333333333336
150.0   90.0   50.0
100.0   60.0   50.0
100.0   90.0   50.0
150.0   90.0   50.0
100.0   90.0   33.333333333333336
100.0   60.0   50.0
150.0   90.0   50.0
150.0   60.0   50.0
150.0   60.0   33.333333333333336
100.0   60.0   50.0
150.0   90.0   50.0
150.0   60.0   33.333333333333336
100.0   90.0   33.333333333333336
100.0   90.0   0.0
150.0   90.0   0.0
100.0   120.0   0.0
100.0   90.0   16.666666666666668
150.0   90.0   0.0
150.0   120.0   0.0
100.0   120.0   0.0
150.0   120.0   16.666666666666668
100.0   90.0   16.666666666666668
100.0   120.0   16.666666666666668
150.0   120.0   16.666666666666668
100.0   120.0   0.0
100.0   90.0   16.666666666666668
150.0   120.0   16.666666666666668
150.0   90.0   16.666666666666668
150.0   90.0   0.0
100.0   90.0   16.666666666666668
150.0   120.0   16.666666666666668
150.0   90.0   0.0
100.0   120.0   0.0
100.0   90.0   16.666666666666668
150.0   90.0   16.666666666666668
100.0   120.0   16.666666666666668
100.0   90.0   33.333333333333336
150.0   90.0   16.666666666666668
150.0   120.0   16.666666666666668
100.0   120.0   16.666666666666668
150.0   120.0   33.333333333333336
100.0   90.0   33.333333333333336
100.0   120.0   33.333333333333336
150.0   120.0   33.333333333333336
100.0   120.0   16.666666666666668
100.0   90.0   33.333333333333336
150.0   120.0   33.333333333333336
150.0   90.0   33.333333333333336
150.0   90.0   16.666666666666668
100.0   90.0   33.333333333333336
150.0   120.0   33.333333333333336
150.0   90.0   16.666666666666668
100.0   120.0   16.666666666666668
100.0   90.0   33.333333333333336
150.0   90.0   33.333333333333336
100.0   120.0   33.333333333333336
100.0   90.0   50.0
150.0   90.0   33.333333333333336
150.0   120.0   33.333333333333336
100.0   120.0   33.333333333333336
150.0   120.0   50.0
100.0   90.0   50.0
100.0   120.0   50.0
150.0   120.0   50.0
100.0   120.0   33.333333333333336
100.0   90.0   50.0
150.0   120.0   50.0
150.0   90.0   50.0
150.0   90.0   33.333333333333336
100.0   90.0   50.0
150.0   120.0   50.0
150.0   90.0   33.333333333333336
100.0   120.0   33.333333333333336
100.0   120.0   0.0
150.0   120.0   0.0
100.0   150.0   0.0
100.0   120.0   16.666666666666668
150.0   120.0   0.0
150.0   150.0   0.0
100.0   150.0   0.0
150.0   150.0   16.666666666666668
100.0   120.0   16.666666666666668
100.0   150.0   16.666666666666668
150.0   150.0   16.666666666666668
100.0   150.0   0.0
100.0   120.0   16.666666666666668
150.0   150.0   16.666666666666668
150.0   120.0   16.666666666666668
150.0   120.0   0.0
100.0   120.0   16.666666666666668
150.0   150.0   16.666666666666668
150.0   120.0   0.0
100.0   150.0   0.0
100.0   120.0   16.666666666666668
150.0   120.0   16.666666666666668
100.0   150.0   16.666666666666668
100.0   120.0   33.333333333333336
150.0   120.0   16.666666666666668
150.0   150.0   16.666666666666668
100.0   150.0   16.666666666666668
150.0   150.0   33.333333333333336
100.0   120.0   33.333333333333336
100.0   150.0   33.333333333333336
150.0   150.0   33.333333333333336
100.0   150.0   16.666666666666668
100.0   120.0   33.333333333333336
150.0   150.0   33.333333333333336
150.0   120.0   33.333333333333336
150.0   120.0   16.666666666666668
100.0   120.0   33.333333333333336
150.0   150.0   33.333333333333336
150.0   120.0   16.666666666666668
100.0   150.0   16.666666666666668
100.0   120.0   33.333333333333336
150.0   120.0   33.333333333333336
100.0   150.0   33.333333333333336
100.0   120.0   50.0
150.0   120.0   33.333333333333336
150.0   150.0   33.333333333333336
100.0   150.0   33.333333333333336
150.0   150.0   50.0
100.0   120.0   50.0
100.0   150.0   50.0
150.0   150.0   50.0
100.0   150.0   33.333333333333336
100.0   120.0   50.0
150.0   150.0   50.0
150.0   120.0   50.0
150.0   120.0   33.333333333333336
100.0   120.0   50.0
150.0   150.0   50.0
150.0   120.0   33.333333333333336
100.0   150.0   33.333333333333336
150.0   0.0   0.0
200.0   0.0   0.0
150.0   30.0   0.0
150.0   0.0   16.666666666666668
200.0   0.0   0.0
200.0   30.0   0.0
150.0   30.0   0.0
200.0   30.0   16.666666666666668
150.0   0.0   16.666666666666668
150.0   30.0   16.666666666666668
200.0   30.0   16.666666666666668
150.0   30.0   0.0
150.0   0.0   16.666666666666668
200.0   30.0   16.666666666666668
200.0   0.0   16.666666666666668
200.0   0.0   0.0
150.0   0.0   16.666666666666668
200.0   30.0   16.666666666666668
200.0   0.0   0.0
150.0   30.0   0.0
150.0   0.0   16.666666666666668
200.0   0.0   16.666666666666668
150.0   30.0   16.666666666666668
150.0   0.0   33.333333333333336
200.0   0.0   16.666666666666668
200.0   30.0   16.666666666666668
150.0   30.0   16.666666666666668
200.0   30.0   33.333333333333336
150.0   0.0   33.333333333333336
150.0   30.0   33.333333333333336
200.0   30.0   33.333333333333336
150.0   30.0   16.666666666666668
150.0   0.0   33.333333333333336
200.0   30.0   33.333333333333336
200.0   0.0   33.333333333333336
200.0   0.0   16.666666666666668
150.0   0.0   33.333333333333336
200.0   30.0   33.333333333333336
200.0   0.0   16.666666666666668
150.0   30.0   16.666666666666668
150.0   0.0   33.333333333333336
200.0   0.0   33.333333333333336
150.0   30.0   33.333333333333336
150.0   0.0   50.0
200.0   0.0   33.333333333333336
200.0   30.0   33.333333333333336
150.0   30.0   33.333333333333336
200.0   30.0   50.0
150.0   0.0   50.0
150.0   30.0   50.0
200.0   30.0   50.0
150.0   30.0   33.333333333333336
150.0   0.0   50.0
200.0   30.0   50.0
200.0   0.0   50.0
200.0   0.0   33.333333333333336
150.0   0.0   50.0
200.0   30.0   50.0
200.0   0.0   33.333333333333336
150.0   30.0   33.333333333333336
150.0   30.0   0.0
200.0   30.0   0.0
150.0   60.0   0.0
150.0   30.0   16.666666666666668
200.0   30.0   0.0
200.0   60.0   0.0
150.0   60.0   0.0
200.0   60.0   16.666666666666668
150.0   30.0   16.666666666666668
150.0   60.0   16.666666666666668
200.0   60.0   16.666666666666668
150.0   60.0   0.0
150.0   30.0   16.666666666666668
200.0   60.0   16.666666666666668
200.0   30.0   16.666666666666668
200.0   30.0   0.0
150.0   30.0   16.666666666666668
200.0   60.0   16.666666666666668
200.0   30.0   0.0
150.0   60.0   0.0
150.0   30.0   16.666666666666668
200.0   30.0   16.666666666666668
150.0   60.0   16.666666666666668
150.0   30.0   33.333333333333336
200.0   30.0   16.666666666666668
200.0   60.0   16.666666666666668
150.0   60.0   16.666666666666668
200.0   60.0   33.333333333333336
150.0   30.0   33.333333333333336
150.0   60.0   33.333333333333336
200.0   60.0   33.333333333333336
150.0   60.0   16.666666666666668
150.0   30.0   33.333333333333336
200.0   60.0   33.333333333333336
200.0   30.0   33.333333333333336
200.0   30.0   16.666666666666668
150.0   30.0   33.333333333333336
200.0   60.0   33.333333333333336
200.0   30.0   16.666666666666668
150.0   60.0   16.666666666666668
150.0   30.0   33.333333333333336
200.0   30.0   33.333333333333336
150.0   60.0   33.333333333333336
150.0   30.0   50.0
200.0   30.0   33.333333333333336
200.0   60.0   33.333333333333336
150.0   60.0   33.333333333333336
200.0   60.0   50.0
150.0   30.0   50.0
150.0   60.0   50.0
200.0   60.0   50.0
150.0   60.0   33.333333333333336
150.0   30.0   50.0
200.0   60.0   50.0
200.0   30.0   50.0
200.0   30.0   33.333333333333336
150.0   30.0   50.0
200.0   60.0   50.0
200.0   30.0   33.333333333333336
150.0   60.0   33.333333333333336
150.0   60.0   0.0
200.0   60.0   0.0
150.0   90.0   0.0
150.0   60.0   16.666666666666668
200.0   60.0   0.0
200.0   90.0   0.0
150.0   90.0   0.0
200.0   90.0   16.666666666666668
150.0   60.0   16.666666666666668
150.0   90.0   16.666666666666668
200.0   90.0   16.666666666666668
150.0   90.0   0.0
150.0   60.0   16.666666666666668
200.0   90.0   16.666666666666668
200.0   60.0   16.666666666666668
200.0   60.0   0.0
150.0   60.0   16.666666666666668
200.0   90.0   16.666666666666668
200.0   60.0   0.0
150.0   90.0   0.0
150.0   60.0   16.666666666666668
200.0   60.0   16.666666666666668
150.0   90.0   16.666666666666668
150.0   60.0   33.333333333333336
200.0   60.0   16.666666666666668
200.0   90.0   16.666666666666668
150.0   90.0   16.666666666666668
200.0   90.0   33.333333333333336
150.0   60.0   33.333333333333336
150.0   90.0   33.333333333333336
200.0   90.0   33.333333333333336
150.0   90.0   16.666666666666668
150.0   60.0   33.333333333333336
200.0   90.0   33.333333333333336
200.0   60.0   33.333333333333336
200.0   60.0   16.666666666666668
150.0   60.0   33.333333333333336
200.0   90.0   33.333333333333336
200.0   60.0   16.666666666666668
150.0   90.0   16.666666666666668
150.0   60.0   33.333333333333336
200.0   60.0   33.333333333333336
150.0   90.0   33.333333333333336
150.0   60.0   50.0
200.0   60.0   33.333333333333336
200.0   90.0   33.333333333333336
150.0   90.0   33.333333333333336
200.0   90.0   50.0
150.0   60.0   50.0
150.0   90.0   50.0
200.0   90.0   50.0
150.0   90.0   33.333333333333336
150.0   60.0   50.0
200.0   90.0   50.0
200.0   60.0   50.0
200.0   60.0   33.333333333333336
150.0   60.0   50.0
200.0   90.0   50.0
200.0   60.0   33.333333333333336
150.0   90.0   33.333333333333336
150.0   90.0   0.0
200.0   90.0   0.0
150.0   120.0   0.0
150.0   90.0   16.666666666666668
200.0   90.0   0.0
200.0   120.0   0.0
150.0   120.0   0.0
200.0   120.0   16.666666666666668
150.0   90.0   16.666666666666668
150.0   120.0   16.666666666666668
200.0   120.0   16.666666666666668
150.0   120.0   0.0
150.0   90.0   16.666666666666668
200.0   120.0   16.666666666666668
200.0   90.0   16.666666666666668
200.0   90.0   0.0
150.0   90.0   16.666666666666668
200.0   120.0   16.666666666666668
200.0   90.0   0.0
150.0   120.0   0.0
150.0   90.0   16.666666666666668
200.0   90.0   16.666666666666668
150.0   120.0   16.666666666666668
150.0   90.0   33.333333333333336
200.0   90.0   16.666666666666668
200.0   120.0   16.666666666666668
150.0   120.0   16.666666666666668
200.0   120.0   33.333333333333336
150.0   90.0   33.333333333333336
150.0   120.0   33.333333333333336
200.0   120.0   33.333333333333336
150.0   120.0   16.666666666666668
150.0   90.0   33.333333333333336
200.0   120.0   33.333333333333336
200.0   90.0   33.333333333333336
200.0   90.0   16.666666666666668
150.0   90.0   33.333333333333336
200.0   120.0   33.333333333333336
200.0   90.0   16.666666666666668
150.0   120.0   16.666666666666668
150.0   90.0   33.333333333333336
200.0   90.0   33.333333333333336
150.0   120.0   33.333333333333336
150.0   90.0   50.0
200.0   90.0   33.333333333333336
200.0   120.0   33.333333333333336
150.0   120.0   33.333333333333336
200.0   120.0   50.0
150.0   90.0   50.0
150.0   120.0   50.0
200.0   120.0   50.0
150.0   120.0   33.333333333333336
150.0   90.0   50.0
200.0   120.0   50.0
200.0   90.0   50.0
200.0   90.0   33.333333333333336
150.0   90.0   50.0
200.0   120.0   50.0
200.0   90.0   33.333333333333336
150.0   120.0   33.333333333333336
150.0   120.0   0.0
200.0   120.0   0.0
150.0   150.0   0.0
150.0   120.0   16.666666666666668
200.0   120.0   0.0
200.0   150.0   0.0
150.0   150.0   0.0
200.0   150.0   16.666666666666668
150.0   120.0   16.666666666666668
150.0   150.0   16.666666666666668
200.0   150.0   16.666666666666668
150.0   150.0   0.0
150.0   120.0   16.666666666666668
200.0   150.0   16.666666666666668
200.0   120.0   16.666666666666668
200.0   120.0   0.0
150.0   120.0   16.666666666666668
200.0   150.0   16.666666666666668
200.0   120.0   0.0
150.0   150.0   0.0
150.0   120.0   16.666666666666668
200.0   120.0   16.666666666666668
150.0   150.0   16.666666666666668
150.0   120.0   33.333333333333336
200.0   120.0   16.666666666666668
200.0   150.0   16.666666666666668
150.0   150.0   16.666666666666668
200.0   150.0   33.333333333333336
150.0   120.0   33.333333333333336
150.0   150.0   33.333333333333336
200.0   150.0   33.333333333333336
150.0   150.0   16.666666666666668
150.0   120.0   33.333333333333336
200.0   150.0   33.333333333333336
200.0   120.0   33.333333333333336
200.0   120.0   16.666666666666668
150.0   120.0   33.333333333333336
200.0   150.0   33.333333333333336
200.0   120.0   16.666666666666668
150.0   150.0   16.666666666666668
150.0   120.0   33.333333333333336
200.0   120.0   33.333333333333336
150.0   150.0   33.333333333333336
150.0   120.0   50.0
200.0   120.0   33.333333333333336
200.0   150.0   33.333333333333336
150.0   150.0   33.333333333333336
200.0   150.0   50.0
150.0   120.0   50.0
150.0   150.0   50.0
200.0   150.0   50.0
150.0   150.0   33.333333333333336
150.0   120.0   50.0
200.0   150.0   50.0
200.0   120.0   50.0
200.0   120.0   33.333333333333336
150.0   120.0   50.0
200.0   150.0   50.0
200.0   120.0   33.333333333333336
150.0   150.0   33.333333333333336
200.0   0.0   0.0
250.0   0.0   0.0
200.0   30.0   0.0
200.0   0.0   16.666666666666668
250.0   0.0   0.0
250.0   30.0   0.0
200.0   30.0   0.0
250.0   30.0   16.666666666666668
200.0   0.0   16.666666666666668
200.0   30.0   16.666666666666668
250.0   30.0   16.666666666666668
200.0   30.0   0.0
200.0   0.0   16.666666666666668
250.0   30.0   16.666666666666668
250.0   0.0   16.666666666666668
250.0   0.0   0.0
200.0   0.0   16.666666666666668
250.0   30.0   16.666666666666668
250.0   0.0   0.0
200.0   30.0   0.0
200.0   0.0   16.666666666666668
250.0   0.0   16.666666666666668
200.0   30.0   16.666666666666668
200.0   0.0   33.333333333333336
250.0   0.0   16.666666666666668
250.0   30.0   16.666666666666668
200.0   30.0   16.666666666666668
250.0   30.0   33.333333333333336
200.0   0.0   33.333333333333336
200.0   30.0   33.333333333333336
250.0   30.0   33.333333333333336
200.0   30.0   16.666666666666668
200.0   0.0   33.333333333333336
250.0   30.0   33.333333333333336
250.0   0.0   33.333333333333336
250.0   0.0   16.666666666666668
200.0   0.0   33.333333333333336
250.0   30.0   33.333333333333336
250.0   0.0   16.666666666666668
200.0   30.0   16.666666666666668
200.0   0.0   33.333333333333336
250.0   0.0   33.333333333333336
200.0   30.0   33.333333333333336
200.0   0.0   50.0
250.0   0.0   33.333333333333336
250.0   30.0   33.333333333333336
200.0   30.0   33.333333333333336
250.0   30.0   50.0
200.0   0.0   50.0
200.0   30.0   50.0
250.0   30.0   50.0
200.0   30.0   33.333333333333336
200.0   0.0   50.0
250.0   30.0   50.0
250.0   0.0   50.0
250.0   0.0   33.333333333333336
200.0   0.0   50.0
250.0   30.0   50.0
250.0   0.0   33.333333333333336
200.0   30.0   33.333333333333336
200.0   30.0   0.0
250.0   30.0   0.0
200.0   60.0   0.0
200.0   30.0   16.666666666666668
250.0   30.0   0.0
250.0   60.0   0.0
200.0   60.0   0.0
250.0   60.0   16.666666666666668
200.0   30.0   16.666666666666668
200.0   60.0   16.666666666666668
250.0   60.0   16.666666666666668
200.0   60.0   0.0
200.0   30.0   16.666666666666668
250.0   60.0   16.666666666666668
250.0   30.0   16.666666666666668
250.0   30.0   0.0
200.0   30.0   16.666666666666668
250.0   60.0   16.666666666666668
250.0   30.0   0.0
200.0   60.0   0.0
200.0   30.0   16.666666666666668
250.0   30.0   16.666666666666668
200.0   60.0   16.666666666666668
200.0   30.0   33.333333333333336
250.0   30.0   16.666666666666668
250.0   60.0   16.666666666666668
200.0   60.0   16.666666666666668
250.0   60.0   33.333333333333336
200.0   30.0   33.333333333333336
200.0   60.0   33.333333333333336
250.0   60.0   33.333333333333336
200.0   60.0   16.666666666666668
200.0   30.0   33.333333333333336
250.0   60.0   33.333333333333336
250.0   30.0   33.333333333333336
250.0   30.0   16.666666666666668
200.0   30.0   33.333333333333336
250.0   60.0   33.333333333333336
250.0   30.0   16.666666666666668
200.0   60.0   16.666666666666668
200.0   30.0   33.333333333333336
250.0   30.0   33.333333333333336
200.0   60.0   33.333333333333336
200.0   30.0   50.0
250.0   30.0   33.333333333333336
250.0   60.0   33.333333333333336
200.0   60.0   33.333333333333336
250.0   60.0   50.0
200.0   30.0   50.0
200.0   60.0   50.0
250.0   60.0   50.0
200.0   60.0   33.333333333333336
200.0   30.0   50.0
250.0   60.0   50.0
250.0   30.0   50.0
250.0   30.0   33.333333333333336
200.0   30.0   50.0
250.0   60.0   50.0
250.0   30.0   33.333333333333336
200.0   60.0   33.333333333333336
200.0   60.0   0.0
250.0   60.0   0.0
200.0   90.0   0.0
200.0   60.0   16.666666666666668
250.0   60.0   0.0
250.0   90.0   0.0
200.0   90.0   0.0
250.0   90.0   16.666666666666668
200.0   60.0   16.666666666666668
200.0   90.0   16.666666666666668
250.0   90.0   16.666666666666668
200.0   90.0   0.0
200.0   60.0   16.666666666666668
250.0   90.0   16.666666666666668
250.0   60.0   16.666666666666668
250.0   60.0   0.0
200.0   60.0   16.666666666666668
250.0   90.0   16.666666666666668
250.0   60.0   0.0
200.0   90.0   0.0
200.0   60.0   16.666666666666668
250.0   60.0   16.666666666666668
200.0   90.0   16.666666666666668
200.0   60.0   33.333333333333336
250.0   60.0   16.666666666666668
250.0   90.0   16.666666666666668
200.0   90.0   16.666666666666668
250.0   90.0   33.333333333333336
200.0   60.0   33.333333333333336
200.0   90.0   33.333333333333336
250.0   90.0   33.333333333333336
200.0   90.0   16.666666666666668
200.0   60.0   33.333333333333336
250.0   90.0   33.333333333333336
250.0   60.0   33.333333333333336
250.0   60.0   16.666666666666668
200.0   60.0   33.333333333333336
250.0   90.0   33.333333333333336
250.0   60.0   16.666666666666668
200.0   90.0   16.666666666666668
200.0   60.0   33.333333333333336
250.0   60.0   33.333333333333336
200.0   90.0   33.333333333333336
200.0   60.0   50.0
250.0   60.0   33.333333333333336
250.0   90.0   33.333333333333336
200.0   90.0   33.333333333333336
250.0   90.0   50.0
200.0   60.0   50.0
200.0   90.0   50.0
250.0   90.0   50.0
200.0   90.0   33.333333333333336
200.0   60.0   50.0
250.0   90.0   50.0
250.0   60.0   50.0
250.0   60.0   33.333333333333336
200.0   60.0   50.0
250.0   90.0   50.0
250.0   60.0   33.333333333333336
200.0   90.0   33.333333333333336
200.0   90.0   0.0
250.0   90.0   0.0
200.0   120.0   0.0
200.0   90.0   16.666666666666668
250.0   90.0   0.0
250.0   120.0   0.0
200.0   120.0   0.0
250.0   120.0   16.666666666666668
200.0   90.0   16.666666666666668
200.0   120.0   16.666666666666668
250.0   120.0   16.666666666666668
200.0   120.0   0.0
200.0   90.0   16.666666666666668
250.0   120.0   16.666666666666668
250.0   90.0   16.666666666666668
250.0   90.0   0.0
200.0   90.0   16.666666666666668
250.0   120.0   16.666666666666668
250.0   90.0   0.0
200.0   120.0   0.0
200.0   90.0   16.666666666666668
250.0   90.0   16.666666666666668
200.0   120.0   16.666666666666668
200.0   90.0   33.333333333333336
250.0   90.0   16.666666666666668
250.0   120.0   16.666666666666668
200.0   120.0   16.666666666666668
250.0   120.0   33.333333333333336
200.0   90.0   33.333333333333336
200.0   120.0   33.333333333333336
250.0   120.0   33.333333333333336
200.0   120.0   16.666666666666668
200.0   90.0   33.333333333333336
250.0   120.0   33.333333333333336
250.0   90.0   33.333333333333336
250.0   90.0   16.666666666666668
200.0   90.0   33.333333333333336
250.0   120.0   33.333333333333336
250.0   90.0   16.666666666666668
200.0   120.0   16.666666666666668
200.0   90.0   33.333333333333336
250.0   90.0   33.333333333333336
200.0   120.0   33.333333333333336
200.0   90.0   50.0
250.0   90.0   33.333333333333336
250.0   120.0   33.333333333333336
200.0   120.0   33.333333333333336
250.0   120.0   50.0
200.0   90.0   50.0
200.0   120.0   50.0
250.0   120.0   50.0
200.0   120.0   33.333333333333336
200.0   90.0   50.0
250.0   120.0   50.0
250.0   90.0   50.0
250.0   90.0   33.333333333333336
200.0   90.0   50.0
250.0   120.0   50.0
250.0   90.0   33.333333333333336
200.0   120.0   33.333333333333336
200.0   120.0   0.0
250.0   120.0   0.0
200.0   150.0   0.0
200.0   120.0   16.666666666666668
250.0   120.0   0.0
250.0   150.0   0.0
200.0   150.0   0.0
250.0   150.0   16.666666666666668
200.0   120.0   16.666666666666668
200.0   150.0   16.666666666666668
250.0   150.0   16.666666666666668
200.0   150.0   0.0
200.0   120.0   16.666666666666668
250.0   150.0   16.666666666666668
250.0   120.0   16.666666666666668
250.0   120.0   0.0
200.0   120.0   16.666666666666668
250.0   150.0   16.666666666666668
250.0   120.0   0.0
200.0   150.0   0.0
200.0   120.0   16.666666666666668
250.0   120.0   16.666666666666668
200.0   150.0   16.666666666666668
200.0   120.0   33.333333333333336
250.0   120.0   16.666666666666668
250.0   150.0   16.666666666666668
200.0   150.0   16.666666666666668
250.0   150.0   33.333333333333336
200.0   120.0   33.333333333333336
200.0   150.0   33.333333333333336
250.0   150.0   33.333333333333336
200.0   150.0   16.666666666666668
200.0   120.0   33.333333333333336
250.0   150.0   33.333333333333336
250.0   120.0   33.333333333333336
250.0   120.0   16.666666666666668
200.0   120.0   33.333333333333336
250.0   150.0   33.333333333333336
250.0   120.0   16.666666666666668
200.0   150.0   16.666666666666668
200.0   120.0   33.333333333333336
250.0   120.0   33.333333333333336
200.0   150.0   33.333333333333336
200.0   120.0   50.0
250.0   120.0   33.333333333333336
250.0   150.0   33.333333333333336
200.0   150.0   33.333333333333336
250.0   150.0   50.0
200.0   120.0   50.0
200.0   150.0   50.0
250.0   150.0   50.0
200.0   150.0   33.333333333333336
200.0   120.0   50.0
250.0   150.0   50.0
250.0   120.0   50.0
250.0   120.0   33.333333333333336
200.0   120.0   50.0
250.0   150.0   50.0
250.0   120.0   33.333333333333336
200.0   150.0   33.333333333333336
250.0   0.0   0.0
300.0   0.0   0.0
250.0   30.0   0.0
250.0   0.0   16.666666666666668
300.0   0.0   0.0
300.0   30.0   0.0
250.0   30.0   0.0
300.0   30.0   16.666666666666668
250.0   0.0   16.666666666666668
250.0   30.0   16.666666666666668
300.0   30.0   16.666666666666668
250.0   30.0   0.0
250.0   0.0   16.666666666666668
300.0   30.0   16.666666666666668
300.0   0.0   16.666666666666668
300.0   0.0   0.0
250.0   0.0   16.666666666666668
300.0   30.0   16.666666666666668
300.0   0.0   0.0
250.0   30.0   0.0
250.0   0.0   16.666666666666668
300.0   0.0   16.666666666666668
250.0   30.0   16.666666666666668
250.0   0.0   33.333333333333336
300.0   0.0   16.666666666666668
300.0   30.0   16.666666666666668
250.0   30.0   16.666666666666668
300.0   30.0   33.333333333333336
250.0   0.0   33.333333333333336
250.0   30.0   33.333333333333336
300.0   30.0   33.333333333333336
250.0   30.0   16.666666666666668
250.0   0.0   33.333333333333336
300.0   30.0   33.333333333333336
300.0   0.0   33.333333333333336
300.0   0.0   16.666666666666668
250.0   0.0   33.333333333333336
300.0   30.0   33.333333333333336
300.0   0.0   16.666666666666668
250.0   30.0   16.666666666666668
250.0   0.0   33.333333333333336
300.0   0.0   33.333333333333336
250.0   30.0   33.333333333333336
250.0   0.0   50.0
300.0   0.0   33.333333333333336
300.0   30.0   33.333333333333336
250.0   30.0   33.333333333333336
300.0   30.0   50.0
250.0   0.0   50.0
250.0   30.0   50.0
300.0   30.0   50.0
250.0   30.0   33.333333333333336
250.0   0.0   50.0
300.0   30.0   50.0
300.0   0.0   50.0
300.0   0.0   33.333333333333336
250.0   0.0   50.0
300.0   30.0   50.0
300.0   0.0   33.333333333333336
250.0   30.0   33.333333333333336
250.0   30.0   0.0
300.0   30.0   0.0
250.0   60.0   0.0
250.0   30.0   16.666666666666668
300.0   30.0   0.0
300.0   60.0   0.0
250.0   60.0   0.0
300.0   60.0   16.666666666666668
250.0   30.0   16.666666666666668
250.0   60.0   16.666666666666668
300.0   60.0   16.666666666666668
250.0   60.0   0.0
250.0   30.0   16.666666666666668
300.0   60.0   16.666666666666668
300.0   30.0   16.666666666666668
300.0   30.0   0.0
250.0   30.0   16.666666666666668
300.0   60.0   16.666666666666668
300.0   30.0   0.0
250.0   60.0   0.0
250.0   30.0   16.666666666666668
300.0   30.0   16.666666666666668
250.0   60.0   16.666666666666668
250.0   30.0   33.333333333333336
300.0   30.0   16.666666666666668
300.0   60.0   16.666666666666668
250.0   60.0   16.666666666666668
300.0   60.0   33.333333333333336
250.0   30.0   33.333333333333336
250.0   60.0   33.333333333333336
300.0   60.0   33.333333333333336
250.0   60.0   16.666666666666668
250.0   30.0   33.333333333333336
300.0   60.0   33.333333333333336
300.0   30.0   33.333333333333336
300.0   30.0   16.666666666666668
250.0   30.0   33.333333333333336
300.0   60.0   33.333333333333336
300.0   30.0   16.666666666666668
250.0   60.0   16.666666666666668
250.0   30.0   33.333333333333336
300.0   30.0   33.333333333333336
250.0   60.0   33.333333333333336
250.0   30.0   50.0
300.0   30.0   33.333333333333336
300.0   60.0   33.333333333333336
250.0   60.0   33.333333333333336
300.0   60.0   50.0
250.0   30.0   50.0
250.0   60.0   50.0
300.0   60.0   50.0
250.0   60.0   33.333333333333336
250.0   30.0   50.0
300.0   60.0   50.0
300.0   30.0   50.0
300.0   30.0   33.333333333333336
250.0   30.0   50.0
300.0   60.0   50.0
300.0   30.0   33.333333333333336
250.0   60.0   33.333333333333336
250.0   60.0   0.0
300.0   60.0   0.0
250.0   90.0   0.0
250.0   60.0   16.666666666666668
300.0   60.0   0.0
300.0   90.0   0.0
250.0   90.0   0.0
300.0   90.0   16.666666666666668
250.0   60.0   16.666666666666668
250.0   90.0   16.666666666666668
300.0   90.0   16.666666666666668
250.0   90.0   0.0
250.0   60.0   16.666666666666668
300.0   90.0   16.666666666666668
300.0   60.0   16.666666666666668
300.0   60.0   0.0
250.0   60.0   16.666666666666668
300.0   90.0   16.666666666666668
300.0   60.0   0.0
250.0   90.0   0.0
250.0   60.0   16.666666666666668
300.0   60.0   16.666666666666668
250.0   90.0   16.666666666666668
250.0   60.0   33.333333333333336
300.0   60.0   16.666666666666668
300.0   90.0   16.666666666666668
250.0   90.0   16.666666666666668
300.0   90.0   33.333333333333336
250.0   60.0   33.333333333333336
250.0   90.0   33.333333333333336
300.0   90.0   33.333333333333336
250.0   90.0   16.666666666666668
250.0   60.0   33.333333333333336
300.0   90.0   33.333333333333336
300.0   60.0   33.333333333333336
300.0   60.0   16.666666666666668
250.0   60.0   33.333333333333336
300.0   90.0   33.333333333333336
300.0   60.0   16.666666666666668
250.0   90.0   16.666666666666668
250.0   60.0   33.333333333333336
300.0   60.0   33.333333333333336
250.0   90.0   33.333333333333336
250.0   60.0   50.0
300.0   60.0   33.333333333333336
300.0   90.0   33.333333333333336
250.0   90.0   33.333333333333336
300.0   90.0   50.0
250.0   60.0   50.0
250.0   90.0   50.0
300.0   90.0   50.0
250.0   90.0   33.333333333333336
250.0   60.0   50.0
300.0   90.0   50.0
300.0   60.0   50.0
300.0   60.0   33.333333333333336
250.0   60.0   50.0
300.0   90.0   50.0
300.0   60.0   33.333333333333336
250.0   90.0   33.333333333333336
250.0   90.0   0.0
300.0   90.0   0.0
250.0   120.0   0.0
250.0   90.0   16.666666666666668
300.0   90.0   0.0
300.0   120.0   0.0
250.0   120.0   0.0
300.0   120.0   16.666666666666668
250.0   90.0   16.666666666666668
250.0   120.0   16.666666666666668
300.0   120.0   16.666666666666668
250.0   120.0   0.0
250.0   90.0   16.666666666666668
300.0   120.0   16.666666666666668
300.0   90.0   16.666666666666668
300.0   90.0   0.0
250.0   90.0   16.666666666666668
300.0   120.0   16.666666666666668
300.0   90.0   0.0
250.0   120.0   0.0
250.0   90.0   16.666666666666668
300.0   90.0   16.666666666666668
250.0   120.0   16.666666666666668
250.0   90.0   33.333333333333336
300.0   90.0   16.666666666666668
300.0   120.0   16.666666666666668
250.0   120.0   16.666666666666668
300.0   120.0   33.333333333333336
250.0   90.0   33.333333333333336
250.0   120.0   33.333333333333336
300.0   120.0   33.333333333333336
250.0   120.0   16.666666666666668
250.0   90.0   33.333333333333336
300.0   120.0   33.333333333333336
300.0   90.0   33.333333333333336
300.0   90.0   16.666666666666668
250.0   90.0   33.333333333333336
300.0   120.0   33.333333333333336
300.0   90.0   16.666666666666668
250.0   120.0   16.666666666666668
250.0   90.0   33.333333333333336
300.0   90.0   33.333333333333336
250.0   120.0   33.333333333333336
250.0   90.0   50.0
300.0   90.0   33.333333333333336
300.0   120.0   33.333333333333336
250.0   120.0   33.333333333333336
300.0   120.0   50.0
250.0   90.0   50.0
250.0   120.0   50.0
300.0   120.0   50.0
250.0   120.0   33.333333333333336
250.0   90.0   50.0
300.0   120.0   50.0
300.0   90.0   50.0
300.0   90.0   33.333333333333336
250.0   90.0   50.0
300.0   120.0   50.0
300.0   90.0   33.333333333333336
250.0   120.0   33.333333333333336
250.0   120.0   0.0
300.0   120.0   0.0
250.0   150.0   0.0
250.0   120.0   16.666666666666668
300.0   120.0   0.0
300.0   150.0   0.0
250.0   150.0   0.0
300.0   150.0   16.666666666666668
250.0   120.0   16.666666666666668
250.0   150.0   16.666666666666668
300.0   150.0   16.666666666666668
250.0   150.0   0.0
250.0   120.0   16.666666666666668
300.0   150.0   16.666666666666668
300.0   120.0   16.666666666666668
300.0   120.0   0.0
250.0   120.0   16.666666666666668
300.0   150.0   16.666666666666668
300.0   120.0   0.0
250.0   150.0   0.0
250.0   120.0   16.666666666666668
300.0   120.0   16.666666666666668
250.0   150.0   16.666666666666668
250.0   120.0   33.333333333333336
300.0   120.0   16.666666666666668
300.0   150.0   16.666666666666668
250.0   150.0   16.666666666666668
300.0   150.0   33.333333333333336
250.0   120.0   33.333333333333336
250.0   150.0   33.333333333333336
300.0   150.0   33.333333333333336
250.0   150.0   16.666666666666668
250.0   120.0   33.333333333333336
300.0   150.0   33.333333333333336
300.0   120.0   33.333333333333336
300.0   120.0   16.666666666666668
250.0   120.0   33.333333333333336
300.0   150.0   33.333333333333336
300.0   120.0   16.666666666666668
250.0   150.0   16.666666666666668
250.0   120.0   33.333333333333336
300.0   120.0   33.333333333333336
250.0   150.0   33.333333333333336
250.0   120.0   50.0
300.0   120.0   33.333333333333336
300.0   150.0   33.333333333333336
250.0   150.0   33.333333333333336
300.0   150.0   50.0
250.0   120.0   50.0
250.0   150.0   50.0
300.0   150.0   50.0
250.0   150.0   33.333333333333336
250.0   120.0   50.0
300.0   150.0   50.0
300.0   120.0   50.0
300.0   120.0   33.333333333333336
250.0   120.0   50.0
300.0   150.0   50.0
300.0   120.0   33.333333333333336
250.0   150.0   33.333333333333336
300.0   0.0   0.0
350.0   0.0   0.0
300.0   30.0   0.0
300.0   0.0   16.666666666666668
350.0   0.0   0.0
350.0   30.0   0.0
300.0   30.0   0.0
350.0   30.0   16.666666666666668
300.0   0.0   16.666666666666668
300.0   30.0   16.666666666666668
350.0   30.0   16.666666666666668
300.0   30.0   0.0
300.0   0.0   16.666666666666668
350.0   30.0   16.666666666666668
350.0   0.0   16.666666666666668
350.0   0.0   0.0
300.0   0.0   16.666666666666668
350.0   30.0   16.666666666666668
350.0   0.0   0.0
300.0   30.0   0.0
300.0   0.0   16.666666666666668
350.0   0.0   16.666666666666668
300.0   30.0   16.666666666666668
300.0   0.0   33.333333333333336
350.0   0.0   16.666666666666668
350.0   30.0   16.666666666666668
300.0   30.0   16.666666666666668
350.0   30.0   33.333333333333336
300.0   0.0   33.333333333333336
300.0   30.0   33.333333333333336
350.0   30.0   33.333333333333336
300.0   30.0   16.666666666666668
300.0   0.0   33.333333333333336
350.0   30.0   33.333333333333336
350.0   0.0   33.333333333333336
350.0   0.0   16.666666666666668
300.0   0.0   33.333333333333336
350.0   30.0   33.333333333333336
350.0   0.0   16.666666666666668
300.0   30.0   16.666666666666668
300.0   0.0   33.333333333333336
350.0   0.0   33.333333333333336
300.0   30.0   33.333333333333336
300.0   0.0   50.0
350.0   0.0   33.333333333333336
350.0   30.0   33.333333333333336
300.0   30.0   33.333333333333336
350.0   30.0   50.0
300.0   0.0   50.0
300.0   30.0   50.0
350.0   30.0   50.0
300.0   30.0   33.333333333333336
300.0   0.0   50.0
350.0   30.0   50.0
350.0   0.0   50.0
350.0   0.0   33.333333333333336
300.0   0.0   50.0
350.0   30.0   50.0
350.0   0.0   33.333333333333336
300.0   30.0   33.333333333333336
300.0   30.0   0.0
350.0   30.0   0.0
300.0   60.0   0.0
300.0   30.0   16.666666666666668
350.0   30.0   0.0
350.0   60.0   0.0
300.0   60.0   0.0
350.0   60.0   16.666666666666668
300.0   30.0   16.666666666666668
300.0   60.0   16.666666666666668
350.0   60.0   16.666666666666668
300.0   60.0   0.0
300.0   30.0   16.666666666666668
350.0   60.0   16.666666666666668
350.0   30.0   16.666666666666668
350.0   30.0   0.0
300.0   30.0   16.666666666666668
350.0   60.0   16.666666666666668
350.0   30.0   0.0
300.0   60.0   0.0
300.0   30.0   16.666666666666668
350.0   30.0   16.666666666666668
300.0   60.0   16.666666666666668
300.0   30.0   33.333333333333336
350.0   30.0   16.666666666666668
350.0   60.0   16.666666666666668
300.0   60.0   16.666666666666668
350.0   60.0   33.333333333333336
300.0   30.0   33.333333333333336
300.0   60.0   33.333333333333336
350.0   60.0   33.333333333333336
300.0   60.0   16.666666666666668
300.0   30.0   33.333333333333336
350.0   60.0   33.333333333333336
350.0   30.0   33.333333333333336
350.0   30.0   16.666666666666668
300.0   30.0   33.333333333333336
350.0   60.0   33.333333333333336
350.0   30.0   16.666666666666668
300.0   60.0   16.666666666666668
300.0   30.0   33.333333333333336
350.0   30.0   33.333333333333336
300.0   60.0   33.333333333333336
300.0   30.0   50.0
350.0   30.0   33.333333333333336
350.0   60.0   33.333333333333336
300.0   60.0   33.333333333333336
350.0   60.0   50.0
300.0   30.0   50.0
300.0   60.0   50.0
350.0   60.0   50.0
300.0   60.0   33.333333333333336
300.0   30.0   50.0
350.0   60.0   50.0
350.0   30.0   50.0
350.0   30.0   33.333333333333336
300.0   30.0   50.0
350.0   60.0   50.0
350.0   30.0   33.333333333333336
300.0   60.0   33.333333333333336
300.0   60.0   0.0
350.0   60.0   0.0
300.0   90.0   0.0
300.0   60.0   16.666666666666668
350.0   60.0   0.0
350.0   90.0   0.0
300.0   90.0   0.0
350.0   90.0   16.666666666666668
300.0   60.0   16.666666666666668
300.0   90.0   16.666666666666668
350.0   90.0   16.666666666666668
300.0   90.0   0.0
300.0   60.0   16.666666666666668
350.0   90.0   16.666666666666668
350.0   60.0   16.666666666666668
350.0   60.0   0.0
300.0   60.0   16.666666666666668
350.0   90.0   16.666666666666668
350.0   60.0   0.0
300.0   90.0   0.0
300.0   60.0   16.666666666666668
350.0   60.0   16.666666666666668
300.0   90.0   16.666666666666668
300.0   60.0   33.333333333333336
350.0   60.0   16.666666666666668
350.0   90.0   16.666666666666668
300.0   90.0   16.666666666666668
350.0   90.0   33.333333333333336
300.0   60.0   33.333333333333336
300.0   90.0   33.333333333333336
350.0   90.0   33.333333333333336
300.0   90.0   16.666666666666668
300.0   60.0   33.333333333333336
350.0   90.0   33.333333333333336
350.0   60.0   33.333333333333336
350.0   60.0   16.666666666666668
300.0   60.0   33.333333333333336
350.0   90.0   33.333333333333336
350.0   60.0   16.666666666666668
300.0   90.0   16.666666666666668
300.0   60.0   33.333333333333336
350.0   60.0   33.333333333333336
300.0   90.0   33.333333333333336
300.0   60.0   50.0
350.0   60.0   33.333333333333336
350.0   90.0   33.333333333333336
300.0   90.0   33.333333333333336
350.0   90.0   50.0
300.0   60.0   50.0
300.0   90.0   50.0
350.0   90.0   50.0
300.0   90.0   33.333333333333336
300.0   60.0   50.0
350.0   90.0   50.0
350.0   60.0   50.0
350.0   60.0   33.333333333333336
300.0   60.0   50.0
350.0   90.0   50.0
350.0   60.0   33.333333333333336
300.0   90.0   33.333333333333336
300.0   90.0   0.0
350.0   90.0   0.0
300.0   120.0   0.0
300.0   90.0   16.666666666666668
350.0   90.0   0.0
350.0   120.0   0.0
300.0   120.0   0.0
350.0   120.0   16.666666666666668
300.0   90.0   16.666666666666668
300.0   120.0   16.666666666666668
350.0   120.0   16.666666666666668
300.0   120.0   0.0
300.0   90.0   16.666666666666668
350.0   120.0   16.666666666666668
350.0   90.0   16.666666666666668
350.0   90.0   0.0
300.0   90.0   16.666666666666668
350.0   120.0   16.666666666666668
350.0   90.0   0.0
300.0   120.0   0.0
300.0   90.0   16.666666666666668
350.0   90.0   16.666666666666668
300.0   120.0   16.666666666666668
300.0   90.0   33.333333333333336
350.0   90.0   16.666666666666668
350.0   120.0   16.666666666666668
300.0   120.0   16.666666666666668
350.0   120.0   33.333333333333336
300.0   90.0   33.333333333333336
300.0   120.0   33.333333333333336
350.0   120.0   33.333333333333336
300.0   120.0   16.666666666666668
300.0   90.0   33.333333333333336
350.0   120.0   33.333333333333336
350.0   90.0   33.333333333333336
350.0   90.0   16.666666666666668
300.0   90.0   33.333333333333336
350.0   120.0   33.333333333333336
350.0   90.0   16.666666666666668
300.0   120.0   16.666666666666668
300.0   90.0   33.333333333333336
350.0   90.0   33.333333333333336
300.0   120.0   33.333333333333336
300.0   90.0   50.0
350.0   90.0   33.333333333333336
350.0   120.0   33.333333333333336
300.0   120.0   33.333333333333336
350.0   120.0   50.0
300.0   90.0   50.0
300.0   120.0   50.0
350.0   120.0   50.0
300.0   120.0   33.333333333333336
300.0   90.0   50.0
350.0   120.0   50.0
350.0   90.0   50.0
350.0   90.0   33.333333333333336
300.0   90.0   50.0
350.0   120.0   50.0
350.0   90.0   33.333333333333336
300.0   120.0   33.333333333333336
300.0   120.0   0.0
350.0   120.0   0.0
300.0   150.0   0.0
300.0   120.0   16.666666666666668
350.0   120.0   0.0
350.0   150.0   0.0
300.0   150.0   0.0
350.0   150.0   16.666666666666668
300.0   120.0   16.666666666666668
300.0   150.0   16.666666666666668
350.0   150.0   16.666666666666668
300.0   150.0   0.0
300.0   120.0   16.666666666666668
350.0   150.0   16.666666666666668
350.0   120.0   16.666666666666668
350.0   120.0   0.0
300.0   120.0   16.666666666666668
350.0   150.0   16.666666666666668
350.0   120.0   0.0
300.0   150.0   0.0
300.0   120.0   16.666666666666668
350.0   120.0   16.666666666666668
300.0   150.0   16.666666666666668
300.0   120.0   33.333333333333336
350.0   120.0   16.666666666666668
350.0   150.0   16.666666666666668
300.0   150.0   16.666666666666668
350.0   150.0   33.333333333333336
300.0   120.0   33.333333333333336
300.0   150.0   33.333333333333336
350.0   150.0   33.333333333333336
300.0   150.0   16.666666666666668
300.0   120.0   33.333333333333336
350.0   150.0   33.333333333333336
350.0   120.0   33.333333333333336
350.0   120.0   16.666666666666668
300.0   120.0   33.333333333333336
350.0   150.0   33.333333333333336
350.0   120.0   16.666666666666668
300.0   150.0   16.666666666666668
300.0   120.0   33.333333333333336
350.0   120.0   33.333333333333336
300.0   150.0   33.333333333333336
300.0   120.0   50.0
350.0   120.0   33.333333333333336
350.0   150.0   33.333333333333336
300.0   150.0   33.333333333333336
350.0   150.0   50.0
300.0   120.0   50.0
300.0   150.0   50.0
350.0   150.0   50.0
300.0   150.0   33.333333333333336
300.0   120.0   50.0
350.0   150.0   50.0
350.0   120.0   50.0
350.0   120.0   33.333333333333336
300.0   120.0   50.0
350.0   150.0   50.0
350.0   120.0   33.333333333333336
300.0   150.0   33.333333333333336
350.0   0.0   0.0
400.0   0.0   0.0
350.0   30.0   0.0
350.0   0.0   16.666666666666668
400.0   0.0   0.0
400.0   30.0   0.0
350.0   30.0   0.0
400.0   30.0   16.666666666666668
350.0   0.0   16.666666666666668
350.0   30.0   16.666666666666668
400.0   30.0   16.666666666666668
350.0   30.0   0.0
350.0   0.0   16.666666666666668
400.0   30.0   16.666666666666668
400.0   0.0   16.666666666666668
400.0   0.0   0.0
350.0   0.0   16.666666666666668
400.0   30.0   16.666666666666668
400.0   0.0   0.0
350.0   30.0   0.0
350.0   0.0   16.666666666666668
400.0   0.0   16.666666666666668
350.0   30.0   16.666666666666668
350.0   0.0   33.333333333333336
400.0   0.0   16.666666666666668
400.0   30.0   16.666666666666668
350.0   30.0   16.666666666666668
400.0   30.0   33.333333333333336
350.0   0.0   33.333333333333336
350.0   30.0   33.333333333333336
400.0   30.0   33.333333333333336
350.0   30.0   16.666666666666668
350.0   0.0   33.333333333333336
400.0   30.0   33.333333333333336
400.0   0.0   33.333333333333336
400.0   0.0   16.666666666666668
350.0   0.0   33.333333333333336
400.0   30.0   33.333333333333336
400.0   0.0   16.666666666666668
350.0   30.0   16.666666666666668
350.0   0.0   33.333333333333336
400.0   0.0   33.333333333333336
350.0   30.0   33.333333333333336
350.0   0.0   50.0
400.0   0.0   33.333333333333336
400.0   30.0   33.333333333333336
350.0   30.0   33.333333333333336
400.0   30.0   50.0
350.0   0.0   50.0
350.0   30.0   50.0
400.0   30.0   50.0
350.0   30.0   33.333333333333336
350.0   0.0   50.0
400.0   30.0   50.0
400.0   0.0   50.0
400.0   0.0   33.333333333333336
350.0   0.0   50.0
400.0   30.0   50.0
400.0   0.0   33.333333333333336
350.0   30.0   33.333333333333336
350.0   30.0   0.0
400.0   30.0   0.0
350.0   60.0   0.0
350.0   30.0   16.666666666666668
400.0   30.0   0.0
400.0   60.0   0.0
350.0   60.0   0.0
400.0   60.0   16.666666666666668
350.0   30.0   16.666666666666668
350.0   60.0   16.666666666666668
400.0   60.0   16.666666666666668
350.0   60.0   0.0
350.0   30.0   16.666666666666668
400.0   60.0   16.666666666666668
400.0   30.0   16.666666666666668
400.0   30.0   0.0
350.0   30.0   16.666666666666668
400.0   60.0   16.666666666666668
400.0   30.0   0.0
350.0   60.0   0.0
350.0   30.0   16.666666666666668
400.0   30.0   16.666666666666668
350.0   60.0   16.666666666666668
350.0   30.0   33.333333333333336
400.0   30.0   16.666666666666668
400.0   60.0   16.666666666666668
350.0   60.0   16.666666666666668
400.0   60.0   33.333333333333336
350.0   30.0   33.333333333333336
350.0   60.0   33.333333333333336
400.0   60.0   33.333333333333336
350.0   60.0   16.666666666666668
350.0   30.0   33.333333333333336
400.0   60.0   33.333333333333336
400.0   30.0   33.333333333333336
400.0   30.0   16.666666666666668
350.0   30.0   33.333333333333336
400.0   60.0   33.333333333333336
400.0   30.0   16.666666666666668
350.0   60.0   16.666666666666668
350.0   30.0   33.333333333333336
400.0   30.0   33.333333333333336
350.0   60.0   33.333333333333336
350.0   30.0   50.0
400.0   30.0   33.333333333333336
400.0   60.0   33.333333333333336
350.0   60.0   33.333333333333336
400.0   60.0   50.0
350.0   30.0   50.0
350.0   60.0   50.0
400.0   60.0   50.0
350.0   60.0   33.333333333333336
350.0   30.0   50.0
400.0   60.0   50.0
400.0   30.0   50.0
400.0   30.0   33.333333333333336
350.0   30.0   50.0
400.0   60.0   50.0
400.0   30.0   33.333333333333336
350.0   60.0   33.333333333333336
350.0   60.0   0.0
400.0   60.0   0.0
350.0   90.0   0.0
350.0   60.0   16.666666666666668
400.0   60.0   0.0
400.0   90.0   0.0
350.0   90.0   0.0
400.0   90.0   16.666666666666668
350.0   60.0   16.666666666666668
350.0   90.0   16.666666666666668
400.0   90.0   16.666666666666668
350.0   90.0   0.0
350.0   60.0   16.666666666666668
400.0   90.0   16.666666666666668
400.0   60.0   16.666666666666668
400.0   60.0   0.0
350.0   60.0   16.666666666666668
400.0   90.0   16.666666666666668
400.0   60.0   0.0
350.0   90.0   0.0
350.0   60.0   16.666666666666668
400.0   60.0   16.666666666666668
350.0   90.0   16.666666666666668
350.0   60.0   33.333333333333336
400.0   60.0   16.666666666666668
400.0   90.0   16.666666666666668
350.0   90.0   16.666666666666668
400.0   90.0   33.333333333333336
350.0   60.0   33.333333333333336
350.0   90.0   33.333333333333336
400.0   90.0   33.333333333333336
350.0   90.0   16.666666666666668
350.0   60.0   33.333333333333336
400.0   90.0   33.333333333333336
400.0   60.0   33.333333333333336
400.0   60.0   16.666666666666668
350.0   60.0   33.333333333333336
400.0   90.0   33.333333333333336
400.0   60.0   16.666666666666668
350.0   90.0   16.666666666666668
350.0   60.0   33.333333333333336
400.0   60.0   33.333333333333336
350.0   90.0   33.333333333333336
350.0   60.0   50.0
400.0   60.0   33.333333333333336
400.0   90.0   33.333333333333336
350.0   90.0   33.333333333333336
400.0   90.0   50.0
350.0   60.0   50.0
350.0   90.0   50.0
400.0   90.0   50.0
350.0   90.0   33.333333333333336
350.0   60.0   50.0
400.0   90.0   50.0
400.0   60.0   50.0
400.0   60.0   33.333333333333336
350.0   60.0   50.0
400.0   90.0   50.0
400.0   60.0   33.333333333333336
350.0   90.0   33.333333333333336
350.0   90.0   0.0
400.0   90.0   0.0
350.0   120.0   0.0
350.0   90.0   16.666666666666668
400.0   90.0   0.0
400.0   120.0   0.0
350.0   120.0   0.0
400.0   120.0   16.666666666666668
350.0   90.0   16.666666666666668
350.0   120.0   16.666666666666668
400.0   120.0   16.666666666666668
350.0   120.0   0.0
350.0   90.0   16.666666666666668
400.0   120.0   16.666666666666668
400.0   90.0   16.666666666666668
400.0   90.0   0.0
350.0   90.0   16.666666666666668
400.0   120.0   16.666666666666668
400.0   90.0   0.0
350.0   120.0   0.0
350.0   90.0   16.666666666666668
400.0   90.0   16.666666666666668
350.0   120.0   16.666666666666668
350.0   90.0   33.333333333333336
400.0   90.0   16.666666666666668
400.0   120.0   16.666666666666668
350.0   120.0   16.666666666666668
400.0   120.0   33.333333333333336
350.0   90.0   33.333333333333336
350.0   120.0   33.333333333333336
400.0   120.0   33.333333333333336
350.0   120.0   16.666666666666668
350.0   90.0   33.333333333333336
400.0   120.0   33.333333333333336
400.0   90.0   33.333333333333336
400.0   90.0   16.666666666666668
350.0   90.0   33.333333333333336
400.0   120.0   33.333333333333336
400.0   90.0   16.666666666666668
350.0   120.0   16.666666666666668
350.0   90.0   33.333333333333336
400.0   90.0   33.333333333333336
350.0   120.0   33.333333333333336
350.0   90.0   50.0
400.0   90.0   33.333333333333336
400.0   120.0   33.333333333333336
350.0   120.0   33.333333333333336
400.0   120.0   50.0
350.0   90.0   50.0
350.0   120.0   50.0
400.0   120.0   50.0
350.0   120.0   33.333333333333336
350.0   90.0   50.0
400.0   120.0   50.0
400.0   90.0   50.0
400.0   90.0   33.333333333333336
350.0   90.0   50.0
400.0   120.0   50.0
400.0   90.0   33.333333333333336
350.0   120.0   33.333333333333336
350.0   120.0   0.0
400.0   120.0   0.0
350.0   150.0   0.0
350.0   120.0   16.666666666666668
400.0   120.0   0.0
400.0   150.0   0.0
350.0   150.0   0.0
400.0   150.0   16.666666666666668
350.0   120.0   16.666666666666668
350.0   150.0   16.666666666666668
400.0   150.0   16.666666666666668
350.0   150.0   0.0
350.0   120.0   16.666666666666668
400.0   150.0   16.666666666666668
400.0   120.0   16.666666666666668
400.0   120.0   0.0
350.0   120.0   16.666666666666668
400.0   150.0   16.666666666666668
400.0   120.0   0.0
350.0   150.0   0.0
350.0   120.0   16.666666666666668
400.0   120.0   16.666666666666668
350.0   150.0   16.666666666666668
350.0   120.0   33.333333333333336
400.0   120.0   16.666666666666668
400.0   150.0   16.666666666666668
350.0   150.0   16.666666666666668
400.0   150.0   33.333333333333336
350.0   120.0   33.333333333333336
350.0   150.0   33.333333333333336
400.0   150.0   33.333333333333336
350.0   150.0   16.666666666666668
350.0   120.0   33.333333333333336
400.0   150.0   33.333333333333336
400.0   120.0   33.333333333333336
400.0   120.0   16.666666666666668
350.0   120.0   33.333333333333336
400.0   150.0   33.333333333333336
400.0   120.0   16.666666666666668
350.0   150.0   16.666666666666668
350.0   120.0   33.333333333333336
400.0   120.0   33.333333333333336
350.0   150.0   33.333333333333336
350.0   120.0   50.0
400.0   120.0   33.333333333333336
400.0   150.0   33.333333333333336
350.0   150.0   33.333333333333336
400.0   150.0   50.0
350.0   120.0   50.0
350.0   150.0   50.0
400.0   150.0   50.0
350.0   150.0   33.333333333333336
350.0   120.0   50.0
400.0   150.0   50.0
400.0   120.0   50.0
400.0   120.0   33.333333333333336
350.0   120.0   50.0
400.0   150.0   50.0
400.0   120.0   33.333333333333336
350.0   150.0   33.333333333333336
400.0   0.0   0.0
450.0   0.0   0.0
400.0   30.0   0.0
400.0   0.0   16.666666666666668
450.0   0.0   0.0
450.0   30.0   0.0
400.0   30.0   0.0
450.0   30.0   16.666666666666668
400.0   0.0   16.666666666666668
400.0   30.0   16.666666666666668
450.0   30.0   16.666666666666668
400.0   30.0   0.0
400.0   0.0   16.666666666666668
450.0   30.0   16.666666666666668
450.0   0.0   16.666666666666668
450.0   0.0   0.0
400.0   0.0   16.666666666666668
450.0   30.0   16.666666666666668
450.0   0.0   0.0
400.0   30.0   0.0
400.0   0.0   16.666666666666668
450.0   0.0   16.666666666666668
400.0   30.0   16.666666666666668
400.0   0.0   33.333333333333336
450.0   0.0   16.666666666666668
450.0   30.0   16.666666666666668
400.0   30.0   16.666666666666668
450.0   30.0   33.333333333333336
400.0   0.0   33.333333333333336
400.0   30.0   33.333333333333336
450.0   30.0   33.333333333333336
400.0   30.0   16.666666666666668
400.0   0.0   33.333333333333336
450.0   30.0   33.333333333333336
450.0   0.0   33.333333333333336
450.0   0.0   16.666666666666668
400.0   0.0   33.333333333333336
450.0   30.0   33.333333333333336
450.0   0.0   16.666666666666668
400.0   30.0   16.666666666666668
400.0   0.0   33.333333333333336
450.0   0.0   33.333333333333336
400.0   30.0   33.333333333333336
400.0   0.0   50.0
450.0   0.0   33.333333333333336
450.0   30.0   33.333333333333336
400.0   30.0   33.333333333333336
450.0   30.0   50.0
400.0   0.0   50.0
400.0   30.0   50.0
450.0   30.0   50.0
400.0   30.0   33.333333333333336
400.0   0.0   50.0
450.0   30.0   50.0
450.0   0.0   50.0
450.0   0.0   33.333333333333336
400.0   0.0   50.0
450.0   30.0   50.0
450.0   0.0   33.333333333333336
400.0   30.0   33.333333333333336
400.0   30.0   0.0
450.0   30.0   0.0
400.0   60.0   0.0
400.0   30.0   16.666666666666668
450.0   30.0   0.0
450.0   60.0   0.0
400.0   60.0   0.0
450.0   60.0   16.666666666666668
400.0   30.0   16.666666666666668
400.0   60.0   16.666666666666668
450.0   60.0   16.666666666666668
400.0   60.0   0.0
400.0   30.0   16.666666666666668
450.0   60.0   16.666666666666668
450.0   30.0   16.666666666666668
450.0   30.0   0.0
400.0   30.0   16.666666666666668
450.0   60.0   16.666666666666668
450.0   30.0   0.0
400.0   60.0   0.0
400.0   30.0   16.666666666666668
450.0   30.0   16.666666666666668
400.0   60.0   16.666666666666668
400.0   30.0   33.333333333333336
450.0   30.0   16.666666666666668
450.0   60.0   16.666666666666668
400.0   60.0   16.666666666666668
450.0   60.0   33.333333333333336
400.0   30.0   33.333333333333336
400.0   60.0   33.333333333333336
450.0   60.0   33.333333333333336
400.0   60.0   16.666666666666668
400.0   30.0   33.333333333333336
450.0   60.0   33.333333333333336
450.0   30.0   33.333333333333336
450.0   30.0   16.666666666666668
400.0   30.0   33.333333333333336
450.0   60.0   33.333333333333336
450.0   30.0   16.666666666666668
400.0   60.0   16.666666666666668
400.0   30.0   33.333333333333336
450.0   30.0   33.333333333333336
400.0   60.0   33.333333333333336
400.0   30.0   50.0
450.0   30.0   33.333333333333336
450.0   60.0   33.333333333333336
400.0   60.0   33.333333333333336
450.0   60.0   50.0
400.0   30.0   50.0
400.0   60.0   50.0
450.0   60.0   50.0
400.0   60.0   33.333333333333336
400.0   30.0   50.0
450.0   60.0   50.0
450.0   30.0   50.0
450.0   30.0   33.333333333333336
400.0   30.0   50.0
450.0   60.0   50.0
450.0   30.0   33.333333333333336
400.0   60.0   33.333333333333336
400.0   60.0   0.0
450.0   60.0   0.0
400.0   90.0   0.0
400.0   60.0   16.666666666666668
450.0   60.0   0.0
450.0   90.0   0.0
400.0   90.0   0.0
450.0   90.0   16.666666666666668
400.0   60.0   16.666666666666668
400.0   90.0   16.666666666666668
450.0   90.0   16.666666666666668
400.0   90.0   0.0
400.0   60.0   16.666666666666668
450.0   90.0   16.666666666666668
450.0   60.0   16.666666666666668
450.0   60.0   0.0
400.0   60.0   16.666666666666668
450.0   90.0   16.666666666666668
450.0   60.0   0.0
400.0   90.0   0.0
400.0   60.0   16.666666666666668
450.0   60.0   16.666666666666668
400.0   90.0   16.666666666666668
400.0   60.0   33.333333333333336
450.0   60.0   16.666666666666668
450.0   90.0   16.666666666666668
400.0   90.0   16.666666666666668
450.0   90.0   33.333333333333336
400.0   60.0   33.333333333333336
400.0   90.0   33.333333333333336
450.0   90.0   33.333333333333336
400.0   90.0   16.666666666666668
400.0   60.0   33.333333333333336
450.0   90.0   33.333333333333336
450.0   60.0   33.333333333333336
450.0   60.0   16.666666666666668
400.0   60.0   33.333333333333336
450.0   90.0   33.333333333333336
450.0   60.0   16.666666666666668
400.0   90.0   16.666666666666668
400.0   60.0   33.333333333333336
450.0   60.0   33.333333333333336
400.0   90.0   33.333333333333336
400.0   60.0   50.0
450.0   60.0   33.333333333333336
450.0   90.0   33.333333333333336
400.0   90.0   33.333333333333336
450.0   90.0   50.0
400.0   60.0   50.0
400.0   90.0   50.0
450.0   90.0   50.0
400.0   90.0   33.333333333333336
400.0   60.0   50.0
450.0   90.0   50.0
450.0   60.0   50.0
450.0   60.0   33.333333333333336
400.0   60.0   50.0
450.0   90.0   50.0
450.0   60.0   33.333333333333336
400.0   90.0   33.333333333333336
400.0   90.0   0.0
450.0   90.0   0.0
400.0   120.0   0.0
400.0   90.0   16.666666666666668
450.0   90.0   0.0
450.0   120.0   0.0
400.0   120.0   0.0
450.0   120.0   16.666666666666668
400.0   90.0   16.666666666666668
400.0   120.0   16.666666666666668
450.0   120.0   16.666666666666668
400.0   120.0   0.0
400.0   90.0   16.666666666666668
450.0   120.0   16.666666666666668
450.0   90.0   16.666666666666668
450.0   90.0   0.0
400.0   90.0   16.666666666666668
450.0   120.0   16.666666666666668
450.0   90.0   0.0
400.0   120.0   0.0
400.0   90.0   16.666666666666668
450.0   90.0   16.666666666666668
400.0   120.0   16.666666666666668
400.0   90.0   33.333333333333336
450.0   90.0   16.666666666666668
450.0   120.0   16.666666666666668
400.0   120.0   16.666666666666668
450.0   120.0   33.333333333333336
400.0   90.0   33.333333333333336
400.0   120.0   33.333333333333336
450.0   120.0   33.333333333333336
400.0   120.0   16.666666666666668
400.0   90.0   33.333333333333336
450.0   120.0   33.333333333333336
450.0   90.0   33.333333333333336
450.0   90.0   16.666666666666668
400.0   90.0   33.333333333333336
450.0   120.0   33.333333333333336
450.0   90.0   16.666666666666668
400.0   120.0   16.666666666666668
400.0   90.0   33.333333333333336
450.0   90.0   33.333333333333336
400.0   120.0   33.333333333333336
400.0   90.0   50.0
450.0   90.0   33.333333333333336
450.0   120.0   33.333333333333336
400.0   120.0   33.333333333333336
450.0   120.0   50.0
400.0   90.0   50.0
400.0   120.0   50.0
450.0   120.0   50.0
400.0   120.0   33.333333333333336
400.0   90.0   50.0
450.0   120.0   50.0
450.0   90.0   50.0
450.0   90.0   33.333333333333336
400.0   90.0   50.0
450.0   120.0   50.0
450.0   90.0   33.333333333333336
400.0   120.0   33.333333333333336
400.0   120.0   0.0
450.0   120.0   0.0
400.0   150.0   0.0
400.0   120.0   16.666666666666668
450.0   120.0   0.0
450.0   150.0   0.0
400.0   150.0   0.0
450.0   150.0   16.666666666666668
400.0   120.0   16.666666666666668
400.0   150.0   16.666666666666668
450.0   150.0   16.666666666666668
400.0   150.0   0.0
400.0   120.0   16.666666666666668
450.0   150.0   16.666666666666668
450.0   120.0   16.666666666666668
450.0   120.0   0.0
400.0   120.0   16.666666666666668
450.0   150.0   16.666666666666668
450.0   120.0   0.0
400.0   150.0   0.0
400.0   120.0   16.666666666666668
450.0   120.0   16.666666666666668
400.0   150.0   16.666666666666668
400.0   120.0   33.333333333333336
450.0   120.0   16.666666666666668
450.0   150.0   16.666666666666668
400.0   150.0   16.666666666666668
450.0   150.0   33.333333333333336
400.0   120.0   33.333333333333336
400.0   150.0   33.333333333333336
450.0   150.0   33.333333333333336
400.0   150.0   16.666666666666668
400.0   120.0   33.333333333333336
450.0   150.0   33.333333333333336
450.0   120.0   33.333333333333336
450.0   120.0   16.666666666666668
400.0   120.0   33.333333333333336
450.0   150.0   33.333333333333336
450.0   120.0   16.666666666666668
400.0   150.0   16.666666666666668
400.0   120.0   33.333333333333336
450.0   120.0   33.333333333333336
400.0   150.0   33.333333333333336
400.0   120.0   50.0
450.0   120.0   33.333333333333336
450.0   150.0   33.333333333333336
400.0   150.0   33.333333333333336
450.0   150.0   50.0
400.0   120.0   50.0
400.0   150.0   50.0
450.0   150.0   50.0
400.0   150.0   33.333333333333336
400.0   120.0   50.0
450.0   150.0   50.0
450.0   120.0   50.0
450.0   120.0   33.333333333333336
400.0   120.0   50.0
450.0   150.0   50.0
450.0   120.0   33.333333333333336
400.0   150.0   33.333333333333336
450.0   0.0   0.0
500.0   0.0   0.0
450.0   30.0   0.0
450.0   0.0   16.666666666666668
500.0   0.0   0.0
500.0   30.0   0.0
450.0   30.0   0.0
500.0   30.0   16.666666666666668
450.0   0.0   16.666666666666668
450.0   30.0   16.666666666666668
500.0   30.0   16.666666666666668
450.0   30.0   0.0
450.0   0.0   16.666666666666668
500.0   30.0   16.666666666666668
500.0   0.0   16.666666666666668
500.0   0.0   0.0
450.0   0.0   16.666666666666668
500.0   30.0   16.666666666666668
500.0   0.0   0.0
450.0   30.0   0.0
450.0   0.0   16.666666666666668
500.0   0.0   16.666666666666668
450.0   30.0   16.666666666666668
450.0   0.0   33.333333333333336
500.0   0.0   16.666666666666668
500.0   30.0   16.666666666666668
450.0   30.0   16.666666666666668
500.0   30.0   33.333333333333336
450.0   0.0   33.333333333333336
450.0   30.0   33.333333333333336
500.0   30.0   33.333333333333336
450.0   30.0   16.666666666666668
450.0   0.0   33.333333333333336
500.0   30.0   33.333333333333336
500.0   0.0   33.333333333333336
500.0   0.0   16.666666666666668
450.0   0.0   33.333333333333336
500.0   30.0   33.333333333333336
500.0   0.0   16.666666666666668
450.0   30.0   16.666666666666668
450.0   0.0   33.333333333333336
500.0   0.0   33.333333333333336
450.0   30.0   33.333333333333336
450.0   0.0   50.0
500.0   0.0   33.333333333333336
500.0   30.0   33.333333333333336
450.0   30.0   33.333333333333336
500.0   30.0   50.0
450.0   0.0   50.0
450.0   30.0   50.0
500.0   30.0   50.0
450.0   30.0   33.333333333333336
450.0   0.0   50.0
500.0   30.0   50.0
500.0   0.0   50.0
500.0   0.0   33.333333333333336
450.0   0.0   50.0
500.0   30.0   50.0
500.0   0.0   33.333333333333336
450.0   30.0   33.333333333333336
450.0   30.0   0.0
500.0   30.0   0.0
450.0   60.0   0.0
450.0   30.0   16.666666666666668
500.0   30.0   0.0
500.0   60.0   0.0
450.0   60.0   0.0
500.0   60.0   16.666666666666668
450.0   30.0   16.666666666666668
450.0   60.0   16.666666666666668
500.0   60.0   16.666666666666668
450.0   60.0   0.0
450.0   30.0   16.666666666666668
500.0   60.0   16.666666666666668
500.0   30.0   16.666666666666668
500.0   30.0   0.0
450.0   30.0   16.666666666666668
500.0   60.0   16.666666666666668
500.0   30.0   0.0
450.0   60.0   0.0
450.0   30.0   16.666666666666668
500.0   30.0   16.666666666666668
450.0   60.0   16.666666666666668
450.0   30.0   33.333333333333336
500.0   30.0   16.666666666666668
500.0   60.0   16.666666666666668
450.0   60.0   16.666666666666668
500.0   60.0   33.333333333333336
450.0   30.0   33.333333333333336
450.0   60.0   33.333333333333336
500.0   60.0   33.333333333333336
450.0   60.0   16.666666666666668
450.0   30.0   33.333333333333336
500.0   60.0   33.333333333333336
500.0   30.0   33.333333333333336
500.0   30.0   16.666666666666668
450.0   30.0   33.333333333333336
500.0   60.0   33.333333333333336
500.0   30.0   16.666666666666668
450.0   60.0   16.666666666666668
450.0   30.0   33.333333333333336
500.0   30.0   33.333333333333336
450.0   60.0   33.333333333333336
450.0   30.0   50.0
500.0   30.0   33.333333333333336
500.0   60.0   33.333333333333336
450.0   60.0   33.333333333333336
500.0   60.0   50.0
450.0   30.0   50.0
450.0   60.0   50.0
500.0   60.0   50.0
450.0   60.0   33.333333333333336
450.0   30.0   50.0
500.0   60.0   50.0
500.0   30.0   50.0
500.0   30.0   33.333333333333336
450.0   30.0   50.0
500.0   60.0   50.0
500.0   30.0   33.333333333333336
450.0   60.0   33.333333333333336
450.0   60.0   0.0
500.0   60.0   0.0
450.0   90.0   0.0
450.0   60.0   16.666666666666668
500.0   60.0   0.0
500.0   90.0   0.0
450.0   90.0   0.0
500.0   90.0   16.666666666666668
450.0   60.0   16.666666666666668
450.0   90.0   16.666666666666668
500.0   90.0   16.666666666666668
450.0   90.0   0.0
450.0   60.0   16.666666666666668
500.0   90.0   16.666666666666668
500.0   60.0   16.666666666666668
500.0   60.0   0.0
450.0   60.0   16.666666666666668
500.0   90.0   16.666666666666668
500.0   60.0   0.0
450.0   90.0   0.0
450.0   60.0   16.666666666666668
500.0   60.0   16.666666666666668
450.0   90.0   16.666666666666668
450.0   60.0   33.333333333333336
500.0   60.0   16.666666666666668
500.0   90.0   16.666666666666668
450.0   90.0   16.666666666666668
500.0   90.0   33.333333333333336
450.0   60.0   33.333333333333336
450.0   90.0   33.333333333333336
500.0   90.0   33.333333333333336
450.0   90.0   16.666666666666668
450.0   60.0   33.333333333333336
500.0   90.0   33.333333333333336
500.0   60.0   33.333333333333336
500.0   60.0   16.666666666666668
450.0   60.0   33.333333333333336
500.0   90.0   33.333333333333336
500.0   60.0   16.666666666666668
450.0   90.0   16.666666666666668
450.0   60.0   33.333333333333336
500.0   60.0   33.333333333333336
450.0   90.0   33.333333333333336
450.0   60.0   50.0
500.0   60.0   33.333333333333336
500.0   90.0   33.333333333333336
450.0   90.0   33.333333333333336
500.0   90.0   50.0
450.0   60.0   50.0
450.0   90.0   50.0
500.0   90.0   50.0
450.0   90.0   33.333333333333336
450.0   60.0   50.0
500.0   90.0   50.0
500.0   60.0   50.0
500.0   60.0   33.333333333333336
450.0   60.0   50.0
500.0   90.0   50.0
500.0   60.0   33.333333333333336
450.0   90.0   33.333333333333336
450.0   90.0   0.0
500.0   90.0   0.0
450.0   120.0   0.0
450.0   90.0   16.666666666666668
500.0   90.0   0.0
500.0   120.0   0.0
450.0   120.0   0.0
500.0   120.0   16.666666666666668
450.0   90.0   16.666666666666668
450.0   120.0   16.666666666666668
500.0   120.0   16.666666666666668
450.0   120.0   0.0
450.0   90.0   16.666666666666668
500.0   120.0   16.666666666666668
500.0   90.0   16.666666666666668
500.0   90.0   0.0
450.0   90.0   16.666666666666668
500.0   120.0   16.666666666666668
500.0   90.0   0.0
450.0   120.0   0.0
450.0   90.0   16.666666666666668
500.0   90.0   16.666666666666668
450.0   120.0   16.666666666666668
450.0   90.0   33.333333333333336
500.0   90.0   16.666666666666668
500.0   120.0   16.666666666666668
450.0   120.0   16.666666666666668
500.0   120.0   33.333333333333336
450.0   90.0   33.333333333333336
450.0   120.0   33.333333333333336
500.0   120.0   33.333333333333336
450.0   120.0   16.666666666666668
450.0   90.0   33.333333333333336
500.0   120.0   33.333333333333336
500.0   90.0   33.333333333333336
500.0   90.0   16.666666666666668
450.0   90.0   33.333333333333336
500.0   120.0   33.333333333333336
500.0   90.0   16.666666666666668
450.0   120.0   16.666666666666668
450.0   90.0   33.333333333333336
500.0   90.0   33.333333333333336
450.0   120.0   33.333333333333336
450.0   90.0   50.0
500.0   90.0   33.333333333333336
500.0   120.0   33.333333333333336
450.0   120.0   33.333333333333336
500.0   120.0   50.0
450.0   90.0   50.0
450.0   120.0   50.0
500.0   120.0   50.0
450.0   120.0   33.333333333333336
450.0   90.0   50.0
500.0   120.0   50.0
500.0   90.0   50.0
500.0   90.0   33.333333333333336
450.0   90.0   50.0
500.0   120.0   50.0
500.0   90.0   33.333333333333336
450.0   120.0   33.333333333333336
450.0   120.0   0.0
500.0   120.0   0.0
450.0   150.0   0.0
450.0   120.0   16.666666666666668
500.0   120.0   0.0
500.0   150.0   0.0
450.0   150.0   0.0
500.0   150.0   16.666666666666668
450.0   120.0   16.666666666666668
450.0   150.0   16.666666666666668
500.0   150.0   16.666666666666668
450.0   150.0   0.0
450.0   120.0   16.666666666666668
500.0   150.0   16.666666666666668
500.0   120.0   16.666666666666668
500.0   120.0   0.0
450.0   120.0   16.666666666666668
500.0   150.0   16.666666666666668
500.0   120.0   0.0
450.0   150.0   0.0
450.0   120.0   16.666666666666668
500.0   120.0   16.666666666666668
450.0   150.0   16.666666666666668
450.0   120.0   33.333333333333336
500.0   120.0   16.666666666666668
500.0   150.0   16.666666666666668
450.0   150.0   16.666666666666668
500.0   150.0   33.333333333333336
450.0   120.0   33.333333333333336
450.0   150.0   33.333333333333336
500.0   150.0   33.333333333333336
450.0   150.0   16.666666666666668
450.0   120.0   33.333333333333336
500.0   150.0   33.333333333333336
500.0   120.0   33.333333333333336
500.0   120.0   16.666666666666668
450.0   120.0   33.333333333333336
500.0   150.0   33.333333333333336
500.0   120.0   16.666666666666668
450.0   150.0   16.666666666666668
450.0   120.0   33.333333333333336
500.0   120.0   33.333333333333336
450.0   150.0   33.333333333333336
450.0   120.0   50.0
500.0   120.0   33.333333333333336
500.0   150.0   33.333333333333336
450.0   150.0   33.333333333333336
500.0   150.0   50.0
450.0   120.0   50.0
450.0   150.0   50.0
500.0   150.0   50.0
450.0   150.0   33.333333333333336
450.0   120.0   50.0
500.0   150.0   50.0
500.0   120.0   50.0
500.0   120.0   33.333333333333336
450.0   120.0   50.0
500.0   150.0   50.0
500.0   120.0   33.333333333333336
450.0   150.0   33.333333333333336
             </DataArray>   
          </Points>  
          <Cells>  
             <DataArray type="Int32" Name="connectivity" format="ascii">   
0   1   2   3
4   5   6   7
8   9   10   11
12   13   14   15
16   17   18   19
20   21   22   23
24   25   26   27
28   29   30   31
32   33   34   35
36   37   38   39
40   41   42   43
44   45   46   47
48   49   50   51
52   53   54   55
56   57   58   59
60   61   62   63
64   65   66   67
68   69   70   71
72   73   74   75
76   77   78   79
80   81   82   83
84   85   86   87
88   89   90   91
92   93   94   95
96   97   98   99
100   101   102   103
104   105   106   107
108   109   110   111
112   113   114   115
116   117   118   119
120   121   122   123
124   125   126   127
128   129   130   131
132   133   134   135
136   137   138   139
140   141   142   143
144   145   146   147
148   149   150   151
152   153   154   155
156   157   158   159
160   161   162   163
164   165   166   167
168   169   170   171
172   173   174   175
176   177   178   179
180   181   182   183
184   185   186   187
188   189   190   191
192   193   194   195
196   197   198   199
200   201   202   203
204   205   206   207
208   209   210   211
212   213   214   215
216   217   218   219
220   221   222   223
224   225   226   227
228   229   230   231
232   233   234   235
236   237   238   239
240   241   242   243
244   245   246   247
248   249   250   251
252   253   254   255
256   257   258   259
260   261   262   263
264   265   266   267
268   269   270   271
272   273   274   275
276   277   278   279
280   281   282   283
284   285   286   287
288   289   290   291
292   293   294   295
296   297   298   299
300   301   302   303
304   305   306   307
308   309   310   311
312   313   314   315
316   317   318   319
320   321   322   323
324   325   326   327
328   329   330   331
332   333   334   335
336   337   338   339
340   341   342   343
344   345   346   347
348   349   350   351
352   353   354   355
356   357   358   359
360   361   362   363
364   365   366   367
368   369   370   371
372   373   374   375
376   377   378   379
380   381   382   383
384   385   386   387
388   389   390   391
392   393   394   395
396   397   398   399
400   401   402   403
404   405   406   407
408   409   410   411
412   413   414   415
416   417   418   419
420   421   422   423
424   425   426   427
428   429   430   431
432   433   434   435
436   437   438   439
440   441   442   443
444   445   446   447
448   449   450   451
452   453   454   455
456   457   458   459
460   461   462   463
464   465   466   467
468   469   470   471
472   473   474   475
476   477   478   479
480   481   482   483
484   485   486   487
488   489   490   491
492   493   494   495
496   497   498   499
500   501   502   503
504   505   506   507
508   509   510   511
512   513   514   515
516   517   518   519
520   521   522   523
524   525   526   527
528   529   530   531
532   533   534   535
536   537   538   539
540   541   542   543
544   545   546   547
548   549   550   551
552   553   554   555
556   557   558   559
560   561   562   563
564   565   566   567
568   569   570   571
572   573   574   575
576   577   578   579
580   581   582   583
584   585   586   587
588   589   590   591
592   593   594   595
596   597   598   599
600   601   602   603
604   605   606   607
608   609   610   611
612   613   614   615
616   617   618   619
620   621   622   623
624   625   626   627
628   629   630   631
632   633   634   635
636   637   638   639
640   641   642   643
644   645   646   647
648   649   650   651
652   653   654   655
656   657   658   659
660   661   662   663
664   665   666   667
668   669   670   671
672   673   674   675
676   677   678   679
680   681   682   683
684   685   686   687
688   689   690   691
692   693   694   695
696   697   698   699
700   701   702   703
704   705   706   707
708   709   710   711
712   713   714   715
716   717   718   719
720   721   722   723
724   725   726   727
728   729   730   731
732   733   734   735
736   737   738   739
740   741   742   743
744   745   746   747
748   749   750   751
752   753   754   755
756   757   758   759
760   761   762   763
764   765   766   767
768   769   770   771
772   773   774   775
776   777   778   779
780   781   782   783
784   785   786   787
788   789   790   791
792   793   794   795
796   797   798   799
800   801   802   803
804   805   806   807
808   809   810   811
812   813   814   815
816   817   818   819
820   821   822   823
824   825   826   827
828   829   830   831
832   833   834   835
836   837   838   839
840   841   842   843
844   845   846   847
848   849   850   851
852   853   854   855
856   857   858   859
860   861   862   863
864   865   866   867
868   869   870   871
872   873   874   875
876   877   878   879
880   881   882   883
884   885   886   887
888   889   890   891
892   893   894   895
896   897   898   899
900   901   902   903
904   905   906   907
908   909   910   911
912   913   914   915
916   917   918   919
920   921   922   923
924   925   926   927
928   929   930   931
932   933   934   935
936   937   938   939
940   941   942   943
944   945   946   947
948   949   950   951
952   953   954   955
956   957   958   959
960   961   962   963
964   965   966   967
968   969   970   971
972   973   974   975
976   977   978   979
980   981   982   983
984   985   986   987
988   989   990   991
992   993   994   995
996   997   998   999
1000   1001   1002   1003
1004   1005   1006   1007
1008   1009   1010   1011
1012   1013   1014   1015
1016   1017   1018   1019
1020   1021   1022   1023
1024   1025   1026   1027
1028   1029   1030   1031
1032   1033   1034   1035
1036   1037   1038   1039
1040   1041   1042   1043
1044   1045   1046   1047
1048   1049   1050   1051
1052   1053   1054   1055
1056   1057   1058   1059
1060   1061   1062   1063
1064   1065   1066   1067
1068   1069   1070   1071
1072   1073   1074   1075
1076   1077   1078   1079
1080   1081   1082   1083
1084   1085   1086   1087
1088   1089   1090   1091
1092   1093   1094   1095
1096   1097   1098   1099
1100   1101   1102   1103
1104   1105   1106   1107
1108   1109   1110   1111
1112   1113   1114   1115
1116   1117   1118   1119
1120   1121   1122   1123
1124   1125   1126   1127
1128   1129   1130   1131
1132   1133   1134   1135
1136   1137   1138   1139
1140   1141   1142   1143
1144   1145   1146   1147
1148   1149   1150   1151
1152   1153   1154   1155
1156   1157   1158   1159
1160   1161   1162   1163
1164   1165   1166   1167
1168   1169   1170   1171
1172   1173   1174   1175
1176   1177   1178   1179
1180   1181   1182   1183
1184   1185   1186   1187
1188   1189   1190   1191
1192   1193   1194   1195
1196   1197   1198   1199
1200   1201   1202   1203
1204   1205   1206   1207
1208   1209   1210   1211
1212   1213   1214   1215
1216   1217   1218   1219
1220   1221   1222   1223
1224   1225   1226   1227
1228   1229   1230   1231
1232   1233   1234   1235
1236   1237   1238   1239
1240   1241   1242   1243
1244   1245   1246   1247
1248   1249   1250   1251
1252   1253   1254   1255
1256   1257   1258   1259
1260   1261   1262   1263
1264   1265   1266   1267
1268   1269   1270   1271
1272   1273   1274   1275
1276   1277   1278   1279
1280   1281   1282   1283
1284   1285   1286   1287
1288   1289   1290   1291
1292   1293   1294   1295
1296   1297   1298   1299
1300   1301   1302   1303
1304   1305   1306   1307
1308   1309   1310   1311
1312   1313   1314   1315
1316   1317   1318   1319
1320   1321   1322   1323
1324   1325   1326   1327
1328   1329   1330   1331
1332   1333   1334   1335
1336   1337   1338   1339
1340   1341   1342   1343
1344   1345   1346   1347
1348   1349   1350   1351
1352   1353   1354   1355
1356   1357   1358   1359
1360   1361   1362   1363
1364   1365   1366   1367
1368   1369   1370   1371
1372   1373   1374   1375
1376   1377   1378   1379
1380   1381   1382   1383
1384   1385   1386   1387
1388   1389   1390   1391
1392   1393   1394   1395
1396   1397   1398   1399
1400   1401   1402   1403
1404   1405   1406   1407
1408   1409   1410   1411
1412   1413   1414   1415
1416   1417   1418   1419
1420   1421   1422   1423
1424   1425   1426   1427
1428   1429   1430   1431
1432   1433   1434   1435
1436   1437   1438   1439
1440   1441   1442   1443
1444   1445   1446   1447
1448   1449   1450   1451
1452   1453   1454   1455
1456   1457   1458   1459
1460   1461   1462   1463
1464   1465   1466   1467
1468   1469   1470   1471
1472   1473   1474   1475
1476   1477   1478   1479
1480   1481   1482   1483
1484   1485   1486   1487
1488   1489   1490   1491
1492   1493   1494   1495
1496   1497   1498   1499
1500   1501   1502   1503
1504   1505   1506   1507
1508   1509   1510   1511
1512   1513   1514   1515
1516   1517   1518   1519
1520   1521   1522   1523
1524   1525   1526   1527
1528   1529   1530   1531
1532   1533   1534   1535
1536   1537   1538   1539
1540   1541   1542   1543
1544   1545   1546   1547
1548   1549   1550   1551
1552   1553   1554   1555
1556   1557   1558   1559
1560   1561   1562   1563
1564   1565   1566   1567
1568   1569   1570   1571
1572   1573   1574   1575
1576   1577   1578   1579
1580   1581   1582   1583
1584   1585   1586   1587
1588   1589   1590   1591
1592   1593   1594   1595
1596   1597   1598   1599
1600   1601   1602   1603
1604   1605   1606   1607
1608   1609   1610   1611
1612   1613   1614   1615
1616   1617   1618   1619
1620   1621   1622   1623
1624   1625   1626   1627
1628   1629   1630   1631
1632   1633   1634   1635
1636   1637   1638   1639
1640   1641   1642   1643
1644   1645   1646   1647
1648   1649   1650   1651
1652   1653   1654   1655
1656   1657   1658   1659
1660   1661   1662   1663
1664   1665   1666   1667
1668   1669   1670   1671
1672   1673   1674   1675
1676   1677   1678   1679
1680   1681   1682   1683
1684   1685   1686   1687
1688   1689   1690   1691
1692   1693   1694   1695
1696   1697   1698   1699
1700   1701   1702   1703
1704   1705   1706   1707
1708   1709   1710   1711
1712   1713   1714   1715
1716   1717   1718   1719
1720   1721   1722   1723
1724   1725   1726   1727
1728   1729   1730   1731
1732   1733   1734   1735
1736   1737   1738   1739
1740   1741   1742   1743
1744   1745   1746   1747
1748   1749   1750   1751
1752   1753   1754   1755
1756   1757   1758   1759
1760   1761   1762   1763
1764   1765   1766   1767
1768   1769   1770   1771
1772   1773   1774   1775
1776   1777   1778   1779
1780   1781   1782   1783
1784   1785   1786   1787
1788   1789   1790   1791
1792   1793   1794   1795
1796   1797   1798   1799
1800   1801   1802   1803
1804   1805   1806   1807
1808   1809   1810   1811
1812   1813   1814   1815
1816   1817   1818   1819
1820   1821   1822   1823
1824   1825   1826   1827
1828   1829   1830   1831
1832   1833   1834   1835
1836   1837   1838   1839
1840   1841   1842   1843
1844   1845   1846   1847
1848   1849   1850   1851
1852   1853   1854   1855
1856   1857   1858   1859
1860   1861   1862   1863
1864   1865   1866   1867
1868   1869   1870   1871
1872   1873   1874   1875
1876   1877   1878   1879
1880   1881   1882   1883
1884   1885   1886   1887
1888   1889   1890   1891
1892   1893   1894   1895
1896   1897   1898   1899
1900   1901   1902   1903
1904   1905   1906   1907
1908   1909   1910   1911
1912   1913   1914   1915
1916   1917   1918   1919
1920   1921   1922   1923
1924   1925   1926   1927
1928   1929   1930   1931
1932   1933   1934   1935
1936   1937   1938   1939
1940   1941   1942   1943
1944   1945   1946   1947
1948   1949   1950   1951
1952   1953   1954   1955
1956   1957   1958   1959
1960   1961   1962   1963
1964   1965   1966   1967
1968   1969   1970   1971
1972   1973   1974   1975
1976   1977   1978   1979
1980   1981   1982   1983
1984   1985   1986   1987
1988   1989   1990   1991
1992   1993   1994   1995
1996   1997   1998   1999
2000   2001   2002   2003
2004   2005   2006   2007
2008   2009   2010   2011
2012   2013   2014   2015
2016   2017   2018   2019
2020   2021   2022   2023
2024   2025   2026   2027
2028   2029   2030   2031
2032   2033   2034   2035
2036   2037   2038   2039
2040   2041   2042   2043
2044   2045   2046   2047
2048   2049   2050   2051
2052   2053   2054   2055
2056   2057   2058   2059
2060   2061   2062   2063
2064   2065   2066   2067
2068   2069   2070   2071
2072   2073   2074   2075
2076   2077   2078   2079
2080   2081   2082   2083
2084   2085   2086   2087
2088   2089   2090   2091
2092   2093   2094   2095
2096   2097   2098   2099
2100   2101   2102   2103
2104   2105   2106   2107
2108   2109   2110   2111
2112   2113   2114   2115
2116   2117   2118   2119
2120   2121   2122   2123
2124   2125   2126   2127
2128   2129   2130   2131
2132   2133   2134   2135
2136   2137   2138   2139
2140   2141   2142   2143
2144   2145   2146   2147
2148   2149   2150   2151
2152   2153   2154   2155
2156   2157   2158   2159
2160   2161   2162   2163
2164   2165   2166   2167
2168   2169   2170   2171
2172   2173   2174   2175
2176   2177   2178   2179
2180   2181   2182   2183
2184   2185   2186   2187
2188   2189   2190   2191
2192   2193   2194   2195
2196   2197   2198   2199
2200   2201   2202   2203
2204   2205   2206   2207
2208   2209   2210   2211
2212   2213   2214   2215
2216   2217   2218   2219
2220   2221   2222   2223
2224   2225   2226   2227
2228   2229   2230   2231
2232   2233   2234   2235
2236   2237   2238   2239
2240   2241   2242   2243
2244   2245   2246   2247
2248   2249   2250   2251
2252   2253   2254   2255
2256   2257   2258   2259
2260   2261   2262   2263
2264   2265   2266   2267
2268   2269   2270   2271
2272   2273   2274   2275
2276   2277   2278   2279
2280   2281   2282   2283
2284   2285   2286   2287
2288   2289   2290   2291
2292   2293   2294   2295
2296   2297   2298   2299
2300   2301   2302   2303
2304   2305   2306   2307
2308   2309   2310   2311
2312   2313   2314   2315
2316   2317   2318   2319
2320   2321   2322   2323
2324   2325   2326   2327
2328   2329   2330   2331
2332   2333   2334   2335
2336   2337   2338   2339
2340   2341   2342   2343
2344   2345   2346   2347
2348   2349   2350   2351
2352   2353   2354   2355
2356   2357   2358   2359
2360   2361   2362   2363
2364   2365   2366   2367
2368   2369   2370   2371
2372   2373   2374   2375
2376   2377   2378   2379
2380   2381   2382   2383
2384   2385   2386   2387
2388   2389   2390   2391
2392   2393   2394   2395
2396   2397   2398   2399
2400   2401   2402   2403
2404   2405   2406   2407
2408   2409   2410   2411
2412   2413   2414   2415
2416   2417   2418   2419
2420   2421   2422   2423
2424   2425   2426   2427
2428   2429   2430   2431
2432   2433   2434   2435
2436   2437   2438   2439
2440   2441   2442   2443
2444   2445   2446   2447
2448   2449   2450   2451
2452   2453   2454   2455
2456   2457   2458   2459
2460   2461   2462   2463
2464   2465   2466   2467
2468   2469   2470   2471
2472   2473   2474   2475
2476   2477   2478   2479
2480   2481   2482   2483
2484   2485   2486   2487
2488   2489   2490   2491
2492   2493   2494   2495
2496   2497   2498   2499
2500   2501   2502   2503
2504   2505   2506   2507
2508   2509   2510   2511
2512   2513   2514   2515
2516   2517   2518   2519
2520   2521   2522   2523
2524   2525   2526   2527
2528   2529   2530   2531
2532   2533   2534   2535
2536   2537   2538   2539
2540   2541   2542   2543
2544   2545   2546   2547
2548   2549   2550   2551
2552   2553   2554   2555
2556   2557   2558   2559
2560   2561   2562   2563
2564   2565   2566   2567
2568   2569   2570   2571
2572   2573   2574   2575
2576   2577   2578   2579
2580   2581   2582   2583
2584   2585   2586   2587
2588   2589   2590   2591
2592   2593   2594   2595
2596   2597   2598   2599
2600   2601   2602   2603
2604   2605   2606   2607
2608   2609   2610   2611
2612   2613   2614   2615
2616   2617   2618   2619
2620   2621   2622   2623
2624   2625   2626   2627
2628   2629   2630   2631
2632   2633   2634   2635
2636   2637   2638   2639
2640   2641   2642   2643
2644   2645   2646   2647
2648   2649   2650   2651
2652   2653   2654   2655
2656   2657   2658   2659
2660   2661   2662   2663
2664   2665   2666   2667
2668   2669   2670   2671
2672   2673   2674   2675
2676   2677   2678   2679
2680   2681   2682   2683
2684   2685   2686   2687
2688   2689   2690   2691
2692   2693   2694   2695
2696   2697   2698   2699
2700   2701   2702   2703
2704   2705   2706   2707
2708   2709   2710   2711
2712   2713   2714   2715
2716   2717   2718   2719
2720   2721   2722   2723
2724   2725   2726   2727
2728   2729   2730   2731
2732   2733   2734   2735
2736   2737   2738   2739
2740   2741   2742   2743
2744   2745   2746   2747
2748   2749   2750   2751
2752   2753   2754   2755
2756   2757   2758   2759
2760   2761   2762   2763
2764   2765   2766   2767
2768   2769   2770   2771
2772   2773   2774   2775
2776   2777   2778   2779
2780   2781   2782   2783
2784   2785   2786   2787
2788   2789   2790   2791
2792   2793   2794   2795
2796   2797   2798   2799
2800   2801   2802   2803
2804   2805   2806   2807
2808   2809   2810   2811
2812   2813   2814   2815
2816   2817   2818   2819
2820   2821   2822   2823
2824   2825   2826   2827
2828   2829   2830   2831
2832   2833   2834   2835
2836   2837   2838   2839
2840   2841   2842   2843
2844   2845   2846   2847
2848   2849   2850   2851
2852   2853   2854   2855
2856   2857   2858   2859
2860   2861   2862   2863
2864   2865   2866   2867
2868   2869   2870   2871
2872   2873   2874   2875
2876   2877   2878   2879
2880   2881   2882   2883
2884   2885   2886   2887
2888   2889   2890   2891
2892   2893   2894   2895
2896   2897   2898   2899
2900   2901   2902   2903
2904   2905   2906   2907
2908   2909   2910   2911
2912   2913   2914   2915
2916   2917   2918   2919
2920   2921   2922   2923
2924   2925   2926   2927
2928   2929   2930   2931
2932   2933   2934   2935
2936   2937   2938   2939
2940   2941   2942   2943
2944   2945   2946   2947
2948   2949   2950   2951
2952   2953   2954   2955
2956   2957   2958   2959
2960   2961   2962   2963
2964   2965   2966   2967
2968   2969   2970   2971
2972   2973   2974   2975
2976   2977   2978   2979
2980   2981   2982   2983
2984   2985   2986   2987
2988   2989   2990   2991
2992   2993   2994   2995
2996   2997   2998   2999
3000   3001   3002   3003
3004   3005   3006   3007
3008   3009   3010   3011
3012   3013   3014   3015
3016   3017   3018   3019
3020   3021   3022   3023
3024   3025   3026   3027
3028   3029   3030   3031
3032   3033   3034   3035
3036   3037   3038   3039
3040   3041   3042   3043
3044   3045   3046   3047
3048   3049   3050   3051
3052   3053   3054   3055
3056   3057   3058   3059
3060   3061   3062   3063
3064   3065   3066   3067
3068   3069   3070   3071
3072   3073   3074   3075
3076   3077   3078   3079
3080   3081   3082   3083
3084   3085   3086   3087
3088   3089   3090   3091
3092   3093   3094   3095
3096   3097   3098   3099
3100   3101   3102   3103
3104   3105   3106   3107
3108   3109   3110   3111
3112   3113   3114   3115
3116   3117   3118   3119
3120   3121   3122   3123
3124   3125   3126   3127
3128   3129   3130   3131
3132   3133   3134   3135
3136   3137   3138   3139
3140   3141   3142   3143
3144   3145   3146   3147
3148   3149   3150   3151
3152   3153   3154   3155
3156   3157   3158   3159
3160   3161   3162   3163
3164   3165   3166   3167
3168   3169   3170   3171
3172   3173   3174   3175
3176   3177   3178   3179
3180   3181   3182   3183
3184   3185   3186   3187
3188   3189   3190   3191
3192   3193   3194   3195
3196   3197   3198   3199
3200   3201   3202   3203
3204   3205   3206   3207
3208   3209   3210   3211
3212   3213   3214   3215
3216   3217   3218   3219
3220   3221   3222   3223
3224   3225   3226   3227
3228   3229   3230   3231
3232   3233   3234   3235
3236   3237   3238   3239
3240   3241   3242   3243
3244   3245   3246   3247
3248   3249   3250   3251
3252   3253   3254   3255
3256   3257   3258   3259
3260   3261   3262   3263
3264   3265   3266   3267
3268   3269   3270   3271
3272   3273   3274   3275
3276   3277   3278   3279
3280   3281   3282   3283
3284   3285   3286   3287
3288   3289   3290   3291
3292   3293   3294   3295
3296   3297   3298   3299
3300   3301   3302   3303
3304   3305   3306   3307
3308   3309   3310   3311
3312   3313   3314   3315
3316   3317   3318   3319
3320   3321   3322   3323
3324   3325   3326   3327
3328   3329   3330   3331
3332   3333   3334   3335
3336   3337   3338   3339
3340   3341   3342   3343
3344   3345   3346   3347
3348   3349   3350   3351
3352   3353   3354   3355
3356   3357   3358   3359
3360   3361   3362   3363
3364   3365   3366   3367
3368   3369   3370   3371
3372   3373   3374   3375
3376   3377   3378   3379
3380   3381   3382   3383
3384   3385   3386   3387
3388   3389   3390   3391
3392   3393   3394   3395
3396   3397   3398   3399
3400   3401   3402   3403
3404   3405   3406   3407
3408   3409   3410   3411
3412   3413   3414   3415
3416   3417   3418   3419
3420   3421   3422   3423
3424   3425   3426   3427
3428   3429   3430   3431
3432   3433   3434   3435
3436   3437   3438   3439
3440   3441   3442   3443
3444   3445   3446   3447
3448   3449   3450   3451
3452   3453   3454   3455
3456   3457   3458   3459
3460   3461   3462   3463
3464   3465   3466   3467
3468   3469   3470   3471
3472   3473   3474   3475
3476   3477   3478   3479
3480   3481   3482   3483
3484   3485   3486   3487
3488   3489   3490   3491
3492   3493   3494   3495
3496   3497   3498   3499
3500   3501   3502   3503
3504   3505   3506   3507
3508   3509   3510   3511
3512   3513   3514   3515
3516   3517   3518   3519
3520   3521   3522   3523
3524   3525   3526   3527
3528   3529   3530   3531
3532   3533   3534   3535
3536   3537   3538   3539
3540   3541   3542   3543
3544   3545   3546   3547
3548   3549   3550   3551
3552   3553   3554   3555
3556   3557   3558   3559
3560   3561   3562   3563
3564   3565   3566   3567
3568   3569   3570   3571
3572   3573   3574   3575
3576   3577   3578   3579
3580   3581   3582   3583
3584   3585   3586   3587
3588   3589   3590   3591
3592   3593   3594   3595
3596   3597   3598   3599
3600   3601   3602   3603
3604   3605   3606   3607
3608   3609   3610   3611
3612   3613   3614   3615
3616   3617   3618   3619
3620   3621   3622   3623
3624   3625   3626   3627
3628   3629   3630   3631
3632   3633   3634   3635
3636   3637   3638   3639
3640   3641   3642   3643
3644   3645   3646   3647
3648   3649   3650   3651
3652   3653   3654   3655
3656   3657   3658   3659
3660   3661   3662   3663
3664   3665   3666   3667
3668   3669   3670   3671
3672   3673   3674   3675
3676   3677   3678   3679
3680   3681   3682   3683
3684   3685   3686   3687
3688   3689   3690   3691
3692   3693   3694   3695
3696   3697   3698   3699
3700   3701   3702   3703
3704   3705   3706   3707
3708   3709   3710   3711
3712   3713   3714   3715
3716   3717   3718   3719
3720   3721   3722   3723
3724   3725   3726   3727
3728   3729   3730   3731
3732   3733   3734   3735
3736   3737   3738   3739
3740   3741   3742   3743
3744   3745   3746   3747
3748   3749   3750   3751
3752   3753   3754   3755
3756   3757   3758   3759
3760   3761   3762   3763
3764   3765   3766   3767
3768   3769   3770   3771
3772   3773   3774   3775
3776   3777   3778   3779
3780   3781   3782   3783
3784   3785   3786   3787
3788   3789   3790   3791
3792   3793   3794   3795
3796   3797   3798   3799
3800   3801   3802   3803
3804   3805   3806   3807
3808   3809   3810   3811
3812   3813   3814   3815
3816   3817   3818   3819
3820   3821   3822   3823
3824   3825   3826   3827
3828   3829   3830   3831
3832   3833   3834   3835
3836   3837   3838   3839
3840   3841   3842   3843
3844   3845   3846   3847
3848   3849   3850   3851
3852   3853   3854   3855
3856   3857   3858   3859
3860   3861   3862   3863
3864   3865   3866   3867
3868   3869   3870   3871
3872   3873   3874   3875
3876   3877   3878   3879
3880   3881   3882   3883
3884   3885   3886   3887
3888   3889   3890   3891
3892   3893   3894   3895
3896   3897   3898   3899
3900   3901   3902   3903
3904   3905   3906   3907
3908   3909   3910   3911
3912   3913   3914   3915
3916   3917   3918   3919
3920   3921   3922   3923
3924   3925   3926   3927
3928   3929   3930   3931
3932   3933   3934   3935
3936   3937   3938   3939
3940   3941   3942   3943
3944   3945   3946   3947
3948   3949   3950   3951
3952   3953   3954   3955
3956   3957   3958   3959
3960   3961   3962   3963
3964   3965   3966   3967
3968   3969   3970   3971
3972   3973   3974   3975
3976   3977   3978   3979
3980   3981   3982   3983
3984   3985   3986   3987
3988   3989   3990   3991
3992   3993   3994   3995
3996   3997   3998   3999
4000   4001   4002   4003
4004   4005   4006   4007
4008   4009   4010   4011
4012   4013   4014   4015
4016   4017   4018   4019
4020   4021   4022   4023
4024   4025   4026   4027
4028   4029   4030   4031
4032   4033   4034   4035
4036   4037   4038   4039
4040   4041   4042   4043
4044   4045   4046   4047
4048   4049   4050   4051
4052   4053   4054   4055
4056   4057   4058   4059
4060   4061   4062   4063
4064   4065   4066   4067
4068   4069   4070   4071
4072   4073   4074   4075
4076   4077   4078   4079
4080   4081   4082   4083
4084   4085   4086   4087
4088   4089   4090   4091
4092   4093   4094   4095
4096   4097   4098   4099
4100   4101   4102   4103
4104   4105   4106   4107
4108   4109   4110   4111
4112   4113   4114   4115
4116   4117   4118   4119
4120   4121   4122   4123
4124   4125   4126   4127
4128   4129   4130   4131
4132   4133   4134   4135
4136   4137   4138   4139
4140   4141   4142   4143
4144   4145   4146   4147
4148   4149   4150   4151
4152   4153   4154   4155
4156   4157   4158   4159
4160   4161   4162   4163
4164   4165   4166   4167
4168   4169   4170   4171
4172   4173   4174   4175
4176   4177   4178   4179
4180   4181   4182   4183
4184   4185   4186   4187
4188   4189   4190   4191
4192   4193   4194   4195
4196   4197   4198   4199
4200   4201   4202   4203
4204   4205   4206   4207
4208   4209   4210   4211
4212   4213   4214   4215
4216   4217   4218   4219
4220   4221   4222   4223
4224   4225   4226   4227
4228   4229   4230   4231
4232   4233   4234   4235
4236   4237   4238   4239
4240   4241   4242   4243
4244   4245   4246   4247
4248   4249   4250   4251
4252   4253   4254   4255
4256   4257   4258   4259
4260   4261   4262   4263
4264   4265   4266   4267
4268   4269   4270   4271
4272   4273   4274   4275
4276   4277   4278   4279
4280   4281   4282   4283
4284   4285   4286   4287
4288   4289   4290   4291
4292   4293   4294   4295
4296   4297   4298   4299
4300   4301   4302   4303
4304   4305   4306   4307
4308   4309   4310   4311
4312   4313   4314   4315
4316   4317   4318   4319
4320   4321   4322   4323
4324   4325   4326   4327
4328   4329   4330   4331
4332   4333   4334   4335
4336   4337   4338   4339
4340   4341   4342   4343
4344   4345   4346   4347
4348   4349   4350   4351
4352   4353   4354   4355
4356   4357   4358   4359
4360   4361   4362   4363
4364   4365   4366   4367
4368   4369   4370   4371
4372   4373   4374   4375
4376   4377   4378   4379
4380   4381   4382   4383
4384   4385   4386   4387
4388   4389   4390   4391
4392   4393   4394   4395
4396   4397   4398   4399
4400   4401   4402   4403
4404   4405   4406   4407
4408   4409   4410   4411
4412   4413   4414   4415
4416   4417   4418   4419
4420   4421   4422   4423
4424   4425   4426   4427
4428   4429   4430   4431
4432   4433   4434   4435
4436   4437   4438   4439
4440   4441   4442   4443
4444   4445   4446   4447
4448   4449   4450   4451
4452   4453   4454   4455
4456   4457   4458   4459
4460   4461   4462   4463
4464   4465   4466   4467
4468   4469   4470   4471
4472   4473   4474   4475
4476   4477   4478   4479
4480   4481   4482   4483
4484   4485   4486   4487
4488   4489   4490   4491
4492   4493   4494   4495
4496   4497   4498   4499
4500   4501   4502   4503
4504   4505   4506   4507
4508   4509   4510   4511
4512   4513   4514   4515
4516   4517   4518   4519
4520   4521   4522   4523
4524   4525   4526   4527
4528   4529   4530   4531
4532   4533   4534   4535
4536   4537   4538   4539
4540   4541   4542   4543
4544   4545   4546   4547
4548   4549   4550   4551
4552   4553   4554   4555
4556   4557   4558   4559
4560   4561   4562   4563
4564   4565   4566   4567
4568   4569   4570   4571
4572   4573   4574   4575
4576   4577   4578   4579
4580   4581   4582   4583
4584   4585   4586   4587
4588   4589   4590   4591
4592   4593   4594   4595
4596   4597   4598   4599
4600   4601   4602   4603
4604   4605   4606   4607
4608   4609   4610   4611
4612   4613   4614   4615
4616   4617   4618   4619
4620   4621   4622   4623
4624   4625   4626   4627
4628   4629   4630   4631
4632   4633   4634   4635
4636   4637   4638   4639
4640   4641   4642   4643
4644   4645   4646   4647
4648   4649   4650   4651
4652   4653   4654   4655
4656   4657   4658   4659
4660   4661   4662   4663
4664   4665   4666   4667
4668   4669   4670   4671
4672   4673   4674   4675
4676   4677   4678   4679
4680   4681   4682   4683
4684   4685   4686   4687
4688   4689   4690   4691
4692   4693   4694   4695
4696   4697   4698   4699
4700   4701   4702   4703
4704   4705   4706   4707
4708   4709   4710   4711
4712   4713   4714   4715
4716   4717   4718   4719
4720   4721   4722   4723
4724   4725   4726   4727
4728   4729   4730   4731
4732   4733   4734   4735
4736   4737   4738   4739
4740   4741   4742   4743
4744   4745   4746   4747
4748   4749   4750   4751
4752   4753   4754   4755
4756   4757   4758   4759
4760   4761   4762   4763
4764   4765   4766   4767
4768   4769   4770   4771
4772   4773   4774   4775
4776   4777   4778   4779
4780   4781   4782   4783
4784   4785   4786   4787
4788   4789   4790   4791
4792   4793   4794   4795
4796   4797   4798   4799
4800   4801   4802   4803
4804   4805   4806   4807
4808   4809   4810   4811
4812   4813   4814   4815
4816   4817   4818   4819
4820   4821   4822   4823
4824   4825   4826   4827
4828   4829   4830   4831
4832   4833   4834   4835
4836   4837   4838   4839
4840   4841   4842   4843
4844   4845   4846   4847
4848   4849   4850   4851
4852   4853   4854   4855
4856   4857   4858   4859
4860   4861   4862   4863
4864   4865   4866   4867
4868   4869   4870   4871
4872   4873   4874   4875
4876   4877   4878   4879
4880   4881   4882   4883
4884   4885   4886   4887
4888   4889   4890   4891
4892   4893   4894   4895
4896   4897   4898   4899
4900   4901   4902   4903
4904   4905   4906   4907
4908   4909   4910   4911
4912   4913   4914   4915
4916   4917   4918   4919
4920   4921   4922   4923
4924   4925   4926   4927
4928   4929   4930   4931
4932   4933   4934   4935
4936   4937   4938   4939
4940   4941   4942   4943
4944   4945   4946   4947
4948   4949   4950   4951
4952   4953   4954   4955
4956   4957   4958   4959
4960   4961   4962   4963
4964   4965   4966   4967
4968   4969   4970   4971
4972   4973   4974   4975
4976   4977   4978   4979
4980   4981   4982   4983
4984   4985   4986   4987
4988   4989   4990   4991
4992   4993   4994   4995
4996   4997   4998   4999
5000   5001   5002   5003
5004   5005   5006   5007
5008   5009   5010   5011
5012   5013   5014   5015
5016   5017   5018   5019
5020   5021   5022   5023
5024   5025   5026   5027
5028   5029   5030   5031
5032   5033   5034   5035
5036   5037   5038   5039
5040   5041   5042   5043
5044   5045   5046   5047
5048   5049   5050   5051
5052   5053   5054   5055
5056   5057   5058   5059
5060   5061   5062   5063
5064   5065   5066   5067
5068   5069   5070   5071
5072   5073   5074   5075
5076   5077   5078   5079
5080   5081   5082   5083
5084   5085   5086   5087
5088   5089   5090   5091
5092   5093   5094   5095
5096   5097   5098   5099
5100   5101   5102   5103
5104   5105   5106   5107
5108   5109   5110   5111
5112   5113   5114   5115
5116   5117   5118   5119
5120   5121   5122   5123
5124   5125   5126   5127
5128   5129   5130   5131
5132   5133   5134   5135
5136   5137   5138   5139
5140   5141   5142   5143
5144   5145   5146   5147
5148   5149   5150   5151
5152   5153   5154   5155
5156   5157   5158   5159
5160   5161   5162   5163
5164   5165   5166   5167
5168   5169   5170   5171
5172   5173   5174   5175
5176   5177   5178   5179
5180   5181   5182   5183
5184   5185   5186   5187
5188   5189   5190   5191
5192   5193   5194   5195
5196   5197   5198   5199
5200   5201   5202   5203
5204   5205   5206   5207
5208   5209   5210   5211
5212   5213   5214   5215
5216   5217   5218   5219
5220   5221   5222   5223
5224   5225   5226   5227
5228   5229   5230   5231
5232   5233   5234   5235
5236   5237   5238   5239
5240   5241   5242   5243
5244   5245   5246   5247
5248   5249   5250   5251
5252   5253   5254   5255
5256   5257   5258   5259
5260   5261   5262   5263
5264   5265   5266   5267
5268   5269   5270   5271
5272   5273   5274   5275
5276   5277   5278   5279
5280   5281   5282   5283
5284   5285   5286   5287
5288   5289   5290   5291
5292   5293   5294   5295
5296   5297   5298   5299
5300   5301   5302   5303
5304   5305   5306   5307
5308   5309   5310   5311
5312   5313   5314   5315
5316   5317   5318   5319
5320   5321   5322   5323
5324   5325   5326   5327
5328   5329   5330   5331
5332   5333   5334   5335
5336   5337   5338   5339
5340   5341   5342   5343
5344   5345   5346   5347
5348   5349   5350   5351
5352   5353   5354   5355
5356   5357   5358   5359
5360   5361   5362   5363
5364   5365   5366   5367
5368   5369   5370   5371
5372   5373   5374   5375
5376   5377   5378   5379
5380   5381   5382   5383
5384   5385   5386   5387
5388   5389   5390   5391
5392   5393   5394   5395
5396   5397   5398   5399
5400   5401   5402   5403
5404   5405   5406   5407
5408   5409   5410   5411
5412   5413   5414   5415
5416   5417   5418   5419
5420   5421   5422   5423
5424   5425   5426   5427
5428   5429   5430   5431
5432   5433   5434   5435
5436   5437   5438   5439
5440   5441   5442   5443
5444   5445   5446   5447
5448   5449   5450   5451
5452   5453   5454   5455
5456   5457   5458   5459
5460   5461   5462   5463
5464   5465   5466   5467
5468   5469   5470   5471
5472   5473   5474   5475
5476   5477   5478   5479
5480   5481   5482   5483
5484   5485   5486   5487
5488   5489   5490   5491
5492   5493   5494   5495
5496   5497   5498   5499
5500   5501   5502   5503
5504   5505   5506   5507
5508   5509   5510   5511
5512   5513   5514   5515
5516   5517   5518   5519
5520   5521   5522   5523
5524   5525   5526   5527
5528   5529   5530   5531
5532   5533   5534   5535
5536   5537   5538   5539
5540   5541   5542   5543
5544   5545   5546   5547
5548   5549   5550   5551
5552   5553   5554   5555
5556   5557   5558   5559
5560   5561   5562   5563
5564   5565   5566   5567
5568   5569   5570   5571
5572   5573   5574   5575
5576   5577   5578   5579
5580   5581   5582   5583
5584   5585   5586   5587
5588   5589   5590   5591
5592   5593   5594   5595
5596   5597   5598   5599
5600   5601   5602   5603
5604   5605   5606   5607
5608   5609   5610   5611
5612   5613   5614   5615
5616   5617   5618   5619
5620   5621   5622   5623
5624   5625   5626   5627
5628   5629   5630   5631
5632   5633   5634   5635
5636   5637   5638   5639
5640   5641   5642   5643
5644   5645   5646   5647
5648   5649   5650   5651
5652   5653   5654   5655
5656   5657   5658   5659
5660   5661   5662   5663
5664   5665   5666   5667
5668   5669   5670   5671
5672   5673   5674   5675
5676   5677   5678   5679
5680   5681   5682   5683
5684   5685   5686   5687
5688   5689   5690   5691
5692   5693   5694   5695
5696   5697   5698   5699
5700   5701   5702   5703
5704   5705   5706   5707
5708   5709   5710   5711
5712   5713   5714   5715
5716   5717   5718   5719
5720   5721   5722   5723
5724   5725   5726   5727
5728   5729   5730   5731
5732   5733   5734   5735
5736   5737   5738   5739
5740   5741   5742   5743
5744   5745   5746   5747
5748   5749   5750   5751
5752   5753   5754   5755
5756   5757   5758   5759
5760   5761   5762   5763
5764   5765   5766   5767
5768   5769   5770   5771
5772   5773   5774   5775
5776   5777   5778   5779
5780   5781   5782   5783
5784   5785   5786   5787
5788   5789   5790   5791
5792   5793   5794   5795
5796   5797   5798   5799
5800   5801   5802   5803
5804   5805   5806   5807
5808   5809   5810   5811
5812   5813   5814   5815
5816   5817   5818   5819
5820   5821   5822   5823
5824   5825   5826   5827
5828   5829   5830   5831
5832   5833   5834   5835
5836   5837   5838   5839
5840   5841   5842   5843
5844   5845   5846   5847
5848   5849   5850   5851
5852   5853   5854   5855
5856   5857   5858   5859
5860   5861   5862   5863
5864   5865   5866   5867
5868   5869   5870   5871
5872   5873   5874   5875
5876   5877   5878   5879
5880   5881   5882   5883
5884   5885   5886   5887
5888   5889   5890   5891
5892   5893   5894   5895
5896   5897   5898   5899
5900   5901   5902   5903
5904   5905   5906   5907
5908   5909   5910   5911
5912   5913   5914   5915
5916   5917   5918   5919
5920   5921   5922   5923
5924   5925   5926   5927
5928   5929   5930   5931
5932   5933   5934   5935
5936   5937   5938   5939
5940   5941   5942   5943
5944   5945   5946   5947
5948   5949   5950   5951
5952   5953   5954   5955
5956   5957   5958   5959
5960   5961   5962   5963
5964   5965   5966   5967
5968   5969   5970   5971
5972   5973   5974   5975
5976   5977   5978   5979
5980   5981   5982   5983
5984   5985   5986   5987
5988   5989   5990   5991
5992   5993   5994   5995
5996   5997   5998   5999
              </DataArray>   
              <DataArray type="Int32" Name="offsets" format="ascii">   
4
8
12
16
20
24
28
32
36
40
44
48
52
56
60
64
68
72
76
80
84
88
92
96
100
104
108
112
116
120
124
128
132
136
140
144
148
152
156
160
164
168
172
176
180
184
188
192
196
200
204
208
212
216
220
224
228
232
236
240
244
248
252
256
260
264
268
272
276
280
284
288
292
296
300
304
308
312
316
320
324
328
332
336
340
344
348
352
356
360
364
368
372
376
380
384
388
392
396
400
404
408
412
416
420
424
428
432
436
440
444
448
452
456
460
464
468
472
476
480
484
488
492
496
500
504
508
512
516
520
524
528
532
536
540
544
548
552
556
560
564
568
572
576
580
584
588
592
596
600
604
608
612
616
620
624
628
632
636
640
644
648
652
656
660
664
668
672
676
680
684
688
692
696
700
704
708
712
716
720
724
728
732
736
740
744
748
752
756
760
764
768
772
776
780
784
788
792
796
800
804
808
812
816
820
824
828
832
836
840
844
848
852
856
860
864
868
872
876
880
884
888
892
896
900
904
908
912
916
920
924
928
932
936
940
944
948
952
956
960
964
968
972
976
980
984
988
992
996
1000
1004
1008
1012
1016
1020
1024
1028
1032
1036
1040
1044
1048
1052
1056
1060
1064
1068
1072
1076
1080
1084
1088
1092
1096
1100
1104
1108
1112
1116
1120
1124
1128
1132
1136
1140
1144
1148
1152
1156
1160
1164
1168
1172
1176
1180
1184
1188
1192
1196
1200
1204
1208
1212
1216
1220
1224
1228
1232
1236
1240
1244
1248
1252
1256
1260
1264
1268
1272
1276
1280
1284
1288
1292
1296
1300
1304
1308
1312
1316
1320
1324
1328
1332
1336
1340
1344
1348
1352
1356
1360
1364
1368
1372
1376
1380
1384
1388
1392
1396
1400
1404
1408
1412
1416
1420
1424
1428
1432
1436
1440
1444
1448
1452
1456
1460
1464
1468
1472
1476
1480
1484
1488
1492
1496
1500
1504
1508
1512
1516
1520
1524
1528
1532
1536
1540
1544
1548
1552
1556
1560
1564
1568
1572
1576
1580
1584
1588
1592
1596
1600
1604
1608
1612
1616
1620
1624
1628
1632
1636
1640
1644
1648
1652
1656
1660
1664
1668
1672
1676
1680
1684
1688
1692
1696
1700
1704
1708
1712
1716
1720
1724
1728
1732
1736
1740
1744
1748
1752
1756
1760
1764
1768
1772
1776
1780
1784
1788
1792
1796
1800
1804
1808
1812
1816
1820
1824
1828
1832
1836
1840
1844
1848
1852
1856
1860
1864
1868
1872
1876
1880
1884
1888
1892
1896
1900
1904
1908
1912
1916
1920
1924
1928
1932
1936
1940
1944
1948
1952
1956
1960
1964
1968
1972
1976
1980
1984
1988
1992
1996
2000
2004
2008
2012
2016
2020
2024
2028
2032
2036
2040
2044
2048
2052
2056
2060
2064
2068
2072
2076
2080
2084
2088
2092
2096
2100
2104
2108
2112
2116
2120
2124
2128
2132
2136
2140
2144
2148
2152
2156
2160
2164
2168
2172
2176
2180
2184
2188
2192
2196
2200
2204
2208
2212
2216
2220
2224
2228
2232
2236
2240
2244
2248
2252
2256
2260
2264
2268
2272
2276
2280
2284
2288
2292
2296
2300
2304
2308
2312
2316
2320
2324
2328
2332
2336
2340
2344
2348
2352
2356
2360
2364
2368
2372
2376
2380
2384
2388
2392
2396
2400
2404
2408
2412
2416
2420
2424
2428
2432
2436
2440
2444
2448
2452
2456
2460
2464
2468
2472
2476
2480
2484
2488
2492
2496
2500
2504
2508
2512
2516
2520
2524
2528
2532
2536
2540
2544
2548
2552
2556
2560
2564
2568
2572
2576
2580
2584
2588
2592
2596
2600
2604
2608
2612
2616
2620
2624
2628
2632
2636
2640
2644
2648
2652
2656
2660
2664
2668
2672
2676
2680
2684
2688
2692
2696
2700
2704
2708
2712
2716
2720
2724
2728
2732
2736
2740
2744
2748
2752
2756
2760
2764
2768
2772
2776
2780
2784
2788
2792
2796
2800
2804
2808
2812
2816
2820
2824
2828
2832
2836
2840
2844
2848
2852
2856
2860
2864
2868
2872
2876
2880
2884
2888
2892
2896
2900
2904
2908
2912
2916
2920
2924
2928
2932
2936
2940
2944
2948
2952
2956
2960
2964
2968
2972
2976
2980
2984
2988
2992
2996
3000
3004
3008
3012
3016
3020
3024
3028
3032
3036
3040
3044
3048
3052
3056
3060
3064
3068
3072
3076
3080
3084
3088
3092
3096
3100
3104
3108
3112
3116
3120
3124
3128
3132
3136
3140
3144
3148
3152
3156
3160
3164
3168
3172
3176
3180
3184
3188
3192
3196
3200
3204
3208
3212
3216
3220
3224
3228
3232
3236
3240
3244
3248
3252
3256
3260
3264
3268
3272
3276
3280
3284
3288
3292
3296
3300
3304
3308
3312
3316
3320
3324
3328
3332
3336
3340
3344
3348
3352
3356
3360
3364
3368
3372
3376
3380
3384
3388
3392
3396
3400
3404
3408
3412
3416
3420
3424
3428
3432
3436
3440
3444
3448
3452
3456
3460
3464
3468
3472
3476
3480
3484
3488
3492
3496
3500
3504
3508
3512
3516
3520
3524
3528
3532
3536
3540
3544
3548
3552
3556
3560
3564
3568
3572
3576
3580
3584
3588
3592
3596
3600
3604
3608
3612
3616
3620
3624
3628
3632
3636
3640
3644
3648
3652
3656
3660
3664
3668
3672
3676
3680
3684
3688
3692
3696
3700
3704
3708
3712
3716
3720
3724
3728
3732
3736
3740
3744
3748
3752
3756
3760
3764
3768
3772
3776
3780
3784
3788
3792
3796
3800
3804
3808
3812
3816
3820
3824
3828
3832
3836
3840
3844
3848
3852
3856
3860
3864
3868
3872
3876
3880
3884
3888
3892
3896
3900
3904
3908
3912
3916
3920
3924
3928
3932
3936
3940
3944
3948
3952
3956
3960
3964
3968
3972
3976
3980
3984
3988
3992
3996
4000
4004
4008
4012
4016
4020
4024
4028
4032
4036
4040
4044
4048
4052
4056
4060
4064
4068
4072
4076
4080
4084
4088
4092
4096
4100
4104
4108
4112
4116
4120
4124
4128
4132
4136
4140
4144
4148
4152
4156
4160
4164
4168
4172
4176
4180
4184
4188
4192
4196
4200
4204
4208
4212
4216
4220
4224
4228
4232
4236
4240
4244
4248
4252
4256
4260
4264
4268
4272
4276
4280
4284
4288
4292
4296
4300
4304
4308
4312
4316
4320
4324
4328
4332
4336
4340
4344
4348
4352
4356
4360
4364
4368
4372
4376
4380
4384
4388
4392
4396
4400
4404
4408
4412
4416
4420
4424
4428
4432
4436
4440
4444
4448
4452
4456
4460
4464
4468
4472
4476
4480
4484
4488
4492
4496
4500
4504
4508
4512
4516
4520
4524
4528
4532
4536
4540
4544
4548
4552
4556
4560
4564
4568
4572
4576
4580
4584
4588
4592
4596
4600
4604
4608
4612
4616
4620
4624
4628
4632
4636
4640
4644
4648
4652
4656
4660
4664
4668
4672
4676
4680
4684
4688
4692
4696
4700
4704
4708
4712
4716
4720
4724
4728
4732
4736
4740
4744
4748
4752
4756
4760
4764
4768
4772
4776
4780
4784
4788
4792
4796
4800
4804
4808
4812
4816
4820
4824
4828
4832
4836
4840
4844
4848
4852
4856
4860
4864
4868
4872
4876
4880
4884
4888
4892
4896
4900
4904
4908
4912
4916
4920
4924
4928
4932
4936
4940
4944
4948
4952
4956
4960
4964
4968
4972
4976
4980
4984
4988
4992
4996
5000
5004
5008
5012
5016
5020
5024
5028
5032
5036
5040
5044
5048
5052
5056
5060
5064
5068
5072
5076
5080
5084
5088
5092
5096
5100
5104
5108
5112
5116
5120
5124
5128
5132
5136
5140
5144
5148
5152
5156
5160
5164
5168
5172
5176
5180
5184
5188
5192
5196
5200
5204
5208
5212
5216
5220
5224
5228
5232
5236
5240
5244
5248
5252
5256
5260
5264
5268
5272
5276
5280
5284
5288
5292
5296
5300
5304
5308
5312
5316
5320
5324
5328
5332
5336
5340
5344
5348
5352
5356
5360
5364
5368
5372
5376
5380
5384
5388
5392
5396
5400
5404
5408
5412
5416
5420
5424
5428
5432
5436
5440
5444
5448
5452
5456
5460
5464
5468
5472
5476
5480
5484
5488
5492
5496
5500
5504
5508
5512
5516
5520
5524
5528
5532
5536
5540
5544
5548
5552
5556
5560
5564
5568
5572
5576
5580
5584
5588
5592
5596
5600
5604
5608
5612
5616
5620
5624
5628
5632
5636
5640
5644
5648
5652
5656
5660
5664
5668
5672
5676
5680
5684
5688
5692
5696
5700
5704
5708
5712
5716
5720
5724
5728
5732
5736
5740
5744
5748
5752
5756
5760
5764
5768
5772
5776
5780
5784
5788
5792
5796
5800
5804
5808
5812
5816
5820
5824
5828
5832
5836
5840
5844
5848
5852
5856
5860
5864
5868
5872
5876
5880
5884
5888
5892
5896
5900
5904
5908
5912
5916
5920
5924
5928
5932
5936
5940
5944
5948
5952
5956
5960
5964
5968
5972
5976
5980
5984
5988
5992
5996
6000
              </DataArray>   
              <DataArray type="UInt8" Name="types" format="ascii">   
10
10
10
10
10
10
10
10
10
10
10
10
10
10
10
10
10
10
10
10
10
10
10
10
10
10
10
10
10
10
10
10
10
10
10
10
10
10
10
10
10
10
10
10
10
10
10
10
10
10
10
10
10
10
10
10
10
10
10
10
10
10
10
10
10
10
10
10
10
10
10
10
10
10
10
10
10
10
10
10
10
10
10
10
10
10
10
10
10
10
10
10
10
10
10
10
10
10
10
10
10
10
10
10
10
10
10
10
10
10
10
10
10
10
10
10
10
10
10
10
10
10
10
10
10
10
10
10
10
10
10
10
10
10
10
10
10
10
10
10
10
10
10
10
10
10
10
10
10
10
10
10
10
10
10
10
10
10
10
10
10
10
10
10
10
10
10
10
10
10
10
10
10
10
10
10
10
10
10
10
10
10
10
10
10
10
10
10
10
10
10
10
10
10
10
10
10
10
10
10
10
10
10
10
10
10
10
10
10
10
10
10
10
10
10
10
10
10
10
10
10
10
10
10
10
10
10
10
10
10
10
10
10
10
10
10
10
10
10
10
10
10
10
10
10
10
10
10
10
10
10
10
10
10
10
10
10
10
10
10
10
10
10
10
10
10
10
10
10
10
10
10
10
10
10
10
10
10
10
10
10
10
10
10
10
10
10
10
10
10
10
10
10
10
10
10
10
10
10
10
10
10
10
10
10
10
10
10
10
10
10
10
10
10
10
10
10
10
10
10
10
10
10
10
10
10
10
10
10
10
10
10
10
10
10
10
10
10
10
10
10
10
10
10
10
10
10
10
10
10
10
10
10
10
10
10
10
10
10
10
10
10
10
10
10
10
10
10
10
10
10
10
10
10
10
10
10
10
10
10
10
10
10
10
10
10
10
10
10
10
10
10
10
10
10
10
10
10
10
10
10
10
10
10
10
10
10
10
10
10
10
10
10
10
10
10
10
10
10
10
10
10
10
10
10
10
10
10
10
10
10
10
10
10
10
10
10
10
10
10
10
10
10
10
10
10
10
10
10
10
10
10
10
10
10
10
10
10
10
10
10
10
10
10
10
10
10
10
10
10
10
10
10
10
10
10
10
10
10
10
10
10
10
10
10
10
10
10
10
10
10
10
10
10
10
10
10
10
10
10
10
10
10
10
10
10
10
10
10
10
10
10
10
10
10
10
10
10
10
10
10
10
10
10
10
10
10
10
10
10
10
10
10
10
10
10
10
10
10
10
10
10
10
10
10
10
10
10
10
10
10
10
10
10
10
10
10
10
10
10
10
10
10
10
10
10
10
10
10
10
10
10
10
10
10
10
10
10
10
10
10
10
10
10
10
10
10
10
10
10
10
10
10
10
10
10
10
10
10
10
10
10
10
10
10
10
10
10
10
10
10
10
10
10
10
10
10
10
10
10
10
10
10
10
10
10
10
10
10
10
10
10
10
10
10
10
10
10
10
10
10
10
10
10
10
10
10
10
10
10
10
10
10
10
10
10
10
10
10
10
10
10
10
10
10
10
10
10
10
10
10
10
10
10
10
10
10
10
10
10
10
10
10
10
10
10
10
10
10
10
10
10
10
10
10
10
10
10
10
10
10
10
10
10
10
10
10
10
10
10
10
10
10
10
10
10
10
10
10
10
10
10
10
10
10
10
10
10
10
10
10
10
10
10
10
10
10
10
10
10
10
10
10
10
10
10
10
10
10
10
10
10
10
10
10
10
10
10
10
10
10
10
10
10
10
10
10
10
10
10
10
10
10
10
10
10
10
10
10
10
10
10
10
10
10
10
10
10
10
10
10
10
10
10
10
10
10
10
10
10
10
10
10
10
10
10
10
10
10
10
10
10
10
10
10
10
10
10
10
10
10
10
10
10
10
10
10
10
10
10
10
10
10
10
10
10
10
10
10
10
10
10
10
10
10
10
10
10
10
10
10
10
10
10
10
10
10
10
10
10
10
10
10
10
10
10
10
10
10
10
10
10
10
10
10
10
10
10
10
10
10
10
10
10
10
10
10
10
10
10
10
10
10
10
10
10
10
10
10
10
10
10
10
10
10
10
10
10
10
10
10
10
10
10
10
10
10
10
10
10
10
10
10
10
10
10
10
10
10
10
10
10
10
10
10
10
10
10
10
10
10
10
10
10
10
10
10
10
10
10
10
10
10
10
10
10
10
10
10
10
10
10
10
10
10
10
10
10
10
10
10
10
10
10
10
10
10
10
10
10
10
10
10
10
10
10
10
10
10
10
10
10
10
10
10
10
10
10
10
10
10
10
10
10
10
10
10
10
10
10
10
10
10
10
10
10
10
10
10
10
10
10
10
10
10
10
10
10
10
10
10
10
10
10
10
10
10
10
10
10
10
10
10
10
10
10
10
10
10
10
10
10
10
10
10
10
10
10
10
10
10
10
10
10
10
10
10
10
10
10
10
10
10
10
10
10
10
10
10
10
10
10
10
10
10
10
10
10
10
10
10
10
10
10
10
10
10
10
10
10
10
10
10
10
10
10
10
10
10
10
10
10
10
10
10
10
10
10
10
10
10
10
10
10
10
10
10
10
10
10
10
10
10
10
10
10
10
10
10
10
10
10
10
10
10
10
10
10
10
10
10
10
10
10
10
10
10
10
10
10
10
10
10
10
10
10
10
10
10
10
10
10
10
10
10
10
10
10
10
10
10
10
10
10
10
10
10
10
10
10
10
10
10
10
10
10
10
10
10
10
10
10
10
10
10
10
10
10
10
10
10
10
10
10
10
10
10
10
10
10
10
10
10
10
10
10
10
10
10
10
10
10
10
10
10
10
10
10
10
10
10
10
10
10
10
10
10
10
10
10
10
10
10
10
10
10
10
10
10
10
10
10
10
10
10
10
10
10
10
10
10
10
10
10
10
10
10
10
10
10
10
10
10
10
10
10
10
10
10
10
10
10
10
10
10
10
10
10
10
10
10
10
10
10
10
10
10
10
10
10
10
10
10
10
10
10
10
10
10
10
10
10
10
10
10
10
10
10
10
10
10
10
10
10
10
10
10
10
10
10
10
10
10
10
10
10
10
10
10
10
10
10
10
10
10
10
10
10
10
10
10
10
10
10
10
10
10
10
10
10
10
10
10
10
10
10
10
10
10
10
10
10
10
10
10
10
10
10
10
10
10
10
10
10
10
10
10
10
10
10
10
10
10
10
10
10
10
10
10
10
10
10
10
10
10
10
10
10
10
10
10
10
10
10
10
10
10
10
10
10
10
10
10
10
10
10
10
10
10
10
10
10
10
10
10
10
10
10
10
10
10
10
10
10
10
10
10
10
10
10
10
10
10
10
10
10
10
10
10
10
10
10
10
10
10
10
10
10
10
10
10
10
10
10
10
10
10
10
10
10
10
10
10
10
10
10
10
10
10
10
              </DataArray>   
          </Cells>  
          <PointData>  
             <DataArray type="Float64" NumberOfComponents="3" Name="Strains" format="ascii">   
-7.559751794597485e-05   0.0   -4.966725020005163e-05
-7.559751794597485e-05   0.0   -4.966725020005163e-05
-7.559751794597485e-05   0.0   -4.966725020005163e-05
-7.559751794597485e-05   0.0   -4.966725020005163e-05
-4.8098975547873114e-05   8.367793695235006e-06   1.1843300139254828e-06
-4.8098975547873114e-05   8.367793695235006e-06   1.1843300139254828e-06
-4.8098975547873114e-05   8.367793695235006e-06   1.1843300139254828e-06
-4.8098975547873114e-05   8.367793695235006e-06   1.1843300139254828e-06
-4.714428092673293e-05   0.0   -4.688299571181028e-05
-4.714428092673293e-05   0.0   -4.688299571181028e-05
-4.714428092673293e-05   0.0   -4.688299571181028e-05
-4.714428092673293e-05   0.0   -4.688299571181028e-05
-7.911211086391918e-05   1.004510013621791e-05   3.696607684362872e-07
-7.911211086391918e-05   1.004510013621791e-05   3.696607684362872e-07
-7.911211086391918e-05   1.004510013621791e-05   3.696607684362872e-07
-7.911211086391918e-05   1.004510013621791e-05   3.696607684362872e-07
-6.137089943635378e-05   2.3202120735344586e-06   -2.456409210656263e-05
-6.137089943635378e-05   2.3202120735344586e-06   -2.456409210656263e-05
-6.137089943635378e-05   2.3202120735344586e-06   -2.456409210656263e-05
-6.137089943635378e-05   2.3202120735344586e-06   -2.456409210656263e-05
-7.911211086391932e-05   0.0   -5.291005579354104e-05
-7.911211086391932e-05   0.0   -5.291005579354104e-05
-7.911211086391932e-05   0.0   -5.291005579354104e-05
-7.911211086391932e-05   0.0   -5.291005579354104e-05
-4.714428092673293e-05   1.0045100136217924e-05   6.396720850167017e-06
-4.714428092673293e-05   1.0045100136217924e-05   6.396720850167017e-06
-4.714428092673293e-05   1.0045100136217924e-05   6.396720850167017e-06
-4.714428092673293e-05   1.0045100136217924e-05   6.396720850167017e-06
-4.7273502812162945e-05   0.0   -4.8029521847659395e-05
-4.7273502812162945e-05   0.0   -4.8029521847659395e-05
-4.7273502812162945e-05   0.0   -4.8029521847659395e-05
-4.7273502812162945e-05   0.0   -4.8029521847659395e-05
-8.157866113598286e-05   1.0762715138609805e-05   2.6881129422081426e-06
-8.157866113598286e-05   1.0762715138609805e-05   2.6881129422081426e-06
-8.157866113598286e-05   1.0762715138609805e-05   2.6881129422081426e-06
-8.157866113598286e-05   1.0762715138609805e-05   2.6881129422081426e-06
-6.319280683804103e-05   4.067111621568027e-06   -2.3937615444136515e-05
-6.319280683804103e-05   4.067111621568027e-06   -2.3937615444136515e-05
-6.319280683804103e-05   4.067111621568027e-06   -2.3937615444136515e-05
-6.319280683804103e-05   4.067111621568027e-06   -2.3937615444136515e-05
-8.1578661135983e-05   0.0   -5.4487150930825294e-05
-8.1578661135983e-05   0.0   -5.4487150930825294e-05
-8.1578661135983e-05   0.0   -5.4487150930825294e-05
-8.1578661135983e-05   0.0   -5.4487150930825294e-05
-4.7273502812162945e-05   1.0762715138609832e-05   9.145742025374028e-06
-4.7273502812162945e-05   1.0762715138609832e-05   9.145742025374028e-06
-4.7273502812162945e-05   1.0762715138609832e-05   9.145742025374028e-06
-4.7273502812162945e-05   1.0762715138609832e-05   9.145742025374028e-06
-4.724444631024763e-05   0.0   -4.832472204489191e-05
-4.724444631024763e-05   0.0   -4.832472204489191e-05
-4.724444631024763e-05   0.0   -4.832472204489191e-05
-4.724444631024763e-05   0.0   -4.832472204489191e-05
-8.689599485992356e-05   1.226376230679973e-05   1.0402934820488339e-05
-8.689599485992356e-05   1.226376230679973e-05   1.0402934820488339e-05
-8.689599485992356e-05   1.226376230679973e-05   1.0402934820488339e-05
-8.689599485992356e-05   1.226376230679973e-05   1.0402934820488339e-05
-6.44115537231152e-05   5.135357404944477e-06   -2.279409079974572e-05
-6.44115537231152e-05   5.135357404944477e-06   -2.279409079974572e-05
-6.44115537231152e-05   5.135357404944477e-06   -2.279409079974572e-05
-6.44115537231152e-05   5.135357404944477e-06   -2.279409079974572e-05
-4.8098975547873195e-05   0.0   -4.464657398291063e-05
-4.8098975547873195e-05   0.0   -4.464657398291063e-05
-4.8098975547873195e-05   0.0   -4.464657398291063e-05
-4.8098975547873195e-05   0.0   -4.464657398291063e-05
-2.1908850886842167e-05   3.067634500051786e-06   8.442144855054612e-07
-2.1908850886842167e-05   3.067634500051786e-06   8.442144855054612e-07
-2.1908850886842167e-05   3.067634500051786e-06   8.442144855054612e-07
-2.1908850886842167e-05   3.067634500051786e-06   8.442144855054612e-07
-2.1067984187190004e-05   0.0   -4.426120294235336e-05
-2.1067984187190004e-05   0.0   -4.426120294235336e-05
-2.1067984187190004e-05   0.0   -4.426120294235336e-05
-2.1067984187190004e-05   0.0   -4.426120294235336e-05
-4.714428092673293e-05   4.369654615761539e-06   -3.422501145905409e-06
-4.714428092673293e-05   4.369654615761539e-06   -3.422501145905409e-06
-4.714428092673293e-05   4.369654615761539e-06   -3.422501145905409e-06
-4.714428092673293e-05   4.369654615761539e-06   -3.422501145905409e-06
-3.458347986753154e-05   3.2114253379771806e-07   -2.1928062328729286e-05
-3.458347986753154e-05   3.2114253379771806e-07   -2.1928062328729286e-05
-3.458347986753154e-05   3.2114253379771806e-07   -2.1928062328729286e-05
-3.458347986753154e-05   3.2114253379771806e-07   -2.1928062328729286e-05
-4.714428092673289e-05   0.0   -4.688299571181024e-05
-4.714428092673289e-05   0.0   -4.688299571181024e-05
-4.714428092673289e-05   0.0   -4.688299571181024e-05
-4.714428092673289e-05   0.0   -4.688299571181024e-05
-2.1067984187190004e-05   4.369654615761539e-06   -8.007083764484884e-07
-2.1067984187190004e-05   4.369654615761539e-06   -8.007083764484884e-07
-2.1067984187190004e-05   4.369654615761539e-06   -8.007083764484884e-07
-2.1067984187190004e-05   4.369654615761539e-06   -8.007083764484884e-07
-2.05942014675926e-05   0.0   -4.481602839126801e-05
-2.05942014675926e-05   0.0   -4.481602839126801e-05
-2.05942014675926e-05   0.0   -4.481602839126801e-05
-2.05942014675926e-05   0.0   -4.481602839126801e-05
-4.7273502812162945e-05   5.3558224273189746e-06   -3.5640196067088296e-06
-4.7273502812162945e-05   5.3558224273189746e-06   -3.5640196067088296e-06
-4.7273502812162945e-05   5.3558224273189746e-06   -3.5640196067088296e-06
-4.7273502812162945e-05   5.3558224273189746e-06   -3.5640196067088296e-06
-3.38692411971627e-05   1.7224727671185592e-06   -2.3724445835588796e-05
-3.38692411971627e-05   1.7224727671185592e-06   -2.3724445835588796e-05
-3.38692411971627e-05   1.7224727671185592e-06   -2.3724445835588796e-05
-3.38692411971627e-05   1.7224727671185592e-06   -2.3724445835588796e-05
-4.7273502812162945e-05   0.0   -4.8029521847659395e-05
-4.7273502812162945e-05   0.0   -4.8029521847659395e-05
-4.7273502812162945e-05   0.0   -4.8029521847659395e-05
-4.7273502812162945e-05   0.0   -4.8029521847659395e-05
-2.05942014675926e-05   5.3558224273189746e-06   -3.505261503174422e-07
-2.05942014675926e-05   5.3558224273189746e-06   -3.505261503174422e-07
-2.05942014675926e-05   5.3558224273189746e-06   -3.505261503174422e-07
-2.05942014675926e-05   5.3558224273189746e-06   -3.505261503174422e-07
-2.016216846586115e-05   0.0   -4.458491603551252e-05
-2.016216846586115e-05   0.0   -4.458491603551252e-05
-2.016216846586115e-05   0.0   -4.458491603551252e-05
-2.016216846586115e-05   0.0   -4.458491603551252e-05
-4.7244446310247505e-05   6.233010015632251e-06   -3.187592304247758e-06
-4.7244446310247505e-05   6.233010015632251e-06   -3.187592304247758e-06
-4.7244446310247505e-05   6.233010015632251e-06   -3.187592304247758e-06
-4.7244446310247505e-05   6.233010015632251e-06   -3.187592304247758e-06
-3.371783563901204e-05   2.8705048434557e-06   -2.3714440319667785e-05
-3.371783563901204e-05   2.8705048434557e-06   -2.3714440319667785e-05
-3.371783563901204e-05   2.8705048434557e-06   -2.3714440319667785e-05
-3.371783563901204e-05   2.8705048434557e-06   -2.3714440319667785e-05
-2.1908850886842208e-05   0.0   -4.280599328287955e-05
-2.1908850886842208e-05   0.0   -4.280599328287955e-05
-2.1908850886842208e-05   0.0   -4.280599328287955e-05
-2.1908850886842208e-05   0.0   -4.280599328287955e-05
2.8327063272842873e-06   -3.940200081489157e-07   -1.8064765975580407e-06
2.8327063272842873e-06   -3.940200081489157e-07   -1.8064765975580407e-06
2.8327063272842873e-06   -3.940200081489157e-07   -1.8064765975580407e-06
2.8327063272842873e-06   -3.940200081489157e-07   -1.8064765975580407e-06
3.371160761881192e-06   0.0   -4.3796130219141275e-05
3.371160761881192e-06   0.0   -4.3796130219141275e-05
3.371160761881192e-06   0.0   -4.3796130219141275e-05
3.371160761881192e-06   0.0   -4.3796130219141275e-05
-2.1067984187190004e-05   7.751212053532273e-07   -3.529294693901361e-06
-2.1067984187190004e-05   7.751212053532273e-07   -3.529294693901361e-06
-2.1067984187190004e-05   7.751212053532273e-07   -3.529294693901361e-06
-2.1067984187190004e-05   7.751212053532273e-07   -3.529294693901361e-06
-9.268845062480486e-06   -8.251141135515614e-07   -2.223438537707426e-05
-9.268845062480486e-06   -8.251141135515614e-07   -2.223438537707426e-05
-9.268845062480486e-06   -8.251141135515614e-07   -2.223438537707426e-05
-9.268845062480486e-06   -8.251141135515614e-07   -2.223438537707426e-05
-2.1067984187190004e-05   0.0   -4.426120294235336e-05
-2.1067984187190004e-05   0.0   -4.426120294235336e-05
-2.1067984187190004e-05   0.0   -4.426120294235336e-05
-2.1067984187190004e-05   0.0   -4.426120294235336e-05
3.3711607618811975e-06   7.751212053532273e-07   -3.0642219706894155e-06
3.3711607618811975e-06   7.751212053532273e-07   -3.0642219706894155e-06
3.3711607618811975e-06   7.751212053532273e-07   -3.0642219706894155e-06
3.3711607618811975e-06   7.751212053532273e-07   -3.0642219706894155e-06
3.7966365835910507e-06   0.0   -4.3733186554344804e-05
3.7966365835910507e-06   0.0   -4.3733186554344804e-05
3.7966365835910507e-06   0.0   -4.3733186554344804e-05
3.7966365835910507e-06   0.0   -4.3733186554344804e-05
-2.0594201467592564e-05   1.8047363948718776e-06   -4.164631639295239e-06
-2.0594201467592564e-05   1.8047363948718776e-06   -4.164631639295239e-06
-2.0594201467592564e-05   1.8047363948718776e-06   -4.164631639295239e-06
-2.0594201467592564e-05   1.8047363948718776e-06   -4.164631639295239e-06
-8.635673801799472e-06   4.400136566737355e-07   -2.3276677439364894e-05
-8.635673801799472e-06   4.400136566737355e-07   -2.3276677439364894e-05
-8.635673801799472e-06   4.400136566737355e-07   -2.3276677439364894e-05
-8.635673801799472e-06   4.400136566737355e-07   -2.3276677439364894e-05
-2.05942014675926e-05   0.0   -4.481602839126801e-05
-2.05942014675926e-05   0.0   -4.481602839126801e-05
-2.05942014675926e-05   0.0   -4.481602839126801e-05
-2.05942014675926e-05   0.0   -4.481602839126801e-05
3.7966365835910575e-06   1.8047363948718776e-06   -3.081789802372122e-06
3.7966365835910575e-06   1.8047363948718776e-06   -3.081789802372122e-06
3.7966365835910575e-06   1.8047363948718776e-06   -3.081789802372122e-06
3.7966365835910575e-06   1.8047363948718776e-06   -3.081789802372122e-06
4.367877033094446e-06   0.0   -4.278667330203551e-05
4.367877033094446e-06   0.0   -4.278667330203551e-05
4.367877033094446e-06   0.0   -4.278667330203551e-05
4.367877033094446e-06   0.0   -4.278667330203551e-05
-2.016216846586113e-05   2.997071222461602e-06   -3.701506870586516e-06
-2.016216846586113e-05   2.997071222461602e-06   -3.701506870586516e-06
-2.016216846586113e-05   2.997071222461602e-06   -3.701506870586516e-06
-2.016216846586113e-05   2.997071222461602e-06   -3.701506870586516e-06
-8.113162217249058e-06   1.6911292410270139e-06   -2.299961876274586e-05
-8.113162217249058e-06   1.6911292410270139e-06   -2.299961876274586e-05
-8.113162217249058e-06   1.6911292410270139e-06   -2.299961876274586e-05
-8.113162217249058e-06   1.6911292410270139e-06   -2.299961876274586e-05
2.832706327284292e-06   0.0   -4.30424052877689e-05
2.832706327284292e-06   0.0   -4.30424052877689e-05
2.832706327284292e-06   0.0   -4.30424052877689e-05
2.832706327284292e-06   0.0   -4.30424052877689e-05
2.9692468548139855e-05   -3.482642950291062e-06   -3.657206898509104e-07
2.9692468548139855e-05   -3.482642950291062e-06   -3.657206898509104e-07
2.9692468548139855e-05   -3.482642950291062e-06   -3.657206898509104e-07
2.9692468548139855e-05   -3.482642950291062e-06   -3.657206898509104e-07
2.9749502752519506e-05   0.0   -4.537076997999218e-05
2.9749502752519506e-05   0.0   -4.537076997999218e-05
2.9749502752519506e-05   0.0   -4.537076997999218e-05
2.9749502752519506e-05   0.0   -4.537076997999218e-05
3.3711607618812034e-06   -2.624399601417935e-06   1.677730985890673e-07
3.3711607618812034e-06   -2.624399601417935e-06   1.677730985890673e-07
3.3711607618812034e-06   -2.624399601417935e-06   1.677730985890673e-07
3.3711607618812034e-06   -2.624399601417935e-06   1.677730985890673e-07
1.62911045399019e-05   -1.940303910186064e-06   -2.1775923946184516e-05
1.62911045399019e-05   -1.940303910186064e-06   -2.1775923946184516e-05
1.62911045399019e-05   -1.940303910186064e-06   -2.1775923946184516e-05
1.62911045399019e-05   -1.940303910186064e-06   -2.1775923946184516e-05
3.3711607618812034e-06   0.0   -4.3796130219141424e-05
3.3711607618812034e-06   0.0   -4.3796130219141424e-05
3.3711607618812034e-06   0.0   -4.3796130219141424e-05
3.3711607618812034e-06   0.0   -4.3796130219141424e-05
2.9749502752519506e-05   -2.624399601417935e-06   -1.4068666622616904e-06
2.9749502752519506e-05   -2.624399601417935e-06   -1.4068666622616904e-06
2.9749502752519506e-05   -2.624399601417935e-06   -1.4068666622616904e-06
2.9749502752519506e-05   -2.624399601417935e-06   -1.4068666622616904e-06
2.9625740450808623e-05   0.0   -4.472292286245351e-05
2.9625740450808623e-05   0.0   -4.472292286245351e-05
2.9625740450808623e-05   0.0   -4.472292286245351e-05
2.9625740450808623e-05   0.0   -4.472292286245351e-05
3.7966365835910575e-06   -1.6495605135143977e-06   -6.846801089822794e-07
3.7966365835910575e-06   -1.6495605135143977e-06   -6.846801089822794e-07
3.7966365835910575e-06   -1.6495605135143977e-06   -6.846801089822794e-07
3.7966365835910575e-06   -1.6495605135143977e-06   -6.846801089822794e-07
1.6498450606344915e-05   -7.723272027600702e-07   -2.238071013335794e-05
1.6498450606344915e-05   -7.723272027600702e-07   -2.238071013335794e-05
1.6498450606344915e-05   -7.723272027600702e-07   -2.238071013335794e-05
1.6498450606344915e-05   -7.723272027600702e-07   -2.238071013335794e-05
3.796636583591054e-06   0.0   -4.3733186554344844e-05
3.796636583591054e-06   0.0   -4.3733186554344844e-05
3.796636583591054e-06   0.0   -4.3733186554344844e-05
3.796636583591054e-06   0.0   -4.3733186554344844e-05
2.9625740450808623e-05   -1.6495605135143977e-06   -1.6744164170909114e-06
2.9625740450808623e-05   -1.6495605135143977e-06   -1.6744164170909114e-06
2.9625740450808623e-05   -1.6495605135143977e-06   -1.6744164170909114e-06
2.9625740450808623e-05   -1.6495605135143977e-06   -1.6744164170909114e-06
3.020300954799334e-05   0.0   -4.2990563441196755e-05
3.020300954799334e-05   0.0   -4.2990563441196755e-05
3.020300954799334e-05   0.0   -4.2990563441196755e-05
3.020300954799334e-05   0.0   -4.2990563441196755e-05
4.367877033094454e-06   -3.398168986019429e-07   2.7188088946254385e-07
4.367877033094454e-06   -3.398168986019429e-07   2.7188088946254385e-07
4.367877033094454e-06   -3.398168986019429e-07   2.7188088946254385e-07
4.367877033094454e-06   -3.398168986019429e-07   2.7188088946254385e-07
1.6999823065792185e-05   6.188525942901104e-07   -2.135656419410222e-05
1.6999823065792185e-05   6.188525942901104e-07   -2.135656419410222e-05
1.6999823065792185e-05   6.188525942901104e-07   -2.135656419410222e-05
1.6999823065792185e-05   6.188525942901104e-07   -2.135656419410222e-05
2.9692468548139855e-05   0.0   -4.513199105794354e-05
2.9692468548139855e-05   0.0   -4.513199105794354e-05
2.9692468548139855e-05   0.0   -4.513199105794354e-05
2.9692468548139855e-05   0.0   -4.513199105794354e-05
6.705738513659905e-05   -8.83133352278236e-06   1.1844069809152725e-05
6.705738513659905e-05   -8.83133352278236e-06   1.1844069809152725e-05
6.705738513659905e-05   -8.83133352278236e-06   1.1844069809152725e-05
6.705738513659905e-05   -8.83133352278236e-06   1.1844069809152725e-05
6.29832085231565e-05   0.0   -4.98778632882711e-05
6.29832085231565e-05   0.0   -4.98778632882711e-05
6.29832085231565e-05   0.0   -4.98778632882711e-05
6.29832085231565e-05   0.0   -4.98778632882711e-05
2.9749502752519506e-05   -7.511822180464854e-06   1.0018739637736133e-05
2.9749502752519506e-05   -7.511822180464854e-06   1.0018739637736133e-05
2.9749502752519506e-05   -7.511822180464854e-06   1.0018739637736133e-05
2.9749502752519506e-05   -7.511822180464854e-06   1.0018739637736133e-05
4.633783853564817e-05   -3.954893525272967e-06   -1.9762643860593427e-05
4.633783853564817e-05   -3.954893525272967e-06   -1.9762643860593427e-05
4.633783853564817e-05   -3.954893525272967e-06   -1.9762643860593427e-05
4.633783853564817e-05   -3.954893525272967e-06   -1.9762643860593427e-05
2.974950275251948e-05   0.0   -4.537076997999215e-05
2.974950275251948e-05   0.0   -4.537076997999215e-05
2.974950275251948e-05   0.0   -4.537076997999215e-05
2.974950275251948e-05   0.0   -4.537076997999215e-05
6.298320852315628e-05   -7.5118221804648265e-06   5.511646329457194e-06
6.298320852315628e-05   -7.5118221804648265e-06   5.511646329457194e-06
6.298320852315628e-05   -7.5118221804648265e-06   5.511646329457194e-06
6.298320852315628e-05   -7.5118221804648265e-06   5.511646329457194e-06
6.110609167844254e-05   0.0   -4.884091523118107e-05
6.110609167844254e-05   0.0   -4.884091523118107e-05
6.110609167844254e-05   0.0   -4.884091523118107e-05
6.110609167844254e-05   0.0   -4.884091523118107e-05
2.9625740450808623e-05   -6.863320614545917e-06   7.744329183603003e-06
2.9625740450808623e-05   -6.863320614545917e-06   7.744329183603003e-06
2.9625740450808623e-05   -6.863320614545917e-06   7.744329183603003e-06
2.9625740450808623e-05   -6.863320614545917e-06   7.744329183603003e-06
4.5427797215481e-05   -2.891787709324075e-06   -2.097535183398406e-05
4.5427797215481e-05   -2.891787709324075e-06   -2.097535183398406e-05
4.5427797215481e-05   -2.891787709324075e-06   -2.097535183398406e-05
4.5427797215481e-05   -2.891787709324075e-06   -2.097535183398406e-05
2.9625740450808623e-05   0.0   -4.472292286245351e-05
2.9625740450808623e-05   0.0   -4.472292286245351e-05
2.9625740450808623e-05   0.0   -4.472292286245351e-05
2.9625740450808623e-05   0.0   -4.472292286245351e-05
6.110609167844232e-05   -6.863320614545904e-06   3.626336814875424e-06
6.110609167844232e-05   -6.863320614545904e-06   3.626336814875424e-06
6.110609167844232e-05   -6.863320614545904e-06   3.626336814875424e-06
6.110609167844232e-05   -6.863320614545904e-06   3.626336814875424e-06
5.8309041196428525e-05   0.0   -4.6189588486464516e-05
5.8309041196428525e-05   0.0   -4.6189588486464516e-05
5.8309041196428525e-05   0.0   -4.6189588486464516e-05
5.8309041196428525e-05   0.0   -4.6189588486464516e-05
3.020300954799334e-05   -5.331708408779737e-06   3.8528226395287115e-06
3.020300954799334e-05   -5.331708408779737e-06   3.8528226395287115e-06
3.020300954799334e-05   -5.331708408779737e-06   3.8528226395287115e-06
3.020300954799334e-05   -5.331708408779737e-06   3.8528226395287115e-06
4.396739082361863e-05   -1.2222213533425661e-06   -2.1553505053109037e-05
4.396739082361863e-05   -1.2222213533425661e-06   -2.1553505053109037e-05
4.396739082361863e-05   -1.2222213533425661e-06   -2.1553505053109037e-05
4.396739082361863e-05   -1.2222213533425661e-06   -2.1553505053109037e-05
-6.555275043412703e-05   8.367793695234979e-06   -4.304596421235124e-05
-6.555275043412703e-05   8.367793695234979e-06   -4.304596421235124e-05
-6.555275043412703e-05   8.367793695234979e-06   -4.304596421235124e-05
-6.555275043412703e-05   8.367793695234979e-06   -4.304596421235124e-05
-4.198949419499369e-05   7.522661766480278e-06   -4.280949637715177e-06
-4.198949419499369e-05   7.522661766480278e-06   -4.280949637715177e-06
-4.198949419499369e-05   7.522661766480278e-06   -4.280949637715177e-06
-4.198949419499369e-05   7.522661766480278e-06   -4.280949637715177e-06
-4.30441039675654e-05   1.0045100136217897e-05   -3.615500753587807e-05
-4.30441039675654e-05   1.0045100136217897e-05   -3.615500753587807e-05
-4.30441039675654e-05   1.0045100136217897e-05   -3.615500753587807e-05
-4.30441039675654e-05   1.0045100136217897e-05   -3.615500753587807e-05
-6.625846277543143e-05   9.031043934157258e-06   3.144024198468515e-06
-6.625846277543143e-05   9.031043934157258e-06   3.144024198468515e-06
-6.625846277543143e-05   9.031043934157258e-06   3.144024198468515e-06
-6.625846277543143e-05   9.031043934157258e-06   3.144024198468515e-06
-5.206378343130393e-05   8.741567008503046e-06   -2.0340088553018446e-05
-5.206378343130393e-05   8.741567008503046e-06   -2.0340088553018446e-05
-5.206378343130393e-05   8.741567008503046e-06   -2.0340088553018446e-05
-5.206378343130393e-05   8.741567008503046e-06   -2.0340088553018446e-05
-6.625846277543143e-05   1.0045100136217897e-05   -3.5546573814641664e-05
-6.625846277543143e-05   1.0045100136217897e-05   -3.5546573814641664e-05
-6.625846277543143e-05   1.0045100136217897e-05   -3.5546573814641664e-05
-6.625846277543143e-05   1.0045100136217897e-05   -3.5546573814641664e-05
-4.304410396756555e-05   9.031043934157285e-06   2.5355904772321345e-06
-4.304410396756555e-05   9.031043934157285e-06   2.5355904772321345e-06
-4.304410396756555e-05   9.031043934157285e-06   2.5355904772321345e-06
-4.304410396756555e-05   9.031043934157285e-06   2.5355904772321345e-06
-4.326307576952694e-05   1.0762715138609805e-05   -3.2507833066393056e-05
-4.326307576952694e-05   1.0762715138609805e-05   -3.2507833066393056e-05
-4.326307576952694e-05   1.0762715138609805e-05   -3.2507833066393056e-05
-4.326307576952694e-05   1.0762715138609805e-05   -3.2507833066393056e-05
-6.672139760512496e-05   9.71190097184596e-06   7.219858492995131e-06
-6.672139760512496e-05   9.71190097184596e-06   7.219858492995131e-06
-6.672139760512496e-05   9.71190097184596e-06   7.219858492995131e-06
-6.672139760512496e-05   9.71190097184596e-06   7.219858492995131e-06
-5.359210507916245e-05   9.689902168407696e-06   -1.4649096434879303e-05
-5.359210507916245e-05   9.689902168407696e-06   -1.4649096434879303e-05
-5.359210507916245e-05   9.689902168407696e-06   -1.4649096434879303e-05
-5.359210507916245e-05   9.689902168407696e-06   -1.4649096434879303e-05
-6.672139760512485e-05   1.0762715138609805e-05   -3.187734456633475e-05
-6.672139760512485e-05   1.0762715138609805e-05   -3.187734456633475e-05
-6.672139760512485e-05   1.0762715138609805e-05   -3.187734456633475e-05
-6.672139760512485e-05   1.0762715138609805e-05   -3.187734456633475e-05
-4.326307576952701e-05   9.71190097184596e-06   6.589369992936788e-06
-4.326307576952701e-05   9.71190097184596e-06   6.589369992936788e-06
-4.326307576952701e-05   9.71190097184596e-06   6.589369992936788e-06
-4.326307576952701e-05   9.71190097184596e-06   6.589369992936788e-06
-4.301513301232328e-05   1.2263762306799716e-05   -2.4026846677518965e-05
-4.301513301232328e-05   1.2263762306799716e-05   -2.4026846677518965e-05
-4.301513301232328e-05   1.2263762306799716e-05   -2.4026846677518965e-05
-4.301513301232328e-05   1.2263762306799716e-05   -2.4026846677518965e-05
-6.486629999496169e-05   1.0254447128944181e-05   1.359735406692488e-05
-6.486629999496169e-05   1.0254447128944181e-05   1.359735406692488e-05
-6.486629999496169e-05   1.0254447128944181e-05   1.359735406692488e-05
-6.486629999496169e-05   1.0254447128944181e-05   1.359735406692488e-05
-5.219507019579614e-05   1.0629778316362378e-05   -7.74656097746857e-06
-5.219507019579614e-05   1.0629778316362378e-05   -7.74656097746857e-06
-5.219507019579614e-05   1.0629778316362378e-05   -7.74656097746857e-06
-5.219507019579614e-05   1.0629778316362378e-05   -7.74656097746857e-06
-4.198949419499369e-05   3.067634500051786e-06   -4.573373959805512e-05
-4.198949419499369e-05   3.067634500051786e-06   -4.573373959805512e-05
-4.198949419499369e-05   3.067634500051786e-06   -4.573373959805512e-05
-4.198949419499369e-05   3.067634500051786e-06   -4.573373959805512e-05
-1.990323554418507e-05   3.500484184035778e-06   -8.663598702983628e-06
-1.990323554418507e-05   3.500484184035778e-06   -8.663598702983628e-06
-1.990323554418507e-05   3.500484184035778e-06   -8.663598702983628e-06
-1.990323554418507e-05   3.500484184035778e-06   -8.663598702983628e-06
-2.0376776614826636e-05   4.369654615761525e-06   -4.5663528774413917e-05
-2.0376776614826636e-05   4.369654615761525e-06   -4.5663528774413917e-05
-2.0376776614826636e-05   4.369654615761525e-06   -4.5663528774413917e-05
-2.0376776614826636e-05   4.369654615761525e-06   -4.5663528774413917e-05
-4.30441039675654e-05   4.887489211655773e-06   -8.1953506107191e-06
-4.30441039675654e-05   4.887489211655773e-06   -8.1953506107191e-06
-4.30441039675654e-05   4.887489211655773e-06   -8.1953506107191e-06
-4.30441039675654e-05   4.887489211655773e-06   -8.1953506107191e-06
-3.124004936565424e-05   3.935247913007745e-06   -2.729743016804911e-05
-3.124004936565424e-05   3.935247913007745e-06   -2.729743016804911e-05
-3.124004936565424e-05   3.935247913007745e-06   -2.729743016804911e-05
-3.124004936565424e-05   3.935247913007745e-06   -2.729743016804911e-05
-4.304410396756536e-05   4.369654615761525e-06   -4.5974229531950396e-05
-4.304410396756536e-05   4.369654615761525e-06   -4.5974229531950396e-05
-4.304410396756536e-05   4.369654615761525e-06   -4.5974229531950396e-05
-4.304410396756536e-05   4.369654615761525e-06   -4.5974229531950396e-05
-2.0376776614826666e-05   4.887489211655773e-06   -7.884649853182569e-06
-2.0376776614826666e-05   4.887489211655773e-06   -7.884649853182569e-06
-2.0376776614826666e-05   4.887489211655773e-06   -7.884649853182569e-06
-2.0376776614826666e-05   4.887489211655773e-06   -7.884649853182569e-06
-2.0524306244771972e-05   5.355822427318961e-06   -4.480960054980689e-05
-2.0524306244771972e-05   5.355822427318961e-06   -4.480960054980689e-05
-2.0524306244771972e-05   5.355822427318961e-06   -4.480960054980689e-05
-2.0524306244771972e-05   5.355822427318961e-06   -4.480960054980689e-05
-4.326307576952694e-05   6.0358126751005735e-06   -7.319645490550973e-06
-4.326307576952694e-05   6.0358126751005735e-06   -7.319645490550973e-06
-4.326307576952694e-05   6.0358126751005735e-06   -7.319645490550973e-06
-4.326307576952694e-05   6.0358126751005735e-06   -7.319645490550973e-06
-3.148270280365501e-05   4.995756277455227e-06   -2.6329566595083512e-05
-3.148270280365501e-05   4.995756277455227e-06   -2.6329566595083512e-05
-3.148270280365501e-05   4.995756277455227e-06   -2.6329566595083512e-05
-3.148270280365501e-05   4.995756277455227e-06   -2.6329566595083512e-05
-4.326307576952694e-05   5.355822427318961e-06   -4.521759469847587e-05
-4.326307576952694e-05   5.355822427318961e-06   -4.521759469847587e-05
-4.326307576952694e-05   5.355822427318961e-06   -4.521759469847587e-05
-4.326307576952694e-05   5.355822427318961e-06   -4.521759469847587e-05
-2.0524306244772043e-05   6.035812675100601e-06   -6.91165134188203e-06
-2.0524306244772043e-05   6.035812675100601e-06   -6.91165134188203e-06
-2.0524306244772043e-05   6.035812675100601e-06   -6.91165134188203e-06
-2.0524306244772043e-05   6.035812675100601e-06   -6.91165134188203e-06
-2.0472550502337197e-05   6.233010015632237e-06   -4.435249168583533e-05
-2.0472550502337197e-05   6.233010015632237e-06   -4.435249168583533e-05
-2.0472550502337197e-05   6.233010015632237e-06   -4.435249168583533e-05
-2.0472550502337197e-05   6.233010015632237e-06   -4.435249168583533e-05
-4.3015133012323236e-05   7.271575849798068e-06   -7.404660336358102e-06
-4.3015133012323236e-05   7.271575849798068e-06   -7.404660336358102e-06
-4.3015133012323236e-05   7.271575849798068e-06   -7.404660336358102e-06
-4.3015133012323236e-05   7.271575849798068e-06   -7.404660336358102e-06
-3.166632488602404e-05   5.9556458155980545e-06   -2.552978252633688e-05
-3.166632488602404e-05   5.9556458155980545e-06   -2.552978252633688e-05
-3.166632488602404e-05   5.9556458155980545e-06   -2.552978252633688e-05
-3.166632488602404e-05   5.9556458155980545e-06   -2.552978252633688e-05
-1.9903235544185033e-05   -3.940200081489157e-07   -4.78883088658389e-05
-1.9903235544185033e-05   -3.940200081489157e-07   -4.78883088658389e-05
-1.9903235544185033e-05   -3.940200081489157e-07   -4.78883088658389e-05
-1.9903235544185033e-05   -3.940200081489157e-07   -4.78883088658389e-05
1.904080365189717e-06   -1.0488253995464755e-07   -1.1369299869297707e-05
1.904080365189717e-06   -1.0488253995464755e-07   -1.1369299869297707e-05
1.904080365189717e-06   -1.0488253995464755e-07   -1.1369299869297707e-05
1.904080365189717e-06   -1.0488253995464755e-07   -1.1369299869297707e-05
1.8159731047570754e-06   7.751212053532273e-07   -4.815329156524596e-05
1.8159731047570754e-06   7.751212053532273e-07   -4.815329156524596e-05
1.8159731047570754e-06   7.751212053532273e-07   -4.815329156524596e-05
1.8159731047570754e-06   7.751212053532273e-07   -4.815329156524596e-05
-2.0376776614826636e-05   1.1731604163880559e-06   -1.1404198892560504e-05
-2.0376776614826636e-05   1.1731604163880559e-06   -1.1404198892560504e-05
-2.0376776614826636e-05   1.1731604163880559e-06   -1.1404198892560504e-05
-2.0376776614826636e-05   1.1731604163880559e-06   -1.1404198892560504e-05
-9.194837352241626e-06   3.8974871722865004e-07   -2.9570717310706624e-05
-9.194837352241626e-06   3.8974871722865004e-07   -2.9570717310706624e-05
-9.194837352241626e-06   3.8974871722865004e-07   -2.9570717310706624e-05
-9.194837352241626e-06   3.8974871722865004e-07   -2.9570717310706624e-05
-2.0376776614826636e-05   7.751212053532273e-07   -4.839211509186678e-05
-2.0376776614826636e-05   7.751212053532273e-07   -4.839211509186678e-05
-2.0376776614826636e-05   7.751212053532273e-07   -4.839211509186678e-05
-2.0376776614826636e-05   7.751212053532273e-07   -4.839211509186678e-05
1.8159731047570754e-06   1.173160416388083e-06   -1.1165375365939617e-05
1.8159731047570754e-06   1.173160416388083e-06   -1.1165375365939617e-05
1.8159731047570754e-06   1.173160416388083e-06   -1.1165375365939617e-05
1.8159731047570754e-06   1.173160416388083e-06   -1.1165375365939617e-05
1.695610094714022e-06   1.804736394871864e-06   -4.825336287458737e-05
1.695610094714022e-06   1.804736394871864e-06   -4.825336287458737e-05
1.695610094714022e-06   1.804736394871864e-06   -4.825336287458737e-05
1.695610094714022e-06   1.804736394871864e-06   -4.825336287458737e-05
-2.0524306244771972e-05   2.4219750018674195e-06   -1.1590512139641421e-05
-2.0524306244771972e-05   2.4219750018674195e-06   -1.1590512139641421e-05
-2.0524306244771972e-05   2.4219750018674195e-06   -1.1590512139641421e-05
-2.0524306244771972e-05   2.4219750018674195e-06   -1.1590512139641421e-05
-9.364736709000081e-06   1.472648561578197e-06   -2.9620198835087573e-05
-9.364736709000081e-06   1.472648561578197e-06   -2.9620198835087573e-05
-9.364736709000081e-06   1.472648561578197e-06   -2.9620198835087573e-05
-9.364736709000081e-06   1.472648561578197e-06   -2.9620198835087573e-05
-2.0524306244771972e-05   1.804736394871864e-06   -4.86237060387847e-05
-2.0524306244771972e-05   1.804736394871864e-06   -4.86237060387847e-05
-2.0524306244771972e-05   1.804736394871864e-06   -4.86237060387847e-05
-2.0524306244771972e-05   1.804736394871864e-06   -4.86237060387847e-05
1.695610094714025e-06   2.4219750018674195e-06   -1.1220168975444088e-05
1.695610094714025e-06   2.4219750018674195e-06   -1.1220168975444088e-05
1.695610094714025e-06   2.4219750018674195e-06   -1.1220168975444088e-05
1.695610094714025e-06   2.4219750018674195e-06   -1.1220168975444088e-05
1.4512185198271435e-06   2.997071222461602e-06   -4.817063495759911e-05
1.4512185198271435e-06   2.997071222461602e-06   -4.817063495759911e-05
1.4512185198271435e-06   2.997071222461602e-06   -4.817063495759911e-05
1.4512185198271435e-06   2.997071222461602e-06   -4.817063495759911e-05
-2.047255050233722e-05   3.723033395718853e-06   -1.2066597224612906e-05
-2.047255050233722e-05   3.723033395718853e-06   -1.2066597224612906e-05
-2.047255050233722e-05   3.723033395718853e-06   -1.2066597224612906e-05
-2.047255050233722e-05   3.723033395718853e-06   -1.2066597224612906e-05
-9.466940138586435e-06   2.585119365527028e-06   -2.972653274608239e-05
-9.466940138586435e-06   2.585119365527028e-06   -2.972653274608239e-05
-9.466940138586435e-06   2.585119365527028e-06   -2.972653274608239e-05
-9.466940138586435e-06   2.585119365527028e-06   -2.972653274608239e-05
1.904080365189717e-06   -3.482642950291062e-06   -4.4184484707040566e-05
1.904080365189717e-06   -3.482642950291062e-06   -4.4184484707040566e-05
1.904080365189717e-06   -3.482642950291062e-06   -4.4184484707040566e-05
1.904080365189717e-06   -3.482642950291062e-06   -4.4184484707040566e-05
2.4376758342128004e-05   -3.5803255267529766e-06   -6.788630958020535e-06
2.4376758342128004e-05   -3.5803255267529766e-06   -6.788630958020535e-06
2.4376758342128004e-05   -3.5803255267529766e-06   -6.788630958020535e-06
2.4376758342128004e-05   -3.5803255267529766e-06   -6.788630958020535e-06
2.4578528533596186e-05   -2.624399601417908e-06   -4.4797844812129274e-05
2.4578528533596186e-05   -2.624399601417908e-06   -4.4797844812129274e-05
2.4578528533596186e-05   -2.624399601417908e-06   -4.4797844812129274e-05
2.4578528533596186e-05   -2.624399601417908e-06   -4.4797844812129274e-05
1.8159731047570754e-06   -2.4186467950212042e-06   -6.983704114568706e-06
1.8159731047570754e-06   -2.4186467950212042e-06   -6.983704114568706e-06
1.8159731047570754e-06   -2.4186467950212042e-06   -6.983704114568706e-06
1.8159731047570754e-06   -2.4186467950212042e-06   -6.983704114568706e-06
1.3000594334284342e-05   -2.8960154881267663e-06   -2.533831828125089e-05
1.3000594334284342e-05   -2.8960154881267663e-06   -2.533831828125089e-05
1.3000594334284342e-05   -2.8960154881267663e-06   -2.533831828125089e-05
1.3000594334284342e-05   -2.8960154881267663e-06   -2.533831828125089e-05
1.8159731047570716e-06   -2.624399601417935e-06   -4.492129649596738e-05
1.8159731047570716e-06   -2.624399601417935e-06   -4.492129649596738e-05
1.8159731047570716e-06   -2.624399601417935e-06   -4.492129649596738e-05
1.8159731047570716e-06   -2.624399601417935e-06   -4.492129649596738e-05
2.457852853359623e-05   -2.418646795021177e-06   -6.860252430730668e-06
2.457852853359623e-05   -2.418646795021177e-06   -6.860252430730668e-06
2.457852853359623e-05   -2.418646795021177e-06   -6.860252430730668e-06
2.457852853359623e-05   -2.418646795021177e-06   -6.860252430730668e-06
2.4459080374045422e-05   -1.6495605135143841e-06   -4.563512085101008e-05
2.4459080374045422e-05   -1.6495605135143841e-06   -4.563512085101008e-05
2.4459080374045422e-05   -1.6495605135143841e-06   -4.563512085101008e-05
2.4459080374045422e-05   -1.6495605135143841e-06   -4.563512085101008e-05
1.695610094714022e-06   -1.2810066298687766e-06   -7.917136048978492e-06
1.695610094714022e-06   -1.2810066298687766e-06   -7.917136048978492e-06
1.695610094714022e-06   -1.2810066298687766e-06   -7.917136048978492e-06
1.695610094714022e-06   -1.2810066298687766e-06   -7.917136048978492e-06
1.2862907677690903e-05   -1.969002959695173e-06   -2.6116500889377405e-05
1.2862907677690903e-05   -1.969002959695173e-06   -2.6116500889377405e-05
1.2862907677690903e-05   -1.969002959695173e-06   -2.6116500889377405e-05
1.2862907677690903e-05   -1.969002959695173e-06   -2.6116500889377405e-05
1.6956100947140203e-06   -1.6495605135143841e-06   -4.5856253181197445e-05
1.6956100947140203e-06   -1.6495605135143841e-06   -4.5856253181197445e-05
1.6956100947140203e-06   -1.6495605135143841e-06   -4.5856253181197445e-05
1.6956100947140203e-06   -1.6495605135143841e-06   -4.5856253181197445e-05
2.445908037404551e-05   -1.2810066298687766e-06   -7.696003718791133e-06
2.445908037404551e-05   -1.2810066298687766e-06   -7.696003718791133e-06
2.445908037404551e-05   -1.2810066298687766e-06   -7.696003718791133e-06
2.445908037404551e-05   -1.2810066298687766e-06   -7.696003718791133e-06
2.374527973753345e-05   -3.398168986019429e-07   -4.5716142208798e-05
2.374527973753345e-05   -3.398168986019429e-07   -4.5716142208798e-05
2.374527973753345e-05   -3.398168986019429e-07   -4.5716142208798e-05
2.374527973753345e-05   -3.398168986019429e-07   -4.5716142208798e-05
1.4512185198271435e-06   1.257626384462533e-07   -8.838721234849801e-06
1.4512185198271435e-06   1.257626384462533e-07   -8.838721234849801e-06
1.4512185198271435e-06   1.257626384462533e-07   -8.838721234849801e-06
1.4512185198271435e-06   1.257626384462533e-07   -8.838721234849801e-06
1.2723459239964416e-05   -8.86302684171555e-07   -2.701854990817451e-05
1.2723459239964416e-05   -8.86302684171555e-07   -2.701854990817451e-05
1.2723459239964416e-05   -8.86302684171555e-07   -2.701854990817451e-05
1.2723459239964416e-05   -8.86302684171555e-07   -2.701854990817451e-05
2.4376758342128004e-05   -8.83133352278236e-06   -2.6734503640244647e-05
2.4376758342128004e-05   -8.83133352278236e-06   -2.6734503640244647e-05
2.4376758342128004e-05   -8.83133352278236e-06   -2.6734503640244647e-05
2.4376758342128004e-05   -8.83133352278236e-06   -2.6734503640244647e-05
4.655221101574593e-05   -6.652621116498081e-06   1.1531811592889067e-05
4.655221101574593e-05   -6.652621116498081e-06   1.1531811592889067e-05
4.655221101574593e-05   -6.652621116498081e-06   1.1531811592889067e-05
4.655221101574593e-05   -6.652621116498081e-06   1.1531811592889067e-05
4.832683589124226e-05   -7.511822180464854e-06   -3.2485110928194986e-05
4.832683589124226e-05   -7.511822180464854e-06   -3.2485110928194986e-05
4.832683589124226e-05   -7.511822180464854e-06   -3.2485110928194986e-05
4.832683589124226e-05   -7.511822180464854e-06   -3.2485110928194986e-05
2.457852853359627e-05   -6.033276207237137e-06   6.208273750611811e-06
2.457852853359627e-05   -6.033276207237137e-06   6.208273750611811e-06
2.457852853359627e-05   -6.033276207237137e-06   6.208273750611811e-06
2.457852853359627e-05   -6.033276207237137e-06   6.208273750611811e-06
3.428619170777394e-05   -7.225957789051086e-06   -9.255555923929333e-06
3.428619170777394e-05   -7.225957789051086e-06   -9.255555923929333e-06
3.428619170777394e-05   -7.225957789051086e-06   -9.255555923929333e-06
3.428619170777394e-05   -7.225957789051086e-06   -9.255555923929333e-06
2.4578528533596206e-05   -7.5118221804648265e-06   -3.337223851213151e-05
2.4578528533596206e-05   -7.5118221804648265e-06   -3.337223851213151e-05
2.4578528533596206e-05   -7.5118221804648265e-06   -3.337223851213151e-05
2.4578528533596206e-05   -7.5118221804648265e-06   -3.337223851213151e-05
4.832683589124226e-05   -6.033276207237137e-06   7.095401334548425e-06
4.832683589124226e-05   -6.033276207237137e-06   7.095401334548425e-06
4.832683589124226e-05   -6.033276207237137e-06   7.095401334548425e-06
4.832683589124226e-05   -6.033276207237137e-06   7.095401334548425e-06
4.814787701439627e-05   -6.863320614545917e-06   -3.5325571354520436e-05
4.814787701439627e-05   -6.863320614545917e-06   -3.5325571354520436e-05
4.814787701439627e-05   -6.863320614545917e-06   -3.5325571354520436e-05
4.814787701439627e-05   -6.863320614545917e-06   -3.5325571354520436e-05
2.445908037404551e-05   -5.378647454886066e-06   3.264952483601581e-06
2.445908037404551e-05   -5.378647454886066e-06   3.264952483601581e-06
2.445908037404551e-05   -5.378647454886066e-06   3.264952483601581e-06
2.445908037404551e-05   -5.378647454886066e-06   3.264952483601581e-06
3.548652550249469e-05   -6.380134123102818e-06   -1.4513230729550335e-05
3.548652550249469e-05   -6.380134123102818e-06   -1.4513230729550335e-05
3.548652550249469e-05   -6.380134123102818e-06   -1.4513230729550335e-05
3.548652550249469e-05   -6.380134123102818e-06   -1.4513230729550335e-05
2.4459080374045467e-05   -6.863320614545904e-06   -3.6216375250316274e-05
2.4459080374045467e-05   -6.863320614545904e-06   -3.6216375250316274e-05
2.4459080374045467e-05   -6.863320614545904e-06   -3.6216375250316274e-05
2.4459080374045467e-05   -6.863320614545904e-06   -3.6216375250316274e-05
4.814787701439627e-05   -5.378647454886066e-06   4.1557563793975e-06
4.814787701439627e-05   -5.378647454886066e-06   4.1557563793975e-06
4.814787701439627e-05   -5.378647454886066e-06   4.1557563793975e-06
4.814787701439627e-05   -5.378647454886066e-06   4.1557563793975e-06
4.785895363929061e-05   -5.331708408779737e-06   -4.1114339820997615e-05
4.785895363929061e-05   -5.331708408779737e-06   -4.1114339820997615e-05
4.785895363929061e-05   -5.331708408779737e-06   -4.1114339820997615e-05
4.785895363929061e-05   -5.331708408779737e-06   -4.1114339820997615e-05
2.3745279737533536e-05   -3.970090911157702e-06   -1.741853816642397e-06
2.3745279737533536e-05   -3.970090911157702e-06   -1.741853816642397e-06
2.3745279737533536e-05   -3.970090911157702e-06   -1.741853816642397e-06
2.3745279737533536e-05   -3.970090911157702e-06   -1.741853816642397e-06
3.447185721706875e-05   -5.492596682788012e-06   -1.8705979486222888e-05
3.447185721706875e-05   -5.492596682788012e-06   -1.8705979486222888e-05
3.447185721706875e-05   -5.492596682788012e-06   -1.8705979486222888e-05
3.447185721706875e-05   -5.492596682788012e-06   -1.8705979486222888e-05
-5.218675469575559e-05   7.522661766480278e-06   -3.604509916304874e-05
-5.218675469575559e-05   7.522661766480278e-06   -3.604509916304874e-05
-5.218675469575559e-05   7.522661766480278e-06   -3.604509916304874e-05
-5.218675469575559e-05   7.522661766480278e-06   -3.604509916304874e-05
-3.422090207380988e-05   5.745292388467421e-06   -7.168433086613579e-06
-3.422090207380988e-05   5.745292388467421e-06   -7.168433086613579e-06
-3.422090207380988e-05   5.745292388467421e-06   -7.168433086613579e-06
-3.422090207380988e-05   5.745292388467421e-06   -7.168433086613579e-06
-3.4385367847656446e-05   9.031043934157258e-06   -2.9929771476099357e-05
-3.4385367847656446e-05   9.031043934157258e-06   -2.9929771476099357e-05
-3.4385367847656446e-05   9.031043934157258e-06   -2.9929771476099357e-05
-3.4385367847656446e-05   9.031043934157258e-06   -2.9929771476099357e-05
-5.13931452518556e-05   6.951663086679906e-06   -3.3584729394763903e-07
-5.13931452518556e-05   6.951663086679906e-06   -3.3584729394763903e-07
-5.13931452518556e-05   6.951663086679906e-06   -3.3584729394763903e-07
-5.13931452518556e-05   6.951663086679906e-06   -3.3584729394763903e-07
-4.1225866217797366e-05   7.650195217474615e-06   -1.7700431629188334e-05
-4.1225866217797366e-05   7.650195217474615e-06   -1.7700431629188334e-05
-4.1225866217797366e-05   7.650195217474615e-06   -1.7700431629188334e-05
-4.1225866217797366e-05   7.650195217474615e-06   -1.7700431629188334e-05
-5.13931452518556e-05   9.031043934157258e-06   -2.8682142967612908e-05
-5.13931452518556e-05   9.031043934157258e-06   -2.8682142967612908e-05
-5.13931452518556e-05   9.031043934157258e-06   -2.8682142967612908e-05
-5.13931452518556e-05   9.031043934157258e-06   -2.8682142967612908e-05
-3.4385367847656446e-05   6.9516630866798515e-06   -1.5834758024339666e-06
-3.4385367847656446e-05   6.9516630866798515e-06   -1.5834758024339666e-06
-3.4385367847656446e-05   6.9516630866798515e-06   -1.5834758024339666e-06
-3.4385367847656446e-05   6.9516630866798515e-06   -1.5834758024339666e-06
-3.434950064201891e-05   9.71190097184596e-06   -2.560634081569355e-05
-3.434950064201891e-05   9.71190097184596e-06   -2.560634081569355e-05
-3.434950064201891e-05   9.71190097184596e-06   -2.560634081569355e-05
-3.434950064201891e-05   9.71190097184596e-06   -2.560634081569355e-05
-5.0620139709330666e-05   7.481957244972462e-06   2.8493571992832534e-06
-5.0620139709330666e-05   7.481957244972462e-06   2.8493571992832534e-06
-5.0620139709330666e-05   7.481957244972462e-06   2.8493571992832534e-06
-5.0620139709330666e-05   7.481957244972462e-06   2.8493571992832534e-06
-4.158067723975449e-05   8.349513948538076e-06   -1.2736947605482534e-05
-4.158067723975449e-05   8.349513948538076e-06   -1.2736947605482534e-05
-4.158067723975449e-05   8.349513948538076e-06   -1.2736947605482534e-05
-4.158067723975449e-05   8.349513948538076e-06   -1.2736947605482534e-05
-5.0620139709330666e-05   9.71190097184596e-06   -2.4268374579569462e-05
-5.0620139709330666e-05   9.71190097184596e-06   -2.4268374579569462e-05
-5.0620139709330666e-05   9.71190097184596e-06   -2.4268374579569462e-05
-5.0620139709330666e-05   9.71190097184596e-06   -2.4268374579569462e-05
-3.434950064201896e-05   7.481957244972516e-06   1.5113909631594497e-06
-3.434950064201896e-05   7.481957244972516e-06   1.5113909631594497e-06
-3.434950064201896e-05   7.481957244972516e-06   1.5113909631594497e-06
-3.434950064201896e-05   7.481957244972516e-06   1.5113909631594497e-06
-3.438374624797361e-05   1.0254447128944181e-05   -1.9554281593831067e-05
-3.438374624797361e-05   1.0254447128944181e-05   -1.9554281593831067e-05
-3.438374624797361e-05   1.0254447128944181e-05   -1.9554281593831067e-05
-3.438374624797361e-05   1.0254447128944181e-05   -1.9554281593831067e-05
-4.961153373412132e-05   8.004801392753197e-06   7.175151658129412e-06
-4.961153373412132e-05   8.004801392753197e-06   7.175151658129412e-06
-4.961153373412132e-05   8.004801392753197e-06   7.175151658129412e-06
-4.961153373412132e-05   8.004801392753197e-06   7.175151658129412e-06
-4.063232529220393e-05   8.718202409487832e-06   -8.218236355106434e-06
-4.063232529220393e-05   8.718202409487832e-06   -8.218236355106434e-06
-4.063232529220393e-05   8.718202409487832e-06   -8.218236355106434e-06
-4.063232529220393e-05   8.718202409487832e-06   -8.218236355106434e-06
-3.422090207380988e-05   3.500484184035778e-06   -4.175387966551535e-05
-3.422090207380988e-05   3.500484184035778e-06   -4.175387966551535e-05
-3.422090207380988e-05   3.500484184035778e-06   -4.175387966551535e-05
-3.422090207380988e-05   3.500484184035778e-06   -4.175387966551535e-05
-1.7425598115550275e-05   2.8658327219174156e-06   -1.4142497279020317e-05
-1.7425598115550275e-05   2.8658327219174156e-06   -1.4142497279020317e-05
-1.7425598115550275e-05   2.8658327219174156e-06   -1.4142497279020317e-05
-1.7425598115550275e-05   2.8658327219174156e-06   -1.4142497279020317e-05
-1.7636486859114085e-05   4.887489211655773e-06   -4.1161698198961924e-05
-1.7636486859114085e-05   4.887489211655773e-06   -4.1161698198961924e-05
-1.7636486859114085e-05   4.887489211655773e-06   -4.1161698198961924e-05
-1.7636486859114085e-05   4.887489211655773e-06   -4.1161698198961924e-05
-3.438536784765638e-05   4.052513153470123e-06   -1.2745910916479928e-05
-3.438536784765638e-05   4.052513153470123e-06   -1.2745910916479928e-05
-3.438536784765638e-05   4.052513153470123e-06   -1.2745910916479928e-05
-3.438536784765638e-05   4.052513153470123e-06   -1.2745910916479928e-05
-2.5695074076240957e-05   4.038525724915198e-06   -2.7221341411706187e-05
-2.5695074076240957e-05   4.038525724915198e-06   -2.7221341411706187e-05
-2.5695074076240957e-05   4.038525724915198e-06   -2.7221341411706187e-05
-2.5695074076240957e-05   4.038525724915198e-06   -2.7221341411706187e-05
-3.438536784765642e-05   4.887489211655773e-06   -4.066071256405044e-05
-3.438536784765642e-05   4.887489211655773e-06   -4.066071256405044e-05
-3.438536784765642e-05   4.887489211655773e-06   -4.066071256405044e-05
-3.438536784765642e-05   4.887489211655773e-06   -4.066071256405044e-05
-1.7636486859114112e-05   4.052513153470123e-06   -1.3246896551391295e-05
-1.7636486859114112e-05   4.052513153470123e-06   -1.3246896551391295e-05
-1.7636486859114112e-05   4.052513153470123e-06   -1.3246896551391295e-05
-1.7636486859114112e-05   4.052513153470123e-06   -1.3246896551391295e-05
-1.7772982559210716e-05   6.0358126751005735e-06   -4.007257287388222e-05
-1.7772982559210716e-05   6.0358126751005735e-06   -4.007257287388222e-05
-1.7772982559210716e-05   6.0358126751005735e-06   -4.007257287388222e-05
-1.7772982559210716e-05   6.0358126751005735e-06   -4.007257287388222e-05
-3.434950064201891e-05   5.10711838393234e-06   -1.1887826161167855e-05
-3.434950064201891e-05   5.10711838393234e-06   -1.1887826161167855e-05
-3.434950064201891e-05   5.10711838393234e-06   -1.1887826161167855e-05
-3.434950064201891e-05   5.10711838393234e-06   -1.1887826161167855e-05
-2.574195181491176e-05   5.015035717069146e-06   -2.6178491272894658e-05
-2.574195181491176e-05   5.015035717069146e-06   -2.6178491272894658e-05
-2.574195181491176e-05   5.015035717069146e-06   -2.6178491272894658e-05
-2.574195181491176e-05   5.015035717069146e-06   -2.6178491272894658e-05
-3.434950064201891e-05   6.035812675100601e-06   -3.9515356299181325e-05
-3.434950064201891e-05   6.035812675100601e-06   -3.9515356299181325e-05
-3.434950064201891e-05   6.035812675100601e-06   -3.9515356299181325e-05
-3.434950064201891e-05   6.035812675100601e-06   -3.9515356299181325e-05
-1.7772982559210777e-05   5.10711838393234e-06   -1.2445042735868643e-05
-1.7772982559210777e-05   5.10711838393234e-06   -1.2445042735868643e-05
-1.7772982559210777e-05   5.10711838393234e-06   -1.2445042735868643e-05
-1.7772982559210777e-05   5.10711838393234e-06   -1.2445042735868643e-05
-1.794988764858077e-05   7.271575849798095e-06   -3.997606426548822e-05
-1.794988764858077e-05   7.271575849798095e-06   -3.997606426548822e-05
-1.794988764858077e-05   7.271575849798095e-06   -3.997606426548822e-05
-1.794988764858077e-05   7.271575849798095e-06   -3.997606426548822e-05
-3.4383746247973584e-05   6.229313557985739e-06   -1.1960942558079425e-05
-3.4383746247973584e-05   6.229313557985739e-06   -1.1960942558079425e-05
-3.4383746247973584e-05   6.229313557985739e-06   -1.1960942558079425e-05
-3.4383746247973584e-05   6.229313557985739e-06   -1.1960942558079425e-05
-2.6046299402776193e-05   5.9825633390726265e-06   -2.5708637168726938e-05
-2.6046299402776193e-05   5.9825633390726265e-06   -2.5708637168726938e-05
-2.6046299402776193e-05   5.9825633390726265e-06   -2.5708637168726938e-05
-2.6046299402776193e-05   5.9825633390726265e-06   -2.5708637168726938e-05
-1.742559811555024e-05   -1.0488253995464755e-07   -4.501385419001695e-05
-1.742559811555024e-05   -1.0488253995464755e-07   -4.501385419001695e-05
-1.742559811555024e-05   -1.0488253995464755e-07   -4.501385419001695e-05
-1.742559811555024e-05   -1.0488253995464755e-07   -4.501385419001695e-05
-8.173670624277865e-07   1.5278380578829381e-07   -1.7178869294033773e-05
-8.173670624277865e-07   1.5278380578829381e-07   -1.7178869294033773e-05
-8.173670624277865e-07   1.5278380578829381e-07   -1.7178869294033773e-05
-8.173670624277865e-07   1.5278380578829381e-07   -1.7178869294033773e-05
-9.864814028476088e-07   1.173160416388083e-06   -4.459241757556344e-05
-9.864814028476088e-07   1.173160416388083e-06   -4.459241757556344e-05
-9.864814028476088e-07   1.173160416388083e-06   -4.459241757556344e-05
-9.864814028476088e-07   1.173160416388083e-06   -4.459241757556344e-05
-1.7636486859114085e-05   1.3212098543487249e-06   -1.6931238144562465e-05
-1.7636486859114085e-05   1.3212098543487249e-06   -1.6931238144562465e-05
-1.7636486859114085e-05   1.3212098543487249e-06   -1.6931238144562465e-05
-1.7636486859114085e-05   1.3212098543487249e-06   -1.6931238144562465e-05
-9.164528986622095e-06   7.700284153256288e-07   -3.0720459068635215e-05
-9.164528986622095e-06   7.700284153256288e-07   -3.0720459068635215e-05
-9.164528986622095e-06   7.700284153256288e-07   -3.0720459068635215e-05
-9.164528986622095e-06   7.700284153256288e-07   -3.0720459068635215e-05
-1.7636486859114085e-05   1.1731604163880559e-06   -4.468124723833988e-05
-1.7636486859114085e-05   1.1731604163880559e-06   -4.468124723833988e-05
-1.7636486859114085e-05   1.1731604163880559e-06   -4.468124723833988e-05
-1.7636486859114085e-05   1.1731604163880559e-06   -4.468124723833988e-05
-9.864814028476105e-07   1.3212098543487249e-06   -1.684240848178598e-05
-9.864814028476105e-07   1.3212098543487249e-06   -1.684240848178598e-05
-9.864814028476105e-07   1.3212098543487249e-06   -1.684240848178598e-05
-9.864814028476105e-07   1.3212098543487249e-06   -1.684240848178598e-05
-1.108417130436146e-06   2.4219750018674195e-06   -4.471290724411694e-05
-1.108417130436146e-06   2.4219750018674195e-06   -4.471290724411694e-05
-1.108417130436146e-06   2.4219750018674195e-06   -4.471290724411694e-05
-1.108417130436146e-06   2.4219750018674195e-06   -4.471290724411694e-05
-1.777298255921075e-05   2.486185714408644e-06   -1.697715795701747e-05
-1.777298255921075e-05   2.486185714408644e-06   -1.697715795701747e-05
-1.777298255921075e-05   2.486185714408644e-06   -1.697715795701747e-05
-1.777298255921075e-05   2.486185714408644e-06   -1.697715795701747e-05
-9.383022133767746e-06   1.8005458681821882e-06   -3.054904142501966e-05
-9.383022133767746e-06   1.8005458681821882e-06   -3.054904142501966e-05
-9.383022133767746e-06   1.8005458681821882e-06   -3.054904142501966e-05
-9.383022133767746e-06   1.8005458681821882e-06   -3.054904142501966e-05
-1.777298255921075e-05   2.4219750018674195e-06   -4.475143367164172e-05
-1.777298255921075e-05   2.4219750018674195e-06   -4.475143367164172e-05
-1.777298255921075e-05   2.4219750018674195e-06   -4.475143367164172e-05
-1.777298255921075e-05   2.4219750018674195e-06   -4.475143367164172e-05
-1.1084171304361478e-06   2.486185714408644e-06   -1.693863152949258e-05
-1.1084171304361478e-06   2.486185714408644e-06   -1.693863152949258e-05
-1.1084171304361478e-06   2.486185714408644e-06   -1.693863152949258e-05
-1.1084171304361478e-06   2.486185714408644e-06   -1.693863152949258e-05
-1.3004347186397244e-06   3.723033395718853e-06   -4.528803535673465e-05
-1.3004347186397244e-06   3.723033395718853e-06   -4.528803535673465e-05
-1.3004347186397244e-06   3.723033395718853e-06   -4.528803535673465e-05
-1.3004347186397244e-06   3.723033395718853e-06   -4.528803535673465e-05
-1.7949887648580758e-05   3.6782088915651386e-06   -1.7512052437674202e-05
-1.7949887648580758e-05   3.6782088915651386e-06   -1.7512052437674202e-05
-1.7949887648580758e-05   3.6782088915651386e-06   -1.7512052437674202e-05
-1.7949887648580758e-05   3.6782088915651386e-06   -1.7512052437674202e-05
-9.615178573700074e-06   2.8433081689237423e-06   -3.090229379555692e-05
-9.615178573700074e-06   2.8433081689237423e-06   -3.090229379555692e-05
-9.615178573700074e-06   2.8433081689237423e-06   -3.090229379555692e-05
-9.615178573700074e-06   2.8433081689237423e-06   -3.090229379555692e-05
-8.173670624277874e-07   -3.5803255267529495e-06   -4.02199759254169e-05
-8.173670624277874e-07   -3.5803255267529495e-06   -4.02199759254169e-05
-8.173670624277874e-07   -3.5803255267529495e-06   -4.02199759254169e-05
-8.173670624277874e-07   -3.5803255267529495e-06   -4.02199759254169e-05
1.570520677301964e-05   -2.3988715372844256e-06   -1.1973480472656807e-05
1.570520677301964e-05   -2.3988715372844256e-06   -1.1973480472656807e-05
1.570520677301964e-05   -2.3988715372844256e-06   -1.1973480472656807e-05
1.570520677301964e-05   -2.3988715372844256e-06   -1.1973480472656807e-05
1.5693909895807144e-05   -2.4186467950212042e-06   -3.9756004082535013e-05
1.5693909895807144e-05   -2.4186467950212042e-06   -3.9756004082535013e-05
1.5693909895807144e-05   -2.4186467950212042e-06   -3.9756004082535013e-05
1.5693909895807144e-05   -2.4186467950212042e-06   -3.9756004082535013e-05
-9.864814028476105e-07   -1.327409725591748e-06   -1.261009415976806e-05
-9.864814028476105e-07   -1.327409725591748e-06   -1.261009415976806e-05
-9.864814028476105e-07   -1.327409725591748e-06   -1.261009415976806e-05
-9.864814028476105e-07   -1.327409725591748e-06   -1.261009415976806e-05
7.342500027531469e-06   -2.346811321934895e-06   -2.5880088919260643e-05
7.342500027531469e-06   -2.346811321934895e-06   -2.5880088919260643e-05
7.342500027531469e-06   -2.346811321934895e-06   -2.5880088919260643e-05
7.342500027531469e-06   -2.346811321934895e-06   -2.5880088919260643e-05
-9.864814028476105e-07   -2.418646795021177e-06   -4.041074632419258e-05
-9.864814028476105e-07   -2.418646795021177e-06   -4.041074632419258e-05
-9.864814028476105e-07   -2.418646795021177e-06   -4.041074632419258e-05
-9.864814028476105e-07   -2.418646795021177e-06   -4.041074632419258e-05
1.5693909895807144e-05   -1.327409725591748e-06   -1.1955351918110338e-05
1.5693909895807144e-05   -1.327409725591748e-06   -1.1955351918110338e-05
1.5693909895807144e-05   -1.327409725591748e-06   -1.1955351918110338e-05
1.5693909895807144e-05   -1.327409725591748e-06   -1.1955351918110338e-05
1.576929074540871e-05   -1.2810066298688037e-06   -4.080623928575511e-05
1.576929074540871e-05   -1.2810066298688037e-06   -4.080623928575511e-05
1.576929074540871e-05   -1.2810066298688037e-06   -4.080623928575511e-05
1.576929074540871e-05   -1.2810066298688037e-06   -4.080623928575511e-05
-1.1084171304361495e-06   -2.749482433749115e-07   -1.3280361191243455e-05
-1.1084171304361495e-06   -2.749482433749115e-07   -1.3280361191243455e-05
-1.1084171304361495e-06   -2.749482433749115e-07   -1.3280361191243455e-05
-1.1084171304361495e-06   -2.749482433749115e-07   -1.3280361191243455e-05
7.117243034816313e-06   -1.4178440791239554e-06   -2.6304057298547916e-05
7.117243034816313e-06   -1.4178440791239554e-06   -2.6304057298547916e-05
7.117243034816313e-06   -1.4178440791239554e-06   -2.6304057298547916e-05
7.117243034816313e-06   -1.4178440791239554e-06   -2.6304057298547916e-05
-1.108417130436147e-06   -1.2810066298687766e-06   -4.1409874317651274e-05
-1.108417130436147e-06   -1.2810066298687766e-06   -4.1409874317651274e-05
-1.108417130436147e-06   -1.2810066298687766e-06   -4.1409874317651274e-05
-1.108417130436147e-06   -1.2810066298687766e-06   -4.1409874317651274e-05
1.576929074540871e-05   -2.749482433749115e-07   -1.267672615934694e-05
1.576929074540871e-05   -2.749482433749115e-07   -1.267672615934694e-05
1.576929074540871e-05   -2.749482433749115e-07   -1.267672615934694e-05
1.576929074540871e-05   -2.749482433749115e-07   -1.267672615934694e-05
1.564908918565509e-05   1.257626384462262e-07   -4.1998066871793205e-05
1.564908918565509e-05   1.257626384462262e-07   -4.1998066871793205e-05
1.564908918565509e-05   1.257626384462262e-07   -4.1998066871793205e-05
1.564908918565509e-05   1.257626384462262e-07   -4.1998066871793205e-05
-1.300434718639727e-06   9.552123036676136e-07   -1.424653016376812e-05
-1.300434718639727e-06   9.552123036676136e-07   -1.424653016376812e-05
-1.300434718639727e-06   9.552123036676136e-07   -1.424653016376812e-05
-1.300434718639727e-06   9.552123036676136e-07   -1.424653016376812e-05
7.038645820637543e-06   -4.2419854924058767e-07   -2.7317351217485077e-05
7.038645820637543e-06   -4.2419854924058767e-07   -2.7317351217485077e-05
7.038645820637543e-06   -4.2419854924058767e-07   -2.7317351217485077e-05
7.038645820637543e-06   -4.2419854924058767e-07   -2.7317351217485077e-05
1.570520677301961e-05   -6.652621116498081e-06   -2.249788842459676e-05
1.570520677301961e-05   -6.652621116498081e-06   -2.249788842459676e-05
1.570520677301961e-05   -6.652621116498081e-06   -2.249788842459676e-05
1.570520677301961e-05   -6.652621116498081e-06   -2.249788842459676e-05
3.1168777599544946e-05   -4.347846621528394e-06   4.657594316593964e-06
3.1168777599544946e-05   -4.347846621528394e-06   4.657594316593964e-06
3.1168777599544946e-05   -4.347846621528394e-06   4.657594316593964e-06
3.1168777599544946e-05   -4.347846621528394e-06   4.657594316593964e-06
3.2223222890367695e-05   -6.03327620723711e-06   -2.530532493871085e-05
3.2223222890367695e-05   -6.03327620723711e-06   -2.530532493871085e-05
3.2223222890367695e-05   -6.03327620723711e-06   -2.530532493871085e-05
3.2223222890367695e-05   -6.03327620723711e-06   -2.530532493871085e-05
1.5693909895807117e-05   -3.7296879364344935e-06   8.613770897419502e-07
1.5693909895807117e-05   -3.7296879364344935e-06   8.613770897419502e-07
1.5693909895807117e-05   -3.7296879364344935e-06   8.613770897419502e-07
1.5693909895807117e-05   -3.7296879364344935e-06   8.613770897419502e-07
2.2685036764796482e-05   -5.12920668224834e-06   -9.95078977775212e-06
2.2685036764796482e-05   -5.12920668224834e-06   -9.95078977775212e-06
2.2685036764796482e-05   -5.12920668224834e-06   -9.95078977775212e-06
2.2685036764796482e-05   -5.12920668224834e-06   -9.95078977775212e-06
1.5693909895807097e-05   -6.033276207237137e-06   -2.6687477901192426e-05
1.5693909895807097e-05   -6.033276207237137e-06   -2.6687477901192426e-05
1.5693909895807097e-05   -6.033276207237137e-06   -2.6687477901192426e-05
1.5693909895807097e-05   -6.033276207237137e-06   -2.6687477901192426e-05
3.2223222890367695e-05   -3.7296879364344935e-06   2.2435300522236014e-06
3.2223222890367695e-05   -3.7296879364344935e-06   2.2435300522236014e-06
3.2223222890367695e-05   -3.7296879364344935e-06   2.2435300522236014e-06
3.2223222890367695e-05   -3.7296879364344935e-06   2.2435300522236014e-06
3.303440325529398e-05   -5.378647454886066e-06   -2.8538313382993414e-05
3.303440325529398e-05   -5.378647454886066e-06   -2.8538313382993414e-05
3.303440325529398e-05   -5.378647454886066e-06   -2.8538313382993414e-05
3.303440325529398e-05   -5.378647454886066e-06   -2.8538313382993414e-05
1.576929074540867e-05   -3.20036462093785e-06   -1.070095566886993e-06
1.576929074540867e-05   -3.20036462093785e-06   -1.070095566886993e-06
1.576929074540867e-05   -3.20036462093785e-06   -1.070095566886993e-06
1.576929074540867e-05   -3.20036462093785e-06   -1.070095566886993e-06
2.3457723945401344e-05   -4.730456315481214e-06   -1.2966095883481924e-05
2.3457723945401344e-05   -4.730456315481214e-06   -1.2966095883481924e-05
2.3457723945401344e-05   -4.730456315481214e-06   -1.2966095883481924e-05
2.3457723945401344e-05   -4.730456315481214e-06   -1.2966095883481924e-05
1.5769290745408683e-05   -5.378647454886066e-06   -2.984528308336233e-05
1.5769290745408683e-05   -5.378647454886066e-06   -2.984528308336233e-05
1.5769290745408683e-05   -5.378647454886066e-06   -2.984528308336233e-05
1.5769290745408683e-05   -5.378647454886066e-06   -2.984528308336233e-05
3.3034403255293926e-05   -3.20036462093785e-06   2.3687413348215348e-07
3.3034403255293926e-05   -3.20036462093785e-06   2.3687413348215348e-07
3.3034403255293926e-05   -3.20036462093785e-06   2.3687413348215348e-07
3.3034403255293926e-05   -3.20036462093785e-06   2.3687413348215348e-07
3.3899440230417775e-05   -3.970090911157702e-06   -3.40406895182253e-05
3.3899440230417775e-05   -3.970090911157702e-06   -3.40406895182253e-05
3.3899440230417775e-05   -3.970090911157702e-06   -3.40406895182253e-05
3.3899440230417775e-05   -3.970090911157702e-06   -3.40406895182253e-05
1.5649089185655028e-05   -2.070328148508758e-06   -4.763295434543523e-06
1.5649089185655028e-05   -2.070328148508758e-06   -4.763295434543523e-06
1.5649089185655028e-05   -2.070328148508758e-06   -4.763295434543523e-06
1.5649089185655028e-05   -2.070328148508758e-06   -4.763295434543523e-06
2.3359644329017076e-05   -4.0740935484736705e-06   -1.6411961433501228e-05
2.3359644329017076e-05   -4.0740935484736705e-06   -1.6411961433501228e-05
2.3359644329017076e-05   -4.0740935484736705e-06   -1.6411961433501228e-05
2.3359644329017076e-05   -4.0740935484736705e-06   -1.6411961433501228e-05
-3.747384069807894e-05   5.745292388467421e-06   -2.852835855254041e-05
-3.747384069807894e-05   5.745292388467421e-06   -2.852835855254041e-05
-3.747384069807894e-05   5.745292388467421e-06   -2.852835855254041e-05
-3.747384069807894e-05   5.745292388467421e-06   -2.852835855254041e-05
-2.552706224511606e-05   3.652075703355082e-06   -9.87299114200302e-06
-2.552706224511606e-05   3.652075703355082e-06   -9.87299114200302e-06
-2.552706224511606e-05   3.652075703355082e-06   -9.87299114200302e-06
-2.552706224511606e-05   3.652075703355082e-06   -9.87299114200302e-06
-2.543392121398305e-05   6.951663086679906e-06   -2.4236556516393695e-05
-2.543392121398305e-05   6.951663086679906e-06   -2.4236556516393695e-05
-2.543392121398305e-05   6.951663086679906e-06   -2.4236556516393695e-05
-2.543392121398305e-05   6.951663086679906e-06   -2.4236556516393695e-05
-3.635032337489605e-05   4.650013582768947e-06   -4.661563212525488e-06
-3.635032337489605e-05   4.650013582768947e-06   -4.661563212525488e-06
-3.635032337489605e-05   4.650013582768947e-06   -4.661563212525488e-06
-3.635032337489605e-05   4.650013582768947e-06   -4.661563212525488e-06
-2.9872723510995555e-05   5.532875420375229e-06   -1.5987280088256754e-05
-2.9872723510995555e-05   5.532875420375229e-06   -1.5987280088256754e-05
-2.9872723510995555e-05   5.532875420375229e-06   -1.5987280088256754e-05
-2.9872723510995555e-05   5.532875420375229e-06   -1.5987280088256754e-05
-3.635032337489605e-05   6.951663086679906e-06   -2.2855566814047098e-05
-3.635032337489605e-05   6.951663086679906e-06   -2.2855566814047098e-05
-3.635032337489605e-05   6.951663086679906e-06   -2.2855566814047098e-05
-3.635032337489605e-05   6.951663086679906e-06   -2.2855566814047098e-05
-2.5433921213983106e-05   4.650013582768947e-06   -6.042552914872071e-06
-2.5433921213983106e-05   4.650013582768947e-06   -6.042552914872071e-06
-2.5433921213983106e-05   4.650013582768947e-06   -6.042552914872071e-06
-2.5433921213983106e-05   4.650013582768947e-06   -6.042552914872071e-06
-2.5240886855749722e-05   7.481957244972516e-06   -2.113438333962059e-05
-2.5240886855749722e-05   7.481957244972516e-06   -2.113438333962059e-05
-2.5240886855749722e-05   7.481957244972516e-06   -2.113438333962059e-05
-2.5240886855749722e-05   7.481957244972516e-06   -2.113438333962059e-05
-3.551094300599788e-05   5.115386373706989e-06   -2.597680566447777e-06
-3.551094300599788e-05   5.115386373706989e-06   -2.597680566447777e-06
-3.551094300599788e-05   5.115386373706989e-06   -2.597680566447777e-06
-3.551094300599788e-05   5.115386373706989e-06   -2.597680566447777e-06
-2.987352857658386e-05   6.08980600912861e-06   -1.2578023063390892e-05
-2.987352857658386e-05   6.08980600912861e-06   -1.2578023063390892e-05
-2.987352857658386e-05   6.08980600912861e-06   -1.2578023063390892e-05
-2.987352857658386e-05   6.08980600912861e-06   -1.2578023063390892e-05
-3.551094300599788e-05   7.481957244972516e-06   -1.9714440816861307e-05
-3.551094300599788e-05   7.481957244972516e-06   -1.9714440816861307e-05
-3.551094300599788e-05   7.481957244972516e-06   -1.9714440816861307e-05
-3.551094300599788e-05   7.481957244972516e-06   -1.9714440816861307e-05
-2.524088685574975e-05   5.115386373706989e-06   -4.017623089206935e-06
-2.524088685574975e-05   5.115386373706989e-06   -4.017623089206935e-06
-2.524088685574975e-05   5.115386373706989e-06   -4.017623089206935e-06
-2.524088685574975e-05   5.115386373706989e-06   -4.017623089206935e-06
-2.5163927431260156e-05   8.004801392753143e-06   -1.6841691847186064e-05
-2.5163927431260156e-05   8.004801392753143e-06   -1.6841691847186064e-05
-2.5163927431260156e-05   8.004801392753143e-06   -1.6841691847186064e-05
-2.5163927431260156e-05   8.004801392753143e-06   -1.6841691847186064e-05
-3.4413240306001644e-05   5.701211357011745e-06   -4.401636783855044e-08
-3.4413240306001644e-05   5.701211357011745e-06   -4.401636783855044e-08
-3.4413240306001644e-05   5.701211357011745e-06   -4.401636783855044e-08
-3.4413240306001644e-05   5.701211357011745e-06   -4.401636783855044e-08
-2.8989243322762875e-05   6.392359305075197e-06   -9.498700108741308e-06
-2.8989243322762875e-05   6.392359305075197e-06   -9.498700108741308e-06
-2.8989243322762875e-05   6.392359305075197e-06   -9.498700108741308e-06
-2.8989243322762875e-05   6.392359305075197e-06   -9.498700108741308e-06
-2.5527062245116005e-05   2.8658327219174156e-06   -3.63775618787436e-05
-2.5527062245116005e-05   2.8658327219174156e-06   -3.63775618787436e-05
-2.5527062245116005e-05   2.8658327219174156e-06   -3.63775618787436e-05
-2.5527062245116005e-05   2.8658327219174156e-06   -3.63775618787436e-05
-1.4694912779074281e-05   1.8899969625819696e-06   -1.890948089094198e-05
-1.4694912779074281e-05   1.8899969625819696e-06   -1.890948089094198e-05
-1.4694912779074281e-05   1.8899969625819696e-06   -1.890948089094198e-05
-1.4694912779074281e-05   1.8899969625819696e-06   -1.890948089094198e-05
-1.47021595578841e-05   4.052513153470123e-06   -3.606420251790006e-05
-1.47021595578841e-05   4.052513153470123e-06   -3.606420251790006e-05
-1.47021595578841e-05   4.052513153470123e-06   -3.606420251790006e-05
-1.47021595578841e-05   4.052513153470123e-06   -3.606420251790006e-05
-2.543392121398305e-05   2.943828341036214e-06   -1.751272220360797e-05
-2.543392121398305e-05   2.943828341036214e-06   -1.751272220360797e-05
-2.543392121398305e-05   2.943828341036214e-06   -1.751272220360797e-05
-2.543392121398305e-05   2.943828341036214e-06   -1.751272220360797e-05
-1.990420199613769e-05   3.1358365568346855e-06   -2.6844125829496063e-05
-1.990420199613769e-05   3.1358365568346855e-06   -2.6844125829496063e-05
-1.990420199613769e-05   3.1358365568346855e-06   -2.6844125829496063e-05
-1.990420199613769e-05   3.1358365568346855e-06   -2.6844125829496063e-05
-2.5433921213983024e-05   4.052513153470123e-06   -3.539899163043945e-05
-2.5433921213983024e-05   4.052513153470123e-06   -3.539899163043945e-05
-2.5433921213983024e-05   4.052513153470123e-06   -3.539899163043945e-05
-2.5433921213983024e-05   4.052513153470123e-06   -3.539899163043945e-05
-1.47021595578841e-05   2.943828341036214e-06   -1.8177933091068305e-05
-1.47021595578841e-05   2.943828341036214e-06   -1.8177933091068305e-05
-1.47021595578841e-05   2.943828341036214e-06   -1.8177933091068305e-05
-1.47021595578841e-05   2.943828341036214e-06   -1.8177933091068305e-05
-1.4691435363489724e-05   5.107118383932286e-06   -3.52559804699615e-05
-1.4691435363489724e-05   5.107118383932286e-06   -3.52559804699615e-05
-1.4691435363489724e-05   5.107118383932286e-06   -3.52559804699615e-05
-1.4691435363489724e-05   5.107118383932286e-06   -3.52559804699615e-05
-2.5240886855749722e-05   3.903151707242776e-06   -1.6951181310181083e-05
-2.5240886855749722e-05   3.903151707242776e-06   -1.6951181310181083e-05
-2.5240886855749722e-05   3.903151707242776e-06   -1.6951181310181083e-05
-2.5240886855749722e-05   3.903151707242776e-06   -1.6951181310181083e-05
-1.9811636353081646e-05   4.001653025614274e-06   -2.6059032938983913e-05
-1.9811636353081646e-05   4.001653025614274e-06   -2.6059032938983913e-05
-1.9811636353081646e-05   4.001653025614274e-06   -2.6059032938983913e-05
-1.9811636353081646e-05   4.001653025614274e-06   -2.6059032938983913e-05
-2.5240886855749722e-05   5.107118383932286e-06   -3.453360046394772e-05
-2.5240886855749722e-05   5.107118383932286e-06   -3.453360046394772e-05
-2.5240886855749722e-05   5.107118383932286e-06   -3.453360046394772e-05
-2.5240886855749722e-05   5.107118383932286e-06   -3.453360046394772e-05
-1.4691435363489744e-05   3.903151707242668e-06   -1.7673561316194783e-05
-1.4691435363489744e-05   3.903151707242668e-06   -1.7673561316194783e-05
-1.4691435363489744e-05   3.903151707242668e-06   -1.7673561316194783e-05
-1.4691435363489744e-05   3.903151707242668e-06   -1.7673561316194783e-05
-1.4703404965153145e-05   6.229313557985794e-06   -3.53982277273756e-05
-1.4703404965153145e-05   6.229313557985794e-06   -3.53982277273756e-05
-1.4703404965153145e-05   6.229313557985794e-06   -3.53982277273756e-05
-1.4703404965153145e-05   6.229313557985794e-06   -3.53982277273756e-05
-2.5163927431260183e-05   4.945598381827067e-06   -1.719379451150182e-05
-2.5163927431260183e-05   4.945598381827067e-06   -1.719379451150182e-05
-2.5163927431260183e-05   4.945598381827067e-06   -1.719379451150182e-05
-2.5163927431260183e-05   4.945598381827067e-06   -1.719379451150182e-05
-1.9940080909635432e-05   4.858623804724835e-06   -2.584802063461503e-05
-1.9940080909635432e-05   4.858623804724835e-06   -2.584802063461503e-05
-1.9940080909635432e-05   4.858623804724835e-06   -2.584802063461503e-05
-1.9940080909635432e-05   4.858623804724835e-06   -2.584802063461503e-05
-1.4694912779074267e-05   1.5278380578829381e-07   -4.01540351568041e-05
-1.4694912779074267e-05   1.5278380578829381e-07   -4.01540351568041e-05
-1.4694912779074267e-05   1.5278380578829381e-07   -4.01540351568041e-05
-1.4694912779074267e-05   1.5278380578829381e-07   -4.01540351568041e-05
-4.0115627685972526e-06   3.2655182585468803e-07   -2.224419099396927e-05
-4.0115627685972526e-06   3.2655182585468803e-07   -2.224419099396927e-05
-4.0115627685972526e-06   3.2655182585468803e-07   -2.224419099396927e-05
-4.0115627685972526e-06   3.2655182585468803e-07   -2.224419099396927e-05
-4.019362172255824e-06   1.3212098543487249e-06   -3.97093535870189e-05
-4.019362172255824e-06   1.3212098543487249e-06   -3.97093535870189e-05
-4.019362172255824e-06   1.3212098543487249e-06   -3.97093535870189e-05
-4.019362172255824e-06   1.3212098543487249e-06   -3.97093535870189e-05
-1.4702159557884065e-05   1.3865273944356623e-06   -2.194388180169063e-05
-1.4702159557884065e-05   1.3865273944356623e-06   -2.194388180169063e-05
-1.4702159557884065e-05   1.3865273944356623e-06   -2.194388180169063e-05
-1.4702159557884065e-05   1.3865273944356623e-06   -2.194388180169063e-05
-9.294739501516205e-06   9.342370989205359e-07   -3.06848743849947e-05
-9.294739501516205e-06   9.342370989205359e-07   -3.06848743849947e-05
-9.294739501516205e-06   9.342370989205359e-07   -3.06848743849947e-05
-9.294739501516205e-06   9.342370989205359e-07   -3.06848743849947e-05
-1.4702159557884065e-05   1.3212098543487249e-06   -3.974854411107107e-05
-1.4702159557884065e-05   1.3212098543487249e-06   -3.974854411107107e-05
-1.4702159557884065e-05   1.3212098543487249e-06   -3.974854411107107e-05
-1.4702159557884065e-05   1.3212098543487249e-06   -3.974854411107107e-05
-4.019362172255824e-06   1.3865273944356623e-06   -2.1904691277638483e-05
-4.019362172255824e-06   1.3865273944356623e-06   -2.1904691277638483e-05
-4.019362172255824e-06   1.3865273944356623e-06   -2.1904691277638483e-05
-4.019362172255824e-06   1.3865273944356623e-06   -2.1904691277638483e-05
-4.005403813454012e-06   2.486185714408644e-06   -3.980986816026316e-05
-4.005403813454012e-06   2.486185714408644e-06   -3.980986816026316e-05
-4.005403813454012e-06   2.486185714408644e-06   -3.980986816026316e-05
-4.005403813454012e-06   2.486185714408644e-06   -3.980986816026316e-05
-1.4691435363489724e-05   2.4498982658201955e-06   -2.1978043107717373e-05
-1.4691435363489724e-05   2.4498982658201955e-06   -2.1978043107717373e-05
-1.4691435363489724e-05   2.4498982658201955e-06   -2.1978043107717373e-05
-1.4691435363489724e-05   2.4498982658201955e-06   -2.1978043107717373e-05
-9.357071838407609e-06   1.8617337232145923e-06   -3.051575025729081e-05
-9.357071838407609e-06   1.8617337232145923e-06   -3.051575025729081e-05
-9.357071838407609e-06   1.8617337232145923e-06   -3.051575025729081e-05
-9.357071838407609e-06   1.8617337232145923e-06   -3.051575025729081e-05
-1.4691435363489724e-05   2.486185714408698e-06   -3.978809569111022e-05
-1.4691435363489724e-05   2.486185714408698e-06   -3.978809569111022e-05
-1.4691435363489724e-05   2.486185714408698e-06   -3.978809569111022e-05
-1.4691435363489724e-05   2.486185714408698e-06   -3.978809569111022e-05
-4.005403813454019e-06   2.4498982658201955e-06   -2.1999815576870284e-05
-4.005403813454019e-06   2.4498982658201955e-06   -2.1999815576870284e-05
-4.005403813454019e-06   2.4498982658201955e-06   -2.1999815576870284e-05
-4.005403813454019e-06   2.4498982658201955e-06   -2.1999815576870284e-05
-4.011749798851785e-06   3.6782088915651386e-06   -4.04117890405e-05
-4.011749798851785e-06   3.6782088915651386e-06   -4.04117890405e-05
-4.011749798851785e-06   3.6782088915651386e-06   -4.04117890405e-05
-4.011749798851785e-06   3.6782088915651386e-06   -4.04117890405e-05
-1.4703404965153125e-05   3.5318608772034847e-06   -2.250455495471395e-05
-1.4703404965153125e-05   3.5318608772034847e-06   -2.250455495471395e-05
-1.4703404965153125e-05   3.5318608772034847e-06   -2.250455495471395e-05
-1.4703404965153125e-05   3.5318608772034847e-06   -2.250455495471395e-05
-9.437618765362373e-06   2.80141446791656e-06   -3.084259744212648e-05
-9.437618765362373e-06   2.80141446791656e-06   -3.084259744212648e-05
-9.437618765362373e-06   2.80141446791656e-06   -3.084259744212648e-05
-9.437618765362373e-06   2.80141446791656e-06   -3.084259744212648e-05
-4.011562768597246e-06   -2.3988715372844256e-06   -3.5553257917068416e-05
-4.011562768597246e-06   -2.3988715372844256e-06   -3.5553257917068416e-05
-4.011562768597246e-06   -2.3988715372844256e-06   -3.5553257917068416e-05
-4.011562768597246e-06   -2.3988715372844256e-06   -3.5553257917068416e-05
6.513619861618546e-06   -1.1029633944237022e-06   -1.7233741980992288e-05
6.513619861618546e-06   -1.1029633944237022e-06   -1.7233741980992288e-05
6.513619861618546e-06   -1.1029633944237022e-06   -1.7233741980992288e-05
6.513619861618546e-06   -1.1029633944237022e-06   -1.7233741980992288e-05
6.599460776302932e-06   -1.327409725591748e-06   -3.4743079414854144e-05
6.599460776302932e-06   -1.327409725591748e-06   -3.4743079414854144e-05
6.599460776302932e-06   -1.327409725591748e-06   -3.4743079414854144e-05
6.599460776302932e-06   -1.327409725591748e-06   -3.4743079414854144e-05
-4.019362172255824e-06   -1.0414330868068877e-07   -1.7779001017402932e-05
-4.019362172255824e-06   -1.0414330868068877e-07   -1.7779001017402932e-05
-4.019362172255824e-06   -1.0414330868068877e-07   -1.7779001017402932e-05
-4.019362172255824e-06   -1.0414330868068877e-07   -1.7779001017402932e-05
1.2770863462983185e-06   -1.1411511641637277e-06   -2.5984210501703336e-05
1.2770863462983185e-06   -1.1411511641637277e-06   -2.5984210501703336e-05
1.2770863462983185e-06   -1.1411511641637277e-06   -2.5984210501703336e-05
1.2770863462983185e-06   -1.1411511641637277e-06   -2.5984210501703336e-05
-4.019362172255824e-06   -1.327409725591748e-06   -3.547703926500088e-05
-4.019362172255824e-06   -1.327409725591748e-06   -3.547703926500088e-05
-4.019362172255824e-06   -1.327409725591748e-06   -3.547703926500088e-05
-4.019362172255824e-06   -1.327409725591748e-06   -3.547703926500088e-05
6.599460776302959e-06   -1.0414330868068877e-07   -1.7045041167256328e-05
6.599460776302959e-06   -1.0414330868068877e-07   -1.7045041167256328e-05
6.599460776302959e-06   -1.0414330868068877e-07   -1.7045041167256328e-05
6.599460776302959e-06   -1.0414330868068877e-07   -1.7045041167256328e-05
6.802456706307721e-06   -2.749482433749115e-07   -3.547281301230433e-05
6.802456706307721e-06   -2.749482433749115e-07   -3.547281301230433e-05
6.802456706307721e-06   -2.749482433749115e-07   -3.547281301230433e-05
6.802456706307721e-06   -2.749482433749115e-07   -3.547281301230433e-05
-4.005403813454019e-06   8.56359772807608e-07   -1.8138496955744305e-05
-4.005403813454019e-06   8.56359772807608e-07   -1.8138496955744305e-05
-4.005403813454019e-06   8.56359772807608e-07   -1.8138496955744305e-05
-4.005403813454019e-06   8.56359772807608e-07   -1.8138496955744305e-05
1.216043919156791e-06   -3.101478075996037e-07   -2.6141005295184626e-05
1.216043919156791e-06   -3.101478075996037e-07   -2.6141005295184626e-05
1.216043919156791e-06   -3.101478075996037e-07   -2.6141005295184626e-05
1.216043919156791e-06   -3.101478075996037e-07   -2.6141005295184626e-05
-4.005403813454016e-06   -2.749482433749115e-07   -3.6151597822013735e-05
-4.005403813454016e-06   -2.749482433749115e-07   -3.6151597822013735e-05
-4.005403813454016e-06   -2.749482433749115e-07   -3.6151597822013735e-05
-4.005403813454016e-06   -2.749482433749115e-07   -3.6151597822013735e-05
6.802456706307762e-06   8.56359772807608e-07   -1.745971214603474e-05
6.802456706307762e-06   8.56359772807608e-07   -1.745971214603474e-05
6.802456706307762e-06   8.56359772807608e-07   -1.745971214603474e-05
6.802456706307762e-06   8.56359772807608e-07   -1.745971214603474e-05
6.9019803084504575e-06   9.552123036676678e-07   -3.651842741055484e-05
6.9019803084504575e-06   9.552123036676678e-07   -3.651842741055484e-05
6.9019803084504575e-06   9.552123036676678e-07   -3.651842741055484e-05
6.9019803084504575e-06   9.552123036676678e-07   -3.651842741055484e-05
-4.0117497988517785e-06   1.956786726245571e-06   -1.8929821885264423e-05
-4.0117497988517785e-06   1.956786726245571e-06   -1.8929821885264423e-05
-4.0117497988517785e-06   1.956786726245571e-06   -1.8929821885264423e-05
-4.0117497988517785e-06   1.956786726245571e-06   -1.8929821885264423e-05
1.2525060547512784e-06   5.78280130659331e-07   -2.687647768391768e-05
1.2525060547512784e-06   5.78280130659331e-07   -2.687647768391768e-05
1.2525060547512784e-06   5.78280130659331e-07   -2.687647768391768e-05
1.2525060547512784e-06   5.78280130659331e-07   -2.687647768391768e-05
6.513619861618533e-06   -4.347846621528448e-06   -1.9527502939082882e-05
6.513619861618533e-06   -4.347846621528448e-06   -1.9527502939082882e-05
6.513619861618533e-06   -4.347846621528448e-06   -1.9527502939082882e-05
6.513619861618533e-06   -4.347846621528448e-06   -1.9527502939082882e-05
1.5851278065122707e-05   -2.0243154127050616e-06   -2.5706205412820123e-06
1.5851278065122707e-05   -2.0243154127050616e-06   -2.5706205412820123e-06
1.5851278065122707e-05   -2.0243154127050616e-06   -2.5706205412820123e-06
1.5851278065122707e-05   -2.0243154127050616e-06   -2.5706205412820123e-06
1.6963998382073107e-05   -3.7296879364344935e-06   -2.0496880804967647e-05
1.6963998382073107e-05   -3.7296879364344935e-06   -2.0496880804967647e-05
1.6963998382073107e-05   -3.7296879364344935e-06   -2.0496880804967647e-05
1.6963998382073107e-05   -3.7296879364344935e-06   -2.0496880804967647e-05
6.599460776302946e-06   -1.3472385997105856e-06   -4.652121064051696e-06
6.599460776302946e-06   -1.3472385997105856e-06   -4.652121064051696e-06
6.599460776302946e-06   -1.3472385997105856e-06   -4.652121064051696e-06
6.599460776302946e-06   -1.3472385997105856e-06   -4.652121064051696e-06
1.0992502138966284e-05   -2.7735072147755738e-06   -1.111809549945162e-05
1.0992502138966284e-05   -2.7735072147755738e-06   -1.111809549945162e-05
1.0992502138966284e-05   -2.7735072147755738e-06   -1.111809549945162e-05
1.0992502138966284e-05   -2.7735072147755738e-06   -1.111809549945162e-05
6.599460776302946e-06   -3.7296879364344935e-06   -2.192635040700172e-05
6.599460776302946e-06   -3.7296879364344935e-06   -2.192635040700172e-05
6.599460776302946e-06   -3.7296879364344935e-06   -2.192635040700172e-05
6.599460776302946e-06   -3.7296879364344935e-06   -2.192635040700172e-05
1.6963998382073052e-05   -1.3472385997105856e-06   -3.2226514620173514e-06
1.6963998382073052e-05   -1.3472385997105856e-06   -3.2226514620173514e-06
1.6963998382073052e-05   -1.3472385997105856e-06   -3.2226514620173514e-06
1.6963998382073052e-05   -1.3472385997105856e-06   -3.2226514620173514e-06
1.782093599182234e-05   -3.200364620937904e-06   -2.2474143884529673e-05
1.782093599182234e-05   -3.200364620937904e-06   -2.2474143884529673e-05
1.782093599182234e-05   -3.200364620937904e-06   -2.2474143884529673e-05
1.782093599182234e-05   -3.200364620937904e-06   -2.2474143884529673e-05
6.802456706307762e-06   -8.803003954134915e-07   -5.5020502773199076e-06
6.802456706307762e-06   -8.803003954134915e-07   -5.5020502773199076e-06
6.802456706307762e-06   -8.803003954134915e-07   -5.5020502773199076e-06
6.802456706307762e-06   -8.803003954134915e-07   -5.5020502773199076e-06
1.1671665511575757e-05   -2.4255961974959045e-06   -1.269022080485044e-05
1.1671665511575757e-05   -2.4255961974959045e-06   -1.269022080485044e-05
1.1671665511575757e-05   -2.4255961974959045e-06   -1.269022080485044e-05
1.1671665511575757e-05   -2.4255961974959045e-06   -1.269022080485044e-05
6.802456706307748e-06   -3.20036462093785e-06   -2.386618241984425e-05
6.802456706307748e-06   -3.20036462093785e-06   -2.386618241984425e-05
6.802456706307748e-06   -3.20036462093785e-06   -2.386618241984425e-05
6.802456706307748e-06   -3.20036462093785e-06   -2.386618241984425e-05
1.7820935991822313e-05   -8.803003954134915e-07   -4.110011742005249e-06
1.7820935991822313e-05   -8.803003954134915e-07   -4.110011742005249e-06
1.7820935991822313e-05   -8.803003954134915e-07   -4.110011742005249e-06
1.7820935991822313e-05   -8.803003954134915e-07   -4.110011742005249e-06
1.8960410648191553e-05   -2.070328148508812e-06   -2.626864900713219e-05
1.8960410648191553e-05   -2.070328148508812e-06   -2.626864900713219e-05
1.8960410648191553e-05   -2.070328148508812e-06   -2.626864900713219e-05
1.8960410648191553e-05   -2.070328148508812e-06   -2.626864900713219e-05
6.901980308450471e-06   3.669430704287321e-08   -7.4354785808946125e-06
6.901980308450471e-06   3.669430704287321e-08   -7.4354785808946125e-06
6.901980308450471e-06   3.669430704287321e-08   -7.4354785808946125e-06
6.901980308450471e-06   3.669430704287321e-08   -7.4354785808946125e-06
1.1899331785792202e-05   -1.9093410645259308e-06   -1.459677648685628e-05
1.1899331785792202e-05   -1.9093410645259308e-06   -1.459677648685628e-05
1.1899331785792202e-05   -1.9093410645259308e-06   -1.459677648685628e-05
1.1899331785792202e-05   -1.9093410645259308e-06   -1.459677648685628e-05
-2.26576560658138e-05   3.6520757033549735e-06   -2.1251571457886617e-05
-2.26576560658138e-05   3.6520757033549735e-06   -2.1251571457886617e-05
-2.26576560658138e-05   3.6520757033549735e-06   -2.1251571457886617e-05
-2.26576560658138e-05   3.6520757033549735e-06   -2.1251571457886617e-05
-1.6746425719042394e-05   1.4852214736200053e-06   -1.2699633417775284e-05
-1.6746425719042394e-05   1.4852214736200053e-06   -1.2699633417775284e-05
-1.6746425719042394e-05   1.4852214736200053e-06   -1.2699633417775284e-05
-1.6746425719042394e-05   1.4852214736200053e-06   -1.2699633417775284e-05
-1.6501035239429034e-05   4.650013582768947e-06   -1.8747833443683156e-05
-1.6501035239429034e-05   4.650013582768947e-06   -1.8747833443683156e-05
-1.6501035239429034e-05   4.650013582768947e-06   -1.8747833443683156e-05
-1.6501035239429034e-05   4.650013582768947e-06   -1.8747833443683156e-05
-2.142447016212793e-05   2.3150191627637363e-06   -9.141111920514847e-06
-2.142447016212793e-05   2.3150191627637363e-06   -9.141111920514847e-06
-2.142447016212793e-05   2.3150191627637363e-06   -9.141111920514847e-06
-2.142447016212793e-05   2.3150191627637363e-06   -9.141111920514847e-06
-1.8513376353610986e-05   3.2764671576463074e-06   -1.4569803731640353e-05
-1.8513376353610986e-05   3.2764671576463074e-06   -1.4569803731640353e-05
-1.8513376353610986e-05   3.2764671576463074e-06   -1.4569803731640353e-05
-1.8513376353610986e-05   3.2764671576463074e-06   -1.4569803731640353e-05
-2.142447016212793e-05   4.650013582768947e-06   -1.7346836791680008e-05
-2.142447016212793e-05   4.650013582768947e-06   -1.7346836791680008e-05
-2.142447016212793e-05   4.650013582768947e-06   -1.7346836791680008e-05
-2.142447016212793e-05   4.650013582768947e-06   -1.7346836791680008e-05
-1.6501035239429088e-05   2.3150191627637363e-06   -1.054210857251824e-05
-1.6501035239429088e-05   2.3150191627637363e-06   -1.054210857251824e-05
-1.6501035239429088e-05   2.3150191627637363e-06   -1.054210857251824e-05
-1.6501035239429088e-05   2.3150191627637363e-06   -1.054210857251824e-05
-1.615052416099541e-05   5.115386373706989e-06   -1.6740412691742222e-05
-1.615052416099541e-05   5.115386373706989e-06   -1.6740412691742222e-05
-1.615052416099541e-05   5.115386373706989e-06   -1.6740412691742222e-05
-1.615052416099541e-05   5.115386373706989e-06   -1.6740412691742222e-05
-2.0441624334316345e-05   2.734797588707324e-06   -8.160225798540947e-06
-2.0441624334316345e-05   2.734797588707324e-06   -8.160225798540947e-06
-2.0441624334316345e-05   2.734797588707324e-06   -8.160225798540947e-06
-2.0441624334316345e-05   2.734797588707324e-06   -8.160225798540947e-06
-1.818859362815505e-05   3.724432468723139e-06   -1.2509057903485892e-05
-1.818859362815505e-05   3.724432468723139e-06   -1.2509057903485892e-05
-1.818859362815505e-05   3.724432468723139e-06   -1.2509057903485892e-05
-1.818859362815505e-05   3.724432468723139e-06   -1.2509057903485892e-05
-2.0441624334316318e-05   5.115386373706989e-06   -1.5312059420742488e-05
-2.0441624334316318e-05   5.115386373706989e-06   -1.5312059420742488e-05
-2.0441624334316318e-05   5.115386373706989e-06   -1.5312059420742488e-05
-2.0441624334316318e-05   5.115386373706989e-06   -1.5312059420742488e-05
-1.6150524160995437e-05   2.734797588707324e-06   -9.58857906954068e-06
-1.6150524160995437e-05   2.734797588707324e-06   -9.58857906954068e-06
-1.6150524160995437e-05   2.734797588707324e-06   -9.58857906954068e-06
-1.6150524160995437e-05   2.734797588707324e-06   -9.58857906954068e-06
-1.591246466802558e-05   5.701211357011745e-06   -1.4166291237429599e-05
-1.591246466802558e-05   5.701211357011745e-06   -1.4166291237429599e-05
-1.591246466802558e-05   5.701211357011745e-06   -1.4166291237429599e-05
-1.591246466802558e-05   5.701211357011745e-06   -1.4166291237429599e-05
-1.9190311919655833e-05   3.400002893831958e-06   -7.322487406804406e-06
-1.9190311919655833e-05   3.400002893831958e-06   -7.322487406804406e-06
-1.9190311919655833e-05   3.400002893831958e-06   -7.322487406804406e-06
-1.9190311919655833e-05   3.400002893831958e-06   -7.322487406804406e-06
-1.7339224243058182e-05   4.035827190028711e-06   -1.0789128112185771e-05
-1.7339224243058182e-05   4.035827190028711e-06   -1.0789128112185771e-05
-1.7339224243058182e-05   4.035827190028711e-06   -1.0789128112185771e-05
-1.7339224243058182e-05   4.035827190028711e-06   -1.0789128112185771e-05
-1.6746425719042394e-05   1.8899969625819696e-06   -3.100267228906521e-05
-1.6746425719042394e-05   1.8899969625819696e-06   -3.100267228906521e-05
-1.6746425719042394e-05   1.8899969625819696e-06   -3.100267228906521e-05
-1.6746425719042394e-05   1.8899969625819696e-06   -3.100267228906521e-05
-1.1941431565354687e-05   8.555123955319467e-07   -2.3615039439815722e-05
-1.1941431565354687e-05   8.555123955319467e-07   -2.3615039439815722e-05
-1.1941431565354687e-05   8.555123955319467e-07   -2.3615039439815722e-05
-1.1941431565354687e-05   8.555123955319467e-07   -2.3615039439815722e-05
-1.1781393085529189e-05   2.943828341036214e-06   -3.089992561481302e-05
-1.1781393085529189e-05   2.943828341036214e-06   -3.089992561481302e-05
-1.1781393085529189e-05   2.943828341036214e-06   -3.089992561481302e-05
-1.1781393085529189e-05   2.943828341036214e-06   -3.089992561481302e-05
-1.6501035239429088e-05   1.807290203712994e-06   -2.2351932475919007e-05
-1.6501035239429088e-05   1.807290203712994e-06   -2.2351932475919007e-05
-1.6501035239429088e-05   1.807290203712994e-06   -2.2351932475919007e-05
-1.6501035239429088e-05   1.807290203712994e-06   -2.2351932475919007e-05
-1.4103694401894808e-05   2.0574932125994212e-06   -2.6497622343808622e-05
-1.4103694401894808e-05   2.0574932125994212e-06   -2.6497622343808622e-05
-1.4103694401894808e-05   2.0574932125994212e-06   -2.6497622343808622e-05
-1.4103694401894808e-05   2.0574932125994212e-06   -2.6497622343808622e-05
-1.6501035239429034e-05   2.943828341036214e-06   -3.0218002732418825e-05
-1.6501035239429034e-05   2.943828341036214e-06   -3.0218002732418825e-05
-1.6501035239429034e-05   2.943828341036214e-06   -3.0218002732418825e-05
-1.6501035239429034e-05   2.943828341036214e-06   -3.0218002732418825e-05
-1.1781393085529189e-05   1.807290203712994e-06   -2.3033855358312982e-05
-1.1781393085529189e-05   1.807290203712994e-06   -2.3033855358312982e-05
-1.1781393085529189e-05   1.807290203712994e-06   -2.3033855358312982e-05
-1.1781393085529189e-05   1.807290203712994e-06   -2.3033855358312982e-05
-1.1604558480266867e-05   3.903151707242776e-06   -3.0400222035629663e-05
-1.1604558480266867e-05   3.903151707242776e-06   -3.0400222035629663e-05
-1.1604558480266867e-05   3.903151707242776e-06   -3.0400222035629663e-05
-1.1604558480266867e-05   3.903151707242776e-06   -3.0400222035629663e-05
-1.6150524160995464e-05   2.692733169053999e-06   -2.209736144483522e-05
-1.6150524160995464e-05   2.692733169053999e-06   -2.209736144483522e-05
-1.6150524160995464e-05   2.692733169053999e-06   -2.209736144483522e-05
-1.6150524160995464e-05   2.692733169053999e-06   -2.209736144483522e-05
-1.389291000611273e-05   2.827510455532937e-06   -2.594091807486026e-05
-1.389291000611273e-05   2.827510455532937e-06   -2.594091807486026e-05
-1.389291000611273e-05   2.827510455532937e-06   -2.594091807486026e-05
-1.389291000611273e-05   2.827510455532937e-06   -2.594091807486026e-05
-1.615052416099541e-05   3.903151707242668e-06   -2.96739709127163e-05
-1.615052416099541e-05   3.903151707242668e-06   -2.96739709127163e-05
-1.615052416099541e-05   3.903151707242668e-06   -2.96739709127163e-05
-1.615052416099541e-05   3.903151707242668e-06   -2.96739709127163e-05
-1.160455848026684e-05   2.692733169053999e-06   -2.282361256774842e-05
-1.160455848026684e-05   2.692733169053999e-06   -2.282361256774842e-05
-1.160455848026684e-05   2.692733169053999e-06   -2.282361256774842e-05
-1.160455848026684e-05   2.692733169053999e-06   -2.282361256774842e-05
-1.1447543588386611e-05   4.945598381827067e-06   -3.069504899979214e-05
-1.1447543588386611e-05   4.945598381827067e-06   -3.069504899979214e-05
-1.1447543588386611e-05   4.945598381827067e-06   -3.069504899979214e-05
-1.1447543588386611e-05   4.945598381827067e-06   -3.069504899979214e-05
-1.5912464668025634e-05   3.67704231492023e-06   -2.249238022691602e-05
-1.5912464668025634e-05   3.67704231492023e-06   -2.249238022691602e-05
-1.5912464668025634e-05   3.67704231492023e-06   -2.249238022691602e-05
-1.5912464668025634e-05   3.67704231492023e-06   -2.249238022691602e-05
-1.381143338695151e-05   3.607919728250571e-06   -2.5952625476704892e-05
-1.381143338695151e-05   3.607919728250571e-06   -2.5952625476704892e-05
-1.381143338695151e-05   3.607919728250571e-06   -2.5952625476704892e-05
-1.381143338695151e-05   3.607919728250571e-06   -2.5952625476704892e-05
-1.1941431565354633e-05   3.2655182585468803e-07   -3.506233394436238e-05
-1.1941431565354633e-05   3.2655182585468803e-07   -3.506233394436238e-05
-1.1941431565354633e-05   3.2655182585468803e-07   -3.506233394436238e-05
-1.1941431565354633e-05   3.2655182585468803e-07   -3.506233394436238e-05
-7.257454461034279e-06   4.921825622724229e-07   -2.715632699531133e-05
-7.257454461034279e-06   4.921825622724229e-07   -2.715632699531133e-05
-7.257454461034279e-06   4.921825622724229e-07   -2.715632699531133e-05
-7.257454461034279e-06   4.921825622724229e-07   -2.715632699531133e-05
-7.101637603068588e-06   1.3865273944356623e-06   -3.462054367062812e-05
-7.101637603068588e-06   1.3865273944356623e-06   -3.462054367062812e-05
-7.101637603068588e-06   1.3865273944356623e-06   -3.462054367062812e-05
-7.101637603068588e-06   1.3865273944356623e-06   -3.462054367062812e-05
-1.1781393085529189e-05   1.4620784857810598e-06   -2.686628185466733e-05
-1.1781393085529189e-05   1.4620784857810598e-06   -2.686628185466733e-05
-1.1781393085529189e-05   1.4620784857810598e-06   -2.686628185466733e-05
-1.1781393085529189e-05   1.4620784857810598e-06   -2.686628185466733e-05
-9.45941292248718e-06   1.0521380001331064e-06   -3.049028450168267e-05
-9.45941292248718e-06   1.0521380001331064e-06   -3.049028450168267e-05
-9.45941292248718e-06   1.0521380001331064e-06   -3.049028450168267e-05
-9.45941292248718e-06   1.0521380001331064e-06   -3.049028450168267e-05
-1.1781393085529162e-05   1.386527394435554e-06   -3.466587432543521e-05
-1.1781393085529162e-05   1.386527394435554e-06   -3.466587432543521e-05
-1.1781393085529162e-05   1.386527394435554e-06   -3.466587432543521e-05
-1.1781393085529162e-05   1.386527394435554e-06   -3.466587432543521e-05
-7.101637603068588e-06   1.4620784857810598e-06   -2.6820951199860296e-05
-7.101637603068588e-06   1.4620784857810598e-06   -2.6820951199860296e-05
-7.101637603068588e-06   1.4620784857810598e-06   -2.6820951199860296e-05
-7.101637603068588e-06   1.4620784857810598e-06   -2.6820951199860296e-05
-6.926051195118703e-06   2.449898265820304e-06   -3.471037363198535e-05
-6.926051195118703e-06   2.449898265820304e-06   -3.471037363198535e-05
-6.926051195118703e-06   2.449898265820304e-06   -3.471037363198535e-05
-6.926051195118703e-06   2.449898265820304e-06   -3.471037363198535e-05
-1.160455848026684e-05   2.440448591098116e-06   -2.6907191685238325e-05
-1.160455848026684e-05   2.440448591098116e-06   -2.6907191685238325e-05
-1.160455848026684e-05   2.440448591098116e-06   -2.6907191685238325e-05
-1.160455848026684e-05   2.440448591098116e-06   -2.6907191685238325e-05
-9.355395210858781e-06   1.8857774928218328e-06   -3.0322994475286136e-05
-9.355395210858781e-06   1.8857774928218328e-06   -3.0322994475286136e-05
-9.355395210858781e-06   1.8857774928218328e-06   -3.0322994475286136e-05
-9.355395210858781e-06   1.8857774928218328e-06   -3.0322994475286136e-05
-1.1604558480266813e-05   2.449898265820304e-06   -3.470470382715198e-05
-1.1604558480266813e-05   2.449898265820304e-06   -3.470470382715198e-05
-1.1604558480266813e-05   2.449898265820304e-06   -3.470470382715198e-05
-1.1604558480266813e-05   2.449898265820304e-06   -3.470470382715198e-05
-6.926051195118714e-06   2.440448591098008e-06   -2.6912861490071746e-05
-6.926051195118714e-06   2.440448591098008e-06   -2.6912861490071746e-05
-6.926051195118714e-06   2.440448591098008e-06   -2.6912861490071746e-05
-6.926051195118714e-06   2.440448591098008e-06   -2.6912861490071746e-05
-6.76838111782084e-06   3.5318608772033763e-06   -3.529453085227355e-05
-6.76838111782084e-06   3.5318608772033763e-06   -3.529453085227355e-05
-6.76838111782084e-06   3.5318608772033763e-06   -3.529453085227355e-05
-6.76838111782084e-06   3.5318608772033763e-06   -3.529453085227355e-05
-1.1447543588386625e-05   3.4336100189290937e-06   -2.7436976219699194e-05
-1.1447543588386625e-05   3.4336100189290937e-06   -2.7436976219699194e-05
-1.1447543588386625e-05   3.4336100189290937e-06   -2.7436976219699194e-05
-1.1447543588386625e-05   3.4336100189290937e-06   -2.7436976219699194e-05
-9.269684175102635e-06   2.7305080951846826e-06   -3.0644880754259374e-05
-9.269684175102635e-06   2.7305080951846826e-06   -3.0644880754259374e-05
-9.269684175102635e-06   2.7305080951846826e-06   -3.0644880754259374e-05
-9.269684175102635e-06   2.7305080951846826e-06   -3.0644880754259374e-05
-7.2574544610342534e-06   -1.1029633944237022e-06   -3.0730051375251356e-05
-7.2574544610342534e-06   -1.1029633944237022e-06   -3.0730051375251356e-05
-7.2574544610342534e-06   -1.1029633944237022e-06   -3.0730051375251356e-05
-7.2574544610342534e-06   -1.1029633944237022e-06   -3.0730051375251356e-05
-2.7183351021059727e-06   2.1375041834355984e-07   -2.2374824156044e-05
-2.7183351021059727e-06   2.1375041834355984e-07   -2.2374824156044e-05
-2.7183351021059727e-06   2.1375041834355984e-07   -2.2374824156044e-05
-2.7183351021059727e-06   2.1375041834355984e-07   -2.2374824156044e-05
-2.4848486337140403e-06   -1.0414330868058035e-07   -2.9740186906779926e-05
-2.4848486337140403e-06   -1.0414330868058035e-07   -2.9740186906779926e-05
-2.4848486337140403e-06   -1.0414330868058035e-07   -2.9740186906779926e-05
-2.4848486337140403e-06   -1.0414330868058035e-07   -2.9740186906779926e-05
-7.101637603068575e-06   1.1536341973401995e-06   -2.280020512813472e-05
-7.101637603068575e-06   1.1536341973401995e-06   -2.280020512813472e-05
-7.101637603068575e-06   1.1536341973401995e-06   -2.280020512813472e-05
-7.101637603068575e-06   1.1536341973401995e-06   -2.280020512813472e-05
-4.84119404575719e-06   1.381184232373666e-07   -2.5958301592525772e-05
-4.84119404575719e-06   1.381184232373666e-07   -2.5958301592525772e-05
-4.84119404575719e-06   1.381184232373666e-07   -2.5958301592525772e-05
-4.84119404575719e-06   1.381184232373666e-07   -2.5958301592525772e-05
-7.101637603068563e-06   -1.0414330868058035e-07   -3.049485341039248e-05
-7.101637603068563e-06   -1.0414330868058035e-07   -3.049485341039248e-05
-7.101637603068563e-06   -1.0414330868058035e-07   -3.049485341039248e-05
-7.101637603068563e-06   -1.0414330868058035e-07   -3.049485341039248e-05
-2.484848633714054e-06   1.1536341973401995e-06   -2.2045538624522313e-05
-2.484848633714054e-06   1.1536341973401995e-06   -2.2045538624522313e-05
-2.484848633714054e-06   1.1536341973401995e-06   -2.2045538624522313e-05
-2.484848633714054e-06   1.1536341973401995e-06   -2.2045538624522313e-05
-2.1370920628676748e-06   8.56359772807608e-07   -3.013949654290677e-05
-2.1370920628676748e-06   8.56359772807608e-07   -3.013949654290677e-05
-2.1370920628676748e-06   8.56359772807608e-07   -3.013949654290677e-05
-2.1370920628676748e-06   8.56359772807608e-07   -3.013949654290677e-05
-6.926051195118703e-06   2.0389572193948904e-06   -2.286745645710744e-05
-6.926051195118703e-06   2.0389572193948904e-06   -2.286745645710744e-05
-6.926051195118703e-06   2.0389572193948904e-06   -2.286745645710744e-05
-6.926051195118703e-06   2.0389572193948904e-06   -2.286745645710744e-05
-4.700349395235804e-06   8.971960723783059e-07   -2.5891902768702404e-05
-4.700349395235804e-06   8.971960723783059e-07   -2.5891902768702404e-05
-4.700349395235804e-06   8.971960723783059e-07   -2.5891902768702404e-05
-4.700349395235804e-06   8.971960723783059e-07   -2.5891902768702404e-05
-6.926051195118684e-06   8.56359772807608e-07   -3.084905501085899e-05
-6.926051195118684e-06   8.56359772807608e-07   -3.084905501085899e-05
-6.926051195118684e-06   8.56359772807608e-07   -3.084905501085899e-05
-6.926051195118684e-06   8.56359772807608e-07   -3.084905501085899e-05
-2.1370920628676883e-06   2.038957219394999e-06   -2.215789798915512e-05
-2.1370920628676883e-06   2.038957219394999e-06   -2.215789798915512e-05
-2.1370920628676883e-06   2.038957219394999e-06   -2.215789798915512e-05
-2.1370920628676883e-06   2.038957219394999e-06   -2.215789798915512e-05
-1.8944749591609284e-06   1.956786726245571e-06   -3.098233541444902e-05
-1.8944749591609284e-06   1.956786726245571e-06   -3.098233541444902e-05
-1.8944749591609284e-06   1.956786726245571e-06   -3.098233541444902e-05
-1.8944749591609284e-06   1.956786726245571e-06   -3.098233541444902e-05
-6.76838111782084e-06   3.039542659175553e-06   -2.3508812043106998e-05
-6.76838111782084e-06   3.039542659175553e-06   -2.3508812043106998e-05
-6.76838111782084e-06   3.039542659175553e-06   -2.3508812043106998e-05
-6.76838111782084e-06   3.039542659175553e-06   -2.3508812043106998e-05
-4.553110476116522e-06   1.692304577025571e-06   -2.6392586929990965e-05
-4.553110476116522e-06   1.692304577025571e-06   -2.6392586929990965e-05
-4.553110476116522e-06   1.692304577025571e-06   -2.6392586929990965e-05
-4.553110476116522e-06   1.692304577025571e-06   -2.6392586929990965e-05
-2.7183351021059727e-06   -2.0243154127050616e-06   -1.6671020373174668e-05
-2.7183351021059727e-06   -2.0243154127050616e-06   -1.6671020373174668e-05
-2.7183351021059727e-06   -2.0243154127050616e-06   -1.6671020373174668e-05
-2.7183351021059727e-06   -2.0243154127050616e-06   -1.6671020373174668e-05
6.250994997066255e-07   3.001698809101819e-07   -9.703938193984536e-06
6.250994997066255e-07   3.001698809101819e-07   -9.703938193984536e-06
6.250994997066255e-07   3.001698809101819e-07   -9.703938193984536e-06
6.250994997066255e-07   3.001698809101819e-07   -9.703938193984536e-06
1.8641990861794483e-06   -1.3472385997105856e-06   -1.591281398899007e-05
1.8641990861794483e-06   -1.3472385997105856e-06   -1.591281398899007e-05
1.8641990861794483e-06   -1.3472385997105856e-06   -1.591281398899007e-05
1.8641990861794483e-06   -1.3472385997105856e-06   -1.591281398899007e-05
-2.4848486337140403e-06   1.0435160912649353e-06   -1.0098853937085998e-05
-2.4848486337140403e-06   1.0435160912649353e-06   -1.0098853937085998e-05
-2.4848486337140403e-06   1.0435160912649353e-06   -1.0098853937085998e-05
-2.4848486337140403e-06   1.0435160912649353e-06   -1.0098853937085998e-05
-6.599352897098109e-07   -4.070847923141321e-07   -1.2270015646945968e-05
-6.599352897098109e-07   -4.070847923141321e-07   -1.2270015646945968e-05
-6.599352897098109e-07   -4.070847923141321e-07   -1.2270015646945968e-05
-6.599352897098109e-07   -4.070847923141321e-07   -1.2270015646945968e-05
-2.484848633714054e-06   -1.3472385997105856e-06   -1.7347266803575186e-05
-2.484848633714054e-06   -1.3472385997105856e-06   -1.7347266803575186e-05
-2.484848633714054e-06   -1.3472385997105856e-06   -1.7347266803575186e-05
-2.484848633714054e-06   -1.3472385997105856e-06   -1.7347266803575186e-05
1.8641990861794483e-06   1.0435160912648268e-06   -8.664401122500799e-06
1.8641990861794483e-06   1.0435160912648268e-06   -8.664401122500799e-06
1.8641990861794483e-06   1.0435160912648268e-06   -8.664401122500799e-06
1.8641990861794483e-06   1.0435160912648268e-06   -8.664401122500799e-06
2.8427523403721003e-06   -8.803003954134915e-07   -1.6776855214352003e-05
2.8427523403721003e-06   -8.803003954134915e-07   -1.6776855214352003e-05
2.8427523403721003e-06   -8.803003954134915e-07   -1.6776855214352003e-05
2.8427523403721003e-06   -8.803003954134915e-07   -1.6776855214352003e-05
-2.1370920628676883e-06   1.4613320376532504e-06   -9.882094002125567e-06
-2.1370920628676883e-06   1.4613320376532504e-06   -9.882094002125567e-06
-2.1370920628676883e-06   1.4613320376532504e-06   -9.882094002125567e-06
-2.1370920628676883e-06   1.4613320376532504e-06   -9.882094002125567e-06
-3.261017928564078e-08   -5.075419372431965e-08   -1.2482312069269155e-05
-3.261017928564078e-08   -5.075419372431965e-08   -1.2482312069269155e-05
-3.261017928564078e-08   -5.075419372431965e-08   -1.2482312069269155e-05
-3.261017928564078e-08   -5.075419372431965e-08   -1.2482312069269155e-05
-2.1370920628676748e-06   -8.803003954134915e-07   -1.8181834674192048e-05
-2.1370920628676748e-06   -8.803003954134915e-07   -1.8181834674192048e-05
-2.1370920628676748e-06   -8.803003954134915e-07   -1.8181834674192048e-05
-2.1370920628676748e-06   -8.803003954134915e-07   -1.8181834674192048e-05
2.8427523403721003e-06   1.461332037653142e-06   -8.477114542285603e-06
2.8427523403721003e-06   1.461332037653142e-06   -8.477114542285603e-06
2.8427523403721003e-06   1.461332037653142e-06   -8.477114542285603e-06
2.8427523403721003e-06   1.461332037653142e-06   -8.477114542285603e-06
4.0784903258947924e-06   3.669430704287321e-08   -1.8790261617961373e-05
4.0784903258947924e-06   3.669430704287321e-08   -1.8790261617961373e-05
4.0784903258947924e-06   3.669430704287321e-08   -1.8790261617961373e-05
4.0784903258947924e-06   3.669430704287321e-08   -1.8790261617961373e-05
-1.894474959160942e-06   2.2011528831505445e-06   -1.013399462186613e-05
-1.894474959160942e-06   2.2011528831505445e-06   -1.013399462186613e-05
-1.894474959160942e-06   2.2011528831505445e-06   -1.013399462186613e-05
-1.894474959160942e-06   2.2011528831505445e-06   -1.013399462186613e-05
5.085727671693554e-07   3.5485884807375835e-07   -1.3031297744704208e-05
5.085727671693554e-07   3.5485884807375835e-07   -1.3031297744704208e-05
5.085727671693554e-07   3.5485884807375835e-07   -1.3031297744704208e-05
5.085727671693554e-07   3.5485884807375835e-07   -1.3031297744704208e-05
-7.86415855429291e-06   1.4852214736200053e-06   -1.414292833563837e-05
-7.86415855429291e-06   1.4852214736200053e-06   -1.414292833563837e-05
-7.86415855429291e-06   1.4852214736200053e-06   -1.414292833563837e-05
-7.86415855429291e-06   1.4852214736200053e-06   -1.414292833563837e-05
-7.998103743536684e-06   -6.950650458398006e-07   -1.5674342229387325e-05
-7.998103743536684e-06   -6.950650458398006e-07   -1.5674342229387325e-05
-7.998103743536684e-06   -6.950650458398006e-07   -1.5674342229387325e-05
-7.998103743536684e-06   -6.950650458398006e-07   -1.5674342229387325e-05
-7.599135840066551e-06   2.315019162763628e-06   -1.3289005529330995e-05
-7.599135840066551e-06   2.315019162763628e-06   -1.3289005529330995e-05
-7.599135840066551e-06   2.315019162763628e-06   -1.3289005529330995e-05
-7.599135840066551e-06   2.315019162763628e-06   -1.3289005529330995e-05
-6.4853454447870635e-06   -2.43465209902316e-08   -1.3741703444544316e-05
-6.4853454447870635e-06   -2.43465209902316e-08   -1.3741703444544316e-05
-6.4853454447870635e-06   -2.43465209902316e-08   -1.3741703444544316e-05
-6.4853454447870635e-06   -2.43465209902316e-08   -1.3741703444544316e-05
-7.159575610205513e-06   1.02263491518601e-06   -1.3246175363886513e-05
-7.159575610205513e-06   1.02263491518601e-06   -1.3246175363886513e-05
-7.159575610205513e-06   1.02263491518601e-06   -1.3246175363886513e-05
-7.159575610205513e-06   1.02263491518601e-06   -1.3246175363886513e-05
-6.4853454447870635e-06   2.315019162763628e-06   -1.188538611907855e-05
-6.4853454447870635e-06   2.315019162763628e-06   -1.188538611907855e-05
-6.4853454447870635e-06   2.315019162763628e-06   -1.188538611907855e-05
-6.4853454447870635e-06   2.315019162763628e-06   -1.188538611907855e-05
-7.599135840066551e-06   -2.43465209902316e-08   -1.5145322854796708e-05
-7.599135840066551e-06   -2.43465209902316e-08   -1.5145322854796708e-05
-7.599135840066551e-06   -2.43465209902316e-08   -1.5145322854796708e-05
-7.599135840066551e-06   -2.43465209902316e-08   -1.5145322854796708e-05
-7.095519414543019e-06   2.7347975887072155e-06   -1.2332036173305335e-05
-7.095519414543019e-06   2.7347975887072155e-06   -1.2332036173305335e-05
-7.095519414543019e-06   2.7347975887072155e-06   -1.2332036173305335e-05
-7.095519414543019e-06   2.7347975887072155e-06   -1.2332036173305335e-05
-5.346095735522956e-06   3.556725823681151e-07   -1.3820267301201735e-05
-5.346095735522956e-06   3.556725823681151e-07   -1.3820267301201735e-05
-5.346095735522956e-06   3.556725823681151e-07   -1.3820267301201735e-05
-5.346095735522956e-06   3.556725823681151e-07   -1.3820267301201735e-05
-6.507696270947376e-06   1.3673217785525361e-06   -1.2491255926539075e-05
-6.507696270947376e-06   1.3673217785525361e-06   -1.2491255926539075e-05
-6.507696270947376e-06   1.3673217785525361e-06   -1.2491255926539075e-05
-6.507696270947376e-06   1.3673217785525361e-06   -1.2491255926539075e-05
-5.346095735522956e-06   2.7347975887072155e-06   -1.0904561169501658e-05
-5.346095735522956e-06   2.7347975887072155e-06   -1.0904561169501658e-05
-5.346095735522956e-06   2.7347975887072155e-06   -1.0904561169501658e-05
-5.346095735522956e-06   2.7347975887072155e-06   -1.0904561169501658e-05
-7.095519414543019e-06   3.556725823678983e-07   -1.5247742305005303e-05
-7.095519414543019e-06   3.556725823678983e-07   -1.5247742305005303e-05
-7.095519414543019e-06   3.556725823678983e-07   -1.5247742305005303e-05
-7.095519414543019e-06   3.556725823678983e-07   -1.5247742305005303e-05
-6.703509935076824e-06   3.4000028938318497e-06   -1.1443377367739791e-05
-6.703509935076824e-06   3.4000028938318497e-06   -1.1443377367739791e-05
-6.703509935076824e-06   3.4000028938318497e-06   -1.1443377367739791e-05
-6.703509935076824e-06   3.4000028938318497e-06   -1.1443377367739791e-05
-3.939486952087544e-06   1.1133867770724611e-06   -1.467811266933275e-05
-3.939486952087544e-06   1.1133867770724611e-06   -1.467811266933275e-05
-3.939486952087544e-06   1.1133867770724611e-06   -1.467811266933275e-05
-3.939486952087544e-06   1.1133867770724611e-06   -1.467811266933275e-05
-5.693609038032437e-06   1.6984039725505707e-06   -1.2105586176711439e-05
-5.693609038032437e-06   1.6984039725505707e-06   -1.2105586176711439e-05
-5.693609038032437e-06   1.6984039725505707e-06   -1.2105586176711439e-05
-5.693609038032437e-06   1.6984039725505707e-06   -1.2105586176711439e-05
-7.998103743536657e-06   8.555123955319467e-07   -2.574581552912457e-05
-7.998103743536657e-06   8.555123955319467e-07   -2.574581552912457e-05
-7.998103743536657e-06   8.555123955319467e-07   -2.574581552912457e-05
-7.998103743536657e-06   8.555123955319467e-07   -2.574581552912457e-05
-9.237319285649548e-06   -1.4860071194107254e-07   -2.8413642630463357e-05
-9.237319285649548e-06   -1.4860071194107254e-07   -2.8413642630463357e-05
-9.237319285649548e-06   -1.4860071194107254e-07   -2.8413642630463357e-05
-9.237319285649548e-06   -1.4860071194107254e-07   -2.8413642630463357e-05
-8.915600680468777e-06   1.807290203712994e-06   -2.5764362666829137e-05
-8.915600680468777e-06   1.807290203712994e-06   -2.5764362666829137e-05
-8.915600680468777e-06   1.807290203712994e-06   -2.5764362666829137e-05
-8.915600680468777e-06   1.807290203712994e-06   -2.5764362666829137e-05
-7.599135840066578e-06   6.980681468843342e-07   -2.7292937500068674e-05
-7.599135840066578e-06   6.980681468843342e-07   -2.7292937500068674e-05
-7.599135840066578e-06   6.980681468843342e-07   -2.7292937500068674e-05
-7.599135840066578e-06   6.980681468843342e-07   -2.7292937500068674e-05
-8.339313211505678e-06   9.894481279321826e-07   -2.6234136536299363e-05
-8.339313211505678e-06   9.894481279321826e-07   -2.6234136536299363e-05
-8.339313211505678e-06   9.894481279321826e-07   -2.6234136536299363e-05
-8.339313211505678e-06   9.894481279321826e-07   -2.6234136536299363e-05
-7.599135840066551e-06   1.807290203712994e-06   -2.509882943273168e-05
-7.599135840066551e-06   1.807290203712994e-06   -2.509882943273168e-05
-7.599135840066551e-06   1.807290203712994e-06   -2.509882943273168e-05
-7.599135840066551e-06   1.807290203712994e-06   -2.509882943273168e-05
-8.915600680468763e-06   6.980681468843342e-07   -2.7958470734166022e-05
-8.915600680468763e-06   6.980681468843342e-07   -2.7958470734166022e-05
-8.915600680468763e-06   6.980681468843342e-07   -2.7958470734166022e-05
-8.915600680468763e-06   6.980681468843342e-07   -2.7958470734166022e-05
-8.58094234322586e-06   2.692733169053999e-06   -2.554828731583488e-05
-8.58094234322586e-06   2.692733169053999e-06   -2.554828731583488e-05
-8.58094234322586e-06   2.692733169053999e-06   -2.554828731583488e-05
-8.58094234322586e-06   2.692733169053999e-06   -2.554828731583488e-05
-7.095519414543046e-06   1.51361855699585e-06   -2.731652342973786e-05
-7.095519414543046e-06   1.51361855699585e-06   -2.731652342973786e-05
-7.095519414543046e-06   1.51361855699585e-06   -2.731652342973786e-05
-7.095519414543046e-06   1.51361855699585e-06   -2.731652342973786e-05
-8.016990474496616e-06   1.6725506250484662e-06   -2.5876097570646855e-05
-8.016990474496616e-06   1.6725506250484662e-06   -2.5876097570646855e-05
-8.016990474496616e-06   1.6725506250484662e-06   -2.5876097570646855e-05
-8.016990474496616e-06   1.6725506250484662e-06   -2.5876097570646855e-05
-7.095519414543019e-06   2.6927331690541076e-06   -2.4840818548599818e-05
-7.095519414543019e-06   2.6927331690541076e-06   -2.4840818548599818e-05
-7.095519414543019e-06   2.6927331690541076e-06   -2.4840818548599818e-05
-7.095519414543019e-06   2.6927331690541076e-06   -2.4840818548599818e-05
-8.580942343225834e-06   1.51361855699585e-06   -2.8023992196972653e-05
-8.580942343225834e-06   1.51361855699585e-06   -2.8023992196972653e-05
-8.580942343225834e-06   1.51361855699585e-06   -2.8023992196972653e-05
-8.580942343225834e-06   1.51361855699585e-06   -2.8023992196972653e-05
-8.26597818138152e-06   3.67704231492023e-06   -2.5971592023010218e-05
-8.26597818138152e-06   3.67704231492023e-06   -2.5971592023010218e-05
-8.26597818138152e-06   3.67704231492023e-06   -2.5971592023010218e-05
-8.26597818138152e-06   3.67704231492023e-06   -2.5971592023010218e-05
-6.703509935076824e-06   2.4452974598087457e-06   -2.7836658853784405e-05
-6.703509935076824e-06   2.4452974598087457e-06   -2.7836658853784405e-05
-6.703509935076824e-06   2.4452974598087457e-06   -2.7836658853784405e-05
-6.703509935076824e-06   2.4452974598087457e-06   -2.7836658853784405e-05
-7.733670610767562e-06   2.3895815488821776e-06   -2.6086294847743938e-05
-7.733670610767562e-06   2.3895815488821776e-06   -2.6086294847743938e-05
-7.733670610767562e-06   2.3895815488821776e-06   -2.6086294847743938e-05
-7.733670610767562e-06   2.3895815488821776e-06   -2.6086294847743938e-05
-9.237319285649521e-06   4.921825622723145e-07   -2.998894939095463e-05
-9.237319285649521e-06   4.921825622723145e-07   -2.998894939095463e-05
-9.237319285649521e-06   4.921825622723145e-07   -2.998894939095463e-05
-9.237319285649521e-06   4.921825622723145e-07   -2.998894939095463e-05
-1.0539238238452968e-05   7.048604609158696e-07   -3.203120757310754e-05
-1.0539238238452968e-05   7.048604609158696e-07   -3.203120757310754e-05
-1.0539238238452968e-05   7.048604609158696e-07   -3.203120757310754e-05
-1.0539238238452968e-05   7.048604609158696e-07   -3.203120757310754e-05
-1.0223216874911159e-05   1.4620784857810598e-06   -2.952575103138495e-05
-1.0223216874911159e-05   1.4620784857810598e-06   -2.952575103138495e-05
-1.0223216874911159e-05   1.4620784857810598e-06   -2.952575103138495e-05
-1.0223216874911159e-05   1.4620784857810598e-06   -2.952575103138495e-05
-8.915600680468777e-06   1.580475372111841e-06   -3.1776149487254025e-05
-8.915600680468777e-06   1.580475372111841e-06   -3.1776149487254025e-05
-8.915600680468777e-06   1.580475372111841e-06   -3.1776149487254025e-05
-8.915600680468777e-06   1.580475372111841e-06   -3.1776149487254025e-05
-9.670257229485786e-06   1.196432349238408e-06   -3.028796275850187e-05
-9.670257229485786e-06   1.196432349238408e-06   -3.028796275850187e-05
-9.670257229485786e-06   1.196432349238408e-06   -3.028796275850187e-05
-9.670257229485786e-06   1.196432349238408e-06   -3.028796275850187e-05
-8.91560068046875e-06   1.4620784857810598e-06   -2.9596789163183483e-05
-8.91560068046875e-06   1.4620784857810598e-06   -2.9596789163183483e-05
-8.91560068046875e-06   1.4620784857810598e-06   -2.9596789163183483e-05
-8.91560068046875e-06   1.4620784857810598e-06   -2.9596789163183483e-05
-1.0223216874911174e-05   1.580475372111841e-06   -3.170511135545571e-05
-1.0223216874911174e-05   1.580475372111841e-06   -3.170511135545571e-05
-1.0223216874911174e-05   1.580475372111841e-06   -3.170511135545571e-05
-1.0223216874911174e-05   1.580475372111841e-06   -3.170511135545571e-05
-9.89060381751567e-06   2.440448591098008e-06   -2.961098091482572e-05
-9.89060381751567e-06   2.440448591098008e-06   -2.961098091482572e-05
-9.89060381751567e-06   2.440448591098008e-06   -2.961098091482572e-05
-9.89060381751567e-06   2.440448591098008e-06   -2.961098091482572e-05
-8.58094234322586e-06   2.4752577885965056e-06   -3.181463555714103e-05
-8.58094234322586e-06   2.4752577885965056e-06   -3.181463555714103e-05
-8.58094234322586e-06   2.4752577885965056e-06   -3.181463555714103e-05
-8.58094234322586e-06   2.4752577885965056e-06   -3.181463555714103e-05
-9.405399418183295e-06   1.9458181042680822e-06   -3.0122876621615352e-05
-9.405399418183295e-06   1.9458181042680822e-06   -3.0122876621615352e-05
-9.405399418183295e-06   1.9458181042680822e-06   -3.0122876621615352e-05
-9.405399418183295e-06   1.9458181042680822e-06   -3.0122876621615352e-05
-8.580942343225834e-06   2.440448591098008e-06   -2.9631866433324516e-05
-8.580942343225834e-06   2.440448591098008e-06   -2.9631866433324516e-05
-8.580942343225834e-06   2.440448591098008e-06   -2.9631866433324516e-05
-8.580942343225834e-06   2.440448591098008e-06   -2.9631866433324516e-05
-9.89060381751567e-06   2.4752577885965056e-06   -3.179375003864199e-05
-9.89060381751567e-06   2.4752577885965056e-06   -3.179375003864199e-05
-9.89060381751567e-06   2.4752577885965056e-06   -3.179375003864199e-05
-9.89060381751567e-06   2.4752577885965056e-06   -3.179375003864199e-05
-9.576964608068308e-06   3.4336100189290937e-06   -3.0185742591699784e-05
-9.576964608068308e-06   3.4336100189290937e-06   -3.0185742591699784e-05
-9.576964608068308e-06   3.4336100189290937e-06   -3.0185742591699784e-05
-9.576964608068308e-06   3.4336100189290937e-06   -3.0185742591699784e-05
-8.26597818138152e-06   3.382462992178141e-06   -3.23400317534603e-05
-8.26597818138152e-06   3.382462992178141e-06   -3.23400317534603e-05
-8.26597818138152e-06   3.382462992178141e-06   -3.23400317534603e-05
-8.26597818138152e-06   3.382462992178141e-06   -3.23400317534603e-05
-9.161840258997061e-06   2.705706904562212e-06   -3.0440874638198198e-05
-9.161840258997061e-06   2.705706904562212e-06   -3.0440874638198198e-05
-9.161840258997061e-06   2.705706904562212e-06   -3.0440874638198198e-05
-9.161840258997061e-06   2.705706904562212e-06   -3.0440874638198198e-05
-1.0539238238452934e-05   2.1375041834366827e-07   -2.5869868100161504e-05
-1.0539238238452934e-05   2.1375041834366827e-07   -2.5869868100161504e-05
-1.0539238238452934e-05   2.1375041834366827e-07   -2.5869868100161504e-05
-1.0539238238452934e-05   2.1375041834366827e-07   -2.5869868100161504e-05
-1.1916106667702963e-05   1.5655425615480195e-06   -2.735357352965566e-05
-1.1916106667702963e-05   1.5655425615480195e-06   -2.735357352965566e-05
-1.1916106667702963e-05   1.5655425615480195e-06   -2.735357352965566e-05
-1.1916106667702963e-05   1.5655425615480195e-06   -2.735357352965566e-05
-1.1533275545790042e-05   1.1536341973403079e-06   -2.473055471879091e-05
-1.1533275545790042e-05   1.1536341973403079e-06   -2.473055471879091e-05
-1.1533275545790042e-05   1.1536341973403079e-06   -2.473055471879091e-05
-1.1533275545790042e-05   1.1536341973403079e-06   -2.473055471879091e-05
-1.0223216874911159e-05   2.4443845987882473e-06   -2.768843607779084e-05
-1.0223216874911159e-05   2.4443845987882473e-06   -2.768843607779084e-05
-1.0223216874911159e-05   2.4443845987882473e-06   -2.768843607779084e-05
-1.0223216874911159e-05   2.4443845987882473e-06   -2.768843607779084e-05
-1.0967464585291428e-05   1.4420303844557385e-06   -2.584661069855807e-05
-1.0967464585291428e-05   1.4420303844557385e-06   -2.584661069855807e-05
-1.0967464585291428e-05   1.4420303844557385e-06   -2.584661069855807e-05
-1.0967464585291428e-05   1.4420303844557385e-06   -2.584661069855807e-05
-1.022321687491114e-05   1.1536341973403079e-06   -2.550500495965952e-05
-1.022321687491114e-05   1.1536341973403079e-06   -2.550500495965952e-05
-1.022321687491114e-05   1.1536341973403079e-06   -2.550500495965952e-05
-1.022321687491114e-05   1.1536341973403079e-06   -2.550500495965952e-05
-1.1533275545790042e-05   2.4443845987880304e-06   -2.691398583692245e-05
-1.1533275545790042e-05   2.4443845987880304e-06   -2.691398583692245e-05
-1.1533275545790042e-05   2.4443845987880304e-06   -2.691398583692245e-05
-1.1533275545790042e-05   2.4443845987880304e-06   -2.691398583692245e-05
-1.1037500275796466e-05   2.038957219394999e-06   -2.4836068518026733e-05
-1.1037500275796466e-05   2.038957219394999e-06   -2.4836068518026733e-05
-1.1037500275796466e-05   2.038957219394999e-06   -2.4836068518026733e-05
-1.1037500275796466e-05   2.038957219394999e-06   -2.4836068518026733e-05
-9.890603817515653e-06   3.2548028257861628e-06   -2.7477069978995995e-05
-9.890603817515653e-06   3.2548028257861628e-06   -2.7477069978995995e-05
-9.890603817515653e-06   3.2548028257861628e-06   -2.7477069978995995e-05
-9.890603817515653e-06   3.2548028257861628e-06   -2.7477069978995995e-05
-1.0625258056173245e-05   2.1395746342264474e-06   -2.558350933296445e-05
-1.0625258056173245e-05   2.1395746342264474e-06   -2.558350933296445e-05
-1.0625258056173245e-05   2.1395746342264474e-06   -2.558350933296445e-05
-1.0625258056173245e-05   2.1395746342264474e-06   -2.558350933296445e-05
-9.890603817515626e-06   2.038957219394999e-06   -2.5565575881861366e-05
-9.890603817515626e-06   2.038957219394999e-06   -2.5565575881861366e-05
-9.890603817515626e-06   2.038957219394999e-06   -2.5565575881861366e-05
-9.890603817515626e-06   2.038957219394999e-06   -2.5565575881861366e-05
-1.1037500275796493e-05   3.2548028257861628e-06   -2.6747562615161307e-05
-1.1037500275796493e-05   3.2548028257861628e-06   -2.6747562615161307e-05
-1.1037500275796493e-05   3.2548028257861628e-06   -2.6747562615161307e-05
-1.1037500275796493e-05   3.2548028257861628e-06   -2.6747562615161307e-05
-1.0648286121602292e-05   3.039542659175553e-06   -2.5524842641977863e-05
-1.0648286121602292e-05   3.039542659175553e-06   -2.5524842641977863e-05
-1.0648286121602292e-05   3.039542659175553e-06   -2.5524842641977863e-05
-1.0648286121602292e-05   3.039542659175553e-06   -2.5524842641977863e-05
-9.576964608068308e-06   4.162518089450944e-06   -2.798416375603287e-05
-9.576964608068308e-06   4.162518089450944e-06   -2.798416375603287e-05
-9.576964608068308e-06   4.162518089450944e-06   -2.798416375603287e-05
-9.576964608068308e-06   4.162518089450944e-06   -2.798416375603287e-05
-1.0369818855331223e-05   2.8520106552221668e-06   -2.5876435550057264e-05
-1.0369818855331223e-05   2.8520106552221668e-06   -2.5876435550057264e-05
-1.0369818855331223e-05   2.8520106552221668e-06   -2.5876435550057264e-05
-1.0369818855331223e-05   2.8520106552221668e-06   -2.5876435550057264e-05
-1.1916106667702922e-05   3.001698809101819e-07   -1.378259802834879e-05
-1.1916106667702922e-05   3.001698809101819e-07   -1.378259802834879e-05
-1.1916106667702922e-05   3.001698809101819e-07   -1.378259802834879e-05
-1.1916106667702922e-05   3.001698809101819e-07   -1.378259802834879e-05
-1.4451044042443535e-05   2.6328081202480445e-06   -1.6607910709313814e-05
-1.4451044042443535e-05   2.6328081202480445e-06   -1.6607910709313814e-05
-1.4451044042443535e-05   2.6328081202480445e-06   -1.6607910709313814e-05
-1.4451044042443535e-05   2.6328081202480445e-06   -1.6607910709313814e-05
-1.3084642973457095e-05   1.0435160912649353e-06   -1.13519705519513e-05
-1.3084642973457095e-05   1.0435160912649353e-06   -1.13519705519513e-05
-1.3084642973457095e-05   1.0435160912649353e-06   -1.13519705519513e-05
-1.3084642973457095e-05   1.0435160912649353e-06   -1.13519705519513e-05
-1.1533275545790028e-05   3.4300152236038575e-06   -1.536948241079971e-05
-1.1533275545790028e-05   3.4300152236038575e-06   -1.536948241079971e-05
-1.1533275545790028e-05   3.4300152236038575e-06   -1.536948241079971e-05
-1.1533275545790028e-05   3.4300152236038575e-06   -1.536948241079971e-05
-1.2230435543286126e-05   1.9475345572686487e-06   -1.3318060681838633e-05
-1.2230435543286126e-05   1.9475345572686487e-06   -1.3318060681838633e-05
-1.2230435543286126e-05   1.9475345572686487e-06   -1.3318060681838633e-05
-1.2230435543286126e-05   1.9475345572686487e-06   -1.3318060681838633e-05
-1.1533275545789988e-05   1.0435160912648268e-06   -1.2783870031354513e-05
-1.1533275545789988e-05   1.0435160912648268e-06   -1.2783870031354513e-05
-1.1533275545789988e-05   1.0435160912648268e-06   -1.2783870031354513e-05
-1.1533275545789988e-05   1.0435160912648268e-06   -1.2783870031354513e-05
-1.3084642973457041e-05   3.4300152236040743e-06   -1.3937582931396295e-05
-1.3084642973457041e-05   3.4300152236040743e-06   -1.3937582931396295e-05
-1.3084642973457041e-05   3.4300152236040743e-06   -1.3937582931396295e-05
-1.3084642973457041e-05   3.4300152236040743e-06   -1.3937582931396295e-05
-1.1973267590146305e-05   1.461332037653142e-06   -1.1160068603970129e-05
-1.1973267590146305e-05   1.461332037653142e-06   -1.1160068603970129e-05
-1.1973267590146305e-05   1.461332037653142e-06   -1.1160068603970129e-05
-1.1973267590146305e-05   1.461332037653142e-06   -1.1160068603970129e-05
-1.1037500275796466e-05   3.79499191603184e-06   -1.4119876721580213e-05
-1.1037500275796466e-05   3.79499191603184e-06   -1.4119876721580213e-05
-1.1037500275796466e-05   3.79499191603184e-06   -1.4119876721580213e-05
-1.1037500275796466e-05   3.79499191603184e-06   -1.4119876721580213e-05
-1.1649435258909688e-05   2.3171577287831036e-06   -1.2213284570709024e-05
-1.1649435258909688e-05   2.3171577287831036e-06   -1.2213284570709024e-05
-1.1649435258909688e-05   2.3171577287831036e-06   -1.2213284570709024e-05
-1.1649435258909688e-05   2.3171577287831036e-06   -1.2213284570709024e-05
-1.1037500275796452e-05   1.461332037653142e-06   -1.256026453099726e-05
-1.1037500275796452e-05   1.461332037653142e-06   -1.256026453099726e-05
-1.1037500275796452e-05   1.461332037653142e-06   -1.256026453099726e-05
-1.1037500275796452e-05   1.461332037653142e-06   -1.256026453099726e-05
-1.1973267590146305e-05   3.79499191603184e-06   -1.2719680794553122e-05
-1.1973267590146305e-05   3.79499191603184e-06   -1.2719680794553122e-05
-1.1973267590146305e-05   3.79499191603184e-06   -1.2719680794553122e-05
-1.1973267590146305e-05   3.79499191603184e-06   -1.2719680794553122e-05
-1.0612865529884078e-05   2.2011528831505445e-06   -1.1504806500567573e-05
-1.0612865529884078e-05   2.2011528831505445e-06   -1.1504806500567573e-05
-1.0612865529884078e-05   2.2011528831505445e-06   -1.1504806500567573e-05
-1.0612865529884078e-05   2.2011528831505445e-06   -1.1504806500567573e-05
-1.0648286121602265e-05   4.35927334969618e-06   -1.2740644460964442e-05
-1.0648286121602265e-05   4.35927334969618e-06   -1.2740644460964442e-05
-1.0648286121602265e-05   4.35927334969618e-06   -1.2740644460964442e-05
-1.0648286121602265e-05   4.35927334969618e-06   -1.2740644460964442e-05
-1.0790748826276496e-05   2.6151406064163496e-06   -1.1456726973872803e-05
-1.0790748826276496e-05   2.6151406064163496e-06   -1.1456726973872803e-05
-1.0790748826276496e-05   2.6151406064163496e-06   -1.1456726973872803e-05
-1.0790748826276496e-05   2.6151406064163496e-06   -1.1456726973872803e-05
7.031903579119575e-06   -6.950650458395838e-07   -7.1345782602842776e-06
7.031903579119575e-06   -6.950650458395838e-07   -7.1345782602842776e-06
7.031903579119575e-06   -6.950650458395838e-07   -7.1345782602842776e-06
7.031903579119575e-06   -6.950650458395838e-07   -7.1345782602842776e-06
7.267089916637378e-07   -2.911600478836332e-06   -1.8973157165841955e-05
7.267089916637378e-07   -2.911600478836332e-06   -1.8973157165841955e-05
7.267089916637378e-07   -2.911600478836332e-06   -1.8973157165841955e-05
7.267089916637378e-07   -2.911600478836332e-06   -1.8973157165841955e-05
1.2732914085492682e-06   -2.43465209902316e-08   -7.888401538940718e-06
1.2732914085492682e-06   -2.43465209902316e-08   -7.888401538940718e-06
1.2732914085492682e-06   -2.43465209902316e-08   -7.888401538940718e-06
1.2732914085492682e-06   -2.43465209902316e-08   -7.888401538940718e-06
8.56421195214905e-06   -2.393404897258573e-06   -1.8618500752512566e-05
8.56421195214905e-06   -2.393404897258573e-06   -1.8618500752512566e-05
8.56421195214905e-06   -2.393404897258573e-06   -1.8618500752512566e-05
8.56421195214905e-06   -2.393404897258573e-06   -1.8618500752512566e-05
4.234746477790755e-06   -1.2160834710628083e-06   -1.2109117817632822e-05
4.234746477790755e-06   -1.2160834710628083e-06   -1.2109117817632822e-05
4.234746477790755e-06   -1.2160834710628083e-06   -1.2109117817632822e-05
4.234746477790755e-06   -1.2160834710628083e-06   -1.2109117817632822e-05
8.564211952149104e-06   -2.43465209902316e-08   -6.466966513179605e-06
8.564211952149104e-06   -2.43465209902316e-08   -6.466966513179605e-06
8.564211952149104e-06   -2.43465209902316e-08   -6.466966513179605e-06
8.564211952149104e-06   -2.43465209902316e-08   -6.466966513179605e-06
1.2732914085492682e-06   -2.393404897258573e-06   -2.0039935778273787e-05
1.2732914085492682e-06   -2.393404897258573e-06   -2.0039935778273787e-05
1.2732914085492682e-06   -2.393404897258573e-06   -2.0039935778273787e-05
1.2732914085492682e-06   -2.393404897258573e-06   -2.0039935778273787e-05
1.9179257675280826e-06   3.556725823681151e-07   -7.950915118489508e-06
1.9179257675280826e-06   3.556725823681151e-07   -7.950915118489508e-06
1.9179257675280826e-06   3.556725823681151e-07   -7.950915118489508e-06
1.9179257675280826e-06   3.556725823681151e-07   -7.950915118489508e-06
9.85839385589084e-06   -2.0472398785439244e-06   -1.9743281122546646e-05
9.85839385589084e-06   -2.0472398785439244e-06   -1.9743281122546646e-05
9.85839385589084e-06   -2.0472398785439244e-06   -1.9743281122546646e-05
9.85839385589084e-06   -2.0472398785439244e-06   -1.9743281122546646e-05
5.205988376685944e-06   -9.735150205347157e-07   -1.2633506905344698e-05
5.205988376685944e-06   -9.735150205347157e-07   -1.2633506905344698e-05
5.205988376685944e-06   -9.735150205347157e-07   -1.2633506905344698e-05
5.205988376685944e-06   -9.735150205347157e-07   -1.2633506905344698e-05
9.85839385589084e-06   3.556725823681151e-07   -6.509167641942132e-06
9.85839385589084e-06   3.556725823681151e-07   -6.509167641942132e-06
9.85839385589084e-06   3.556725823681151e-07   -6.509167641942132e-06
9.85839385589084e-06   3.556725823681151e-07   -6.509167641942132e-06
1.9179257675280826e-06   -2.0472398785439244e-06   -2.1185028599094075e-05
1.9179257675280826e-06   -2.0472398785439244e-06   -2.1185028599094075e-05
1.9179257675280826e-06   -2.0472398785439244e-06   -2.1185028599094075e-05
1.9179257675280826e-06   -2.0472398785439244e-06   -2.1185028599094075e-05
2.4478013431148424e-06   1.1133867770724611e-06   -8.717663456353324e-06
2.4478013431148424e-06   1.1133867770724611e-06   -8.717663456353324e-06
2.4478013431148424e-06   1.1133867770724611e-06   -8.717663456353324e-06
2.4478013431148424e-06   1.1133867770724611e-06   -8.717663456353324e-06
1.1413119542870768e-05   -1.1756670501978077e-06   -2.228642815958439e-05
1.1413119542870768e-05   -1.1756670501978077e-06   -2.228642815958439e-05
1.1413119542870768e-05   -1.1756670501978077e-06   -2.228642815958439e-05
1.1413119542870768e-05   -1.1756670501978077e-06   -2.228642815958439e-05
5.976991744785672e-06   -6.16700569186588e-07   -1.3561595051383264e-05
5.976991744785672e-06   -6.16700569186588e-07   -1.3561595051383264e-05
5.976991744785672e-06   -6.16700569186588e-07   -1.3561595051383264e-05
5.976991744785672e-06   -6.16700569186588e-07   -1.3561595051383264e-05
7.267089916637378e-07   -1.4860071194128938e-07   -2.0601332056674774e-05
7.267089916637378e-07   -1.4860071194128938e-07   -2.0601332056674774e-05
7.267089916637378e-07   -1.4860071194128938e-07   -2.0601332056674774e-05
7.267089916637378e-07   -1.4860071194128938e-07   -2.0601332056674774e-05
-6.618623261769082e-06   -1.148832482988655e-06   -3.344369154169107e-05
-6.618623261769082e-06   -1.148832482988655e-06   -3.344369154169107e-05
-6.618623261769082e-06   -1.148832482988655e-06   -3.344369154169107e-05
-6.618623261769082e-06   -1.148832482988655e-06   -3.344369154169107e-05
-6.139768045643852e-06   6.980681468843342e-07   -2.07174273548934e-05
-6.139768045643852e-06   6.980681468843342e-07   -2.07174273548934e-05
-6.139768045643852e-06   6.980681468843342e-07   -2.07174273548934e-05
-6.139768045643852e-06   6.980681468843342e-07   -2.07174273548934e-05
1.2732914085492682e-06   -4.3761713758327415e-07   -3.2391115274534434e-05
1.2732914085492682e-06   -4.3761713758327415e-07   -3.2391115274534434e-05
1.2732914085492682e-06   -4.3761713758327415e-07   -3.2391115274534434e-05
1.2732914085492682e-06   -4.3761713758327415e-07   -3.2391115274534434e-05
-2.6276151756376715e-06   -4.1218895911699846e-08   -2.6127443245892656e-05
-2.6276151756376715e-06   -4.1218895911699846e-08   -2.6127443245892656e-05
-2.6276151756376715e-06   -4.1218895911699846e-08   -2.6127443245892656e-05
-2.6276151756376715e-06   -4.1218895911699846e-08   -2.6127443245892656e-05
1.2732914085492682e-06   6.980681468843342e-07   -2.0036016184212684e-05
1.2732914085492682e-06   6.980681468843342e-07   -2.0036016184212684e-05
1.2732914085492682e-06   6.980681468843342e-07   -2.0036016184212684e-05
1.2732914085492682e-06   6.980681468843342e-07   -2.0036016184212684e-05
-6.139768045643852e-06   -4.3761713758327415e-07   -3.307252644521531e-05
-6.139768045643852e-06   -4.3761713758327415e-07   -3.307252644521531e-05
-6.139768045643852e-06   -4.3761713758327415e-07   -3.307252644521531e-05
-6.139768045643852e-06   -4.3761713758327415e-07   -3.307252644521531e-05
-5.658156739756989e-06   1.51361855699585e-06   -2.0749044031399214e-05
-5.658156739756989e-06   1.51361855699585e-06   -2.0749044031399214e-05
-5.658156739756989e-06   1.51361855699585e-06   -2.0749044031399214e-05
-5.658156739756989e-06   1.51361855699585e-06   -2.0749044031399214e-05
1.9179257675280826e-06   2.9803891003353684e-07   -3.264650042203031e-05
1.9179257675280826e-06   2.9803891003353684e-07   -3.264650042203031e-05
1.9179257675280826e-06   2.9803891003353684e-07   -3.264650042203031e-05
1.9179257675280826e-06   2.9803891003353684e-07   -3.264650042203031e-05
-2.203863092594565e-06   5.434046653695571e-07   -2.5924071775027468e-05
-2.203863092594565e-06   5.434046653695571e-07   -2.5924071775027468e-05
-2.203863092594565e-06   5.434046653695571e-07   -2.5924071775027468e-05
-2.203863092594565e-06   5.434046653695571e-07   -2.5924071775027468e-05
1.9179257675280826e-06   1.51361855699585e-06   -2.0019696243221956e-05
1.9179257675280826e-06   1.51361855699585e-06   -2.0019696243221956e-05
1.9179257675280826e-06   1.51361855699585e-06   -2.0019696243221956e-05
1.9179257675280826e-06   1.51361855699585e-06   -2.0019696243221956e-05
-5.658156739756989e-06   2.980389100337537e-07   -3.3375848210207676e-05
-5.658156739756989e-06   2.980389100337537e-07   -3.3375848210207676e-05
-5.658156739756989e-06   2.980389100337537e-07   -3.3375848210207676e-05
-5.658156739756989e-06   2.980389100337537e-07   -3.3375848210207676e-05
-5.198197971157629e-06   2.4452974598087457e-06   -2.1269648091833647e-05
-5.198197971157629e-06   2.4452974598087457e-06   -2.1269648091833647e-05
-5.198197971157629e-06   2.4452974598087457e-06   -2.1269648091833647e-05
-5.198197971157629e-06   2.4452974598087457e-06   -2.1269648091833647e-05
2.4478013431148153e-06   1.1696172580013056e-06   -3.324757216120332e-05
2.4478013431148153e-06   1.1696172580013056e-06   -3.324757216120332e-05
2.4478013431148153e-06   1.1696172580013056e-06   -3.324757216120332e-05
2.4478013431148153e-06   1.1696172580013056e-06   -3.324757216120332e-05
-1.731580573430979e-06   1.1918438890478299e-06   -2.6295271612255438e-05
-1.731580573430979e-06   1.1918438890478299e-06   -2.6295271612255438e-05
-1.731580573430979e-06   1.1918438890478299e-06   -2.6295271612255438e-05
-1.731580573430979e-06   1.1918438890478299e-06   -2.6295271612255438e-05
-6.618623261769096e-06   7.048604609160864e-07   -2.4946642801133585e-05
-6.618623261769096e-06   7.048604609160864e-07   -2.4946642801133585e-05
-6.618623261769096e-06   7.048604609160864e-07   -2.4946642801133585e-05
-6.618623261769096e-06   7.048604609160864e-07   -2.4946642801133585e-05
-1.3899078789404346e-05   8.883545884849804e-07   -3.697063887065082e-05
-1.3899078789404346e-05   8.883545884849804e-07   -3.697063887065082e-05
-1.3899078789404346e-05   8.883545884849804e-07   -3.697063887065082e-05
-1.3899078789404346e-05   8.883545884849804e-07   -3.697063887065082e-05
-1.3416955320622635e-05   1.580475372111841e-06   -2.4498597628192236e-05
-1.3416955320622635e-05   1.580475372111841e-06   -2.4498597628192236e-05
-1.3416955320622635e-05   1.580475372111841e-06   -2.4498597628192236e-05
-1.3416955320622635e-05   1.580475372111841e-06   -2.4498597628192236e-05
-6.139768045643865e-06   1.6413228384271408e-06   -3.666375156627949e-05
-6.139768045643865e-06   1.6413228384271408e-06   -3.666375156627949e-05
-6.139768045643865e-06   1.6413228384271408e-06   -3.666375156627949e-05
-6.139768045643865e-06   1.6413228384271408e-06   -3.666375156627949e-05
-9.960627061220807e-06   1.3572549218119657e-06   -3.0125212457015455e-05
-9.960627061220807e-06   1.3572549218119657e-06   -3.0125212457015455e-05
-9.960627061220807e-06   1.3572549218119657e-06   -3.0125212457015455e-05
-9.960627061220807e-06   1.3572549218119657e-06   -3.0125212457015455e-05
-6.139768045643865e-06   1.580475372111841e-06   -2.453510610798146e-05
-6.139768045643865e-06   1.580475372111841e-06   -2.453510610798146e-05
-6.139768045643865e-06   1.580475372111841e-06   -2.453510610798146e-05
-6.139768045643865e-06   1.580475372111841e-06   -2.453510610798146e-05
-1.3416955320622635e-05   1.6413228384271408e-06   -3.6627243086490295e-05
-1.3416955320622635e-05   1.6413228384271408e-06   -3.6627243086490295e-05
-1.3416955320622635e-05   1.6413228384271408e-06   -3.6627243086490295e-05
-1.3416955320622635e-05   1.6413228384271408e-06   -3.6627243086490295e-05
-1.2926894025466598e-05   2.4752577885965056e-06   -2.4561870336974132e-05
-1.2926894025466598e-05   2.4752577885965056e-06   -2.4561870336974132e-05
-1.2926894025466598e-05   2.4752577885965056e-06   -2.4561870336974132e-05
-1.2926894025466598e-05   2.4752577885965056e-06   -2.4561870336974132e-05
-5.658156739757003e-06   2.4382862129188228e-06   -3.6654249534416735e-05
-5.658156739757003e-06   2.4382862129188228e-06   -3.6654249534416735e-05
-5.658156739757003e-06   2.4382862129188228e-06   -3.6654249534416735e-05
-5.658156739757003e-06   2.4382862129188228e-06   -3.6654249534416735e-05
-9.53665084467001e-06   2.014784748178384e-06   -2.9935991814051437e-05
-9.53665084467001e-06   2.014784748178384e-06   -2.9935991814051437e-05
-9.53665084467001e-06   2.014784748178384e-06   -2.9935991814051437e-05
-9.53665084467001e-06   2.014784748178384e-06   -2.9935991814051437e-05
-5.658156739757003e-06   2.4752577885965056e-06   -2.4539687391567457e-05
-5.658156739757003e-06   2.4752577885965056e-06   -2.4539687391567457e-05
-5.658156739757003e-06   2.4752577885965056e-06   -2.4539687391567457e-05
-5.658156739757003e-06   2.4752577885965056e-06   -2.4539687391567457e-05
-1.2926894025466574e-05   2.438286212918606e-06   -3.6676432479823464e-05
-1.2926894025466574e-05   2.438286212918606e-06   -3.6676432479823464e-05
-1.2926894025466574e-05   2.438286212918606e-06   -3.6676432479823464e-05
-1.2926894025466574e-05   2.438286212918606e-06   -3.6676432479823464e-05
-1.24596278746524e-05   3.382462992178141e-06   -2.5114022073316933e-05
-1.24596278746524e-05   3.382462992178141e-06   -2.5114022073316933e-05
-1.24596278746524e-05   3.382462992178141e-06   -2.5114022073316933e-05
-1.24596278746524e-05   3.382462992178141e-06   -2.5114022073316933e-05
-5.198197971157642e-06   3.2490496673879144e-06   -3.713635725093408e-05
-5.198197971157642e-06   3.2490496673879144e-06   -3.713635725093408e-05
-5.198197971157642e-06   3.2490496673879144e-06   -3.713635725093408e-05
-5.198197971157642e-06   3.2490496673879144e-06   -3.713635725093408e-05
-9.142441566753168e-06   2.6823294321186818e-06   -3.0222585783780582e-05
-9.142441566753168e-06   2.6823294321186818e-06   -3.0222585783780582e-05
-9.142441566753168e-06   2.6823294321186818e-06   -3.0222585783780582e-05
-9.142441566753168e-06   2.6823294321186818e-06   -3.0222585783780582e-05
-1.389907878940437e-05   1.5655425615478027e-06   -2.0969987567062654e-05
-1.389907878940437e-05   1.5655425615478027e-06   -2.0969987567062654e-05
-1.389907878940437e-05   1.5655425615478027e-06   -2.0969987567062654e-05
-1.389907878940437e-05   1.5655425615478027e-06   -2.0969987567062654e-05
-2.109716439870295e-05   2.8668663623343266e-06   -3.218600263542185e-05
-2.109716439870295e-05   2.8668663623343266e-06   -3.218600263542185e-05
-2.109716439870295e-05   2.8668663623343266e-06   -3.218600263542185e-05
-2.109716439870295e-05   2.8668663623343266e-06   -3.218600263542185e-05
-2.0545953183330335e-05   2.4443845987882473e-06   -1.9746177616989324e-05
-2.0545953183330335e-05   2.4443845987882473e-06   -1.9746177616989324e-05
-2.0545953183330335e-05   2.4443845987882473e-06   -1.9746177616989324e-05
-2.0545953183330335e-05   2.4443845987882473e-06   -1.9746177616989324e-05
-1.3416955320622635e-05   3.6706258213516606e-06   -3.2363585455040426e-05
-1.3416955320622635e-05   3.6706258213516606e-06   -3.2363585455040426e-05
-1.3416955320622635e-05   3.6706258213516606e-06   -3.2363585455040426e-05
-1.3416955320622635e-05   3.6706258213516606e-06   -3.2363585455040426e-05
-1.7120318800351696e-05   2.74092413296307e-06   -2.5633491975792357e-05
-1.7120318800351696e-05   2.74092413296307e-06   -2.5633491975792357e-05
-1.7120318800351696e-05   2.74092413296307e-06   -2.5633491975792357e-05
-1.7120318800351696e-05   2.74092413296307e-06   -2.5633491975792357e-05
-1.3416955320622663e-05   2.4443845987880304e-06   -2.0481922350527697e-05
-1.3416955320622663e-05   2.4443845987880304e-06   -2.0481922350527697e-05
-1.3416955320622663e-05   2.4443845987880304e-06   -2.0481922350527697e-05
-1.3416955320622663e-05   2.4443845987880304e-06   -2.0481922350527697e-05
-2.0545953183330375e-05   3.6706258213516606e-06   -3.16278407215024e-05
-2.0545953183330375e-05   3.6706258213516606e-06   -3.16278407215024e-05
-2.0545953183330375e-05   3.6706258213516606e-06   -3.16278407215024e-05
-2.0545953183330375e-05   3.6706258213516606e-06   -3.16278407215024e-05
-1.9885038790760836e-05   3.2548028257861628e-06   -1.9561459692301665e-05
-1.9885038790760836e-05   3.2548028257861628e-06   -1.9561459692301665e-05
-1.9885038790760836e-05   3.2548028257861628e-06   -1.9561459692301665e-05
-1.9885038790760836e-05   3.2548028257861628e-06   -1.9561459692301665e-05
-1.2926894025466598e-05   4.394353800830442e-06   -3.184209821948523e-05
-1.2926894025466598e-05   4.394353800830442e-06   -3.184209821948523e-05
-1.2926894025466598e-05   4.394353800830442e-06   -3.184209821948523e-05
-1.2926894025466598e-05   4.394353800830442e-06   -3.184209821948523e-05
-1.6564315430212155e-05   3.3758636344759056e-06   -2.516863511176369e-05
-1.6564315430212155e-05   3.3758636344759056e-06   -2.516863511176369e-05
-1.6564315430212155e-05   3.3758636344759056e-06   -2.516863511176369e-05
-1.6564315430212155e-05   3.3758636344759056e-06   -2.516863511176369e-05
-1.2926894025466588e-05   3.2548028257861628e-06   -2.024519027732808e-05
-1.2926894025466588e-05   3.2548028257861628e-06   -2.024519027732808e-05
-1.2926894025466588e-05   3.2548028257861628e-06   -2.024519027732808e-05
-1.2926894025466588e-05   3.2548028257861628e-06   -2.024519027732808e-05
-1.9885038790760836e-05   4.394353800830659e-06   -3.115836763445878e-05
-1.9885038790760836e-05   4.394353800830659e-06   -3.115836763445878e-05
-1.9885038790760836e-05   4.394353800830659e-06   -3.115836763445878e-05
-1.9885038790760836e-05   4.394353800830659e-06   -3.115836763445878e-05
-1.9334656828722964e-05   4.162518089450944e-06   -2.0102863953540902e-05
-1.9334656828722964e-05   4.162518089450944e-06   -2.0102863953540902e-05
-1.9334656828722964e-05   4.162518089450944e-06   -2.0102863953540902e-05
-1.9334656828722964e-05   4.162518089450944e-06   -2.0102863953540902e-05
-1.24596278746524e-05   5.2035212666143565e-06   -3.218584744995658e-05
-1.24596278746524e-05   5.2035212666143565e-06   -3.218584744995658e-05
-1.24596278746524e-05   5.2035212666143565e-06   -3.218584744995658e-05
-1.24596278746524e-05   5.2035212666143565e-06   -3.218584744995658e-05
-1.619336184049359e-05   4.001116875770785e-06   -2.5241514872381666e-05
-1.619336184049359e-05   4.001116875770785e-06   -2.5241514872381666e-05
-1.619336184049359e-05   4.001116875770785e-06   -2.5241514872381666e-05
-1.619336184049359e-05   4.001116875770785e-06   -2.5241514872381666e-05
-2.109716439870295e-05   2.6328081202478277e-06   -1.0843113409851677e-05
-2.109716439870295e-05   2.6328081202478277e-06   -1.0843113409851677e-05
-2.109716439870295e-05   2.6328081202478277e-06   -1.0843113409851677e-05
-2.109716439870295e-05   2.6328081202478277e-06   -1.0843113409851677e-05
-2.930546922366523e-05   4.929660216466221e-06   -2.314551019372453e-05
-2.930546922366523e-05   4.929660216466221e-06   -2.314551019372453e-05
-2.930546922366523e-05   4.929660216466221e-06   -2.314551019372453e-05
-2.930546922366523e-05   4.929660216466221e-06   -2.314551019372453e-05
-2.7784750692456592e-05   3.4300152236040743e-06   -6.800922311970669e-06
-2.7784750692456592e-05   3.4300152236040743e-06   -6.800922311970669e-06
-2.7784750692456592e-05   3.4300152236040743e-06   -6.800922311970669e-06
-2.7784750692456592e-05   3.4300152236040743e-06   -6.800922311970669e-06
-2.0545953183330335e-05   5.764601688431183e-06   -2.0266336706077244e-05
-2.0545953183330335e-05   5.764601688431183e-06   -2.0266336706077244e-05
-2.0545953183330335e-05   5.764601688431183e-06   -2.0266336706077244e-05
-2.0545953183330335e-05   5.764601688431183e-06   -2.0266336706077244e-05
-2.36792332947491e-05   4.284003556741722e-06   -1.4155844308032413e-05
-2.36792332947491e-05   4.284003556741722e-06   -1.4155844308032413e-05
-2.36792332947491e-05   4.284003556741722e-06   -1.4155844308032413e-05
-2.36792332947491e-05   4.284003556741722e-06   -1.4155844308032413e-05
-2.0545953183330355e-05   3.4300152236040743e-06   -8.20167419086676e-06
-2.0545953183330355e-05   3.4300152236040743e-06   -8.20167419086676e-06
-2.0545953183330355e-05   3.4300152236040743e-06   -8.20167419086676e-06
-2.0545953183330355e-05   3.4300152236040743e-06   -8.20167419086676e-06
-2.7784750692456497e-05   5.764601688430966e-06   -1.8865584827181003e-05
-2.7784750692456497e-05   5.764601688430966e-06   -1.8865584827181003e-05
-2.7784750692456497e-05   5.764601688430966e-06   -1.8865584827181003e-05
-2.7784750692456497e-05   5.764601688430966e-06   -1.8865584827181003e-05
-2.6527902805773403e-05   3.79499191603184e-06   -5.572414133772109e-06
-2.6527902805773403e-05   3.79499191603184e-06   -5.572414133772109e-06
-2.6527902805773403e-05   3.79499191603184e-06   -5.572414133772109e-06
-2.6527902805773403e-05   3.79499191603184e-06   -5.572414133772109e-06
-1.9885038790760802e-05   6.063924690945721e-06   -1.800521382374155e-05
-1.9885038790760802e-05   6.063924690945721e-06   -1.800521382374155e-05
-1.9885038790760802e-05   6.063924690945721e-06   -1.800521382374155e-05
-1.9885038790760802e-05   6.063924690945721e-06   -1.800521382374155e-05
-2.3125291628834776e-05   4.660119268181783e-06   -1.1762509173293277e-05
-2.3125291628834776e-05   4.660119268181783e-06   -1.1762509173293277e-05
-2.3125291628834776e-05   4.660119268181783e-06   -1.1762509173293277e-05
-2.3125291628834776e-05   4.660119268181783e-06   -1.1762509173293277e-05
-1.9885038790760836e-05   3.794991916031623e-06   -6.93377379872072e-06
-1.9885038790760836e-05   3.794991916031623e-06   -6.93377379872072e-06
-1.9885038790760836e-05   3.794991916031623e-06   -6.93377379872072e-06
-1.9885038790760836e-05   3.794991916031623e-06   -6.93377379872072e-06
-2.6527902805773375e-05   6.063924690945721e-06   -1.6643854158793388e-05
-2.6527902805773375e-05   6.063924690945721e-06   -1.6643854158793388e-05
-2.6527902805773375e-05   6.063924690945721e-06   -1.6643854158793388e-05
-2.6527902805773375e-05   6.063924690945721e-06   -1.6643854158793388e-05
-2.5040327371199042e-05   4.35927334969618e-06   -4.283395534151655e-06
-2.5040327371199042e-05   4.35927334969618e-06   -4.283395534151655e-06
-2.5040327371199042e-05   4.35927334969618e-06   -4.283395534151655e-06
-2.5040327371199042e-05   4.35927334969618e-06   -4.283395534151655e-06
-1.9334656828722964e-05   6.4421639871731825e-06   -1.5042580820764581e-05
-1.9334656828722964e-05   6.4421639871731825e-06   -1.5042580820764581e-05
-1.9334656828722964e-05   6.4421639871731825e-06   -1.5042580820764581e-05
-1.9334656828722964e-05   6.4421639871731825e-06   -1.5042580820764581e-05
-2.1942655051382092e-05   4.841258882232495e-06   -9.735374053368494e-06
-2.1942655051382092e-05   4.841258882232495e-06   -9.735374053368494e-06
-2.1942655051382092e-05   4.841258882232495e-06   -9.735374053368494e-06
-2.1942655051382092e-05   4.841258882232495e-06   -9.735374053368494e-06
2.2210383227029584e-05   -2.911600478836332e-06   -1.2359324102822686e-07
2.2210383227029584e-05   -2.911600478836332e-06   -1.2359324102822686e-07
2.2210383227029584e-05   -2.911600478836332e-06   -1.2359324102822686e-07
2.2210383227029584e-05   -2.911600478836332e-06   -1.2359324102822686e-07
9.457988046565613e-06   -5.246298500350723e-06   -2.2778404021376567e-05
9.457988046565613e-06   -5.246298500350723e-06   -2.2778404021376567e-05
9.457988046565613e-06   -5.246298500350723e-06   -2.2778404021376567e-05
9.457988046565613e-06   -5.246298500350723e-06   -2.2778404021376567e-05
1.0124362999763115e-05   -2.393404897258573e-06   -2.4610145749439424e-06
1.0124362999763115e-05   -2.393404897258573e-06   -2.4610145749439424e-06
1.0124362999763115e-05   -2.393404897258573e-06   -2.4610145749439424e-06
1.0124362999763115e-05   -2.393404897258573e-06   -2.4610145749439424e-06
2.388394380291187e-05   -4.879751046055376e-06   -2.390184155758046e-05
2.388394380291187e-05   -4.879751046055376e-06   -2.390184155758046e-05
2.388394380291187e-05   -4.879751046055376e-06   -2.390184155758046e-05
2.388394380291187e-05   -4.879751046055376e-06   -2.390184155758046e-05
1.575665911928067e-05   -3.459481593766963e-06   -1.1208528756234725e-05
1.575665911928067e-05   -3.459481593766963e-06   -1.1208528756234725e-05
1.575665911928067e-05   -3.459481593766963e-06   -1.1208528756234725e-05
1.575665911928067e-05   -3.459481593766963e-06   -1.1208528756234725e-05
2.3883943802911924e-05   -2.393404897258573e-06   -9.692068856659037e-07
2.3883943802911924e-05   -2.393404897258573e-06   -9.692068856659037e-07
2.3883943802911924e-05   -2.393404897258573e-06   -9.692068856659037e-07
2.3883943802911924e-05   -2.393404897258573e-06   -9.692068856659037e-07
1.0124362999763088e-05   -4.879751046055376e-06   -2.5393649246858497e-05
1.0124362999763088e-05   -4.879751046055376e-06   -2.5393649246858497e-05
1.0124362999763088e-05   -4.879751046055376e-06   -2.5393649246858497e-05
1.0124362999763088e-05   -4.879751046055376e-06   -2.5393649246858497e-05
1.0862767623109925e-05   -2.0472398785439244e-06   -3.4869491983323744e-06
1.0862767623109925e-05   -2.0472398785439244e-06   -3.4869491983323744e-06
1.0862767623109925e-05   -2.0472398785439244e-06   -3.4869491983323744e-06
1.0862767623109925e-05   -2.0472398785439244e-06   -3.4869491983323744e-06
2.5289003242597117e-05   -4.563921379169321e-06   -2.6020666330436003e-05
2.5289003242597117e-05   -4.563921379169321e-06   -2.6020666330436003e-05
2.5289003242597117e-05   -4.563921379169321e-06   -2.6020666330436003e-05
2.5289003242597117e-05   -4.563921379169321e-06   -2.6020666330436003e-05
1.7013501457476774e-05   -3.318845827528661e-06   -1.2975208686219649e-05
1.7013501457476774e-05   -3.318845827528661e-06   -1.2975208686219649e-05
1.7013501457476774e-05   -3.318845827528661e-06   -1.2975208686219649e-05
1.7013501457476774e-05   -3.318845827528661e-06   -1.2975208686219649e-05
2.528900324259717e-05   -2.0472398785439244e-06   -1.9769402979571147e-06
2.528900324259717e-05   -2.0472398785439244e-06   -1.9769402979571147e-06
2.528900324259717e-05   -2.0472398785439244e-06   -1.9769402979571147e-06
2.528900324259717e-05   -2.0472398785439244e-06   -1.9769402979571147e-06
1.0862767623109898e-05   -4.563921379169104e-06   -2.7530675230811154e-05
1.0862767623109898e-05   -4.563921379169104e-06   -2.7530675230811154e-05
1.0862767623109898e-05   -4.563921379169104e-06   -2.7530675230811154e-05
1.0862767623109898e-05   -4.563921379169104e-06   -2.7530675230811154e-05
1.1472487073285758e-05   -1.1756670501978077e-06   -5.852113677247504e-06
1.1472487073285758e-05   -1.1756670501978077e-06   -5.852113677247504e-06
1.1472487073285758e-05   -1.1756670501978077e-06   -5.852113677247504e-06
1.1472487073285758e-05   -1.1756670501978077e-06   -5.852113677247504e-06
2.692055171657368e-05   -3.566054190032872e-06   -3.0164655798826e-05
2.692055171657368e-05   -3.566054190032872e-06   -3.0164655798826e-05
2.692055171657368e-05   -3.566054190032872e-06   -3.0164655798826e-05
2.692055171657368e-05   -3.566054190032872e-06   -3.0164655798826e-05
1.7692214247527684e-05   -2.9281787515197943e-06   -1.5166818613524783e-05
1.7692214247527684e-05   -2.9281787515197943e-06   -1.5166818613524783e-05
1.7692214247527684e-05   -2.9281787515197943e-06   -1.5166818613524783e-05
1.7692214247527684e-05   -2.9281787515197943e-06   -1.5166818613524783e-05
9.45798804656564e-06   -1.1488324829888718e-06   -1.539480736715735e-05
9.45798804656564e-06   -1.1488324829888718e-06   -1.539480736715735e-05
9.45798804656564e-06   -1.1488324829888718e-06   -1.539480736715735e-05
9.45798804656564e-06   -1.1488324829888718e-06   -1.539480736715735e-05
-4.032865231108255e-06   -2.452648466482344e-06   -3.866185242004335e-05
-4.032865231108255e-06   -2.452648466482344e-06   -3.866185242004335e-05
-4.032865231108255e-06   -2.452648466482344e-06   -3.866185242004335e-05
-4.032865231108255e-06   -2.452648466482344e-06   -3.866185242004335e-05
-3.4133186081657997e-06   -4.3761713758327415e-07   -1.5714947759093217e-05
-3.4133186081657997e-06   -4.3761713758327415e-07   -1.5714947759093217e-05
-3.4133186081657997e-06   -4.3761713758327415e-07   -1.5714947759093217e-05
-3.4133186081657997e-06   -4.3761713758327415e-07   -1.5714947759093217e-05
1.0124362999763088e-05   -1.9422066173972394e-06   -3.737499675108641e-05
1.0124362999763088e-05   -1.9422066173972394e-06   -3.737499675108641e-05
1.0124362999763088e-05   -1.9422066173972394e-06   -3.737499675108641e-05
1.0124362999763088e-05   -1.9422066173972394e-06   -3.737499675108641e-05
3.067385470172142e-06   -1.1851494451553708e-06   -2.6067601838446436e-05
3.067385470172142e-06   -1.1851494451553708e-06   -2.6067601838446436e-05
3.067385470172142e-06   -1.1851494451553708e-06   -2.6067601838446436e-05
3.067385470172142e-06   -1.1851494451553708e-06   -2.6067601838446436e-05
1.0124362999763115e-05   -4.3761713758327415e-07   -1.4812194071204751e-05
1.0124362999763115e-05   -4.3761713758327415e-07   -1.4812194071204751e-05
1.0124362999763115e-05   -4.3761713758327415e-07   -1.4812194071204751e-05
1.0124362999763115e-05   -4.3761713758327415e-07   -1.4812194071204751e-05
-3.4133186081657997e-06   -1.9422066173972394e-06   -3.8277750438974606e-05
-3.4133186081657997e-06   -1.9422066173972394e-06   -3.8277750438974606e-05
-3.4133186081657997e-06   -1.9422066173972394e-06   -3.8277750438974606e-05
-3.4133186081657997e-06   -1.9422066173972394e-06   -3.8277750438974606e-05
-2.8217962520351648e-06   2.980389100337537e-07   -1.5918275217253466e-05
-2.8217962520351648e-06   2.980389100337537e-07   -1.5918275217253466e-05
-2.8217962520351648e-06   2.980389100337537e-07   -1.5918275217253466e-05
-2.8217962520351648e-06   2.980389100337537e-07   -1.5918275217253466e-05
1.0862767623109898e-05   -1.318384749940827e-06   -3.7756027479843714e-05
1.0862767623109898e-05   -1.318384749940827e-06   -3.7756027479843714e-05
1.0862767623109898e-05   -1.318384749940827e-06   -3.7756027479843714e-05
1.0862767623109898e-05   -1.318384749940827e-06   -3.7756027479843714e-05
3.558341420327288e-06   -7.333513089911696e-07   -2.593300387310882e-05
3.558341420327288e-06   -7.333513089911696e-07   -2.593300387310882e-05
3.558341420327288e-06   -7.333513089911696e-07   -2.593300387310882e-05
3.558341420327288e-06   -7.333513089911696e-07   -2.593300387310882e-05
1.0862767623109925e-05   2.9803891003353684e-07   -1.4948421021268718e-05
1.0862767623109925e-05   2.9803891003353684e-07   -1.4948421021268718e-05
1.0862767623109925e-05   2.9803891003353684e-07   -1.4948421021268718e-05
1.0862767623109925e-05   2.9803891003353684e-07   -1.4948421021268718e-05
-2.8217962520351648e-06   -1.3183847499410439e-06   -3.872588167582868e-05
-2.8217962520351648e-06   -1.3183847499410439e-06   -3.872588167582868e-05
-2.8217962520351648e-06   -1.3183847499410439e-06   -3.872588167582868e-05
-2.8217962520351648e-06   -1.3183847499410439e-06   -3.872588167582868e-05
-2.266345912392461e-06   1.1696172580013056e-06   -1.6461509209042937e-05
-2.266345912392461e-06   1.1696172580013056e-06   -1.6461509209042937e-05
-2.266345912392461e-06   1.1696172580013056e-06   -1.6461509209042937e-05
-2.266345912392461e-06   1.1696172580013056e-06   -1.6461509209042937e-05
1.1472487073285758e-05   -5.331891195631527e-07   -3.833788035863462e-05
1.1472487073285758e-05   -5.331891195631527e-07   -3.833788035863462e-05
1.1472487073285758e-05   -5.331891195631527e-07   -3.833788035863462e-05
1.1472487073285758e-05   -5.331891195631527e-07   -3.833788035863462e-05
4.171807980248806e-06   -1.7595964160082092e-07   -2.638441955701761e-05
4.171807980248806e-06   -1.7595964160082092e-07   -2.638441955701761e-05
4.171807980248806e-06   -1.7595964160082092e-07   -2.638441955701761e-05
4.171807980248806e-06   -1.7595964160082092e-07   -2.638441955701761e-05
-4.032865231108268e-06   8.883545884851973e-07   -1.9814140762754694e-05
-4.032865231108268e-06   8.883545884851973e-07   -1.9814140762754694e-05
-4.032865231108268e-06   8.883545884851973e-07   -1.9814140762754694e-05
-4.032865231108268e-06   8.883545884851973e-07   -1.9814140762754694e-05
-1.7286060662086496e-05   4.5477368719373107e-07   -4.216294835515991e-05
-1.7286060662086496e-05   4.5477368719373107e-07   -4.216294835515991e-05
-1.7286060662086496e-05   4.5477368719373107e-07   -4.216294835515991e-05
-1.7286060662086496e-05   4.5477368719373107e-07   -4.216294835515991e-05
-1.6619272397822978e-05   1.6413228384271408e-06   -1.9673922003729874e-05
-1.6619272397822978e-05   1.6413228384271408e-06   -1.9673922003729874e-05
-1.6619272397822978e-05   1.6413228384271408e-06   -1.9673922003729874e-05
-1.6619272397822978e-05   1.6413228384271408e-06   -1.9673922003729874e-05
-3.4133186081657997e-06   1.0284076324728383e-06   -4.131609586291942e-05
-3.4133186081657997e-06   1.0284076324728383e-06   -4.131609586291942e-05
-3.4133186081657997e-06   1.0284076324728383e-06   -4.131609586291942e-05
-3.4133186081657997e-06   1.0284076324728383e-06   -4.131609586291942e-05
-1.0267272458162306e-05   1.2183644673563476e-06   -3.0006813547188665e-05
-1.0267272458162306e-05   1.2183644673563476e-06   -3.0006813547188665e-05
-1.0267272458162306e-05   1.2183644673563476e-06   -3.0006813547188665e-05
-1.0267272458162306e-05   1.2183644673563476e-06   -3.0006813547188665e-05
-3.4133186081657997e-06   1.6413228384271408e-06   -1.9306172880157423e-05
-3.4133186081657997e-06   1.6413228384271408e-06   -1.9306172880157423e-05
-3.4133186081657997e-06   1.6413228384271408e-06   -1.9306172880157423e-05
-3.4133186081657997e-06   1.6413228384271408e-06   -1.9306172880157423e-05
-1.6619272397822978e-05   1.0284076324728383e-06   -4.168384498649195e-05
-1.6619272397822978e-05   1.0284076324728383e-06   -4.168384498649195e-05
-1.6619272397822978e-05   1.0284076324728383e-06   -4.168384498649195e-05
-1.6619272397822978e-05   1.0284076324728383e-06   -4.168384498649195e-05
-1.5976030451158784e-05   2.438286212918606e-06   -1.9644325727578892e-05
-1.5976030451158784e-05   2.438286212918606e-06   -1.9644325727578892e-05
-1.5976030451158784e-05   2.438286212918606e-06   -1.9644325727578892e-05
-1.5976030451158784e-05   2.438286212918606e-06   -1.9644325727578892e-05
-2.8217962520351648e-06   1.6922042360579398e-06   -4.112040020666871e-05
-2.8217962520351648e-06   1.6922042360579398e-06   -4.112040020666871e-05
-2.8217962520351648e-06   1.6922042360579398e-06   -4.112040020666871e-05
-2.8217962520351648e-06   1.6922042360579398e-06   -4.112040020666871e-05
-9.69376934414247e-06   1.7554960819331136e-06   -2.970508682734825e-05
-9.69376934414247e-06   1.7554960819331136e-06   -2.970508682734825e-05
-9.69376934414247e-06   1.7554960819331136e-06   -2.970508682734825e-05
-9.69376934414247e-06   1.7554960819331136e-06   -2.970508682734825e-05
-2.8217962520351648e-06   2.4382862129188228e-06   -1.919667654146258e-05
-2.8217962520351648e-06   2.4382862129188228e-06   -1.919667654146258e-05
-2.8217962520351648e-06   2.4382862129188228e-06   -1.919667654146258e-05
-2.8217962520351648e-06   2.4382862129188228e-06   -1.919667654146258e-05
-1.5976030451158784e-05   1.6922042360579398e-06   -4.156804939278518e-05
-1.5976030451158784e-05   1.6922042360579398e-06   -4.156804939278518e-05
-1.5976030451158784e-05   1.6922042360579398e-06   -4.156804939278518e-05
-1.5976030451158784e-05   1.6922042360579398e-06   -4.156804939278518e-05
-1.538165957690375e-05   3.2490496673879144e-06   -2.010744123850396e-05
-1.538165957690375e-05   3.2490496673879144e-06   -2.010744123850396e-05
-1.538165957690375e-05   3.2490496673879144e-06   -2.010744123850396e-05
-1.538165957690375e-05   3.2490496673879144e-06   -2.010744123850396e-05
-2.2663459123924747e-06   2.3781245660301625e-06   -4.144374228520805e-05
-2.2663459123924747e-06   2.3781245660301625e-06   -4.144374228520805e-05
-2.2663459123924747e-06   2.3781245660301625e-06   -4.144374228520805e-05
-2.2663459123924747e-06   2.3781245660301625e-06   -4.144374228520805e-05
-9.181623482910505e-06   2.3066294938434324e-06   -2.987538262436639e-05
-9.181623482910505e-06   2.3066294938434324e-06   -2.987538262436639e-05
-9.181623482910505e-06   2.3066294938434324e-06   -2.987538262436639e-05
-9.181623482910505e-06   2.3066294938434324e-06   -2.987538262436639e-05
-1.728606066208653e-05   2.8668663623343266e-06   -1.6070447348772365e-05
-1.728606066208653e-05   2.8668663623343266e-06   -1.6070447348772365e-05
-1.728606066208653e-05   2.8668663623343266e-06   -1.6070447348772365e-05
-1.728606066208653e-05   2.8668663623343266e-06   -1.6070447348772365e-05
-3.0298626947175694e-05   3.466395697477318e-06   -3.739834022283516e-05
-3.0298626947175694e-05   3.466395697477318e-06   -3.739834022283516e-05
-3.0298626947175694e-05   3.466395697477318e-06   -3.739834022283516e-05
-3.0298626947175694e-05   3.466395697477318e-06   -3.739834022283516e-05
-2.9494629796747928e-05   3.6706258213516606e-06   -1.509609476194431e-05
-2.9494629796747928e-05   3.6706258213516606e-06   -1.509609476194431e-05
-2.9494629796747928e-05   3.6706258213516606e-06   -1.509609476194431e-05
-2.9494629796747928e-05   3.6706258213516606e-06   -1.509609476194431e-05
-1.6619272397823005e-05   4.194241838578359e-06   -3.686919337048854e-05
-1.6619272397823005e-05   4.194241838578359e-06   -3.686919337048854e-05
-1.6619272397823005e-05   4.194241838578359e-06   -3.686919337048854e-05
-1.6619272397823005e-05   4.194241838578359e-06   -3.686919337048854e-05
-2.325360417010618e-05   3.7008703050022546e-06   -2.5515950829871044e-05
-2.325360417010618e-05   3.7008703050022546e-06   -2.5515950829871044e-05
-2.325360417010618e-05   3.7008703050022546e-06   -2.5515950829871044e-05
-2.325360417010618e-05   3.7008703050022546e-06   -2.5515950829871044e-05
-1.6619272397823005e-05   3.6706258213516606e-06   -1.541026437228035e-05
-1.6619272397823005e-05   3.6706258213516606e-06   -1.541026437228035e-05
-1.6619272397823005e-05   3.6706258213516606e-06   -1.541026437228035e-05
-1.6619272397823005e-05   3.6706258213516606e-06   -1.541026437228035e-05
-2.9494629796747972e-05   4.194241838578359e-06   -3.6555023760152664e-05
-2.9494629796747972e-05   4.194241838578359e-06   -3.6555023760152664e-05
-2.9494629796747972e-05   4.194241838578359e-06   -3.6555023760152664e-05
-2.9494629796747972e-05   4.194241838578359e-06   -3.6555023760152664e-05
-2.860428850780228e-05   4.394353800830442e-06   -1.455402157563815e-05
-2.860428850780228e-05   4.394353800830442e-06   -1.455402157563815e-05
-2.860428850780228e-05   4.394353800830442e-06   -1.455402157563815e-05
-2.860428850780228e-05   4.394353800830442e-06   -1.455402157563815e-05
-1.5976030451158814e-05   4.820970286835034e-06   -3.58570882283134e-05
-1.5976030451158814e-05   4.820970286835034e-06   -3.58570882283134e-05
-1.5976030451158814e-05   4.820970286835034e-06   -3.58570882283134e-05
-1.5976030451158814e-05   4.820970286835034e-06   -3.58570882283134e-05
-2.243967227862631e-05   4.267947213330847e-06   -2.475253800509838e-05
-2.243967227862631e-05   4.267947213330847e-06   -2.475253800509838e-05
-2.243967227862631e-05   4.267947213330847e-06   -2.475253800509838e-05
-2.243967227862631e-05   4.267947213330847e-06   -2.475253800509838e-05
-1.5976030451158797e-05   4.394353800830442e-06   -1.4809991467240732e-05
-1.5976030451158797e-05   4.394353800830442e-06   -1.4809991467240732e-05
-1.5976030451158797e-05   4.394353800830442e-06   -1.4809991467240732e-05
-1.5976030451158797e-05   4.394353800830442e-06   -1.4809991467240732e-05
-2.860428850780228e-05   4.820970286835034e-06   -3.560111833671067e-05
-2.860428850780228e-05   4.820970286835034e-06   -3.560111833671067e-05
-2.860428850780228e-05   4.820970286835034e-06   -3.560111833671067e-05
-2.860428850780228e-05   4.820970286835034e-06   -3.560111833671067e-05
-2.785213073493107e-05   5.2035212666143565e-06   -1.4890698466227823e-05
-2.785213073493107e-05   5.2035212666143565e-06   -1.4890698466227823e-05
-2.785213073493107e-05   5.2035212666143565e-06   -1.4890698466227823e-05
-2.785213073493107e-05   5.2035212666143565e-06   -1.4890698466227823e-05
-1.5381659576903773e-05   5.513829560654937e-06   -3.5861002039364216e-05
-1.5381659576903773e-05   5.513829560654937e-06   -3.5861002039364216e-05
-1.5381659576903773e-05   5.513829560654937e-06   -3.5861002039364216e-05
-1.5381659576903773e-05   5.513829560654937e-06   -3.5861002039364216e-05
-2.193510910083193e-05   4.790094222862978e-06   -2.4504344963475653e-05
-2.193510910083193e-05   4.790094222862978e-06   -2.4504344963475653e-05
-2.193510910083193e-05   4.790094222862978e-06   -2.4504344963475653e-05
-2.193510910083193e-05   4.790094222862978e-06   -2.4504344963475653e-05
-3.0298626947175694e-05   4.929660216466221e-06   -8.048348563720505e-06
-3.0298626947175694e-05   4.929660216466221e-06   -8.048348563720505e-06
-3.0298626947175694e-05   4.929660216466221e-06   -8.048348563720505e-06
-3.0298626947175694e-05   4.929660216466221e-06   -8.048348563720505e-06
-4.401166270053618e-05   6.806008199121763e-06   -2.9777599363061498e-05
-4.401166270053618e-05   6.806008199121763e-06   -2.9777599363061498e-05
-4.401166270053618e-05   6.806008199121763e-06   -2.9777599363061498e-05
-4.401166270053618e-05   6.806008199121763e-06   -2.9777599363061498e-05
-4.216021024733617e-05   5.764601688431183e-06   -2.5294487058207926e-06
-4.216021024733617e-05   5.764601688431183e-06   -2.5294487058207926e-06
-4.216021024733617e-05   5.764601688431183e-06   -2.5294487058207926e-06
-4.216021024733617e-05   5.764601688431183e-06   -2.5294487058207926e-06
-2.9494629796747928e-05   7.773171756261755e-06   -2.4843891497499645e-05
-2.9494629796747928e-05   7.773171756261755e-06   -2.4843891497499645e-05
-2.9494629796747928e-05   7.773171756261755e-06   -2.4843891497499645e-05
-2.9494629796747928e-05   7.773171756261755e-06   -2.4843891497499645e-05
-3.498294068850715e-05   6.483775531951862e-06   -1.4923068943314998e-05
-3.498294068850715e-05   6.483775531951862e-06   -1.4923068943314998e-05
-3.498294068850715e-05   6.483775531951862e-06   -1.4923068943314998e-05
-3.498294068850715e-05   6.483775531951862e-06   -1.4923068943314998e-05
-2.949462979674795e-05   5.764601688431183e-06   -3.7345907465192226e-06
-2.949462979674795e-05   5.764601688431183e-06   -3.7345907465192226e-06
-2.949462979674795e-05   5.764601688431183e-06   -3.7345907465192226e-06
-2.949462979674795e-05   5.764601688431183e-06   -3.7345907465192226e-06
-4.216021024733609e-05   7.773171756261972e-06   -2.3638749456801177e-05
-4.216021024733609e-05   7.773171756261972e-06   -2.3638749456801177e-05
-4.216021024733609e-05   7.773171756261972e-06   -2.3638749456801177e-05
-4.216021024733609e-05   7.773171756261972e-06   -2.3638749456801177e-05
-4.0636761927840734e-05   6.063924690945721e-06   -2.2251713590150986e-07
-4.0636761927840734e-05   6.063924690945721e-06   -2.2251713590150986e-07
-4.0636761927840734e-05   6.063924690945721e-06   -2.2251713590150986e-07
-4.0636761927840734e-05   6.063924690945721e-06   -2.2251713590150986e-07
-2.860428850780228e-05   8.027842405978168e-06   -2.145499013165184e-05
-2.860428850780228e-05   8.027842405978168e-06   -2.145499013165184e-05
-2.860428850780228e-05   8.027842405978168e-06   -2.145499013165184e-05
-2.860428850780228e-05   8.027842405978168e-06   -2.145499013165184e-05
-3.435609274952044e-05   6.8698714408312305e-06   -1.117386714969955e-05
-3.435609274952044e-05   6.8698714408312305e-06   -1.117386714969955e-05
-3.435609274952044e-05   6.8698714408312305e-06   -1.117386714969955e-05
-3.435609274952044e-05   6.8698714408312305e-06   -1.117386714969955e-05
-2.860428850780228e-05   6.063924690945721e-06   -1.4008677649211517e-06
-2.860428850780228e-05   6.063924690945721e-06   -1.4008677649211517e-06
-2.860428850780228e-05   6.063924690945721e-06   -1.4008677649211517e-06
-2.860428850780228e-05   6.063924690945721e-06   -1.4008677649211517e-06
-4.0636761927840585e-05   8.027842405978385e-06   -2.0276639502632117e-05
-4.0636761927840585e-05   8.027842405978385e-06   -2.0276639502632117e-05
-4.0636761927840585e-05   8.027842405978385e-06   -2.0276639502632117e-05
-4.0636761927840585e-05   8.027842405978385e-06   -2.0276639502632117e-05
-3.89920037117791e-05   6.4421639871731825e-06   2.7101103134251217e-06
-3.89920037117791e-05   6.4421639871731825e-06   2.7101103134251217e-06
-3.89920037117791e-05   6.4421639871731825e-06   2.7101103134251217e-06
-3.89920037117791e-05   6.4421639871731825e-06   2.7101103134251217e-06
-2.785213073493107e-05   8.245737415104714e-06   -1.693848870474718e-05
-2.785213073493107e-05   8.245737415104714e-06   -1.693848870474718e-05
-2.785213073493107e-05   8.245737415104714e-06   -1.693848870474718e-05
-2.785213073493107e-05   8.245737415104714e-06   -1.693848870474718e-05
-3.2809521343924564e-05   6.932679499163392e-06   -7.888336273527093e-06
-3.2809521343924564e-05   6.932679499163392e-06   -7.888336273527093e-06
-3.2809521343924564e-05   6.932679499163392e-06   -7.888336273527093e-06
-3.2809521343924564e-05   6.932679499163392e-06   -7.888336273527093e-06
3.76413424891811e-05   -5.246298500350506e-06   7.505112222026258e-06
3.76413424891811e-05   -5.246298500350506e-06   7.505112222026258e-06
3.76413424891811e-05   -5.246298500350506e-06   7.505112222026258e-06
3.76413424891811e-05   -5.246298500350506e-06   7.505112222026258e-06
1.8130422154632314e-05   -7.761813294624581e-06   -2.6522397212119493e-05
1.8130422154632314e-05   -7.761813294624581e-06   -2.6522397212119493e-05
1.8130422154632314e-05   -7.761813294624581e-06   -2.6522397212119493e-05
1.8130422154632314e-05   -7.761813294624581e-06   -2.6522397212119493e-05
1.886867343005663e-05   -4.879751046055376e-06   3.6416270711727393e-06
1.886867343005663e-05   -4.879751046055376e-06   3.6416270711727393e-06
1.886867343005663e-05   -4.879751046055376e-06   3.6416270711727393e-06
1.886867343005663e-05   -4.879751046055376e-06   3.6416270711727393e-06
3.9358985409206e-05   -7.581302641801804e-06   -2.8887961936628398e-05
3.9358985409206e-05   -7.581302641801804e-06   -2.8887961936628398e-05
3.9358985409206e-05   -7.581302641801804e-06   -2.8887961936628398e-05
3.9358985409206e-05   -7.581302641801804e-06   -2.8887961936628398e-05
2.734070115416074e-05   -5.742854605974949e-06   -9.960556999715712e-06
2.734070115416074e-05   -5.742854605974949e-06   -9.960556999715712e-06
2.734070115416074e-05   -5.742854605974949e-06   -9.960556999715712e-06
2.734070115416074e-05   -5.742854605974949e-06   -9.960556999715712e-06
3.9358985409206055e-05   -4.879751046055376e-06   5.262558028620726e-06
3.9358985409206055e-05   -4.879751046055376e-06   5.262558028620726e-06
3.9358985409206055e-05   -4.879751046055376e-06   5.262558028620726e-06
3.9358985409206055e-05   -4.879751046055376e-06   5.262558028620726e-06
1.8868673430056575e-05   -7.581302641801804e-06   -3.0508892894076222e-05
1.8868673430056575e-05   -7.581302641801804e-06   -3.0508892894076222e-05
1.8868673430056575e-05   -7.581302641801804e-06   -3.0508892894076222e-05
1.8868673430056575e-05   -7.581302641801804e-06   -3.0508892894076222e-05
1.96031752523977e-05   -4.563921379169321e-06   1.7496877110353623e-06
1.96031752523977e-05   -4.563921379169321e-06   1.7496877110353623e-06
1.96031752523977e-05   -4.563921379169321e-06   1.7496877110353623e-06
1.96031752523977e-05   -4.563921379169321e-06   1.7496877110353623e-06
4.067683509532564e-05   -7.317847076652702e-06   -3.1720723275354594e-05
4.067683509532564e-05   -7.317847076652702e-06   -3.1720723275354594e-05
4.067683509532564e-05   -7.317847076652702e-06   -3.1720723275354594e-05
4.067683509532564e-05   -7.317847076652702e-06   -3.1720723275354594e-05
2.878789866709855e-05   -5.7237235225353e-06   -1.2862303360779896e-05
2.878789866709855e-05   -5.7237235225353e-06   -1.2862303360779896e-05
2.878789866709855e-05   -5.7237235225353e-06   -1.2862303360779896e-05
2.878789866709855e-05   -5.7237235225353e-06   -1.2862303360779896e-05
4.067683509532564e-05   -4.563921379169321e-06   3.4020431295253475e-06
4.067683509532564e-05   -4.563921379169321e-06   3.4020431295253475e-06
4.067683509532564e-05   -4.563921379169321e-06   3.4020431295253475e-06
4.067683509532564e-05   -4.563921379169321e-06   3.4020431295253475e-06
1.96031752523977e-05   -7.317847076652702e-06   -3.337307869384469e-05
1.96031752523977e-05   -7.317847076652702e-06   -3.337307869384469e-05
1.96031752523977e-05   -7.317847076652702e-06   -3.337307869384469e-05
1.96031752523977e-05   -7.317847076652702e-06   -3.337307869384469e-05
2.010140838302438e-05   -3.566054190032872e-06   -2.058104386700116e-06
2.010140838302438e-05   -3.566054190032872e-06   -2.058104386700116e-06
2.010140838302438e-05   -3.566054190032872e-06   -2.058104386700116e-06
2.010140838302438e-05   -3.566054190032872e-06   -2.058104386700116e-06
4.2070586806949774e-05   -6.291168725713371e-06   -3.703833303850073e-05
4.2070586806949774e-05   -6.291168725713371e-06   -3.703833303850073e-05
4.2070586806949774e-05   -6.291168725713371e-06   -3.703833303850073e-05
4.2070586806949774e-05   -6.291168725713371e-06   -3.703833303850073e-05
2.9189676316860948e-05   -5.2833178750284066e-06   -1.6174859398764376e-05
2.9189676316860948e-05   -5.2833178750284066e-06   -1.6174859398764376e-05
2.9189676316860948e-05   -5.2833178750284066e-06   -1.6174859398764376e-05
2.9189676316860948e-05   -5.2833178750284066e-06   -1.6174859398764376e-05
1.813042215463234e-05   -2.452648466482344e-06   -9.105355463108738e-06
1.813042215463234e-05   -2.452648466482344e-06   -9.105355463108738e-06
1.813042215463234e-05   -2.452648466482344e-06   -9.105355463108738e-06
1.813042215463234e-05   -2.452648466482344e-06   -9.105355463108738e-06
-1.1139770755466926e-06   -5.020091881563233e-06   -4.271982022912234e-05
-1.1139770755466926e-06   -5.020091881563233e-06   -4.271982022912234e-05
-1.1139770755466926e-06   -5.020091881563233e-06   -4.271982022912234e-05
-1.1139770755466926e-06   -5.020091881563233e-06   -4.271982022912234e-05
-3.565298958845307e-07   -1.9422066173972394e-06   -1.0041426936743683e-05
-3.565298958845307e-07   -1.9422066173972394e-06   -1.0041426936743683e-05
-3.565298958845307e-07   -1.9422066173972394e-06   -1.0041426936743683e-05
-3.565298958845307e-07   -1.9422066173972394e-06   -1.0041426936743683e-05
1.886867343005663e-05   -4.778384123545242e-06   -4.038172597629037e-05
1.886867343005663e-05   -4.778384123545242e-06   -4.038172597629037e-05
1.886867343005663e-05   -4.778384123545242e-06   -4.038172597629037e-05
1.886867343005663e-05   -4.778384123545242e-06   -4.038172597629037e-05
8.908582715218631e-06   -3.0375887306486552e-06   -2.4826052020631545e-05
8.908582715218631e-06   -3.0375887306486552e-06   -2.4826052020631545e-05
8.908582715218631e-06   -3.0375887306486552e-06   -2.4826052020631545e-05
8.908582715218631e-06   -3.0375887306486552e-06   -2.4826052020631545e-05
1.8868673430056602e-05   -1.9422066173972394e-06   -8.339720433054795e-06
1.8868673430056602e-05   -1.9422066173972394e-06   -8.339720433054795e-06
1.8868673430056602e-05   -1.9422066173972394e-06   -8.339720433054795e-06
1.8868673430056602e-05   -1.9422066173972394e-06   -8.339720433054795e-06
-3.565298958845307e-07   -4.778384123545242e-06   -4.208343247997907e-05
-3.565298958845307e-07   -4.778384123545242e-06   -4.208343247997907e-05
-3.565298958845307e-07   -4.778384123545242e-06   -4.208343247997907e-05
-3.565298958845307e-07   -4.778384123545242e-06   -4.208343247997907e-05
3.107437735519865e-07   -1.3183847499410439e-06   -1.0282265561305064e-05
3.107437735519865e-07   -1.3183847499410439e-06   -1.0282265561305064e-05
3.107437735519865e-07   -1.3183847499410439e-06   -1.0282265561305064e-05
3.107437735519865e-07   -1.3183847499410439e-06   -1.0282265561305064e-05
1.96031752523977e-05   -4.329386455453324e-06   -4.0629717002740336e-05
1.96031752523977e-05   -4.329386455453324e-06   -4.0629717002740336e-05
1.96031752523977e-05   -4.329386455453324e-06   -4.0629717002740336e-05
1.96031752523977e-05   -4.329386455453324e-06   -4.0629717002740336e-05
9.42332551465954e-06   -2.7869080484752354e-06   -2.4588787817363025e-05
9.42332551465954e-06   -2.7869080484752354e-06   -2.4588787817363025e-05
9.42332551465954e-06   -2.7869080484752354e-06   -2.4588787817363025e-05
9.42332551465954e-06   -2.7869080484752354e-06   -2.4588787817363025e-05
1.96031752523977e-05   -1.318384749940827e-06   -8.475664537997522e-06
1.96031752523977e-05   -1.318384749940827e-06   -8.475664537997522e-06
1.96031752523977e-05   -1.318384749940827e-06   -8.475664537997522e-06
1.96031752523977e-05   -1.318384749940827e-06   -8.475664537997522e-06
3.107437735519865e-07   -4.329386455453107e-06   -4.243631802604785e-05
3.107437735519865e-07   -4.329386455453107e-06   -4.243631802604785e-05
3.107437735519865e-07   -4.329386455453107e-06   -4.243631802604785e-05
3.107437735519865e-07   -4.329386455453107e-06   -4.243631802604785e-05
7.855280158961566e-07   -5.331891195631527e-07   -1.0691474772233853e-05
7.855280158961566e-07   -5.331891195631527e-07   -1.0691474772233853e-05
7.855280158961566e-07   -5.331891195631527e-07   -1.0691474772233853e-05
7.855280158961566e-07   -5.331891195631527e-07   -1.0691474772233853e-05
2.0101408383024408e-05   -3.690485968940206e-06   -4.0990230607821276e-05
2.0101408383024408e-05   -3.690485968940206e-06   -4.0990230607821276e-05
2.0101408383024408e-05   -3.690485968940206e-06   -4.0990230607821276e-05
2.0101408383024408e-05   -3.690485968940206e-06   -4.0990230607821276e-05
1.0040814203770437e-05   -2.345802601125919e-06   -2.502938366308701e-05
1.0040814203770437e-05   -2.345802601125919e-06   -2.502938366308701e-05
1.0040814203770437e-05   -2.345802601125919e-06   -2.502938366308701e-05
1.0040814203770437e-05   -2.345802601125919e-06   -2.502938366308701e-05
-1.1139770755466926e-06   4.5477368719351423e-07   -1.3886768906499081e-05
-1.1139770755466926e-06   4.5477368719351423e-07   -1.3886768906499081e-05
-1.1139770755466926e-06   4.5477368719351423e-07   -1.3886768906499081e-05
-1.1139770755466926e-06   4.5477368719351423e-07   -1.3886768906499081e-05
-2.0074140151717175e-05   -2.620771001278716e-06   -4.733236751319997e-05
-2.0074140151717175e-05   -2.620771001278716e-06   -4.733236751319997e-05
-2.0074140151717175e-05   -2.620771001278716e-06   -4.733236751319997e-05
-2.0074140151717175e-05   -2.620771001278716e-06   -4.733236751319997e-05
-1.916521170915054e-05   1.0284076324728383e-06   -1.5098146060082713e-05
-1.916521170915054e-05   1.0284076324728383e-06   -1.5098146060082713e-05
-1.916521170915054e-05   1.0284076324728383e-06   -1.5098146060082713e-05
-1.916521170915054e-05   1.0284076324728383e-06   -1.5098146060082713e-05
-3.565298958845307e-07   -2.3355485331841633e-06   -4.4427575382798386e-05
-3.565298958845307e-07   -2.3355485331841633e-06   -4.4427575382798386e-05
-3.565298958845307e-07   -2.3355485331841633e-06   -4.4427575382798386e-05
-3.565298958845307e-07   -2.3355485331841633e-06   -4.4427575382798386e-05
-1.0057177215384754e-05   -4.968269041640688e-07   -2.936306282771029e-05
-1.0057177215384754e-05   -4.968269041640688e-07   -2.936306282771029e-05
-1.0057177215384754e-05   -4.968269041640688e-07   -2.936306282771029e-05
-1.0057177215384754e-05   -4.968269041640688e-07   -2.936306282771029e-05
-3.565298958845307e-07   1.0284076324728383e-06   -1.3079772360688469e-05
-3.565298958845307e-07   1.0284076324728383e-06   -1.3079772360688469e-05
-3.565298958845307e-07   1.0284076324728383e-06   -1.3079772360688469e-05
-3.565298958845307e-07   1.0284076324728383e-06   -1.3079772360688469e-05
-1.916521170915054e-05   -2.33554853318438e-06   -4.644594908219282e-05
-1.916521170915054e-05   -2.33554853318438e-06   -4.644594908219282e-05
-1.916521170915054e-05   -2.33554853318438e-06   -4.644594908219282e-05
-1.916521170915054e-05   -2.33554853318438e-06   -4.644594908219282e-05
-1.8331332554917074e-05   1.692204236057723e-06   -1.4827893131366633e-05
-1.8331332554917074e-05   1.692204236057723e-06   -1.4827893131366633e-05
-1.8331332554917074e-05   1.692204236057723e-06   -1.4827893131366633e-05
-1.8331332554917074e-05   1.692204236057723e-06   -1.4827893131366633e-05
3.107437735519865e-07   -1.8929774959781237e-06   -4.374691130626005e-05
3.107437735519865e-07   -1.8929774959781237e-06   -4.374691130626005e-05
3.107437735519865e-07   -1.8929774959781237e-06   -4.374691130626005e-05
3.107437735519865e-07   -1.8929774959781237e-06   -4.374691130626005e-05
-9.3171662446142e-06   -1.7080854348462682e-07   -2.8733695980812557e-05
-9.3171662446142e-06   -1.7080854348462682e-07   -2.8733695980812557e-05
-9.3171662446142e-06   -1.7080854348462682e-07   -2.8733695980812557e-05
-9.3171662446142e-06   -1.7080854348462682e-07   -2.8733695980812557e-05
3.107437735519865e-07   1.692204236057723e-06   -1.2676784092144821e-05
3.107437735519865e-07   1.692204236057723e-06   -1.2676784092144821e-05
3.107437735519865e-07   1.692204236057723e-06   -1.2676784092144821e-05
3.107437735519865e-07   1.692204236057723e-06   -1.2676784092144821e-05
-1.83313325549171e-05   -1.8929774959781237e-06   -4.5898020345481864e-05
-1.83313325549171e-05   -1.8929774959781237e-06   -4.5898020345481864e-05
-1.83313325549171e-05   -1.8929774959781237e-06   -4.5898020345481864e-05
-1.83313325549171e-05   -1.8929774959781237e-06   -4.5898020345481864e-05
-1.7769208468907568e-05   2.3781245660299457e-06   -1.5086379407301459e-05
-1.7769208468907568e-05   2.3781245660299457e-06   -1.5086379407301459e-05
-1.7769208468907568e-05   2.3781245660299457e-06   -1.5086379407301459e-05
-1.7769208468907568e-05   2.3781245660299457e-06   -1.5086379407301459e-05
7.855280158961702e-07   -1.4730863256919198e-06   -4.370021368027479e-05
7.855280158961702e-07   -1.4730863256919198e-06   -4.370021368027479e-05
7.855280158961702e-07   -1.4730863256919198e-06   -4.370021368027479e-05
7.855280158961702e-07   -1.4730863256919198e-06   -4.370021368027479e-05
-8.789667648812667e-06   1.9504414156511218e-07   -2.8742432519447995e-05
-8.789667648812667e-06   1.9504414156511218e-07   -2.8742432519447995e-05
-8.789667648812667e-06   1.9504414156511218e-07   -2.8742432519447995e-05
-8.789667648812667e-06   1.9504414156511218e-07   -2.8742432519447995e-05
-2.007414015171714e-05   3.466395697477318e-06   -1.1327205188343525e-05
-2.007414015171714e-05   3.466395697477318e-06   -1.1327205188343525e-05
-2.007414015171714e-05   3.466395697477318e-06   -1.1327205188343525e-05
-2.007414015171714e-05   3.466395697477318e-06   -1.1327205188343525e-05
-3.930068546358602e-05   6.979402256263294e-07   -4.503252065790196e-05
-3.930068546358602e-05   6.979402256263294e-07   -4.503252065790196e-05
-3.930068546358602e-05   6.979402256263294e-07   -4.503252065790196e-05
-3.930068546358602e-05   6.979402256263294e-07   -4.503252065790196e-05
-3.800656119817825e-05   4.194241838578142e-06   -1.2066043891874106e-05
-3.800656119817825e-05   4.194241838578142e-06   -1.2066043891874106e-05
-3.800656119817825e-05   4.194241838578142e-06   -1.2066043891874106e-05
-3.800656119817825e-05   4.194241838578142e-06   -1.2066043891874106e-05
-1.91652117091505e-05   1.2233260922533094e-06   -4.16857435924587e-05
-1.91652117091505e-05   1.2233260922533094e-06   -4.16857435924587e-05
-1.91652117091505e-05   1.2233260922533094e-06   -4.16857435924587e-05
-1.91652117091505e-05   1.2233260922533094e-06   -4.16857435924587e-05
-2.883500517255452e-05   2.644215675104509e-06   -2.6421954903162615e-05
-2.883500517255452e-05   2.644215675104509e-06   -2.6421954903162615e-05
-2.883500517255452e-05   2.644215675104509e-06   -2.6421954903162615e-05
-2.883500517255452e-05   2.644215675104509e-06   -2.6421954903162615e-05
-1.91652117091505e-05   4.194241838578142e-06   -1.028349444407925e-05
-1.91652117091505e-05   4.194241838578142e-06   -1.028349444407925e-05
-1.91652117091505e-05   4.194241838578142e-06   -1.028349444407925e-05
-1.91652117091505e-05   4.194241838578142e-06   -1.028349444407925e-05
-3.8006561198178316e-05   1.2233260922535263e-06   -4.3468293040253804e-05
-3.8006561198178316e-05   1.2233260922535263e-06   -4.3468293040253804e-05
-3.8006561198178316e-05   1.2233260922535263e-06   -4.3468293040253804e-05
-3.8006561198178316e-05   1.2233260922535263e-06   -4.3468293040253804e-05
-3.675485516104447e-05   4.820970286835034e-06   -1.0985454029975106e-05
-3.675485516104447e-05   4.820970286835034e-06   -1.0985454029975106e-05
-3.675485516104447e-05   4.820970286835034e-06   -1.0985454029975106e-05
-3.675485516104447e-05   4.820970286835034e-06   -1.0985454029975106e-05
-1.83313325549171e-05   1.7067668483677651e-06   -3.9822802977107304e-05
-1.83313325549171e-05   1.7067668483677651e-06   -3.9822802977107304e-05
-1.83313325549171e-05   1.7067668483677651e-06   -3.9822802977107304e-05
-1.83313325549171e-05   1.7067668483677651e-06   -3.9822802977107304e-05
-2.7664375589770404e-05   3.10136794855133e-06   -2.5104491912461904e-05
-2.7664375589770404e-05   3.10136794855133e-06   -2.5104491912461904e-05
-2.7664375589770404e-05   3.10136794855133e-06   -2.5104491912461904e-05
-2.7664375589770404e-05   3.10136794855133e-06   -2.5104491912461904e-05
-1.833133255491706e-05   4.820970286835034e-06   -9.116931966894701e-06
-1.833133255491706e-05   4.820970286835034e-06   -9.116931966894701e-06
-1.833133255491706e-05   4.820970286835034e-06   -9.116931966894701e-06
-1.833133255491706e-05   4.820970286835034e-06   -9.116931966894701e-06
-3.675485516104454e-05   1.7067668483677651e-06   -4.169132504018753e-05
-3.675485516104454e-05   1.7067668483677651e-06   -4.169132504018753e-05
-3.675485516104454e-05   1.7067668483677651e-06   -4.169132504018753e-05
-3.675485516104454e-05   1.7067668483677651e-06   -4.169132504018753e-05
-3.580634237885483e-05   5.513829560654937e-06   -1.102022785960102e-05
-3.580634237885483e-05   5.513829560654937e-06   -1.102022785960102e-05
-3.580634237885483e-05   5.513829560654937e-06   -1.102022785960102e-05
-3.580634237885483e-05   5.513829560654937e-06   -1.102022785960102e-05
-1.77692084689076e-05   2.1152566290587316e-06   -3.904297395055555e-05
-1.77692084689076e-05   2.1152566290587316e-06   -3.904297395055555e-05
-1.77692084689076e-05   2.1152566290587316e-06   -3.904297395055555e-05
-1.77692084689076e-05   2.1152566290587316e-06   -3.904297395055555e-05
-2.7010972525364836e-05   3.420584064485867e-06   -2.4423230317716267e-05
-2.7010972525364836e-05   3.420584064485867e-06   -2.4423230317716267e-05
-2.7010972525364836e-05   3.420584064485867e-06   -2.4423230317716267e-05
-2.7010972525364836e-05   3.420584064485867e-06   -2.4423230317716267e-05
-3.930068546358602e-05   6.80600819912198e-06   -6.493346401273328e-06
-3.930068546358602e-05   6.80600819912198e-06   -6.493346401273328e-06
-3.930068546358602e-05   6.80600819912198e-06   -6.493346401273328e-06
-3.930068546358602e-05   6.80600819912198e-06   -6.493346401273328e-06
-5.939423806385335e-05   6.431766854190276e-06   -4.0207145542011605e-05
-5.939423806385335e-05   6.431766854190276e-06   -4.0207145542011605e-05
-5.939423806385335e-05   6.431766854190276e-06   -4.0207145542011605e-05
-5.939423806385335e-05   6.431766854190276e-06   -4.0207145542011605e-05
-5.683577845513355e-05   7.773171756261755e-06   -1.387797627634777e-07
-5.683577845513355e-05   7.773171756261755e-06   -1.387797627634777e-07
-5.683577845513355e-05   7.773171756261755e-06   -1.387797627634777e-07
-5.683577845513355e-05   7.773171756261755e-06   -1.387797627634777e-07
-3.800656119817819e-05   8.133391533691548e-06   -3.173694039081346e-05
-3.800656119817819e-05   8.133391533691548e-06   -3.173694039081346e-05
-3.800656119817819e-05   8.133391533691548e-06   -3.173694039081346e-05
-3.800656119817819e-05   8.133391533691548e-06   -3.173694039081346e-05
-4.629802639922486e-05   7.667824509408712e-06   -1.7638491507832857e-05
-4.629802639922486e-05   7.667824509408712e-06   -1.7638491507832857e-05
-4.629802639922486e-05   7.667824509408712e-06   -1.7638491507832857e-05
-4.629802639922486e-05   7.667824509408712e-06   -1.7638491507832857e-05
-3.800656119817829e-05   7.773171756261755e-06   -3.549116292210497e-07
-3.800656119817829e-05   7.773171756261755e-06   -3.549116292210497e-07
-3.800656119817829e-05   7.773171756261755e-06   -3.549116292210497e-07
-3.800656119817829e-05   7.773171756261755e-06   -3.549116292210497e-07
-5.683577845513355e-05   8.133391533691548e-06   -3.1520808524355915e-05
-5.683577845513355e-05   8.133391533691548e-06   -3.1520808524355915e-05
-5.683577845513355e-05   8.133391533691548e-06   -3.1520808524355915e-05
-5.683577845513355e-05   8.133391533691548e-06   -3.1520808524355915e-05
-5.471463691261636e-05   8.027842405978385e-06   3.4536957023853987e-06
-5.471463691261636e-05   8.027842405978385e-06   3.4536957023853987e-06
-5.471463691261636e-05   8.027842405978385e-06   3.4536957023853987e-06
-5.471463691261636e-05   8.027842405978385e-06   3.4536957023853987e-06
-3.675485516104447e-05   8.516211618147997e-06   -2.6772295410869527e-05
-3.675485516104447e-05   8.516211618147997e-06   -2.6772295410869527e-05
-3.675485516104447e-05   8.516211618147997e-06   -2.6772295410869527e-05
-3.675485516104447e-05   8.516211618147997e-06   -2.6772295410869527e-05
-4.533444242734847e-05   8.223911446212252e-06   -1.2297603197200828e-05
-4.533444242734847e-05   8.223911446212252e-06   -1.2297603197200828e-05
-4.533444242734847e-05   8.223911446212252e-06   -1.2297603197200828e-05
-4.533444242734847e-05   8.223911446212252e-06   -1.2297603197200828e-05
-3.675485516104454e-05   8.027842405978385e-06   3.1606741750836963e-06
-3.675485516104454e-05   8.027842405978385e-06   3.1606741750836963e-06
-3.675485516104454e-05   8.027842405978385e-06   3.1606741750836963e-06
-3.675485516104454e-05   8.027842405978385e-06   3.1606741750836963e-06
-5.471463691261628e-05   8.51621161814778e-06   -2.6479273883567777e-05
-5.471463691261628e-05   8.51621161814778e-06   -2.6479273883567777e-05
-5.471463691261628e-05   8.51621161814778e-06   -2.6479273883567777e-05
-5.471463691261628e-05   8.51621161814778e-06   -2.6479273883567777e-05
-5.24953478548314e-05   8.245737415104497e-06   8.271289897308757e-06
-5.24953478548314e-05   8.245737415104497e-06   8.271289897308757e-06
-5.24953478548314e-05   8.245737415104497e-06   8.271289897308757e-06
-5.24953478548314e-05   8.245737415104497e-06   8.271289897308757e-06
-3.580634237885483e-05   9.171053079633229e-06   -2.0098908628035967e-05
-3.580634237885483e-05   9.171053079633229e-06   -2.0098908628035967e-05
-3.580634237885483e-05   9.171053079633229e-06   -2.0098908628035967e-05
-3.580634237885483e-05   9.171053079633229e-06   -2.0098908628035967e-05
-4.31901765204767e-05   8.40973360278054e-06   -7.335726705888306e-06
-4.31901765204767e-05   8.40973360278054e-06   -7.335726705888306e-06
-4.31901765204767e-05   8.40973360278054e-06   -7.335726705888306e-06
-4.31901765204767e-05   8.40973360278054e-06   -7.335726705888306e-06
5.170864429929995e-05   -7.761813294624581e-06   1.7673854284182625e-05
5.170864429929995e-05   -7.761813294624581e-06   1.7673854284182625e-05
5.170864429929995e-05   -7.761813294624581e-06   1.7673854284182625e-05
5.170864429929995e-05   -7.761813294624581e-06   1.7673854284182625e-05
2.5981781169872272e-05   -9.811066535091867e-06   -2.64338028758104e-05
2.5981781169872272e-05   -9.811066535091867e-06   -2.64338028758104e-05
2.5981781169872272e-05   -9.811066535091867e-06   -2.64338028758104e-05
2.5981781169872272e-05   -9.811066535091867e-06   -2.64338028758104e-05
2.6613244612001198e-05   -7.581302641801804e-06   1.2685722454784058e-05
2.6613244612001198e-05   -7.581302641801804e-06   1.2685722454784058e-05
2.6613244612001198e-05   -7.581302641801804e-06   1.2685722454784058e-05
2.6613244612001198e-05   -7.581302641801804e-06   1.2685722454784058e-05
5.2992821050176656e-05   -1.005653513907502e-05   -2.9795098777144825e-05
5.2992821050176656e-05   -1.005653513907502e-05   -2.9795098777144825e-05
5.2992821050176656e-05   -1.005653513907502e-05   -2.9795098777144825e-05
5.2992821050176656e-05   -1.005653513907502e-05   -2.9795098777144825e-05
3.775694182789217e-05   -7.928327193383426e-06   -5.678891507418786e-06
3.775694182789217e-05   -7.928327193383426e-06   -5.678891507418786e-06
3.775694182789217e-05   -7.928327193383426e-06   -5.678891507418786e-06
3.775694182789217e-05   -7.928327193383426e-06   -5.678891507418786e-06
5.2992821050176656e-05   -7.581302641801804e-06   1.4170861953147727e-05
5.2992821050176656e-05   -7.581302641801804e-06   1.4170861953147727e-05
5.2992821050176656e-05   -7.581302641801804e-06   1.4170861953147727e-05
5.2992821050176656e-05   -7.581302641801804e-06   1.4170861953147727e-05
2.6613244612001198e-05   -1.005653513907502e-05   -3.128023827550855e-05
2.6613244612001198e-05   -1.005653513907502e-05   -3.128023827550855e-05
2.6613244612001198e-05   -1.005653513907502e-05   -3.128023827550855e-05
2.6613244612001198e-05   -1.005653513907502e-05   -3.128023827550855e-05
2.7146908352658933e-05   -7.317847076652702e-06   1.0013964234649496e-05
2.7146908352658933e-05   -7.317847076652702e-06   1.0013964234649496e-05
2.7146908352658933e-05   -7.317847076652702e-06   1.0013964234649496e-05
2.7146908352658933e-05   -7.317847076652702e-06   1.0013964234649496e-05
5.3792792141249394e-05   -9.964775440525053e-06   -3.2807685061344606e-05
5.3792792141249394e-05   -9.964775440525053e-06   -3.2807685061344606e-05
5.3792792141249394e-05   -9.964775440525053e-06   -3.2807685061344606e-05
5.3792792141249394e-05   -9.964775440525053e-06   -3.2807685061344606e-05
3.908500910582521e-05   -8.177946303552066e-06   -9.366810817821485e-06
3.908500910582521e-05   -8.177946303552066e-06   -9.366810817821485e-06
3.908500910582521e-05   -8.177946303552066e-06   -9.366810817821485e-06
3.908500910582521e-05   -8.177946303552066e-06   -9.366810817821485e-06
5.3792792141249394e-05   -7.317847076652702e-06   1.160212125297282e-05
5.3792792141249394e-05   -7.317847076652702e-06   1.160212125297282e-05
5.3792792141249394e-05   -7.317847076652702e-06   1.160212125297282e-05
5.3792792141249394e-05   -7.317847076652702e-06   1.160212125297282e-05
2.7146908352658933e-05   -9.964775440525053e-06   -3.439584207966804e-05
2.7146908352658933e-05   -9.964775440525053e-06   -3.439584207966804e-05
2.7146908352658933e-05   -9.964775440525053e-06   -3.439584207966804e-05
2.7146908352658933e-05   -9.964775440525053e-06   -3.439584207966804e-05
2.7703972042806668e-05   -6.291168725713588e-06   4.833641888781154e-06
2.7703972042806668e-05   -6.291168725713588e-06   4.833641888781154e-06
2.7703972042806668e-05   -6.291168725713588e-06   4.833641888781154e-06
2.7703972042806668e-05   -6.291168725713588e-06   4.833641888781154e-06
5.4580528479193115e-05   -9.408527396762359e-06   -3.809020363590039e-05
5.4580528479193115e-05   -9.408527396762359e-06   -3.809020363590039e-05
5.4580528479193115e-05   -9.408527396762359e-06   -3.809020363590039e-05
5.4580528479193115e-05   -9.408527396762359e-06   -3.809020363590039e-05
3.9101177379215175e-05   -7.869338724640542e-06   -1.3214798339210277e-05
3.9101177379215175e-05   -7.869338724640542e-06   -1.3214798339210277e-05
3.9101177379215175e-05   -7.869338724640542e-06   -1.3214798339210277e-05
3.9101177379215175e-05   -7.869338724640542e-06   -1.3214798339210277e-05
2.5981781169872272e-05   -5.020091881563233e-06   1.7873453719481104e-06
2.5981781169872272e-05   -5.020091881563233e-06   1.7873453719481104e-06
2.5981781169872272e-05   -5.020091881563233e-06   1.7873453719481104e-06
2.5981781169872272e-05   -5.020091881563233e-06   1.7873453719481104e-06
3.055940164045713e-06   -9.8194726059638e-06   -3.930201807240323e-05
3.055940164045713e-06   -9.8194726059638e-06   -3.930201807240323e-05
3.055940164045713e-06   -9.8194726059638e-06   -3.930201807240323e-05
3.055940164045713e-06   -9.8194726059638e-06   -3.930201807240323e-05
3.791590101759535e-06   -4.778384123545242e-06   -1.8070517041426405e-07
3.791590101759535e-06   -4.778384123545242e-06   -1.8070517041426405e-07
3.791590101759535e-06   -4.778384123545242e-06   -1.8070517041426405e-07
3.791590101759535e-06   -4.778384123545242e-06   -1.8070517041426405e-07
2.661324461200124e-05   -9.767708361852617e-06   -3.5223201477833005e-05
2.661324461200124e-05   -9.767708361852617e-06   -3.5223201477833005e-05
2.661324461200124e-05   -9.767708361852617e-06   -3.5223201477833005e-05
2.661324461200124e-05   -9.767708361852617e-06   -3.5223201477833005e-05
1.491792017377956e-05   -6.626042726644299e-06   -1.7615993461921736e-05
1.491792017377956e-05   -6.626042726644299e-06   -1.7615993461921736e-05
1.491792017377956e-05   -6.626042726644299e-06   -1.7615993461921736e-05
1.491792017377956e-05   -6.626042726644299e-06   -1.7615993461921736e-05
2.6613244612001184e-05   -4.778384123545242e-06   2.812889372569771e-06
2.6613244612001184e-05   -4.778384123545242e-06   2.812889372569771e-06
2.6613244612001184e-05   -4.778384123545242e-06   2.812889372569771e-06
2.6613244612001184e-05   -4.778384123545242e-06   2.812889372569771e-06
3.7915901017595216e-06   -9.767708361852184e-06   -3.8216796020817175e-05
3.7915901017595216e-06   -9.767708361852184e-06   -3.8216796020817175e-05
3.7915901017595216e-06   -9.767708361852184e-06   -3.8216796020817175e-05
3.7915901017595216e-06   -9.767708361852184e-06   -3.8216796020817175e-05
4.455595437284491e-06   -4.329386455453324e-06   -4.258755989460742e-07
4.455595437284491e-06   -4.329386455453324e-06   -4.258755989460742e-07
4.455595437284491e-06   -4.329386455453324e-06   -4.258755989460742e-07
4.455595437284491e-06   -4.329386455453324e-06   -4.258755989460742e-07
2.7146908352658933e-05   -9.634722329952914e-06   -3.506152893320368e-05
2.7146908352658933e-05   -9.634722329952914e-06   -3.506152893320368e-05
2.7146908352658933e-05   -9.634722329952914e-06   -3.506152893320368e-05
2.7146908352658933e-05   -9.634722329952914e-06   -3.506152893320368e-05
1.5334422861045834e-05   -6.697308422437282e-06   -1.7136501458357213e-05
1.5334422861045834e-05   -6.697308422437282e-06   -1.7136501458357213e-05
1.5334422861045834e-05   -6.697308422437282e-06   -1.7136501458357213e-05
1.5334422861045834e-05   -6.697308422437282e-06   -1.7136501458357213e-05
2.7146908352658933e-05   -4.329386455453107e-06   2.7573259257537668e-06
2.7146908352658933e-05   -4.329386455453107e-06   2.7573259257537668e-06
2.7146908352658933e-05   -4.329386455453107e-06   2.7573259257537668e-06
2.7146908352658933e-05   -4.329386455453107e-06   2.7573259257537668e-06
4.455595437284491e-06   -9.634722329952914e-06   -3.824473045790347e-05
4.455595437284491e-06   -9.634722329952914e-06   -3.824473045790347e-05
4.455595437284491e-06   -9.634722329952914e-06   -3.824473045790347e-05
4.455595437284491e-06   -9.634722329952914e-06   -3.824473045790347e-05
5.446875419390897e-06   -3.690485968940206e-06   -8.910460835664762e-07
5.446875419390897e-06   -3.690485968940206e-06   -8.910460835664762e-07
5.446875419390897e-06   -3.690485968940206e-06   -8.910460835664762e-07
5.446875419390897e-06   -3.690485968940206e-06   -8.910460835664762e-07
2.7703972042806654e-05   -9.370251176332636e-06   -3.4578347998157424e-05
2.7703972042806654e-05   -9.370251176332636e-06   -3.4578347998157424e-05
2.7703972042806654e-05   -9.370251176332636e-06   -3.4578347998157424e-05
2.7703972042806654e-05   -9.370251176332636e-06   -3.4578347998157424e-05
1.6131630011507168e-05   -6.591185457414201e-06   -1.695855071067587e-05
1.6131630011507168e-05   -6.591185457414201e-06   -1.695855071067587e-05
1.6131630011507168e-05   -6.591185457414201e-06   -1.695855071067587e-05
1.6131630011507168e-05   -6.591185457414201e-06   -1.695855071067587e-05
3.055940164045713e-06   -2.620771001278716e-06   -3.859503533686255e-06
3.055940164045713e-06   -2.620771001278716e-06   -3.859503533686255e-06
3.055940164045713e-06   -2.620771001278716e-06   -3.859503533686255e-06
3.055940164045713e-06   -2.620771001278716e-06   -3.859503533686255e-06
-1.963173281770668e-05   -1.1821193220544566e-05   -4.7192545168166624e-05
-1.963173281770668e-05   -1.1821193220544566e-05   -4.7192545168166624e-05
-1.963173281770668e-05   -1.1821193220544566e-05   -4.7192545168166624e-05
-1.963173281770668e-05   -1.1821193220544566e-05   -4.7192545168166624e-05
-1.8485524820324254e-05   -2.3355485331841633e-06   -8.371847109813575e-06
-1.8485524820324254e-05   -2.3355485331841633e-06   -8.371847109813575e-06
-1.8485524820324254e-05   -2.3355485331841633e-06   -8.371847109813575e-06
-1.8485524820324254e-05   -2.3355485331841633e-06   -8.371847109813575e-06
3.7915901017595216e-06   -1.2080546927484021e-05   -3.9653372943373376e-05
3.7915901017595216e-06   -1.2080546927484021e-05   -3.9653372943373376e-05
3.7915901017595216e-06   -1.2080546927484021e-05   -3.9653372943373376e-05
3.7915901017595216e-06   -1.2080546927484021e-05   -3.9653372943373376e-05
-7.5566345197231884e-06   -6.677773326271147e-06   -2.3981329401630063e-05
-7.5566345197231884e-06   -6.677773326271147e-06   -2.3981329401630063e-05
-7.5566345197231884e-06   -6.677773326271147e-06   -2.3981329401630063e-05
-7.5566345197231884e-06   -6.677773326271147e-06   -2.3981329401630063e-05
3.7915901017595216e-06   -2.3355485331841633e-06   -2.524848073233877e-06
3.7915901017595216e-06   -2.3355485331841633e-06   -2.524848073233877e-06
3.7915901017595216e-06   -2.3355485331841633e-06   -2.524848073233877e-06
3.7915901017595216e-06   -2.3355485331841633e-06   -2.524848073233877e-06
-1.848552482032428e-05   -1.2080546927484021e-05   -4.5500371979953535e-05
-1.848552482032428e-05   -1.2080546927484021e-05   -4.5500371979953535e-05
-1.848552482032428e-05   -1.2080546927484021e-05   -4.5500371979953535e-05
-1.848552482032428e-05   -1.2080546927484021e-05   -4.5500371979953535e-05
-1.749747621433637e-05   -1.8929774959783405e-06   -7.813599130957263e-06
-1.749747621433637e-05   -1.8929774959783405e-06   -7.813599130957263e-06
-1.749747621433637e-05   -1.8929774959783405e-06   -7.813599130957263e-06
-1.749747621433637e-05   -1.8929774959783405e-06   -7.813599130957263e-06
4.455595437284491e-06   -1.2021527915643138e-05   -3.832492163185984e-05
4.455595437284491e-06   -1.2021527915643138e-05   -3.832492163185984e-05
4.455595437284491e-06   -1.2021527915643138e-05   -3.832492163185984e-05
4.455595437284491e-06   -1.2021527915643138e-05   -3.832492163185984e-05
-6.742875333103382e-06   -6.827299238198071e-06   -2.2777340887680363e-05
-6.742875333103382e-06   -6.827299238198071e-06   -2.2777340887680363e-05
-6.742875333103382e-06   -6.827299238198071e-06   -2.2777340887680363e-05
-6.742875333103382e-06   -6.827299238198071e-06   -2.2777340887680363e-05
4.455595437284491e-06   -1.8929774959783405e-06   -1.7364688791583847e-06
4.455595437284491e-06   -1.8929774959783405e-06   -1.7364688791583847e-06
4.455595437284491e-06   -1.8929774959783405e-06   -1.7364688791583847e-06
4.455595437284491e-06   -1.8929774959783405e-06   -1.7364688791583847e-06
-1.7497476214336436e-05   -1.2021527915642705e-05   -4.440205188365864e-05
-1.7497476214336436e-05   -1.2021527915642705e-05   -4.440205188365864e-05
-1.7497476214336436e-05   -1.2021527915642705e-05   -4.440205188365864e-05
-1.7497476214336436e-05   -1.2021527915642705e-05   -4.440205188365864e-05
-1.5792519696169766e-05   -1.4730863256921366e-06   -7.781033203668438e-06
-1.5792519696169766e-05   -1.4730863256921366e-06   -7.781033203668438e-06
-1.5792519696169766e-05   -1.4730863256921366e-06   -7.781033203668438e-06
-1.5792519696169766e-05   -1.4730863256921366e-06   -7.781033203668438e-06
5.44687541939091e-06   -1.1597056587816807e-05   -3.7105642905661574e-05
5.44687541939091e-06   -1.1597056587816807e-05   -3.7105642905661574e-05
5.44687541939091e-06   -1.1597056587816807e-05   -3.7105642905661574e-05
5.44687541939091e-06   -1.1597056587816807e-05   -3.7105642905661574e-05
-5.685227508744866e-06   -6.673598349865107e-06   -2.1506212968206134e-05
-5.685227508744866e-06   -6.673598349865107e-06   -2.1506212968206134e-05
-5.685227508744866e-06   -6.673598349865107e-06   -2.1506212968206134e-05
-5.685227508744866e-06   -6.673598349865107e-06   -2.1506212968206134e-05
-1.963173281770664e-05   6.979402256265463e-07   -5.418836726837429e-06
-1.963173281770664e-05   6.979402256265463e-07   -5.418836726837429e-06
-1.963173281770664e-05   6.979402256265463e-07   -5.418836726837429e-06
-1.963173281770664e-05   6.979402256265463e-07   -5.418836726837429e-06
-4.493393142094982e-05   -1.4715286426206318e-05   -5.6837103723342535e-05
-4.493393142094982e-05   -1.4715286426206318e-05   -5.6837103723342535e-05
-4.493393142094982e-05   -1.4715286426206318e-05   -5.6837103723342535e-05
-4.493393142094982e-05   -1.4715286426206318e-05   -5.6837103723342535e-05
-4.356316675823572e-05   1.2233260922533094e-06   -1.4210159786360319e-05
-4.356316675823572e-05   1.2233260922533094e-06   -1.4210159786360319e-05
-4.356316675823572e-05   1.2233260922533094e-06   -1.4210159786360319e-05
-4.356316675823572e-05   1.2233260922533094e-06   -1.4210159786360319e-05
-1.8485524820324254e-05   -1.6440870851547502e-05   -4.540771151659881e-05
-1.8485524820324254e-05   -1.6440870851547502e-05   -4.540771151659881e-05
-1.8485524820324254e-05   -1.6440870851547502e-05   -4.540771151659881e-05
-1.8485524820324254e-05   -1.6440870851547502e-05   -4.540771151659881e-05
-3.1199506374157446e-05   -7.4708677623672604e-06   -2.9599744113718287e-05
-3.1199506374157446e-05   -7.4708677623672604e-06   -2.9599744113718287e-05
-3.1199506374157446e-05   -7.4708677623672604e-06   -2.9599744113718287e-05
-3.1199506374157446e-05   -7.4708677623672604e-06   -2.9599744113718287e-05
-1.8485524820324254e-05   1.2233260922533094e-06   -3.6116416200797016e-06
-1.8485524820324254e-05   1.2233260922533094e-06   -3.6116416200797016e-06
-1.8485524820324254e-05   1.2233260922533094e-06   -3.6116416200797016e-06
-1.8485524820324254e-05   1.2233260922533094e-06   -3.6116416200797016e-06
-4.356316675823572e-05   -1.644087085154707e-05   -5.6006229682879424e-05
-4.356316675823572e-05   -1.644087085154707e-05   -5.6006229682879424e-05
-4.356316675823572e-05   -1.644087085154707e-05   -5.6006229682879424e-05
-4.356316675823572e-05   -1.644087085154707e-05   -5.6006229682879424e-05
-4.2249375806789044e-05   1.7067668483677651e-06   -1.2680483459747002e-05
-4.2249375806789044e-05   1.7067668483677651e-06   -1.2680483459747002e-05
-4.2249375806789044e-05   1.7067668483677651e-06   -1.2680483459747002e-05
-4.2249375806789044e-05   1.7067668483677651e-06   -1.2680483459747002e-05
-1.7497476214336396e-05   -1.653006931357252e-05   -4.299154775000365e-05
-1.7497476214336396e-05   -1.653006931357252e-05   -4.299154775000365e-05
-1.7497476214336396e-05   -1.653006931357252e-05   -4.299154775000365e-05
-1.7497476214336396e-05   -1.653006931357252e-05   -4.299154775000365e-05
-2.986287902677939e-05   -7.493908637126604e-06   -2.7804239468466304e-05
-2.986287902677939e-05   -7.493908637126604e-06   -2.7804239468466304e-05
-2.986287902677939e-05   -7.493908637126604e-06   -2.7804239468466304e-05
-2.986287902677939e-05   -7.493908637126604e-06   -2.7804239468466304e-05
-1.7497476214336382e-05   1.7067668483677651e-06   -1.7383817625827441e-06
-1.7497476214336382e-05   1.7067668483677651e-06   -1.7383817625827441e-06
-1.7497476214336382e-05   1.7067668483677651e-06   -1.7383817625827441e-06
-1.7497476214336382e-05   1.7067668483677651e-06   -1.7383817625827441e-06
-4.224937580678913e-05   -1.653006931357252e-05   -5.393364944716807e-05
-4.224937580678913e-05   -1.653006931357252e-05   -5.393364944716807e-05
-4.224937580678913e-05   -1.653006931357252e-05   -5.393364944716807e-05
-4.224937580678913e-05   -1.653006931357252e-05   -5.393364944716807e-05
-4.009446953130564e-05   2.1152566290587316e-06   -1.1124478397581041e-05
-4.009446953130564e-05   2.1152566290587316e-06   -1.1124478397581041e-05
-4.009446953130564e-05   2.1152566290587316e-06   -1.1124478397581041e-05
-4.009446953130564e-05   2.1152566290587316e-06   -1.1124478397581041e-05
-1.579251969616982e-05   -1.5070429135382885e-05   -4.131631666414248e-05
-1.579251969616982e-05   -1.5070429135382885e-05   -4.131631666414248e-05
-1.579251969616982e-05   -1.5070429135382885e-05   -4.131631666414248e-05
-1.579251969616982e-05   -1.5070429135382885e-05   -4.131631666414248e-05
-2.854491358320982e-05   -6.608122372705246e-06   -2.5139710910015186e-05
-2.854491358320982e-05   -6.608122372705246e-06   -2.5139710910015186e-05
-2.854491358320982e-05   -6.608122372705246e-06   -2.5139710910015186e-05
-2.854491358320982e-05   -6.608122372705246e-06   -2.5139710910015186e-05
-4.493393142094982e-05   6.431766854190276e-06   -9.61685279508807e-06
-4.493393142094982e-05   6.431766854190276e-06   -9.61685279508807e-06
-4.493393142094982e-05   6.431766854190276e-06   -9.61685279508807e-06
-4.493393142094982e-05   6.431766854190276e-06   -9.61685279508807e-06
-7.730869073421913e-05   0.0   -6.743384509638479e-05
-7.730869073421913e-05   0.0   -6.743384509638479e-05
-7.730869073421913e-05   0.0   -6.743384509638479e-05
-7.730869073421913e-05   0.0   -6.743384509638479e-05
-7.530481074161823e-05   8.133391533691548e-06   -7.358842057135018e-06
-7.530481074161823e-05   8.133391533691548e-06   -7.358842057135018e-06
-7.530481074161823e-05   8.133391533691548e-06   -7.358842057135018e-06
-7.530481074161823e-05   8.133391533691548e-06   -7.358842057135018e-06
-4.3563166758235655e-05   0.0   -5.53815471092244e-05
-4.3563166758235655e-05   0.0   -5.53815471092244e-05
-4.3563166758235655e-05   0.0   -5.53815471092244e-05
-4.3563166758235655e-05   0.0   -5.53815471092244e-05
-5.7716997849493e-05   2.4909958317045986e-06   -3.328642612281823e-05
-5.7716997849493e-05   2.4909958317045986e-06   -3.328642612281823e-05
-5.7716997849493e-05   2.4909958317045986e-06   -3.328642612281823e-05
-5.7716997849493e-05   2.4909958317045986e-06   -3.328642612281823e-05
-4.356316675823568e-05   8.133391533691548e-06   -2.4788071369200027e-06
-4.356316675823568e-05   8.133391533691548e-06   -2.4788071369200027e-06
-4.356316675823568e-05   8.133391533691548e-06   -2.4788071369200027e-06
-4.356316675823568e-05   8.133391533691548e-06   -2.4788071369200027e-06
-7.53048107416181e-05   0.0   -6.026158202943944e-05
-7.53048107416181e-05   0.0   -6.026158202943944e-05
-7.53048107416181e-05   0.0   -6.026158202943944e-05
-7.53048107416181e-05   0.0   -6.026158202943944e-05
-7.360845969290296e-05   8.516211618147997e-06   -2.871180801317704e-06
-7.360845969290296e-05   8.516211618147997e-06   -2.871180801317704e-06
-7.360845969290296e-05   8.516211618147997e-06   -2.871180801317704e-06
-7.360845969290296e-05   8.516211618147997e-06   -2.871180801317704e-06
-4.224937580678913e-05   0.0   -5.00265936406187e-05
-4.224937580678913e-05   0.0   -5.00265936406187e-05
-4.224937580678913e-05   0.0   -5.00265936406187e-05
-4.224937580678913e-05   0.0   -5.00265936406187e-05
-5.712493884482868e-05   3.939839131308822e-06   -2.7597892056004233e-05
-5.712493884482868e-05   3.939839131308822e-06   -2.7597892056004233e-05
-5.712493884482868e-05   3.939839131308822e-06   -2.7597892056004233e-05
-5.712493884482868e-05   3.939839131308822e-06   -2.7597892056004233e-05
-4.224937580678913e-05   8.516211618147997e-06   2.238546169571051e-06
-4.224937580678913e-05   8.516211618147997e-06   2.238546169571051e-06
-4.224937580678913e-05   8.516211618147997e-06   2.238546169571051e-06
-4.224937580678913e-05   8.516211618147997e-06   2.238546169571051e-06
-7.360845969290282e-05   0.0   -5.5136320611507295e-05
-7.360845969290282e-05   0.0   -5.5136320611507295e-05
-7.360845969290282e-05   0.0   -5.5136320611507295e-05
-7.360845969290282e-05   0.0   -5.5136320611507295e-05
-7.022270124002917e-05   9.171053079633229e-06   4.3560988361160055e-06
-7.022270124002917e-05   9.171053079633229e-06   4.3560988361160055e-06
-7.022270124002917e-05   9.171053079633229e-06   4.3560988361160055e-06
-7.022270124002917e-05   9.171053079633229e-06   4.3560988361160055e-06
-4.0094469531305715e-05   0.0   -4.035498883064333e-05
-4.0094469531305715e-05   0.0   -4.035498883064333e-05
-4.0094469531305715e-05   0.0   -4.035498883064333e-05
-4.0094469531305715e-05   0.0   -4.035498883064333e-05
-5.4165725398150206e-05   4.85738977862543e-06   -1.9817329586410996e-05
-5.4165725398150206e-05   4.85738977862543e-06   -1.9817329586410996e-05
-5.4165725398150206e-05   4.85738977862543e-06   -1.9817329586410996e-05
-5.4165725398150206e-05   4.85738977862543e-06   -1.9817329586410996e-05
5.720644329108592e-05   -9.811066535091867e-06   3.4125561432914566e-05
5.720644329108592e-05   -9.811066535091867e-06   3.4125561432914566e-05
5.720644329108592e-05   -9.811066535091867e-06   3.4125561432914566e-05
5.720644329108592e-05   -9.811066535091867e-06   3.4125561432914566e-05
2.966663300692186e-05   -7.571087052826806e-06   -1.0430134684666272e-05
2.966663300692186e-05   -7.571087052826806e-06   -1.0430134684666272e-05
2.966663300692186e-05   -7.571087052826806e-06   -1.0430134684666272e-05
2.966663300692186e-05   -7.571087052826806e-06   -1.0430134684666272e-05
2.8923153441952402e-05   -1.005653513907502e-05   3.0126502953868334e-05
2.8923153441952402e-05   -1.005653513907502e-05   3.0126502953868334e-05
2.8923153441952402e-05   -1.005653513907502e-05   3.0126502953868334e-05
2.8923153441952402e-05   -1.005653513907502e-05   3.0126502953868334e-05
5.659856532230477e-05   -8.322096774499715e-06   -1.703984653213093e-05
5.659856532230477e-05   -8.322096774499715e-06   -1.703984653213093e-05
5.659856532230477e-05   -8.322096774499715e-06   -1.703984653213093e-05
5.659856532230477e-05   -8.322096774499715e-06   -1.703984653213093e-05
4.1334439084386865e-05   -8.459796008143238e-06   8.482983404585389e-06
4.1334439084386865e-05   -8.459796008143238e-06   8.482983404585389e-06
4.1334439084386865e-05   -8.459796008143238e-06   8.482983404585389e-06
4.1334439084386865e-05   -8.459796008143238e-06   8.482983404585389e-06
5.659856532230477e-05   -1.005653513907502e-05   2.9085839935123065e-05
5.659856532230477e-05   -1.005653513907502e-05   2.9085839935123065e-05
5.659856532230477e-05   -1.005653513907502e-05   2.9085839935123065e-05
5.659856532230477e-05   -1.005653513907502e-05   2.9085839935123065e-05
2.8923153441952402e-05   -8.322096774499715e-06   -1.5999183513385525e-05
2.8923153441952402e-05   -8.322096774499715e-06   -1.5999183513385525e-05
2.8923153441952402e-05   -8.322096774499715e-06   -1.5999183513385525e-05
2.8923153441952402e-05   -8.322096774499715e-06   -1.5999183513385525e-05
2.825031429221924e-05   -9.964775440525053e-06   2.7042096528193983e-05
2.825031429221924e-05   -9.964775440525053e-06   2.7042096528193983e-05
2.825031429221924e-05   -9.964775440525053e-06   2.7042096528193983e-05
2.825031429221924e-05   -9.964775440525053e-06   2.7042096528193983e-05
5.589450073743984e-05   -8.390362755285492e-06   -1.9976195158317268e-05
5.589450073743984e-05   -8.390362755285492e-06   -1.9976195158317268e-05
5.589450073743984e-05   -8.390362755285492e-06   -1.9976195158317268e-05
5.589450073743984e-05   -8.390362755285492e-06   -1.9976195158317268e-05
4.130643053646192e-05   -8.608193487796324e-06   4.467953616152322e-06
4.130643053646192e-05   -8.608193487796324e-06   4.467953616152322e-06
4.130643053646192e-05   -8.608193487796324e-06   4.467953616152322e-06
4.130643053646192e-05   -8.608193487796324e-06   4.467953616152322e-06
5.589450073743992e-05   -9.96477544052527e-06   2.609744891705055e-05
5.589450073743992e-05   -9.96477544052527e-06   2.609744891705055e-05
5.589450073743992e-05   -9.96477544052527e-06   2.609744891705055e-05
5.589450073743992e-05   -9.96477544052527e-06   2.609744891705055e-05
2.825031429221924e-05   -8.390362755285492e-06   -1.9031547547173483e-05
2.825031429221924e-05   -8.390362755285492e-06   -1.9031547547173483e-05
2.825031429221924e-05   -8.390362755285492e-06   -1.9031547547173483e-05
2.825031429221924e-05   -8.390362755285492e-06   -1.9031547547173483e-05
2.7429286787868055e-05   -9.408527396762359e-06   2.2024009130624904e-05
2.7429286787868055e-05   -9.408527396762359e-06   2.2024009130624904e-05
2.7429286787868055e-05   -9.408527396762359e-06   2.2024009130624904e-05
2.7429286787868055e-05   -9.408527396762359e-06   2.2024009130624904e-05
5.4791260648916565e-05   -8.212435730808702e-06   -2.4296935637361275e-05
5.4791260648916565e-05   -8.212435730808702e-06   -2.4296935637361275e-05
5.4791260648916565e-05   -8.212435730808702e-06   -2.4296935637361275e-05
5.4791260648916565e-05   -8.212435730808702e-06   -2.4296935637361275e-05
3.9899352725943124e-05   -8.185237249801799e-06   5.06591812323375e-07
3.9899352725943124e-05   -8.185237249801799e-06   5.06591812323375e-07
3.9899352725943124e-05   -8.185237249801799e-06   5.06591812323375e-07
3.9899352725943124e-05   -8.185237249801799e-06   5.06591812323375e-07
2.966663300692186e-05   -9.8194726059638e-06   2.5480962360321675e-05
2.966663300692186e-05   -9.8194726059638e-06   2.5480962360321675e-05
2.966663300692186e-05   -9.8194726059638e-06   2.5480962360321675e-05
2.966663300692186e-05   -9.8194726059638e-06   2.5480962360321675e-05
6.279401776492066e-06   -4.668880883231582e-06   -1.0407401323422015e-05
6.279401776492066e-06   -4.668880883231582e-06   -1.0407401323422015e-05
6.279401776492066e-06   -4.668880883231582e-06   -1.0407401323422015e-05
6.279401776492066e-06   -4.668880883231582e-06   -1.0407401323422015e-05
5.102808146096693e-06   -9.767708361852184e-06   2.907348589303296e-05
5.102808146096693e-06   -9.767708361852184e-06   2.907348589303296e-05
5.102808146096693e-06   -9.767708361852184e-06   2.907348589303296e-05
5.102808146096693e-06   -9.767708361852184e-06   2.907348589303296e-05
2.8923153441952402e-05   -4.951131459370733e-06   -1.351703574154888e-05
2.8923153441952402e-05   -4.951131459370733e-06   -1.351703574154888e-05
2.8923153441952402e-05   -4.951131459370733e-06   -1.351703574154888e-05
2.8923153441952402e-05   -4.951131459370733e-06   -1.351703574154888e-05
1.746804836226538e-05   -7.031286944859591e-06   6.822899349223101e-06
1.746804836226538e-05   -7.031286944859591e-06   6.822899349223101e-06
1.746804836226538e-05   -7.031286944859591e-06   6.822899349223101e-06
1.746804836226538e-05   -7.031286944859591e-06   6.822899349223101e-06
2.892315344195243e-05   -9.767708361852617e-06   2.618353975154396e-05
2.892315344195243e-05   -9.767708361852617e-06   2.618353975154396e-05
2.892315344195243e-05   -9.767708361852617e-06   2.618353975154396e-05
2.892315344195243e-05   -9.767708361852617e-06   2.618353975154396e-05
5.102808146096693e-06   -4.951131459370733e-06   -1.0627089600059826e-05
5.102808146096693e-06   -4.951131459370733e-06   -1.0627089600059826e-05
5.102808146096693e-06   -4.951131459370733e-06   -1.0627089600059826e-05
5.102808146096693e-06   -4.951131459370733e-06   -1.0627089600059826e-05
4.263326901294997e-06   -9.634722329952914e-06   2.911193922048791e-05
4.263326901294997e-06   -9.634722329952914e-06   2.911193922048791e-05
4.263326901294997e-06   -9.634722329952914e-06   2.911193922048791e-05
4.263326901294997e-06   -9.634722329952914e-06   2.911193922048791e-05
2.825031429221924e-05   -5.0755064202375605e-06   -1.3601902643548604e-05
2.825031429221924e-05   -5.0755064202375605e-06   -1.3601902643548604e-05
2.825031429221924e-05   -5.0755064202375605e-06   -1.3601902643548604e-05
2.825031429221924e-05   -5.0755064202375605e-06   -1.3601902643548604e-05
1.6458413805460272e-05   -6.886364771328812e-06   7.137779845038422e-06
1.6458413805460272e-05   -6.886364771328812e-06   7.137779845038422e-06
1.6458413805460272e-05   -6.886364771328812e-06   7.137779845038422e-06
1.6458413805460272e-05   -6.886364771328812e-06   7.137779845038422e-06
2.8250314292219307e-05   -9.634722329952914e-06   2.6376409674658393e-05
2.8250314292219307e-05   -9.634722329952914e-06   2.6376409674658393e-05
2.8250314292219307e-05   -9.634722329952914e-06   2.6376409674658393e-05
2.8250314292219307e-05   -9.634722329952914e-06   2.6376409674658393e-05
4.263326901294997e-06   -5.0755064202375605e-06   -1.086637309771917e-05
4.263326901294997e-06   -5.0755064202375605e-06   -1.086637309771917e-05
4.263326901294997e-06   -5.0755064202375605e-06   -1.086637309771917e-05
4.263326901294997e-06   -5.0755064202375605e-06   -1.086637309771917e-05
3.329665969140601e-06   -9.370251176332636e-06   3.0053003987620718e-05
3.329665969140601e-06   -9.370251176332636e-06   3.0053003987620718e-05
3.329665969140601e-06   -9.370251176332636e-06   3.0053003987620718e-05
3.329665969140601e-06   -9.370251176332636e-06   3.0053003987620718e-05
2.7429286787868028e-05   -4.959044481960342e-06   -1.275975472688192e-05
2.7429286787868028e-05   -4.959044481960342e-06   -1.275975472688192e-05
2.7429286787868028e-05   -4.959044481960342e-06   -1.275975472688192e-05
2.7429286787868028e-05   -4.959044481960342e-06   -1.275975472688192e-05
1.5841836402141522e-05   -6.5826755797342845e-06   7.526841241326811e-06
1.5841836402141522e-05   -6.5826755797342845e-06   7.526841241326811e-06
1.5841836402141522e-05   -6.5826755797342845e-06   7.526841241326811e-06
1.5841836402141522e-05   -6.5826755797342845e-06   7.526841241326811e-06
6.27940177649208e-06   -1.1821193220544566e-05   2.6201043629757144e-05
6.27940177649208e-06   -1.1821193220544566e-05   2.6201043629757144e-05
6.27940177649208e-06   -1.1821193220544566e-05   2.6201043629757144e-05
6.27940177649208e-06   -1.1821193220544566e-05   2.6201043629757144e-05
-1.618983054588073e-05   -1.9439884093135074e-06   -5.3213540207924705e-06
-1.618983054588073e-05   -1.9439884093135074e-06   -5.3213540207924705e-06
-1.618983054588073e-05   -1.9439884093135074e-06   -5.3213540207924705e-06
-1.618983054588073e-05   -1.9439884093135074e-06   -5.3213540207924705e-06
-1.801982904817407e-05   -1.2080546927484021e-05   3.365395736497877e-05
-1.801982904817407e-05   -1.2080546927484021e-05   3.365395736497877e-05
-1.801982904817407e-05   -1.2080546927484021e-05   3.365395736497877e-05
-1.801982904817407e-05   -1.2080546927484021e-05   3.365395736497877e-05
5.102808146096707e-06   -2.0521329366480177e-06   -1.090081968664112e-05
5.102808146096707e-06   -2.0521329366480177e-06   -1.090081968664112e-05
5.102808146096707e-06   -2.0521329366480177e-06   -1.090081968664112e-05
5.102808146096707e-06   -2.0521329366480177e-06   -1.090081968664112e-05
-5.506776797590618e-06   -6.749655400914434e-06   9.600335364730794e-06
-5.506776797590618e-06   -6.749655400914434e-06   9.600335364730794e-06
-5.506776797590618e-06   -6.749655400914434e-06   9.600335364730794e-06
-5.506776797590618e-06   -6.749655400914434e-06   9.600335364730794e-06
5.102808146096693e-06   -1.2080546927484021e-05   2.7636908970476732e-05
5.102808146096693e-06   -1.2080546927484021e-05   2.7636908970476732e-05
5.102808146096693e-06   -1.2080546927484021e-05   2.7636908970476732e-05
5.102808146096693e-06   -1.2080546927484021e-05   2.7636908970476732e-05
-1.8019829048174043e-05   -2.052132936647584e-06   -4.883771292139329e-06
-1.8019829048174043e-05   -2.052132936647584e-06   -4.883771292139329e-06
-1.8019829048174043e-05   -2.052132936647584e-06   -4.883771292139329e-06
-1.8019829048174043e-05   -2.052132936647584e-06   -4.883771292139329e-06
-1.913906830191341e-05   -1.2021527915642705e-05   3.493372741067316e-05
-1.913906830191341e-05   -1.2021527915642705e-05   3.493372741067316e-05
-1.913906830191341e-05   -1.2021527915642705e-05   3.493372741067316e-05
-1.913906830191341e-05   -1.2021527915642705e-05   3.493372741067316e-05
4.263326901294997e-06   -2.18489564207322e-06   -9.972243958815679e-06
4.263326901294997e-06   -2.18489564207322e-06   -9.972243958815679e-06
4.263326901294997e-06   -2.18489564207322e-06   -9.972243958815679e-06
4.263326901294997e-06   -2.18489564207322e-06   -9.972243958815679e-06
-6.746040719491851e-06   -6.726159161445609e-06   1.1101460187452395e-05
-6.746040719491851e-06   -6.726159161445609e-06   1.1101460187452395e-05
-6.746040719491851e-06   -6.726159161445609e-06   1.1101460187452395e-05
-6.746040719491851e-06   -6.726159161445609e-06   1.1101460187452395e-05
4.263326901294997e-06   -1.2021527915642705e-05   2.9031748046531294e-05
4.263326901294997e-06   -1.2021527915642705e-05   2.9031748046531294e-05
4.263326901294997e-06   -1.2021527915642705e-05   2.9031748046531294e-05
4.263326901294997e-06   -1.2021527915642705e-05   2.9031748046531294e-05
-1.9139068301913395e-05   -2.18489564207322e-06   -4.070264594674194e-06
-1.9139068301913395e-05   -2.18489564207322e-06   -4.070264594674194e-06
-1.9139068301913395e-05   -2.18489564207322e-06   -4.070264594674194e-06
-1.9139068301913395e-05   -2.18489564207322e-06   -4.070264594674194e-06
-2.045457954234813e-05   -1.1597056587816807e-05   3.658956860636215e-05
-2.045457954234813e-05   -1.1597056587816807e-05   3.658956860636215e-05
-2.045457954234813e-05   -1.1597056587816807e-05   3.658956860636215e-05
-2.045457954234813e-05   -1.1597056587816807e-05   3.658956860636215e-05
3.329665969140601e-06   -2.1703892514662523e-06   -8.706840981262447e-06
3.329665969140601e-06   -2.1703892514662523e-06   -8.706840981262447e-06
3.329665969140601e-06   -2.1703892514662523e-06   -8.706840981262447e-06
3.329665969140601e-06   -2.1703892514662523e-06   -8.706840981262447e-06
-7.755553431798662e-06   -6.4557553650043155e-06   1.2339744355091987e-05
-7.755553431798662e-06   -6.4557553650043155e-06   1.2339744355091987e-05
-7.755553431798662e-06   -6.4557553650043155e-06   1.2339744355091987e-05
-7.755553431798662e-06   -6.4557553650043155e-06   1.2339744355091987e-05
-1.6189830545880745e-05   -1.4715286426206318e-05   3.1730743952419847e-05
-1.6189830545880745e-05   -1.4715286426206318e-05   3.1730743952419847e-05
-1.6189830545880745e-05   -1.4715286426206318e-05   3.1730743952419847e-05
-1.6189830545880745e-05   -1.4715286426206318e-05   3.1730743952419847e-05
-4.1754562699021825e-05   2.145623334087743e-06   -7.60597113305889e-07
-4.1754562699021825e-05   2.145623334087743e-06   -7.60597113305889e-07
-4.1754562699021825e-05   2.145623334087743e-06   -7.60597113305889e-07
-4.1754562699021825e-05   2.145623334087743e-06   -7.60597113305889e-07
-4.3956380758836255e-05   -1.644087085154707e-05   4.482465554597119e-05
-4.3956380758836255e-05   -1.644087085154707e-05   4.482465554597119e-05
-4.3956380758836255e-05   -1.644087085154707e-05   4.482465554597119e-05
-4.3956380758836255e-05   -1.644087085154707e-05   4.482465554597119e-05
-1.8019829048174043e-05   2.0225253445161143e-06   -9.480968356103742e-06
-1.8019829048174043e-05   2.0225253445161143e-06   -9.480968356103742e-06
-1.8019829048174043e-05   2.0225253445161143e-06   -9.480968356103742e-06
-1.8019829048174043e-05   2.0225253445161143e-06   -9.480968356103742e-06
-2.9562883905878943e-05   -6.083768273360338e-06   1.4621232577463508e-05
-2.9562883905878943e-05   -6.083768273360338e-06   1.4621232577463508e-05
-2.9562883905878943e-05   -6.083768273360338e-06   1.4621232577463508e-05
-2.9562883905878943e-05   -6.083768273360338e-06   1.4621232577463508e-05
-1.801982904817407e-05   -1.644087085154707e-05   3.374661782833306e-05
-1.801982904817407e-05   -1.644087085154707e-05   3.374661782833306e-05
-1.801982904817407e-05   -1.644087085154707e-05   3.374661782833306e-05
-1.801982904817407e-05   -1.644087085154707e-05   3.374661782833306e-05
-4.3956380758836255e-05   2.0225253445161143e-06   1.5970693615341945e-06
-4.3956380758836255e-05   2.0225253445161143e-06   1.5970693615341945e-06
-4.3956380758836255e-05   2.0225253445161143e-06   1.5970693615341945e-06
-4.3956380758836255e-05   2.0225253445161143e-06   1.5970693615341945e-06
-4.529786843320306e-05   -1.653006931357252e-05   4.733755655433208e-05
-4.529786843320306e-05   -1.653006931357252e-05   4.733755655433208e-05
-4.529786843320306e-05   -1.653006931357252e-05   4.733755655433208e-05
-4.529786843320306e-05   -1.653006931357252e-05   4.733755655433208e-05
-1.9139068301913395e-05   1.792139036433868e-06   -7.253768674487891e-06
-1.9139068301913395e-05   1.792139036433868e-06   -7.253768674487891e-06
-1.9139068301913395e-05   1.792139036433868e-06   -7.253768674487891e-06
-1.9139068301913395e-05   1.792139036433868e-06   -7.253768674487891e-06
-3.099140628118188e-05   -7.0136946428568485e-06   1.7783628165200793e-05
-3.099140628118188e-05   -7.0136946428568485e-06   1.7783628165200793e-05
-3.099140628118188e-05   -7.0136946428568485e-06   1.7783628165200793e-05
-3.099140628118188e-05   -7.0136946428568485e-06   1.7783628165200793e-05
-1.9139068301913368e-05   -1.653006931357252e-05   3.63442315443282e-05
-1.9139068301913368e-05   -1.653006931357252e-05   3.63442315443282e-05
-1.9139068301913368e-05   -1.653006931357252e-05   3.63442315443282e-05
-1.9139068301913368e-05   -1.653006931357252e-05   3.63442315443282e-05
-4.529786843320299e-05   1.792139036433868e-06   3.7395563355158493e-06
-4.529786843320299e-05   1.792139036433868e-06   3.7395563355158493e-06
-4.529786843320299e-05   1.792139036433868e-06   3.7395563355158493e-06
-4.529786843320299e-05   1.792139036433868e-06   3.7395563355158493e-06
-4.67438893281975e-05   -1.5070429135382885e-05   4.841403821771121e-05
-4.67438893281975e-05   -1.5070429135382885e-05   4.841403821771121e-05
-4.67438893281975e-05   -1.5070429135382885e-05   4.841403821771121e-05
-4.67438893281975e-05   -1.5070429135382885e-05   4.841403821771121e-05
-2.0454579542348062e-05   1.5308395522085905e-06   -5.362239304592737e-06
-2.0454579542348062e-05   1.5308395522085905e-06   -5.362239304592737e-06
-2.0454579542348062e-05   1.5308395522085905e-06   -5.362239304592737e-06
-2.0454579542348062e-05   1.5308395522085905e-06   -5.362239304592737e-06
-3.246544464678578e-05   -7.064394130740833e-06   1.9813009412573512e-05
-3.246544464678578e-05   -7.064394130740833e-06   1.9813009412573512e-05
-3.246544464678578e-05   -7.064394130740833e-06   1.9813009412573512e-05
-3.246544464678578e-05   -7.064394130740833e-06   1.9813009412573512e-05
-4.1754562699021676e-05   0.0   3.510960854806759e-05
-4.1754562699021676e-05   0.0   3.510960854806759e-05
-4.1754562699021676e-05   0.0   3.510960854806759e-05
-4.1754562699021676e-05   0.0   3.510960854806759e-05
-7.347431700144435e-05   9.641379246784487e-06   -1.1971821074566028e-05
-7.347431700144435e-05   9.641379246784487e-06   -1.1971821074566028e-05
-7.347431700144435e-05   9.641379246784487e-06   -1.1971821074566028e-05
-7.347431700144435e-05   9.641379246784487e-06   -1.1971821074566028e-05
-7.650569851962188e-05   0.0   5.1036340341741515e-05
-7.650569851962188e-05   0.0   5.1036340341741515e-05
-7.650569851962188e-05   0.0   5.1036340341741515e-05
-7.650569851962188e-05   0.0   5.1036340341741515e-05
-4.3956380758836174e-05   9.311670370192645e-06   -8.799524815017164e-06
-4.3956380758836174e-05   9.311670370192645e-06   -8.799524815017164e-06
-4.3956380758836174e-05   9.311670370192645e-06   -8.799524815017164e-06
-4.3956380758836174e-05   9.311670370192645e-06   -8.799524815017164e-06
-5.6411199712587416e-05   5.719690670465648e-06   1.4113694594404405e-05
-5.6411199712587416e-05   5.719690670465648e-06   1.4113694594404405e-05
-5.6411199712587416e-05   5.719690670465648e-06   1.4113694594404405e-05
-5.6411199712587416e-05   5.719690670465648e-06   1.4113694594404405e-05
-4.3956380758836147e-05   0.0   4.544933811962597e-05
-4.3956380758836147e-05   0.0   4.544933811962597e-05
-4.3956380758836147e-05   0.0   4.544933811962597e-05
-4.3956380758836147e-05   0.0   4.544933811962597e-05
-7.650569851962201e-05   9.311670370192645e-06   -3.2125225929015115e-06
-7.650569851962201e-05   9.311670370192645e-06   -3.2125225929015115e-06
-7.650569851962201e-05   9.311670370192645e-06   -3.2125225929015115e-06
-7.650569851962201e-05   9.311670370192645e-06   -3.2125225929015115e-06
-7.803176543079348e-05   0.0   5.668971711089276e-05
-7.803176543079348e-05   0.0   5.668971711089276e-05
-7.803176543079348e-05   0.0   5.668971711089276e-05
-7.803176543079348e-05   0.0   5.668971711089276e-05
-4.529786843320299e-05   9.075174583352864e-06   -3.3118826351033882e-06
-4.529786843320299e-05   9.075174583352864e-06   -3.3118826351033882e-06
-4.529786843320299e-05   9.075174583352864e-06   -3.3118826351033882e-06
-4.529786843320299e-05   9.075174583352864e-06   -3.3118826351033882e-06
-5.934191866543991e-05   4.77766463334757e-06   2.2673373721961978e-05
-5.934191866543991e-05   4.77766463334757e-06   2.2673373721961978e-05
-5.934191866543991e-05   4.77766463334757e-06   2.2673373721961978e-05
-5.934191866543991e-05   4.77766463334757e-06   2.2673373721961978e-05
-4.529786843320299e-05   0.0   5.1244612360880955e-05
-4.529786843320299e-05   0.0   5.1244612360880955e-05
-4.529786843320299e-05   0.0   5.1244612360880955e-05
-4.529786843320299e-05   0.0   5.1244612360880955e-05
-7.803176543079375e-05   9.075174583352864e-06   2.133222114908363e-06
-7.803176543079375e-05   9.075174583352864e-06   2.133222114908363e-06
-7.803176543079375e-05   9.075174583352864e-06   2.133222114908363e-06
-7.803176543079375e-05   9.075174583352864e-06   2.133222114908363e-06
-7.97287085426979e-05   0.0   6.42271268209663e-05
-7.97287085426979e-05   0.0   6.42271268209663e-05
-7.97287085426979e-05   0.0   6.42271268209663e-05
-7.97287085426979e-05   0.0   6.42271268209663e-05
-4.67438893281975e-05   7.5672488518184824e-06   4.712078819040953e-06
-4.67438893281975e-05   7.5672488518184824e-06   4.712078819040953e-06
-4.67438893281975e-05   7.5672488518184824e-06   4.712078819040953e-06
-4.67438893281975e-05   7.5672488518184824e-06   4.712078819040953e-06
-5.9827549273996426e-05   3.3583753446427e-06   2.9043502833011096e-05
-5.9827549273996426e-05   3.3583753446427e-06   2.9043502833011096e-05
-5.9827549273996426e-05   3.3583753446427e-06   2.9043502833011096e-05
-5.9827549273996426e-05   3.3583753446427e-06   2.9043502833011096e-05
5.0363561421787564e-05   -7.571087052826806e-06   3.571438414082446e-05
5.0363561421787564e-05   -7.571087052826806e-06   3.571438414082446e-05
5.0363561421787564e-05   -7.571087052826806e-06   3.571438414082446e-05
5.0363561421787564e-05   -7.571087052826806e-06   3.571438414082446e-05
2.5461928125262428e-05   -5.719070461778072e-06   -4.677128065421789e-06
2.5461928125262428e-05   -5.719070461778072e-06   -4.677128065421789e-06
2.5461928125262428e-05   -5.719070461778072e-06   -4.677128065421789e-06
2.5461928125262428e-05   -5.719070461778072e-06   -4.677128065421789e-06
2.479276116394725e-05   -8.322096774499715e-06   3.116489090131754e-05
2.479276116394725e-05   -8.322096774499715e-06   3.116489090131754e-05
2.479276116394725e-05   -8.322096774499715e-06   3.116489090131754e-05
2.479276116394725e-05   -8.322096774499715e-06   3.116489090131754e-05
4.9170069101261326e-05   -6.479513255083173e-06   -1.0569505772522367e-05
4.9170069101261326e-05   -6.479513255083173e-06   -1.0569505772522367e-05
4.9170069101261326e-05   -6.479513255083173e-06   -1.0569505772522367e-05
4.9170069101261326e-05   -6.479513255083173e-06   -1.0569505772522367e-05
3.5780001212640976e-05   -6.742947168178644e-06   1.1905334389702331e-05
3.5780001212640976e-05   -6.742947168178644e-06   1.1905334389702331e-05
3.5780001212640976e-05   -6.742947168178644e-06   1.1905334389702331e-05
3.5780001212640976e-05   -6.742947168178644e-06   1.1905334389702331e-05
4.9170069101261244e-05   -8.322096774499715e-06   3.0059340789667568e-05
4.9170069101261244e-05   -8.322096774499715e-06   3.0059340789667568e-05
4.9170069101261244e-05   -8.322096774499715e-06   3.0059340789667568e-05
4.9170069101261244e-05   -8.322096774499715e-06   3.0059340789667568e-05
2.479276116394729e-05   -6.479513255083173e-06   -9.463955660872405e-06
2.479276116394729e-05   -6.479513255083173e-06   -9.463955660872405e-06
2.479276116394729e-05   -6.479513255083173e-06   -9.463955660872405e-06
2.479276116394729e-05   -6.479513255083173e-06   -9.463955660872405e-06
2.3930552973070948e-05   -8.390362755285926e-06   2.7967971457366425e-05
2.3930552973070948e-05   -8.390362755285926e-06   2.7967971457366425e-05
2.3930552973070948e-05   -8.390362755285926e-06   2.7967971457366425e-05
2.3930552973070948e-05   -8.390362755285926e-06   2.7967971457366425e-05
4.796244379533769e-05   -6.5919759040986535e-06   -1.3164212023790741e-05
4.796244379533769e-05   -6.5919759040986535e-06   -1.3164212023790741e-05
4.796244379533769e-05   -6.5919759040986535e-06   -1.3164212023790741e-05
4.796244379533769e-05   -6.5919759040986535e-06   -1.3164212023790741e-05
3.544791448393188e-05   -7.036824893938073e-06   7.960246222455834e-06
3.544791448393188e-05   -7.036824893938073e-06   7.960246222455834e-06
3.544791448393188e-05   -7.036824893938073e-06   7.960246222455834e-06
3.544791448393188e-05   -7.036824893938073e-06   7.960246222455834e-06
4.796244379533769e-05   -8.390362755285492e-06   2.6888939346653932e-05
4.796244379533769e-05   -8.390362755285492e-06   2.6888939346653932e-05
4.796244379533769e-05   -8.390362755285492e-06   2.6888939346653932e-05
4.796244379533769e-05   -8.390362755285492e-06   2.6888939346653932e-05
2.3930552973070948e-05   -6.5919759040986535e-06   -1.2085179913078363e-05
2.3930552973070948e-05   -6.5919759040986535e-06   -1.2085179913078363e-05
2.3930552973070948e-05   -6.5919759040986535e-06   -1.2085179913078363e-05
2.3930552973070948e-05   -6.5919759040986535e-06   -1.2085179913078363e-05
2.3025733781057994e-05   -8.212435730808702e-06   2.322370932611429e-05
2.3025733781057994e-05   -8.212435730808702e-06   2.322370932611429e-05
2.3025733781057994e-05   -8.212435730808702e-06   2.322370932611429e-05
2.3025733781057994e-05   -8.212435730808702e-06   2.322370932611429e-05
4.645058101400415e-05   -6.547749009586318e-06   -1.681651476152954e-05
4.645058101400415e-05   -6.547749009586318e-06   -1.681651476152954e-05
4.645058101400415e-05   -6.547749009586318e-06   -1.681651476152954e-05
4.645058101400415e-05   -6.547749009586318e-06   -1.681651476152954e-05
3.3872654043573136e-05   -6.851772191761047e-06   4.329110765160897e-06
3.3872654043573136e-05   -6.851772191761047e-06   4.329110765160897e-06
3.3872654043573136e-05   -6.851772191761047e-06   4.329110765160897e-06
3.3872654043573136e-05   -6.851772191761047e-06   4.329110765160897e-06
2.546192812526247e-05   -4.668880883231582e-06   3.3757972423058454e-05
2.546192812526247e-05   -4.668880883231582e-06   3.3757972423058454e-05
2.546192812526247e-05   -4.668880883231582e-06   3.3757972423058454e-05
2.546192812526247e-05   -4.668880883231582e-06   3.3757972423058454e-05
2.767585721014966e-06   -2.01481265791649e-06   -2.4734906488316916e-06
2.767585721014966e-06   -2.01481265791649e-06   -2.4734906488316916e-06
2.767585721014966e-06   -2.01481265791649e-06   -2.4734906488316916e-06
2.767585721014966e-06   -2.01481265791649e-06   -2.4734906488316916e-06
2.1025638032596953e-06   -4.9511314593703e-06   3.516398360002711e-05
2.1025638032596953e-06   -4.9511314593703e-06   3.516398360002711e-05
2.1025638032596953e-06   -4.9511314593703e-06   3.516398360002711e-05
2.1025638032596953e-06   -4.9511314593703e-06   3.516398360002711e-05
2.479276116394729e-05   -2.422889914582534e-06   -4.169956927991742e-06
2.479276116394729e-05   -2.422889914582534e-06   -4.169956927991742e-06
2.479276116394729e-05   -2.422889914582534e-06   -4.169956927991742e-06
2.479276116394729e-05   -2.422889914582534e-06   -4.169956927991742e-06
1.3649016717304181e-05   -3.268248948946591e-06   1.491016590369858e-05
1.3649016717304181e-05   -3.268248948946591e-06   1.491016590369858e-05
1.3649016717304181e-05   -3.268248948946591e-06   1.491016590369858e-05
1.3649016717304181e-05   -3.268248948946591e-06   1.491016590369858e-05
2.4792761163947263e-05   -4.9511314593703e-06   3.364703867315445e-05
2.4792761163947263e-05   -4.9511314593703e-06   3.364703867315445e-05
2.4792761163947263e-05   -4.9511314593703e-06   3.364703867315445e-05
2.4792761163947263e-05   -4.9511314593703e-06   3.364703867315445e-05
2.1025638032596953e-06   -2.422889914582534e-06   -2.653012001119096e-06
2.1025638032596953e-06   -2.422889914582534e-06   -2.653012001119096e-06
2.1025638032596953e-06   -2.422889914582534e-06   -2.653012001119096e-06
2.1025638032596953e-06   -2.422889914582534e-06   -2.653012001119096e-06
1.2539449878334506e-06   -5.075506420237127e-06   3.4829097297018425e-05
1.2539449878334506e-06   -5.075506420237127e-06   3.4829097297018425e-05
1.2539449878334506e-06   -5.075506420237127e-06   3.4829097297018425e-05
1.2539449878334506e-06   -5.075506420237127e-06   3.4829097297018425e-05
2.3930552973070948e-05   -2.6897048601916447e-06   -4.39673028107116e-06
2.3930552973070948e-05   -2.6897048601916447e-06   -4.39673028107116e-06
2.3930552973070948e-05   -2.6897048601916447e-06   -4.39673028107116e-06
2.3930552973070948e-05   -2.6897048601916447e-06   -4.39673028107116e-06
1.2805205662192677e-05   -3.4223050485344964e-06   1.4585075350065499e-05
1.2805205662192677e-05   -3.4223050485344964e-06   1.4585075350065499e-05
1.2805205662192677e-05   -3.4223050485344964e-06   1.4585075350065499e-05
1.2805205662192677e-05   -3.4223050485344964e-06   1.4585075350065499e-05
2.3930552973070907e-05   -5.075506420237127e-06   3.339761636099122e-05
2.3930552973070907e-05   -5.075506420237127e-06   3.339761636099122e-05
2.3930552973070907e-05   -5.075506420237127e-06   3.339761636099122e-05
2.3930552973070907e-05   -5.075506420237127e-06   3.339761636099122e-05
1.2539449878334506e-06   -2.6897048601916447e-06   -2.9652493450441336e-06
1.2539449878334506e-06   -2.6897048601916447e-06   -2.9652493450441336e-06
1.2539449878334506e-06   -2.6897048601916447e-06   -2.9652493450441336e-06
1.2539449878334506e-06   -2.6897048601916447e-06   -2.9652493450441336e-06
3.1652127731385054e-07   -4.959044481959909e-06   3.533693511018087e-05
3.1652127731385054e-07   -4.959044481959909e-06   3.533693511018087e-05
3.1652127731385054e-07   -4.959044481959909e-06   3.533693511018087e-05
3.1652127731385054e-07   -4.959044481959909e-06   3.533693511018087e-05
2.302573378105798e-05   -2.8028780266942024e-06   -3.80545226921868e-06
2.302573378105798e-05   -2.8028780266942024e-06   -3.80545226921868e-06
2.302573378105798e-05   -2.8028780266942024e-06   -3.80545226921868e-06
2.302573378105798e-05   -2.8028780266942024e-06   -3.80545226921868e-06
1.2119066682752382e-05   -3.3887585977727085e-06   1.4723854570605267e-05
1.2119066682752382e-05   -3.3887585977727085e-06   1.4723854570605267e-05
1.2119066682752382e-05   -3.3887585977727085e-06   1.4723854570605267e-05
1.2119066682752382e-05   -3.3887585977727085e-06   1.4723854570605267e-05
2.767585721014966e-06   -1.943988409313941e-06   3.451013777413842e-05
2.767585721014966e-06   -1.943988409313941e-06   3.451013777413842e-05
2.767585721014966e-06   -1.943988409313941e-06   3.451013777413842e-05
2.767585721014966e-06   -1.943988409313941e-06   3.451013777413842e-05
-1.922058170009179e-05   1.7974664796253231e-06   1.0806500565728981e-07
-1.922058170009179e-05   1.7974664796253231e-06   1.0806500565728981e-07
-1.922058170009179e-05   1.7974664796253231e-06   1.0806500565728981e-07
-1.922058170009179e-05   1.7974664796253231e-06   1.0806500565728981e-07
-1.9969988601851286e-05   -2.0521329366480177e-06   3.701325053624173e-05
-1.9969988601851286e-05   -2.0521329366480177e-06   3.701325053624173e-05
-1.9969988601851286e-05   -2.0521329366480177e-06   3.701325053624173e-05
-1.9969988601851286e-05   -2.0521329366480177e-06   3.701325053624173e-05
2.1025638032596953e-06   1.4861954346784018e-06   -1.8973338284058625e-06
2.1025638032596953e-06   1.4861954346784018e-06   -1.8973338284058625e-06
2.1025638032596953e-06   1.4861954346784018e-06   -1.8973338284058625e-06
2.1025638032596953e-06   1.4861954346784018e-06   -1.8973338284058625e-06
-8.564467038116739e-06   -1.4173377621291144e-08   1.6781272194601386e-05
-8.564467038116739e-06   -1.4173377621291144e-08   1.6781272194601386e-05
-8.564467038116739e-06   -1.4173377621291144e-08   1.6781272194601386e-05
-8.564467038116739e-06   -1.4173377621291144e-08   1.6781272194601386e-05
2.1025638032596953e-06   -2.0521329366480177e-06   3.489025351344579e-05
2.1025638032596953e-06   -2.0521329366480177e-06   3.489025351344579e-05
2.1025638032596953e-06   -2.0521329366480177e-06   3.489025351344579e-05
2.1025638032596953e-06   -2.0521329366480177e-06   3.489025351344579e-05
-1.9969988601851286e-05   1.4861954346786187e-06   2.2566319438999463e-07
-1.9969988601851286e-05   1.4861954346786187e-06   2.2566319438999463e-07
-1.9969988601851286e-05   1.4861954346786187e-06   2.2566319438999463e-07
-1.9969988601851286e-05   1.4861954346786187e-06   2.2566319438999463e-07
-2.0973987026916258e-05   -2.18489564207322e-06   3.77520316581087e-05
-2.0973987026916258e-05   -2.18489564207322e-06   3.77520316581087e-05
-2.0973987026916258e-05   -2.18489564207322e-06   3.77520316581087e-05
-2.0973987026916258e-05   -2.18489564207322e-06   3.77520316581087e-05
1.2539449878334506e-06   1.196446394904514e-06   -1.323326921994156e-06
1.2539449878334506e-06   1.196446394904514e-06   -1.323326921994156e-06
1.2539449878334506e-06   1.196446394904514e-06   -1.323326921994156e-06
1.2539449878334506e-06   1.196446394904514e-06   -1.323326921994156e-06
-9.303501257880583e-06   -1.0095015199620104e-07   1.7050854749002813e-05
-9.303501257880583e-06   -1.0095015199620104e-07   1.7050854749002813e-05
-9.303501257880583e-06   -1.0095015199620104e-07   1.7050854749002813e-05
-9.303501257880583e-06   -1.0095015199620104e-07   1.7050854749002813e-05
1.2539449878334506e-06   -2.18489564207322e-06   3.5723226435921754e-05
1.2539449878334506e-06   -2.18489564207322e-06   3.5723226435921754e-05
1.2539449878334506e-06   -2.18489564207322e-06   3.5723226435921754e-05
1.2539449878334506e-06   -2.18489564207322e-06   3.5723226435921754e-05
-2.0973987026916204e-05   1.196446394904514e-06   7.054783001925712e-07
-2.0973987026916204e-05   1.196446394904514e-06   7.054783001925712e-07
-2.0973987026916204e-05   1.196446394904514e-06   7.054783001925712e-07
-2.0973987026916204e-05   1.196446394904514e-06   7.054783001925712e-07
-2.2043657312903914e-05   -2.170389251466686e-06   3.863816216065699e-05
-2.2043657312903914e-05   -2.170389251466686e-06   3.863816216065699e-05
-2.2043657312903914e-05   -2.170389251466686e-06   3.863816216065699e-05
-2.2043657312903914e-05   -2.170389251466686e-06   3.863816216065699e-05
3.16521277313837e-07   9.880062843332406e-07   -5.238394778524615e-07
3.16521277313837e-07   9.880062843332406e-07   -5.238394778524615e-07
3.16521277313837e-07   9.880062843332406e-07   -5.238394778524615e-07
3.16521277313837e-07   9.880062843332406e-07   -5.238394778524615e-07
-1.0245708427947484e-05   -1.6282860556713838e-07   1.7770377631523776e-05
-1.0245708427947484e-05   -1.6282860556713838e-07   1.7770377631523776e-05
-1.0245708427947484e-05   -1.6282860556713838e-07   1.7770377631523776e-05
-1.0245708427947484e-05   -1.6282860556713838e-07   1.7770377631523776e-05
-1.9220581700091723e-05   2.145623334087743e-06   3.1199221758812035e-05
-1.9220581700091723e-05   2.145623334087743e-06   3.1199221758812035e-05
-1.9220581700091723e-05   2.145623334087743e-06   3.1199221758812035e-05
-1.9220581700091723e-05   2.145623334087743e-06   3.1199221758812035e-05
-4.076979162356763e-05   5.8466697138443834e-06   -2.4955002857936226e-06
-4.076979162356763e-05   5.8466697138443834e-06   -2.4955002857936226e-06
-4.076979162356763e-05   5.8466697138443834e-06   -2.4955002857936226e-06
-4.076979162356763e-05   5.8466697138443834e-06   -2.4955002857936226e-06
-4.1859765474897803e-05   2.0225253445161143e-06   3.4523662900095555e-05
-4.1859765474897803e-05   2.0225253445161143e-06   3.4523662900095555e-05
-4.1859765474897803e-05   2.0225253445161143e-06   3.4523662900095555e-05
-4.1859765474897803e-05   2.0225253445161143e-06   3.4523662900095555e-05
-1.996998860185123e-05   5.53520772421357e-06   -4.066907982800517e-06
-1.996998860185123e-05   5.53520772421357e-06   -4.066907982800517e-06
-1.996998860185123e-05   5.53520772421357e-06   -4.066907982800517e-06
-1.996998860185123e-05   5.53520772421357e-06   -4.066907982800517e-06
-3.021586161977574e-05   3.953575380040604e-06   1.3958526453577405e-05
-3.021586161977574e-05   3.953575380040604e-06   1.3958526453577405e-05
-3.021586161977574e-05   3.953575380040604e-06   1.3958526453577405e-05
-3.021586161977574e-05   3.953575380040604e-06   1.3958526453577405e-05
-1.9969988601851245e-05   2.0225253445161143e-06   3.2416053472277126e-05
-1.9969988601851245e-05   2.0225253445161143e-06   3.2416053472277126e-05
-1.9969988601851245e-05   2.0225253445161143e-06   3.2416053472277126e-05
-1.9969988601851245e-05   2.0225253445161143e-06   3.2416053472277126e-05
-4.185976547489772e-05   5.53520772421357e-06   -1.9592985549820056e-06
-4.185976547489772e-05   5.53520772421357e-06   -1.9592985549820056e-06
-4.185976547489772e-05   5.53520772421357e-06   -1.9592985549820056e-06
-4.185976547489772e-05   5.53520772421357e-06   -1.9592985549820056e-06
-4.319604397787456e-05   1.7921390364334343e-06   3.664120959876913e-05
-4.319604397787456e-05   1.7921390364334343e-06   3.664120959876913e-05
-4.319604397787456e-05   1.7921390364334343e-06   3.664120959876913e-05
-4.319604397787456e-05   1.7921390364334343e-06   3.664120959876913e-05
-2.0973987026916204e-05   5.2466090705569936e-06   -2.4682340066355113e-06
-2.0973987026916204e-05   5.2466090705569936e-06   -2.4682340066355113e-06
-2.0973987026916204e-05   5.2466090705569936e-06   -2.4682340066355113e-06
-2.0973987026916204e-05   5.2466090705569936e-06   -2.4682340066355113e-06
-3.102669804067003e-05   3.882967159237654e-06   1.5104469496412393e-05
-3.102669804067003e-05   3.882967159237654e-06   1.5104469496412393e-05
-3.102669804067003e-05   3.882967159237654e-06   1.5104469496412393e-05
-3.102669804067003e-05   3.882967159237654e-06   1.5104469496412393e-05
-2.0973987026916204e-05   1.792139036433868e-06   3.456852757829508e-05
-2.0973987026916204e-05   1.792139036433868e-06   3.456852757829508e-05
-2.0973987026916204e-05   1.792139036433868e-06   3.456852757829508e-05
-2.0973987026916204e-05   1.792139036433868e-06   3.456852757829508e-05
-4.319604397787456e-05   5.24660907055721e-06   -3.9555198616146245e-07
-4.319604397787456e-05   5.24660907055721e-06   -3.9555198616146245e-07
-4.319604397787456e-05   5.24660907055721e-06   -3.9555198616146245e-07
-4.319604397787456e-05   5.24660907055721e-06   -3.9555198616146245e-07
-4.46093642116071e-05   1.5308395522085905e-06   3.83230737463062e-05
-4.46093642116071e-05   1.5308395522085905e-06   3.83230737463062e-05
-4.46093642116071e-05   1.5308395522085905e-06   3.83230737463062e-05
-4.46093642116071e-05   1.5308395522085905e-06   3.83230737463062e-05
-2.2043657312903847e-05   4.8580234035247236e-06   -1.2827480623220128e-06
-2.2043657312903847e-05   4.8580234035247236e-06   -1.2827480623220128e-06
-2.2043657312903847e-05   4.8580234035247236e-06   -1.2827480623220128e-06
-2.2043657312903847e-05   4.8580234035247236e-06   -1.2827480623220128e-06
-3.2380896278271895e-05   3.649224042692918e-06   1.6671263163124705e-05
-3.2380896278271895e-05   3.649224042692918e-06   1.6671263163124705e-05
-3.2380896278271895e-05   3.649224042692918e-06   1.6671263163124705e-05
-3.2380896278271895e-05   3.649224042692918e-06   1.6671263163124705e-05
-4.076979162356763e-05   9.641379246784487e-06   1.6423798077335123e-05
-4.076979162356763e-05   9.641379246784487e-06   1.6423798077335123e-05
-4.076979162356763e-05   9.641379246784487e-06   1.6423798077335123e-05
-4.076979162356763e-05   9.641379246784487e-06   1.6423798077335123e-05
-6.141758173182016e-05   9.508605715262538e-06   -1.8068849555332215e-05
-6.141758173182016e-05   9.508605715262538e-06   -1.8068849555332215e-05
-6.141758173182016e-05   9.508605715262538e-06   -1.8068849555332215e-05
-6.141758173182016e-05   9.508605715262538e-06   -1.8068849555332215e-05
-6.337506344275117e-05   9.311670370193079e-06   2.435632086170516e-05
-6.337506344275117e-05   9.311670370193079e-06   2.435632086170516e-05
-6.337506344275117e-05   9.311670370193079e-06   2.435632086170516e-05
-6.337506344275117e-05   9.311670370193079e-06   2.435632086170516e-05
-4.185976547489772e-05   9.693757267127982e-06   -1.1731761222878473e-05
-4.185976547489772e-05   9.693757267127982e-06   -1.1731761222878473e-05
-4.185976547489772e-05   9.693757267127982e-06   -1.1731761222878473e-05
-4.185976547489772e-05   9.693757267127982e-06   -1.1731761222878473e-05
-4.9768278365606575e-05   9.68654610781659e-06   1.4534202905564278e-06
-4.9768278365606575e-05   9.68654610781659e-06   1.4534202905564278e-06
-4.9768278365606575e-05   9.68654610781659e-06   1.4534202905564278e-06
-4.9768278365606575e-05   9.68654610781659e-06   1.4534202905564278e-06
-4.185976547489768e-05   9.311670370192645e-06   2.412706872354409e-05
-4.185976547489768e-05   9.311670370192645e-06   2.412706872354409e-05
-4.185976547489768e-05   9.311670370192645e-06   2.412706872354409e-05
-4.185976547489768e-05   9.311670370192645e-06   2.412706872354409e-05
-6.337506344275117e-05   9.693757267127765e-06   -1.1502509084717239e-05
-6.337506344275117e-05   9.693757267127765e-06   -1.1502509084717239e-05
-6.337506344275117e-05   9.693757267127765e-06   -1.1502509084717239e-05
-6.337506344275117e-05   9.693757267127765e-06   -1.1502509084717239e-05
-6.529460731868322e-05   9.075174583352864e-06   2.9919559101347897e-05
-6.529460731868322e-05   9.075174583352864e-06   2.9919559101347897e-05
-6.529460731868322e-05   9.075174583352864e-06   2.9919559101347897e-05
-6.529460731868322e-05   9.075174583352864e-06   2.9919559101347897e-05
-4.319604397787448e-05   9.624822038683178e-06   -7.2411682731981174e-06
-4.319604397787448e-05   9.624822038683178e-06   -7.2411682731981174e-06
-4.319604397787448e-05   9.624822038683178e-06   -7.2411682731981174e-06
-4.319604397787448e-05   9.624822038683178e-06   -7.2411682731981174e-06
-5.2017321585817905e-05   9.687539983352063e-06   7.423330306573271e-06
-5.2017321585817905e-05   9.687539983352063e-06   7.423330306573271e-06
-5.2017321585817905e-05   9.687539983352063e-06   7.423330306573271e-06
-5.2017321585817905e-05   9.687539983352063e-06   7.423330306573271e-06
-4.319604397787448e-05   9.075174583352864e-06   2.958977062814984e-05
-4.319604397787448e-05   9.075174583352864e-06   2.958977062814984e-05
-4.319604397787448e-05   9.075174583352864e-06   2.958977062814984e-05
-4.319604397787448e-05   9.075174583352864e-06   2.958977062814984e-05
-6.529460731868322e-05   9.624822038683178e-06   -6.911379800000222e-06
-6.529460731868322e-05   9.624822038683178e-06   -6.911379800000222e-06
-6.529460731868322e-05   9.624822038683178e-06   -6.911379800000222e-06
-6.529460731868322e-05   9.624822038683178e-06   -6.911379800000222e-06
-6.755888831746877e-05   7.5672488518184824e-06   3.921411014183736e-05
-6.755888831746877e-05   7.5672488518184824e-06   3.921411014183736e-05
-6.755888831746877e-05   7.5672488518184824e-06   3.921411014183736e-05
-6.755888831746877e-05   7.5672488518184824e-06   3.921411014183736e-05
-4.460936421160695e-05   8.86304799257282e-06   1.8742381428186322e-07
-4.460936421160695e-05   8.86304799257282e-06   1.8742381428186322e-07
-4.460936421160695e-05   8.86304799257282e-06   1.8742381428186322e-07
-4.460936421160695e-05   8.86304799257282e-06   1.8742381428186322e-07
-5.2817188042172585e-05   9.229611019273293e-06   1.3647192382538163e-05
-5.2817188042172585e-05   9.229611019273293e-06   1.3647192382538163e-05
-5.2817188042172585e-05   9.229611019273293e-06   1.3647192382538163e-05
-5.2817188042172585e-05   9.229611019273293e-06   1.3647192382538163e-05
4.089804541103266e-05   -5.719070461778289e-06   3.1516399146434317e-05
4.089804541103266e-05   -5.719070461778289e-06   3.1516399146434317e-05
4.089804541103266e-05   -5.719070461778289e-06   3.1516399146434317e-05
4.089804541103266e-05   -5.719070461778289e-06   3.1516399146434317e-05
2.0240332140058115e-05   -4.199955914574579e-06   -2.0016542435340873e-06
2.0240332140058115e-05   -4.199955914574579e-06   -2.0016542435340873e-06
2.0240332140058115e-05   -4.199955914574579e-06   -2.0016542435340873e-06
2.0240332140058115e-05   -4.199955914574579e-06   -2.0016542435340873e-06
1.946935801491688e-05   -6.479513255082956e-06   2.740018253450478e-05
1.946935801491688e-05   -6.479513255082956e-06   2.740018253450478e-05
1.946935801491688e-05   -6.479513255082956e-06   2.740018253450478e-05
1.946935801491688e-05   -6.479513255082956e-06   2.740018253450478e-05
3.94805196583538e-05   -4.8709866885825355e-06   -6.916869477790469e-06
3.94805196583538e-05   -4.8709866885825355e-06   -6.916869477790469e-06
3.94805196583538e-05   -4.8709866885825355e-06   -6.916869477790469e-06
3.94805196583538e-05   -4.8709866885825355e-06   -6.916869477790469e-06
2.8647704312353853e-05   -5.262812922202879e-06   1.1372918505714899e-05
2.8647704312353853e-05   -5.262812922202879e-06   1.1372918505714899e-05
2.8647704312353853e-05   -5.262812922202879e-06   1.1372918505714899e-05
2.8647704312353853e-05   -5.262812922202879e-06   1.1372918505714899e-05
3.948051965835373e-05   -6.479513255082956e-06   2.643506659460418e-05
3.948051965835373e-05   -6.479513255082956e-06   2.643506659460418e-05
3.948051965835373e-05   -6.479513255082956e-06   2.643506659460418e-05
3.948051965835373e-05   -6.479513255082956e-06   2.643506659460418e-05
1.946935801491694e-05   -4.8709866885825355e-06   -5.951753537889988e-06
1.946935801491694e-05   -4.8709866885825355e-06   -5.951753537889988e-06
1.946935801491694e-05   -4.8709866885825355e-06   -5.951753537889988e-06
1.946935801491694e-05   -4.8709866885825355e-06   -5.951753537889988e-06
1.8612429548948688e-05   -6.5919759040986535e-06   2.45513491410102e-05
1.8612429548948688e-05   -6.5919759040986535e-06   2.45513491410102e-05
1.8612429548948688e-05   -6.5919759040986535e-06   2.45513491410102e-05
1.8612429548948688e-05   -6.5919759040986535e-06   2.45513491410102e-05
3.819642727024111e-05   -5.005413557680489e-06   -9.04058446899459e-06
3.819642727024111e-05   -5.005413557680489e-06   -9.04058446899459e-06
3.819642727024111e-05   -5.005413557680489e-06   -9.04058446899459e-06
3.819642727024111e-05   -5.005413557680489e-06   -9.04058446899459e-06
2.811678660794065e-05   -5.523042469500906e-06   8.069393981931694e-06
2.811678660794065e-05   -5.523042469500906e-06   8.069393981931694e-06
2.811678660794065e-05   -5.523042469500906e-06   8.069393981931694e-06
2.811678660794065e-05   -5.523042469500906e-06   8.069393981931694e-06
3.8196427270240976e-05   -6.591975904098437e-06   2.35994117331593e-05
3.8196427270240976e-05   -6.591975904098437e-06   2.35994117331593e-05
3.8196427270240976e-05   -6.591975904098437e-06   2.35994117331593e-05
3.8196427270240976e-05   -6.591975904098437e-06   2.35994117331593e-05
1.8612429548948722e-05   -5.005413557680489e-06   -8.088647061143877e-06
1.8612429548948722e-05   -5.005413557680489e-06   -8.088647061143877e-06
1.8612429548948722e-05   -5.005413557680489e-06   -8.088647061143877e-06
1.8612429548948722e-05   -5.005413557680489e-06   -8.088647061143877e-06
1.7788021721923732e-05   -6.547749009586318e-06   2.0575506350248513e-05
1.7788021721923732e-05   -6.547749009586318e-06   2.0575506350248513e-05
1.7788021721923732e-05   -6.547749009586318e-06   2.0575506350248513e-05
1.7788021721923732e-05   -6.547749009586318e-06   2.0575506350248513e-05
3.674163500275407e-05   -5.057813240687834e-06   -1.1907810579141046e-05
3.674163500275407e-05   -5.057813240687834e-06   -1.1907810579141046e-05
3.674163500275407e-05   -5.057813240687834e-06   -1.1907810579141046e-05
3.674163500275407e-05   -5.057813240687834e-06   -1.1907810579141046e-05
2.6674311546117943e-05   -5.4289143038104264e-06   5.093722486459941e-06
2.6674311546117943e-05   -5.4289143038104264e-06   5.093722486459941e-06
2.6674311546117943e-05   -5.4289143038104264e-06   5.093722486459941e-06
2.6674311546117943e-05   -5.4289143038104264e-06   5.093722486459941e-06
2.0240332140058115e-05   -2.014812657916273e-06   3.3039064356157454e-05
2.0240332140058115e-05   -2.014812657916273e-06   3.3039064356157454e-05
2.0240332140058115e-05   -2.014812657916273e-06   3.3039064356157454e-05
2.0240332140058115e-05   -2.014812657916273e-06   3.3039064356157454e-05
8.495482542359063e-07   -8.040862292733701e-07   1.4475270703063602e-06
8.495482542359063e-07   -8.040862292733701e-07   1.4475270703063602e-06
8.495482542359063e-07   -8.040862292733701e-07   1.4475270703063602e-06
8.495482542359063e-07   -8.040862292733701e-07   1.4475270703063602e-06
1.0919346410170807e-07   -2.422889914582751e-06   3.338026315563092e-05
1.0919346410170807e-07   -2.422889914582751e-06   3.338026315563092e-05
1.0919346410170807e-07   -2.422889914582751e-06   3.338026315563092e-05
1.0919346410170807e-07   -2.422889914582751e-06   3.338026315563092e-05
1.946935801491694e-05   -1.2794201008406968e-06   4.27240349360031e-07
1.946935801491694e-05   -1.2794201008406968e-06   4.27240349360031e-07
1.946935801491694e-05   -1.2794201008406968e-06   4.27240349360031e-07
1.946935801491694e-05   -1.2794201008406968e-06   4.27240349360031e-07
1.0043606076902978e-05   -1.5701947167527045e-06   1.6311291682263927e-05
1.0043606076902978e-05   -1.5701947167527045e-06   1.6311291682263927e-05
1.0043606076902978e-05   -1.5701947167527045e-06   1.6311291682263927e-05
1.0043606076902978e-05   -1.5701947167527045e-06   1.6311291682263927e-05
1.9469358014916927e-05   -2.422889914582534e-06   3.2694181267385646e-05
1.9469358014916927e-05   -2.422889914582534e-06   3.2694181267385646e-05
1.9469358014916927e-05   -2.422889914582534e-06   3.2694181267385646e-05
1.9469358014916927e-05   -2.422889914582534e-06   3.2694181267385646e-05
1.0919346410170807e-07   -1.2794201008406968e-06   1.1133222376053745e-06
1.0919346410170807e-07   -1.2794201008406968e-06   1.1133222376053745e-06
1.0919346410170807e-07   -1.2794201008406968e-06   1.1133222376053745e-06
1.0919346410170807e-07   -1.2794201008406968e-06   1.1133222376053745e-06
-6.603761659419662e-07   -2.6897048601916447e-06   3.2874478841927275e-05
-6.603761659419662e-07   -2.6897048601916447e-06   3.2874478841927275e-05
-6.603761659419662e-07   -2.6897048601916447e-06   3.2874478841927275e-05
-6.603761659419662e-07   -2.6897048601916447e-06   3.2874478841927275e-05
1.8612429548948722e-05   -1.6319047453417813e-06   1.1845591486606892e-07
1.8612429548948722e-05   -1.6319047453417813e-06   1.1845591486606892e-07
1.8612429548948722e-05   -1.6319047453417813e-06   1.1845591486606892e-07
1.8612429548948722e-05   -1.6319047453417813e-06   1.1845591486606892e-07
9.193138198514828e-06   -1.8189585031225773e-06   1.5929507086924997e-05
9.193138198514828e-06   -1.8189585031225773e-06   1.5929507086924997e-05
9.193138198514828e-06   -1.8189585031225773e-06   1.5929507086924997e-05
9.193138198514828e-06   -1.8189585031225773e-06   1.5929507086924997e-05
1.8612429548948688e-05   -2.6897048601916447e-06   3.223979877301723e-05
1.8612429548948688e-05   -2.6897048601916447e-06   3.223979877301723e-05
1.8612429548948688e-05   -2.6897048601916447e-06   3.223979877301723e-05
1.8612429548948688e-05   -2.6897048601916447e-06   3.223979877301723e-05
-6.603761659419662e-07   -1.6319047453415645e-06   7.531359837761441e-07
-6.603761659419662e-07   -1.6319047453415645e-06   7.531359837761441e-07
-6.603761659419662e-07   -1.6319047453415645e-06   7.531359837761441e-07
-6.603761659419662e-07   -1.6319047453415645e-06   7.531359837761441e-07
-1.461558864279756e-06   -2.802878026694419e-06   3.31239504355956e-05
-1.461558864279756e-06   -2.802878026694419e-06   3.31239504355956e-05
-1.461558864279756e-06   -2.802878026694419e-06   3.31239504355956e-05
-1.461558864279756e-06   -2.802878026694419e-06   3.31239504355956e-05
1.778802172192378e-05   -1.9092219837447792e-06   5.051224994865705e-07
1.778802172192378e-05   -1.9092219837447792e-06   5.051224994865705e-07
1.778802172192378e-05   -1.9092219837447792e-06   5.051224994865705e-07
1.778802172192378e-05   -1.9092219837447792e-06   5.051224994865705e-07
8.554662640641099e-06   -1.9517964421451265e-06   1.5919598976665394e-05
8.554662640641099e-06   -1.9517964421451265e-06   1.5919598976665394e-05
8.554662640641099e-06   -1.9517964421451265e-06   1.5919598976665394e-05
8.554662640641099e-06   -1.9517964421451265e-06   1.5919598976665394e-05
8.495482542359063e-07   1.7974664796253231e-06   3.410218293446905e-05
8.495482542359063e-07   1.7974664796253231e-06   3.410218293446905e-05
8.495482542359063e-07   1.7974664796253231e-06   3.410218293446905e-05
8.495482542359063e-07   1.7974664796253231e-06   3.410218293446905e-05
-1.7976545758406897e-05   2.604094997315804e-06   3.2093366906787036e-06
-1.7976545758406897e-05   2.604094997315804e-06   3.2093366906787036e-06
-1.7976545758406897e-05   2.604094997315804e-06   3.2093366906787036e-06
-1.7976545758406897e-05   2.604094997315804e-06   3.2093366906787036e-06
-1.8750243922881644e-05   1.4861954346786187e-06   3.456978621514629e-05
-1.8750243922881644e-05   1.4861954346786187e-06   3.456978621514629e-05
-1.8750243922881644e-05   1.4861954346786187e-06   3.456978621514629e-05
-1.8750243922881644e-05   1.4861954346786187e-06   3.456978621514629e-05
1.0919346410170807e-07   2.209270246015865e-06   2.7035456833715945e-06
1.0919346410170807e-07   2.209270246015865e-06   2.7035456833715945e-06
1.0919346410170807e-07   2.209270246015865e-06   2.7035456833715945e-06
1.0919346410170807e-07   2.209270246015865e-06   2.7035456833715945e-06
-8.95580592402358e-06   2.0466617179960584e-06   1.790944311372565e-05
-8.95580592402358e-06   2.0466617179960584e-06   1.790944311372565e-05
-8.95580592402358e-06   2.0466617179960584e-06   1.790944311372565e-05
-8.95580592402358e-06   2.0466617179960584e-06   1.790944311372565e-05
1.0919346410170807e-07   1.4861954346786187e-06   3.413594132834386e-05
1.0919346410170807e-07   1.4861954346786187e-06   3.413594132834386e-05
1.0919346410170807e-07   1.4861954346786187e-06   3.413594132834386e-05
1.0919346410170807e-07   1.4861954346786187e-06   3.413594132834386e-05
-1.8750243922881644e-05   2.209270246015865e-06   3.137390570174029e-06
-1.8750243922881644e-05   2.209270246015865e-06   3.137390570174029e-06
-1.8750243922881644e-05   2.209270246015865e-06   3.137390570174029e-06
-1.8750243922881644e-05   2.209270246015865e-06   3.137390570174029e-06
-1.9567058737807137e-05   1.196446394904514e-06   3.4894090203724205e-05
-1.9567058737807137e-05   1.196446394904514e-06   3.4894090203724205e-05
-1.9567058737807137e-05   1.196446394904514e-06   3.4894090203724205e-05
-1.9567058737807137e-05   1.196446394904514e-06   3.4894090203724205e-05
-6.603761659419662e-07   1.825927959482913e-06   3.0052636452016065e-06
-6.603761659419662e-07   1.825927959482913e-06   3.0052636452016065e-06
-6.603761659419662e-07   1.825927959482913e-06   3.0052636452016065e-06
-6.603761659419662e-07   1.825927959482913e-06   3.0052636452016065e-06
-9.6744120877244e-06   1.821665674474034e-06   1.8031214219177774e-05
-9.6744120877244e-06   1.821665674474034e-06   1.8031214219177774e-05
-9.6744120877244e-06   1.821665674474034e-06   1.8031214219177774e-05
-9.6744120877244e-06   1.821665674474034e-06   1.8031214219177774e-05
-6.603761659419662e-07   1.196446394904514e-06   3.4516401264977035e-05
-6.603761659419662e-07   1.196446394904514e-06   3.4516401264977035e-05
-6.603761659419662e-07   1.196446394904514e-06   3.4516401264977035e-05
-6.603761659419662e-07   1.196446394904514e-06   3.4516401264977035e-05
-1.9567058737807164e-05   1.825927959482913e-06   3.382952583948803e-06
-1.9567058737807164e-05   1.825927959482913e-06   3.382952583948803e-06
-1.9567058737807164e-05   1.825927959482913e-06   3.382952583948803e-06
-1.9567058737807164e-05   1.825927959482913e-06   3.382952583948803e-06
-2.040983446721359e-05   9.880062843334574e-07   3.540991097903236e-05
-2.040983446721359e-05   9.880062843334574e-07   3.540991097903236e-05
-2.040983446721359e-05   9.880062843334574e-07   3.540991097903236e-05
-2.040983446721359e-05   9.880062843334574e-07   3.540991097903236e-05
-1.461558864279756e-06   1.4847523263838633e-06   3.5314040155790525e-06
-1.461558864279756e-06   1.4847523263838633e-06   3.5314040155790525e-06
-1.461558864279756e-06   1.4847523263838633e-06   3.5314040155790525e-06
-1.461558864279756e-06   1.4847523263838633e-06   3.5314040155790525e-06
-1.0452080869724099e-05   1.6061943045168371e-06   1.84427421711072e-05
-1.0452080869724099e-05   1.6061943045168371e-06   1.84427421711072e-05
-1.0452080869724099e-05   1.6061943045168371e-06   1.84427421711072e-05
-1.0452080869724099e-05   1.6061943045168371e-06   1.84427421711072e-05
-1.797654575840695e-05   5.8466697138446e-06   2.9761966925778054e-05
-1.797654575840695e-05   5.8466697138446e-06   2.9761966925778054e-05
-1.797654575840695e-05   5.8466697138446e-06   2.9761966925778054e-05
-1.797654575840695e-05   5.8466697138446e-06   2.9761966925778054e-05
-3.62169695834638e-05   5.920839870660619e-06   -5.942373552268645e-07
-3.62169695834638e-05   5.920839870660619e-06   -5.942373552268645e-07
-3.62169695834638e-05   5.920839870660619e-06   -5.942373552268645e-07
-3.62169695834638e-05   5.920839870660619e-06   -5.942373552268645e-07
-3.711508810126459e-05   5.53520772421357e-06   3.0282754691681076e-05
-3.711508810126459e-05   5.53520772421357e-06   3.0282754691681076e-05
-3.711508810126459e-05   5.53520772421357e-06   3.0282754691681076e-05
-3.711508810126459e-05   5.53520772421357e-06   3.0282754691681076e-05
-1.875024392288167e-05   5.544440480422007e-06   -3.308585926824572e-07
-1.875024392288167e-05   5.544440480422007e-06   -3.308585926824572e-07
-1.875024392288167e-05   5.544440480422007e-06   -3.308585926824572e-07
-1.875024392288167e-05   5.544440480422007e-06   -3.308585926824572e-07
-2.7391788436901998e-05   5.697071599132042e-06   1.398013692612552e-05
-2.7391788436901998e-05   5.697071599132042e-06   1.398013692612552e-05
-2.7391788436901998e-05   5.697071599132042e-06   1.398013692612552e-05
-2.7391788436901998e-05   5.697071599132042e-06   1.398013692612552e-05
-1.875024392288167e-05   5.53520772421357e-06   3.0277215037955753e-05
-1.875024392288167e-05   5.53520772421357e-06   3.0277215037955753e-05
-1.875024392288167e-05   5.53520772421357e-06   3.0277215037955753e-05
-1.875024392288167e-05   5.53520772421357e-06   3.0277215037955753e-05
-3.711508810126454e-05   5.544440480422007e-06   -3.253189389572971e-07
-3.711508810126454e-05   5.544440480422007e-06   -3.253189389572971e-07
-3.711508810126454e-05   5.544440480422007e-06   -3.253189389572971e-07
-3.711508810126454e-05   5.544440480422007e-06   -3.253189389572971e-07
-3.81101343439661e-05   5.24660907055721e-06   3.169055368587104e-05
-3.81101343439661e-05   5.24660907055721e-06   3.169055368587104e-05
-3.81101343439661e-05   5.24660907055721e-06   3.169055368587104e-05
-3.81101343439661e-05   5.24660907055721e-06   3.169055368587104e-05
-1.9567058737807164e-05   5.196902052182362e-06   8.152518866309767e-07
-1.9567058737807164e-05   5.196902052182362e-06   8.152518866309767e-07
-1.9567058737807164e-05   5.196902052182362e-06   8.152518866309767e-07
-1.9567058737807164e-05   5.196902052182362e-06   8.152518866309767e-07
-2.8040010923186884e-05   5.484862242211919e-06   1.4764062748246225e-05
-2.8040010923186884e-05   5.484862242211919e-06   1.4764062748246225e-05
-2.8040010923186884e-05   5.484862242211919e-06   1.4764062748246225e-05
-2.8040010923186884e-05   5.484862242211919e-06   1.4764062748246225e-05
-1.9567058737807164e-05   5.2466090705569936e-06   3.1720377896895906e-05
-1.9567058737807164e-05   5.2466090705569936e-06   3.1720377896895906e-05
-1.9567058737807164e-05   5.2466090705569936e-06   3.1720377896895906e-05
-1.9567058737807164e-05   5.2466090705569936e-06   3.1720377896895906e-05
-3.8110134343966045e-05   5.196902052182362e-06   7.854276756063009e-07
-3.8110134343966045e-05   5.196902052182362e-06   7.854276756063009e-07
-3.8110134343966045e-05   5.196902052182362e-06   7.854276756063009e-07
-3.8110134343966045e-05   5.196902052182362e-06   7.854276756063009e-07
-3.905824588752984e-05   4.8580234035247236e-06   3.270434283487414e-05
-3.905824588752984e-05   4.8580234035247236e-06   3.270434283487414e-05
-3.905824588752984e-05   4.8580234035247236e-06   3.270434283487414e-05
-3.905824588752984e-05   4.8580234035247236e-06   3.270434283487414e-05
-2.0409834467213672e-05   4.771986339843336e-06   1.6752793725560678e-06
-2.0409834467213672e-05   4.771986339843336e-06   1.6752793725560678e-06
-2.0409834467213672e-05   4.771986339843336e-06   1.6752793725560678e-06
-2.0409834467213672e-05   4.771986339843336e-06   1.6752793725560678e-06
-2.907369794555113e-05   5.208524887808817e-06   1.5853128707673722e-05
-2.907369794555113e-05   5.208524887808817e-06   1.5853128707673722e-05
-2.907369794555113e-05   5.208524887808817e-06   1.5853128707673722e-05
-2.907369794555113e-05   5.208524887808817e-06   1.5853128707673722e-05
-3.621696958346375e-05   9.508605715262538e-06   1.4312783869242568e-05
-3.621696958346375e-05   9.508605715262538e-06   1.4312783869242568e-05
-3.621696958346375e-05   9.508605715262538e-06   1.4312783869242568e-05
-3.621696958346375e-05   9.508605715262538e-06   1.4312783869242568e-05
-5.3561872199154e-05   8.530662824027735e-06   -1.5182152891648646e-05
-5.3561872199154e-05   8.530662824027735e-06   -1.5182152891648646e-05
-5.3561872199154e-05   8.530662824027735e-06   -1.5182152891648646e-05
-5.3561872199154e-05   8.530662824027735e-06   -1.5182152891648646e-05
-5.4976356269141044e-05   9.693757267127765e-06   1.9867890022306958e-05
-5.4976356269141044e-05   9.693757267127765e-06   1.9867890022306958e-05
-5.4976356269141044e-05   9.693757267127765e-06   1.9867890022306958e-05
-5.4976356269141044e-05   9.693757267127765e-06   1.9867890022306958e-05
-3.711508810126459e-05   8.623087264665466e-06   -9.258488256009894e-06
-3.711508810126459e-05   8.623087264665466e-06   -9.258488256009894e-06
-3.711508810126459e-05   8.623087264665466e-06   -9.258488256009894e-06
-3.711508810126459e-05   8.623087264665466e-06   -9.258488256009894e-06
-4.372626768855003e-05   9.03489429165895e-06   1.5130601732699827e-06
-4.372626768855003e-05   9.03489429165895e-06   1.5130601732699827e-06
-4.372626768855003e-05   9.03489429165895e-06   1.5130601732699827e-06
-4.372626768855003e-05   9.03489429165895e-06   1.5130601732699827e-06
-3.711508810126451e-05   9.693757267127982e-06   2.0510292023784337e-05
-3.711508810126451e-05   9.693757267127982e-06   2.0510292023784337e-05
-3.711508810126451e-05   9.693757267127982e-06   2.0510292023784337e-05
-3.711508810126451e-05   9.693757267127982e-06   2.0510292023784337e-05
-5.497635626914126e-05   8.623087264665466e-06   -9.90089025748749e-06
-5.497635626914126e-05   8.623087264665466e-06   -9.90089025748749e-06
-5.497635626914126e-05   8.623087264665466e-06   -9.90089025748749e-06
-5.497635626914126e-05   8.623087264665466e-06   -9.90089025748749e-06
-5.6357001579799675e-05   9.624822038683178e-06   2.4187278888336853e-05
-5.6357001579799675e-05   9.624822038683178e-06   2.4187278888336853e-05
-5.6357001579799675e-05   9.624822038683178e-06   2.4187278888336853e-05
-5.6357001579799675e-05   9.624822038683178e-06   2.4187278888336853e-05
-3.81101343439661e-05   8.528724521187454e-06   -5.566507994221755e-06
-3.81101343439661e-05   8.528724521187454e-06   -5.566507994221755e-06
-3.81101343439661e-05   8.528724521187454e-06   -5.566507994221755e-06
-3.81101343439661e-05   8.528724521187454e-06   -5.566507994221755e-06
-4.546781271603716e-05   9.200578360880028e-06   6.293176988748353e-06
-4.546781271603716e-05   9.200578360880028e-06   6.293176988748353e-06
-4.546781271603716e-05   9.200578360880028e-06   6.293176988748353e-06
-4.546781271603716e-05   9.200578360880028e-06   6.293176988748353e-06
-3.81101343439661e-05   9.624822038683178e-06   2.4844937398834548e-05
-3.81101343439661e-05   9.624822038683178e-06   2.4844937398834548e-05
-3.81101343439661e-05   9.624822038683178e-06   2.4844937398834548e-05
-3.81101343439661e-05   9.624822038683178e-06   2.4844937398834548e-05
-5.635700157979989e-05   8.528724521187454e-06   -6.224166504719395e-06
-5.635700157979989e-05   8.528724521187454e-06   -6.224166504719395e-06
-5.635700157979989e-05   8.528724521187454e-06   -6.224166504719395e-06
-5.635700157979989e-05   8.528724521187454e-06   -6.224166504719395e-06
-5.7968900142203896e-05   8.86304799257282e-06   3.1583861225742806e-05
-5.7968900142203896e-05   8.86304799257282e-06   3.1583861225742806e-05
-5.7968900142203896e-05   8.86304799257282e-06   3.1583861225742806e-05
-5.7968900142203896e-05   8.86304799257282e-06   3.1583861225742806e-05
-3.905824588752984e-05   7.872476034329924e-06   6.604473095647516e-07
-3.905824588752984e-05   7.872476034329924e-06   6.604473095647516e-07
-3.905824588752984e-05   7.872476034329924e-06   6.604473095647516e-07
-3.905824588752984e-05   7.872476034329924e-06   6.604473095647516e-07
-4.5904719520112436e-05   8.929711196461933e-06   1.1436895599923952e-05
-4.5904719520112436e-05   8.929711196461933e-06   1.1436895599923952e-05
-4.5904719520112436e-05   8.929711196461933e-06   1.1436895599923952e-05
-4.5904719520112436e-05   8.929711196461933e-06   1.1436895599923952e-05
3.109500999631903e-05   -4.199955914574579e-06   2.634791376288515e-05
3.109500999631903e-05   -4.199955914574579e-06   2.634791376288515e-05
3.109500999631903e-05   -4.199955914574579e-06   2.634791376288515e-05
3.109500999631903e-05   -4.199955914574579e-06   2.634791376288515e-05
1.463452069889428e-05   -2.7815118261390742e-06   -2.3516861309517967e-07
1.463452069889428e-05   -2.7815118261390742e-06   -2.3516861309517967e-07
1.463452069889428e-05   -2.7815118261390742e-06   -2.3516861309517967e-07
1.463452069889428e-05   -2.7815118261390742e-06   -2.3516861309517967e-07
1.3945540040867168e-05   -4.8709866885825355e-06   2.3145862837974703e-05
1.3945540040867168e-05   -4.8709866885825355e-06   2.3145862837974703e-05
1.3945540040867168e-05   -4.8709866885825355e-06   2.3145862837974703e-05
1.3945540040867168e-05   -4.8709866885825355e-06   2.3145862837974703e-05
2.976165729794456e-05   -3.3738886925549667e-06   -4.1125913881039105e-06
2.976165729794456e-05   -3.3738886925549667e-06   -4.1125913881039105e-06
2.976165729794456e-05   -3.3738886925549667e-06   -4.1125913881039105e-06
2.976165729794456e-05   -3.3738886925549667e-06   -4.1125913881039105e-06
2.130755343174106e-05   -3.8351759977478354e-06   1.0254354105350958e-05
2.130755343174106e-05   -3.8351759977478354e-06   1.0254354105350958e-05
2.130755343174106e-05   -3.8351759977478354e-06   1.0254354105350958e-05
2.130755343174106e-05   -3.8351759977478354e-06   1.0254354105350958e-05
2.976165729794456e-05   -4.8709866885825355e-06   2.224760404035851e-05
2.976165729794456e-05   -4.8709866885825355e-06   2.224760404035851e-05
2.976165729794456e-05   -4.8709866885825355e-06   2.224760404035851e-05
2.976165729794456e-05   -4.8709866885825355e-06   2.224760404035851e-05
1.3945540040867198e-05   -3.3738886925549667e-06   -3.2143325904873503e-06
1.3945540040867198e-05   -3.3738886925549667e-06   -3.2143325904873503e-06
1.3945540040867198e-05   -3.3738886925549667e-06   -3.2143325904873503e-06
1.3945540040867198e-05   -3.3738886925549667e-06   -3.2143325904873503e-06
1.3184771240331044e-05   -5.005413557680489e-06   2.0895592865738215e-05
1.3184771240331044e-05   -5.005413557680489e-06   2.0895592865738215e-05
1.3184771240331044e-05   -5.005413557680489e-06   2.0895592865738215e-05
1.3184771240331044e-05   -5.005413557680489e-06   2.0895592865738215e-05
2.8592731132835928e-05   -3.531828091351977e-06   -5.668491568233791e-06
2.8592731132835928e-05   -3.531828091351977e-06   -5.668491568233791e-06
2.8592731132835928e-05   -3.531828091351977e-06   -5.668491568233791e-06
2.8592731132835928e-05   -3.531828091351977e-06   -5.668491568233791e-06
2.0757108234499452e-05   -4.075692672429916e-06   7.717198677641092e-06
2.0757108234499452e-05   -4.075692672429916e-06   7.717198677641092e-06
2.0757108234499452e-05   -4.075692672429916e-06   7.717198677641092e-06
2.0757108234499452e-05   -4.075692672429916e-06   7.717198677641092e-06
2.859273113283588e-05   -5.005413557680489e-06   2.0011441585941325e-05
2.859273113283588e-05   -5.005413557680489e-06   2.0011441585941325e-05
2.859273113283588e-05   -5.005413557680489e-06   2.0011441585941325e-05
2.859273113283588e-05   -5.005413557680489e-06   2.0011441585941325e-05
1.3184771240331064e-05   -3.531828091351977e-06   -4.7843402884363995e-06
1.3184771240331064e-05   -3.531828091351977e-06   -4.7843402884363995e-06
1.3184771240331064e-05   -3.531828091351977e-06   -4.7843402884363995e-06
1.3184771240331064e-05   -3.531828091351977e-06   -4.7843402884363995e-06
1.2482133298946605e-05   -5.057813240688051e-06   1.7845015932354668e-05
1.2482133298946605e-05   -5.057813240688051e-06   1.7845015932354668e-05
1.2482133298946605e-05   -5.057813240688051e-06   1.7845015932354668e-05
1.2482133298946605e-05   -5.057813240688051e-06   1.7845015932354668e-05
2.7286135151587854e-05   -3.6779773658929694e-06   -7.656222013591114e-06
2.7286135151587854e-05   -3.6779773658929694e-06   -7.656222013591114e-06
2.7286135151587854e-05   -3.6779773658929694e-06   -7.656222013591114e-06
2.7286135151587854e-05   -3.6779773658929694e-06   -7.656222013591114e-06
1.9534711486157838e-05   -4.051632750134981e-06   5.487010659337816e-06
1.9534711486157838e-05   -4.051632750134981e-06   5.487010659337816e-06
1.9534711486157838e-05   -4.051632750134981e-06   5.487010659337816e-06
1.9534711486157838e-05   -4.051632750134981e-06   5.487010659337816e-06
1.4634520698894228e-05   -8.040862292733701e-07   2.992172567260103e-05
1.4634520698894228e-05   -8.040862292733701e-07   2.992172567260103e-05
1.4634520698894228e-05   -8.040862292733701e-07   2.992172567260103e-05
1.4634520698894228e-05   -8.040862292733701e-07   2.992172567260103e-05
-9.432349684442725e-07   -1.732339306617474e-08   4.430857262094248e-06
-9.432349684442725e-07   -1.732339306617474e-08   4.430857262094248e-06
-9.432349684442725e-07   -1.732339306617474e-08   4.430857262094248e-06
-9.432349684442725e-07   -1.732339306617474e-08   4.430857262094248e-06
-1.5911417198483866e-06   -1.27942010084048e-06   2.9973283522542445e-05
-1.5911417198483866e-06   -1.27942010084048e-06   2.9973283522542445e-05
-1.5911417198483866e-06   -1.27942010084048e-06   2.9973283522542445e-05
-1.5911417198483866e-06   -1.27942010084048e-06   2.9973283522542445e-05
1.3945540040867198e-05   -5.320421053117783e-07   3.6303871240322706e-06
1.3945540040867198e-05   -5.320421053117783e-07   3.6303871240322706e-06
1.3945540040867198e-05   -5.320421053117783e-07   3.6303871240322706e-06
1.3945540040867198e-05   -5.320421053117783e-07   3.6303871240322706e-06
6.4058424318494995e-06   -6.769909076794964e-07   1.6283519087149207e-05
6.4058424318494995e-06   -6.769909076794964e-07   1.6283519087149207e-05
6.4058424318494995e-06   -6.769909076794964e-07   1.6283519087149207e-05
6.4058424318494995e-06   -6.769909076794964e-07   1.6283519087149207e-05
1.3945540040867161e-05   -1.2794201008406968e-06   2.9524856725225007e-05
1.3945540040867161e-05   -1.2794201008406968e-06   2.9524856725225007e-05
1.3945540040867161e-05   -1.2794201008406968e-06   2.9524856725225007e-05
1.3945540040867161e-05   -1.2794201008406968e-06   2.9524856725225007e-05
-1.5911417198483866e-06   -5.320421053117783e-07   4.078813921349722e-06
-1.5911417198483866e-06   -5.320421053117783e-07   4.078813921349722e-06
-1.5911417198483866e-06   -5.320421053117783e-07   4.078813921349722e-06
-1.5911417198483866e-06   -5.320421053117783e-07   4.078813921349722e-06
-2.25290241299282e-06   -1.6319047453415645e-06   2.951948439150454e-05
-2.25290241299282e-06   -1.6319047453415645e-06   2.951948439150454e-05
-2.25290241299282e-06   -1.6319047453415645e-06   2.951948439150454e-05
-2.25290241299282e-06   -1.6319047453415645e-06   2.951948439150454e-05
1.3184771240331064e-05   -9.37257162414093e-07   3.373239752874844e-06
1.3184771240331064e-05   -9.37257162414093e-07   3.373239752874844e-06
1.3184771240331064e-05   -9.37257162414093e-07   3.373239752874844e-06
1.3184771240331064e-05   -9.37257162414093e-07   3.373239752874844e-06
5.678645505926804e-06   -9.943801789393664e-07   1.591772312013165e-05
5.678645505926804e-06   -9.943801789393664e-07   1.591772312013165e-05
5.678645505926804e-06   -9.943801789393664e-07   1.591772312013165e-05
5.678645505926804e-06   -9.943801789393664e-07   1.591772312013165e-05
1.3184771240331044e-05   -1.6319047453417813e-06   2.9102695841748188e-05
1.3184771240331044e-05   -1.6319047453417813e-06   2.9102695841748188e-05
1.3184771240331044e-05   -1.6319047453417813e-06   2.9102695841748188e-05
1.3184771240331044e-05   -1.6319047453417813e-06   2.9102695841748188e-05
-2.25290241299282e-06   -9.37257162414093e-07   3.7900283026314407e-06
-2.25290241299282e-06   -9.37257162414093e-07   3.7900283026314407e-06
-2.25290241299282e-06   -9.37257162414093e-07   3.7900283026314407e-06
-2.25290241299282e-06   -9.37257162414093e-07   3.7900283026314407e-06
-2.918295500493583e-06   -1.9092219837447792e-06   2.9722373933635613e-05
-2.918295500493583e-06   -1.9092219837447792e-06   2.9722373933635613e-05
-2.918295500493583e-06   -1.9092219837447792e-06   2.9722373933635613e-05
-2.918295500493583e-06   -1.9092219837447792e-06   2.9722373933635613e-05
1.2482133298946615e-05   -1.3119113437575543e-06   3.6966062172428404e-06
1.2482133298946615e-05   -1.3119113437575543e-06   3.6966062172428404e-06
1.2482133298946615e-05   -1.3119113437575543e-06   3.6966062172428404e-06
1.2482133298946615e-05   -1.3119113437575543e-06   3.6966062172428404e-06
5.124077732568939e-06   -1.2287201286644185e-06   1.591011743215043e-05
5.124077732568939e-06   -1.2287201286644185e-06   1.591011743215043e-05
5.124077732568939e-06   -1.2287201286644185e-06   1.591011743215043e-05
5.124077732568939e-06   -1.2287201286644185e-06   1.591011743215043e-05
-9.432349684442725e-07   2.604094997316021e-06   3.1671615884082925e-05
-9.432349684442725e-07   2.604094997316021e-06   3.1671615884082925e-05
-9.432349684442725e-07   2.604094997316021e-06   3.1671615884082925e-05
-9.432349684442725e-07   2.604094997316021e-06   3.1671615884082925e-05
-1.6194095049588427e-05   2.6815410051257184e-06   6.299983353528788e-06
-1.6194095049588427e-05   2.6815410051257184e-06   6.299983353528788e-06
-1.6194095049588427e-05   2.6815410051257184e-06   6.299983353528788e-06
-1.6194095049588427e-05   2.6815410051257184e-06   6.299983353528788e-06
-1.684566071953714e-05   2.209270246015865e-06   3.1575847377660494e-05
-1.684566071953714e-05   2.209270246015865e-06   3.1575847377660494e-05
-1.684566071953714e-05   2.209270246015865e-06   3.1575847377660494e-05
-1.684566071953714e-05   2.209270246015865e-06   3.1575847377660494e-05
-1.5911417198484002e-06   2.229837594936194e-06   6.139308635494037e-06
-1.5911417198484002e-06   2.229837594936194e-06   6.139308635494037e-06
-1.5911417198484002e-06   2.229837594936194e-06   6.139308635494037e-06
-1.5911417198484002e-06   2.229837594936194e-06   6.139308635494037e-06
-8.916577620861678e-06   2.3883471353997217e-06   1.8253262746237883e-05
-8.916577620861678e-06   2.3883471353997217e-06   1.8253262746237883e-05
-8.916577620861678e-06   2.3883471353997217e-06   1.8253262746237883e-05
-8.916577620861678e-06   2.3883471353997217e-06   1.8253262746237883e-05
-1.5911417198484002e-06   2.209270246015865e-06   3.1563506968308556e-05
-1.5911417198484002e-06   2.209270246015865e-06   3.1563506968308556e-05
-1.5911417198484002e-06   2.209270246015865e-06   3.1563506968308556e-05
-1.5911417198484002e-06   2.209270246015865e-06   3.1563506968308556e-05
-1.684566071953714e-05   2.229837594936194e-06   6.15164904484611e-06
-1.684566071953714e-05   2.229837594936194e-06   6.15164904484611e-06
-1.684566071953714e-05   2.229837594936194e-06   6.15164904484611e-06
-1.684566071953714e-05   2.229837594936194e-06   6.15164904484611e-06
-1.7513404176972062e-05   1.8259279594826962e-06   3.174725324524329e-05
-1.7513404176972062e-05   1.8259279594826962e-06   3.174725324524329e-05
-1.7513404176972062e-05   1.8259279594826962e-06   3.174725324524329e-05
-1.7513404176972062e-05   1.8259279594826962e-06   3.174725324524329e-05
-2.25290241299282e-06   1.7853299466713546e-06   6.33744244629819e-06
-2.25290241299282e-06   1.7853299466713546e-06   6.33744244629819e-06
-2.25290241299282e-06   1.7853299466713546e-06   6.33744244629819e-06
-2.25290241299282e-06   1.7853299466713546e-06   6.33744244629819e-06
-9.52137499172282e-06   2.0848933427308064e-06   1.827182537321307e-05
-9.52137499172282e-06   2.0848933427308064e-06   1.827182537321307e-05
-9.52137499172282e-06   2.0848933427308064e-06   1.827182537321307e-05
-9.52137499172282e-06   2.0848933427308064e-06   1.827182537321307e-05
-2.25290241299282e-06   1.8259279594826962e-06   3.1771612052930356e-05
-2.25290241299282e-06   1.8259279594826962e-06   3.1771612052930356e-05
-2.25290241299282e-06   1.8259279594826962e-06   3.1771612052930356e-05
-2.25290241299282e-06   1.8259279594826962e-06   3.1771612052930356e-05
-1.7513404176972062e-05   1.7853299466713546e-06   6.313083638611206e-06
-1.7513404176972062e-05   1.7853299466713546e-06   6.313083638611206e-06
-1.7513404176972062e-05   1.7853299466713546e-06   6.313083638611206e-06
-1.7513404176972062e-05   1.7853299466713546e-06   6.313083638611206e-06
-1.8180796810679983e-05   1.4847523263838633e-06   3.2139754477047934e-05
-1.8180796810679983e-05   1.4847523263838633e-06   3.2139754477047934e-05
-1.8180796810679983e-05   1.4847523263838633e-06   3.2139754477047934e-05
-1.8180796810679983e-05   1.4847523263838633e-06   3.2139754477047934e-05
-2.918295500493583e-06   1.3635734148666895e-06   6.774959640314289e-06
-2.918295500493583e-06   1.3635734148666895e-06   6.774959640314289e-06
-2.918295500493583e-06   1.3635734148666895e-06   6.774959640314289e-06
-2.918295500493583e-06   1.3635734148666895e-06   6.774959640314289e-06
-1.0154621680517075e-05   1.7892701315894936e-06   1.8580085243653582e-05
-1.0154621680517075e-05   1.7892701315894936e-06   1.8580085243653582e-05
-1.0154621680517075e-05   1.7892701315894936e-06   1.8580085243653582e-05
-1.0154621680517075e-05   1.7892701315894936e-06   1.8580085243653582e-05
-1.61940950495884e-05   5.920839870660836e-06   2.787000734877365e-05
-1.61940950495884e-05   5.920839870660836e-06   2.787000734877365e-05
-1.61940950495884e-05   5.920839870660836e-06   2.787000734877365e-05
-1.61940950495884e-05   5.920839870660836e-06   2.787000734877365e-05
-3.111294191446442e-05   5.279553014782149e-06   2.620490460453228e-06
-3.111294191446442e-05   5.279553014782149e-06   2.620490460453228e-06
-3.111294191446442e-05   5.279553014782149e-06   2.620490460453228e-06
-3.111294191446442e-05   5.279553014782149e-06   2.620490460453228e-06
-3.1814184732264334e-05   5.544440480422007e-06   2.7689401722972608e-05
-3.1814184732264334e-05   5.544440480422007e-06   2.7689401722972608e-05
-3.1814184732264334e-05   5.544440480422007e-06   2.7689401722972608e-05
-3.1814184732264334e-05   5.544440480422007e-06   2.7689401722972608e-05
-1.6845660719537166e-05   4.847446327369042e-06   3.160058193592567e-06
-1.6845660719537166e-05   4.847446327369042e-06   3.160058193592567e-06
-1.6845660719537166e-05   4.847446327369042e-06   3.160058193592567e-06
-1.6845660719537166e-05   4.847446327369042e-06   3.160058193592567e-06
-2.391232157465564e-05   5.3270846088440856e-06   1.4650043316571579e-05
-2.391232157465564e-05   5.3270846088440856e-06   1.4650043316571579e-05
-2.391232157465564e-05   5.3270846088440856e-06   1.4650043316571579e-05
-2.391232157465564e-05   5.3270846088440856e-06   1.4650043316571579e-05
-1.684566071953714e-05   5.544440480422007e-06   2.8107598214804387e-05
-1.684566071953714e-05   5.544440480422007e-06   2.8107598214804387e-05
-1.684566071953714e-05   5.544440480422007e-06   2.8107598214804387e-05
-1.684566071953714e-05   5.544440480422007e-06   2.8107598214804387e-05
-3.1814184732264334e-05   4.847446327369042e-06   2.7418617017607337e-06
-3.1814184732264334e-05   4.847446327369042e-06   2.7418617017607337e-06
-3.1814184732264334e-05   4.847446327369042e-06   2.7418617017607337e-06
-3.1814184732264334e-05   4.847446327369042e-06   2.7418617017607337e-06
-3.25859164236322e-05   5.196902052182362e-06   2.8728037387622512e-05
-3.25859164236322e-05   5.196902052182362e-06   2.8728037387622512e-05
-3.25859164236322e-05   5.196902052182362e-06   2.8728037387622512e-05
-3.25859164236322e-05   5.196902052182362e-06   2.8728037387622512e-05
-1.751340417697209e-05   4.444376785010459e-06   4.0586988034922115e-06
-1.751340417697209e-05   4.444376785010459e-06   4.0586988034922115e-06
-1.751340417697209e-05   4.444376785010459e-06   4.0586988034922115e-06
-1.751340417697209e-05   4.444376785010459e-06   4.0586988034922115e-06
-2.4414726075235648e-05   5.0514191982375944e-06   1.5196676519329253e-05
-2.4414726075235648e-05   5.0514191982375944e-06   1.5196676519329253e-05
-2.4414726075235648e-05   5.0514191982375944e-06   1.5196676519329253e-05
-2.4414726075235648e-05   5.0514191982375944e-06   1.5196676519329253e-05
-1.7513404176972062e-05   5.196902052182362e-06   2.9179552547925654e-05
-1.7513404176972062e-05   5.196902052182362e-06   2.9179552547925654e-05
-1.7513404176972062e-05   5.196902052182362e-06   2.9179552547925654e-05
-1.7513404176972062e-05   5.196902052182362e-06   2.9179552547925654e-05
-3.25859164236322e-05   4.444376785010459e-06   3.607183643189178e-06
-3.25859164236322e-05   4.444376785010459e-06   3.607183643189178e-06
-3.25859164236322e-05   4.444376785010459e-06   3.607183643189178e-06
-3.25859164236322e-05   4.444376785010459e-06   3.607183643189178e-06
-3.329128445883961e-05   4.771986339843336e-06   2.9507140105814768e-05
-3.329128445883961e-05   4.771986339843336e-06   2.9507140105814768e-05
-3.329128445883961e-05   4.771986339843336e-06   2.9507140105814768e-05
-3.329128445883961e-05   4.771986339843336e-06   2.9507140105814768e-05
-1.818079681068001e-05   3.97458283487662e-06   4.801436128528769e-06
-1.818079681068001e-05   3.97458283487662e-06   4.801436128528769e-06
-1.818079681068001e-05   3.97458283487662e-06   4.801436128528769e-06
-1.818079681068001e-05   3.97458283487662e-06   4.801436128528769e-06
-2.5216057857867054e-05   4.739971438591593e-06   1.6067638044946122e-05
-2.5216057857867054e-05   4.739971438591593e-06   1.6067638044946122e-05
-2.5216057857867054e-05   4.739971438591593e-06   1.6067638044946122e-05
-2.5216057857867054e-05   4.739971438591593e-06   1.6067638044946122e-05
-3.111294191446442e-05   8.530662824027735e-06   1.3484085433565626e-05
-3.111294191446442e-05   8.530662824027735e-06   1.3484085433565626e-05
-3.111294191446442e-05   8.530662824027735e-06   1.3484085433565626e-05
-3.111294191446442e-05   8.530662824027735e-06   1.3484085433565626e-05
-4.5290939677565436e-05   7.281964020733724e-06   -1.0895130120245765e-05
-4.5290939677565436e-05   7.281964020733724e-06   -1.0895130120245765e-05
-4.5290939677565436e-05   7.281964020733724e-06   -1.0895130120245765e-05
-4.5290939677565436e-05   7.281964020733724e-06   -1.0895130120245765e-05
-4.6551734500066815e-05   8.62308726466525e-06   1.7930746242700865e-05
-4.6551734500066815e-05   8.62308726466525e-06   1.7930746242700865e-05
-4.6551734500066815e-05   8.62308726466525e-06   1.7930746242700865e-05
-4.6551734500066815e-05   8.62308726466525e-06   1.7930746242700865e-05
-3.1814184732264334e-05   7.24727699263363e-06   -5.806350540417621e-06
-3.1814184732264334e-05   7.24727699263363e-06   -5.806350540417621e-06
-3.1814184732264334e-05   7.24727699263363e-06   -5.806350540417621e-06
-3.1814184732264334e-05   7.24727699263363e-06   -5.806350540417621e-06
-3.722012574560643e-05   7.804057769572473e-06   2.8694826823225127e-06
-3.722012574560643e-05   7.804057769572473e-06   2.8694826823225127e-06
-3.722012574560643e-05   7.804057769572473e-06   2.8694826823225127e-06
-3.722012574560643e-05   7.804057769572473e-06   2.8694826823225127e-06
-3.181418473226431e-05   8.62308726466525e-06   1.8756232405920227e-05
-3.181418473226431e-05   8.62308726466525e-06   1.8756232405920227e-05
-3.181418473226431e-05   8.62308726466525e-06   1.8756232405920227e-05
-3.181418473226431e-05   8.62308726466525e-06   1.8756232405920227e-05
-4.6551734500066924e-05   7.24727699263363e-06   -6.631836703636712e-06
-4.6551734500066924e-05   7.24727699263363e-06   -6.631836703636712e-06
-4.6551734500066924e-05   7.24727699263363e-06   -6.631836703636712e-06
-4.6551734500066924e-05   7.24727699263363e-06   -6.631836703636712e-06
-4.768009433075992e-05   8.52872452118767e-06   2.1518965628163902e-05
-4.768009433075992e-05   8.52872452118767e-06   2.1518965628163902e-05
-4.768009433075992e-05   8.52872452118767e-06   2.1518965628163902e-05
-4.768009433075992e-05   8.52872452118767e-06   2.1518965628163902e-05
-3.25859164236322e-05   7.10016437180383e-06   -2.7808614607521495e-06
-3.25859164236322e-05   7.10016437180383e-06   -2.7808614607521495e-06
-3.25859164236322e-05   7.10016437180383e-06   -2.7808614607521495e-06
-3.25859164236322e-05   7.10016437180383e-06   -2.7808614607521495e-06
-3.867170694099569e-05   7.89087082669654e-06   6.8876988619194154e-06
-3.867170694099569e-05   7.89087082669654e-06   6.8876988619194154e-06
-3.867170694099569e-05   7.89087082669654e-06   6.8876988619194154e-06
-3.867170694099569e-05   7.89087082669654e-06   6.8876988619194154e-06
-3.25859164236322e-05   8.52872452118767e-06   2.237610171779451e-05
-3.25859164236322e-05   8.52872452118767e-06   2.237610171779451e-05
-3.25859164236322e-05   8.52872452118767e-06   2.237610171779451e-05
-3.25859164236322e-05   8.52872452118767e-06   2.237610171779451e-05
-4.768009433076003e-05   7.10016437180383e-06   -3.637997550382378e-06
-4.768009433076003e-05   7.10016437180383e-06   -3.637997550382378e-06
-4.768009433076003e-05   7.10016437180383e-06   -3.637997550382378e-06
-4.768009433076003e-05   7.10016437180383e-06   -3.637997550382378e-06
-4.8976161271372585e-05   7.872476034329924e-06   2.769035317864814e-05
-4.8976161271372585e-05   7.872476034329924e-06   2.769035317864814e-05
-4.8976161271372585e-05   7.872476034329924e-06   2.769035317864814e-05
-4.8976161271372585e-05   7.872476034329924e-06   2.769035317864814e-05
-3.329128445883961e-05   6.449847530356828e-06   2.402468926810449e-06
-3.329128445883961e-05   6.449847530356828e-06   2.402468926810449e-06
-3.329128445883961e-05   6.449847530356828e-06   2.402468926810449e-06
-3.329128445883961e-05   6.449847530356828e-06   2.402468926810449e-06
-3.897813463395007e-05   7.6210759019370525e-06   1.1177815529047144e-05
-3.897813463395007e-05   7.6210759019370525e-06   1.1177815529047144e-05
-3.897813463395007e-05   7.6210759019370525e-06   1.1177815529047144e-05
-3.897813463395007e-05   7.6210759019370525e-06   1.1177815529047144e-05
2.146840743570039e-05   -2.781511826139291e-06   2.1479776692717115e-05
2.146840743570039e-05   -2.781511826139291e-06   2.1479776692717115e-05
2.146840743570039e-05   -2.781511826139291e-06   2.1479776692717115e-05
2.146840743570039e-05   -2.781511826139291e-06   2.1479776692717115e-05
8.9108951480215e-06   -1.3737383883084386e-06   1.3952536092841361e-06
8.9108951480215e-06   -1.3737383883084386e-06   1.3952536092841361e-06
8.9108951480215e-06   -1.3737383883084386e-06   1.3952536092841361e-06
8.9108951480215e-06   -1.3737383883084386e-06   1.3952536092841361e-06
8.356197225536015e-06   -3.3738886925549667e-06   1.9307041149309204e-05
8.356197225536015e-06   -3.3738886925549667e-06   1.9307041149309204e-05
8.356197225536015e-06   -3.3738886925549667e-06   1.9307041149309204e-05
8.356197225536015e-06   -3.3738886925549667e-06   1.9307041149309204e-05
2.0286955378353166e-05   -1.9042653522862059e-06   -1.4593297762139327e-06
2.0286955378353166e-05   -1.9042653522862059e-06   -1.4593297762139327e-06
2.0286955378353166e-05   -1.9042653522862059e-06   -1.4593297762139327e-06
2.0286955378353166e-05   -1.9042653522862059e-06   -1.4593297762139327e-06
1.4021766763939847e-05   -2.4146033047462833e-06   9.288854019284744e-06
1.4021766763939847e-05   -2.4146033047462833e-06   9.288854019284744e-06
1.4021766763939847e-05   -2.4146033047462833e-06   9.288854019284744e-06
1.4021766763939847e-05   -2.4146033047462833e-06   9.288854019284744e-06
2.02869553783532e-05   -3.3738886925551836e-06   1.842526714514799e-05
2.02869553783532e-05   -3.3738886925551836e-06   1.842526714514799e-05
2.02869553783532e-05   -3.3738886925551836e-06   1.842526714514799e-05
2.02869553783532e-05   -3.3738886925551836e-06   1.842526714514799e-05
8.356197225535985e-06   -1.9042653522862059e-06   -5.775557720525976e-07
8.356197225535985e-06   -1.9042653522862059e-06   -5.775557720525976e-07
8.356197225535985e-06   -1.9042653522862059e-06   -5.775557720525976e-07
8.356197225535985e-06   -1.9042653522862059e-06   -5.775557720525976e-07
7.732849233112499e-06   -3.531828091351977e-06   1.769423059369275e-05
7.732849233112499e-06   -3.531828091351977e-06   1.769423059369275e-05
7.732849233112499e-06   -3.531828091351977e-06   1.769423059369275e-05
7.732849233112499e-06   -3.531828091351977e-06   1.769423059369275e-05
1.9272409428644953e-05   -2.086550605413578e-06   -2.405536223757483e-06
1.9272409428644953e-05   -2.086550605413578e-06   -2.405536223757483e-06
1.9272409428644953e-05   -2.086550605413578e-06   -2.405536223757483e-06
1.9272409428644953e-05   -2.086550605413578e-06   -2.405536223757483e-06
1.3497874953380775e-05   -2.6397573171872864e-06   7.550611928747468e-06
1.3497874953380775e-05   -2.6397573171872864e-06   7.550611928747468e-06
1.3497874953380775e-05   -2.6397573171872864e-06   7.550611928747468e-06
1.3497874953380775e-05   -2.6397573171872864e-06   7.550611928747468e-06
1.9272409428644987e-05   -3.531828091351977e-06   1.682706410212982e-05
1.9272409428644987e-05   -3.531828091351977e-06   1.682706410212982e-05
1.9272409428644987e-05   -3.531828091351977e-06   1.682706410212982e-05
1.9272409428644987e-05   -3.531828091351977e-06   1.682706410212982e-05
7.732849233112489e-06   -2.086550605413578e-06   -1.5383697321946603e-06
7.732849233112489e-06   -2.086550605413578e-06   -1.5383697321946603e-06
7.732849233112489e-06   -2.086550605413578e-06   -1.5383697321946603e-06
7.732849233112489e-06   -2.086550605413578e-06   -1.5383697321946603e-06
7.173937906573489e-06   -3.6779773658929694e-06   1.5597404585033668e-05
7.173937906573489e-06   -3.6779773658929694e-06   1.5597404585033668e-05
7.173937906573489e-06   -3.6779773658929694e-06   1.5597404585033668e-05
7.173937906573489e-06   -3.6779773658929694e-06   1.5597404585033668e-05
1.8121104967171224e-05   -2.3263987443604243e-06   -3.458821022215471e-06
1.8121104967171224e-05   -2.3263987443604243e-06   -3.458821022215471e-06
1.8121104967171224e-05   -2.3263987443604243e-06   -3.458821022215471e-06
1.8121104967171224e-05   -2.3263987443604243e-06   -3.458821022215471e-06
1.2522431957807644e-05   -2.6831142434203484e-06   6.086329959493141e-06
1.2522431957807644e-05   -2.6831142434203484e-06   6.086329959493141e-06
1.2522431957807644e-05   -2.6831142434203484e-06   6.086329959493141e-06
1.2522431957807644e-05   -2.6831142434203484e-06   6.086329959493141e-06
8.910895148021534e-06   -1.732339306639158e-08   2.6518408928880672e-05
8.910895148021534e-06   -1.732339306639158e-08   2.6518408928880672e-05
8.910895148021534e-06   -1.732339306639158e-08   2.6518408928880672e-05
8.910895148021534e-06   -1.732339306639158e-08   2.6518408928880672e-05
-2.8697550657868614e-06   6.983294592484424e-07   7.313383617255586e-06
-2.8697550657868614e-06   6.983294592484424e-07   7.313383617255586e-06
-2.8697550657868614e-06   6.983294592484424e-07   7.313383617255586e-06
-2.8697550657868614e-06   6.983294592484424e-07   7.313383617255586e-06
-3.379594269632875e-06   -5.320421053117783e-07   2.6568102912691858e-05
-3.379594269632875e-06   -5.320421053117783e-07   2.6568102912691858e-05
-3.379594269632875e-06   -5.320421053117783e-07   2.6568102912691858e-05
-3.379594269632875e-06   -5.320421053117783e-07   2.6568102912691858e-05
8.356197225535985e-06   1.618613094597765e-07   6.592108371881043e-06
8.356197225535985e-06   1.618613094597765e-07   6.592108371881043e-06
8.356197225535985e-06   1.618613094597765e-07   6.592108371881043e-06
8.356197225535985e-06   1.618613094597765e-07   6.592108371881043e-06
2.6703403348323747e-06   3.147919388222023e-08   1.614676579240077e-05
2.6703403348323747e-06   3.147919388222023e-08   1.614676579240077e-05
2.6703403348323747e-06   3.147919388222023e-08   1.614676579240077e-05
2.6703403348323747e-06   3.147919388222023e-08   1.614676579240077e-05
8.356197225536009e-06   -5.320421053115615e-07   2.6151760863829055e-05
8.356197225536009e-06   -5.320421053115615e-07   2.6151760863829055e-05
8.356197225536009e-06   -5.320421053115615e-07   2.6151760863829055e-05
8.356197225536009e-06   -5.320421053115615e-07   2.6151760863829055e-05
-3.3795942696328616e-06   1.618613094597765e-07   7.008450420743859e-06
-3.3795942696328616e-06   1.618613094597765e-07   7.008450420743859e-06
-3.3795942696328616e-06   1.618613094597765e-07   7.008450420743859e-06
-3.3795942696328616e-06   1.618613094597765e-07   7.008450420743859e-06
-3.900943802173079e-06   -9.37257162414093e-07   2.6248179009725103e-05
-3.900943802173079e-06   -9.37257162414093e-07   2.6248179009725103e-05
-3.900943802173079e-06   -9.37257162414093e-07   2.6248179009725103e-05
-3.900943802173079e-06   -9.37257162414093e-07   2.6248179009725103e-05
7.732849233112489e-06   -2.7664320454627404e-07   6.462155576195081e-06
7.732849233112489e-06   -2.7664320454627404e-07   6.462155576195081e-06
7.732849233112489e-06   -2.7664320454627404e-07   6.462155576195081e-06
7.732849233112489e-06   -2.7664320454627404e-07   6.462155576195081e-06
2.1094574573669372e-06   -3.2605325029754634e-07   1.586412122988912e-05
2.1094574573669372e-06   -3.2605325029754634e-07   1.586412122988912e-05
2.1094574573669372e-06   -3.2605325029754634e-07   1.586412122988912e-05
2.1094574573669372e-06   -3.2605325029754634e-07   1.586412122988912e-05
7.732849233112516e-06   -9.37257162414093e-07   2.585181063500424e-05
7.732849233112516e-06   -9.37257162414093e-07   2.585181063500424e-05
7.732849233112516e-06   -9.37257162414093e-07   2.585181063500424e-05
7.732849233112516e-06   -9.37257162414093e-07   2.585181063500424e-05
-3.900943802173079e-06   -2.766432045464909e-07   6.858523950915743e-06
-3.900943802173079e-06   -2.766432045464909e-07   6.858523950915743e-06
-3.900943802173079e-06   -2.766432045464909e-07   6.858523950915743e-06
-3.900943802173079e-06   -2.766432045464909e-07   6.858523950915743e-06
-4.417970951980352e-06   -1.3119113437575543e-06   2.648457406136638e-05
-4.417970951980352e-06   -1.3119113437575543e-06   2.648457406136638e-05
-4.417970951980352e-06   -1.3119113437575543e-06   2.648457406136638e-05
-4.417970951980352e-06   -1.3119113437575543e-06   2.648457406136638e-05
7.173937906573462e-06   -7.081733931313221e-07   6.802483193400947e-06
7.173937906573462e-06   -7.081733931313221e-07   6.802483193400947e-06
7.173937906573462e-06   -7.081733931313221e-07   6.802483193400947e-06
7.173937906573462e-06   -7.081733931313221e-07   6.802483193400947e-06
1.6669014301581135e-06   -6.23565535539999e-07   1.5930112606204897e-05
1.6669014301581135e-06   -6.23565535539999e-07   1.5930112606204897e-05
1.6669014301581135e-06   -6.23565535539999e-07   1.5930112606204897e-05
1.6669014301581135e-06   -6.23565535539999e-07   1.5930112606204897e-05
-2.869755065786848e-06   2.6815410051255015e-06   2.8770459127018316e-05
-2.869755065786848e-06   2.6815410051255015e-06   2.8770459127018316e-05
-2.869755065786848e-06   2.6815410051255015e-06   2.8770459127018316e-05
-2.869755065786848e-06   2.6815410051255015e-06   2.8770459127018316e-05
-1.4455153542176799e-05   2.640468577437202e-06   9.436818209755194e-06
-1.4455153542176799e-05   2.640468577437202e-06   9.436818209755194e-06
-1.4455153542176799e-05   2.640468577437202e-06   9.436818209755194e-06
-1.4455153542176799e-05   2.640468577437202e-06   9.436818209755194e-06
-1.4958316781099319e-05   2.229837594936194e-06   2.8582798454899506e-05
-1.4958316781099319e-05   2.229837594936194e-06   2.8582798454899506e-05
-1.4958316781099319e-05   2.229837594936194e-06   2.8582798454899506e-05
-1.4958316781099319e-05   2.229837594936194e-06   2.8582798454899506e-05
-3.3795942696328616e-06   2.1535056417079385e-06   9.330726774392289e-06
-3.3795942696328616e-06   2.1535056417079385e-06   9.330726774392289e-06
-3.3795942696328616e-06   2.1535056417079385e-06   9.330726774392289e-06
-3.3795942696328616e-06   2.1535056417079385e-06   9.330726774392289e-06
-8.937995159586355e-06   2.3658588403307167e-06   1.8467316338474985e-05
-8.937995159586355e-06   2.3658588403307167e-06   1.8467316338474985e-05
-8.937995159586355e-06   2.3658588403307167e-06   1.8467316338474985e-05
-8.937995159586355e-06   2.3658588403307167e-06   1.8467316338474985e-05
-3.379594269632875e-06   2.229837594936194e-06   2.86285976268362e-05
-3.379594269632875e-06   2.229837594936194e-06   2.86285976268362e-05
-3.379594269632875e-06   2.229837594936194e-06   2.86285976268362e-05
-3.379594269632875e-06   2.229837594936194e-06   2.86285976268362e-05
-1.4958316781099319e-05   2.1535056417079385e-06   9.284927602455488e-06
-1.4958316781099319e-05   2.1535056417079385e-06   9.284927602455488e-06
-1.4958316781099319e-05   2.1535056417079385e-06   9.284927602455488e-06
-1.4958316781099319e-05   2.1535056417079385e-06   9.284927602455488e-06
-1.5473516036575266e-05   1.7853299466713546e-06   2.872768229009474e-05
-1.5473516036575266e-05   1.7853299466713546e-06   2.872768229009474e-05
-1.5473516036575266e-05   1.7853299466713546e-06   2.872768229009474e-05
-1.5473516036575266e-05   1.7853299466713546e-06   2.872768229009474e-05
-3.900943802173079e-06   1.6721451745098717e-06   9.507972762721437e-06
-3.900943802173079e-06   1.6721451745098717e-06   9.507972762721437e-06
-3.900943802173079e-06   1.6721451745098717e-06   9.507972762721437e-06
-3.900943802173079e-06   1.6721451745098717e-06   9.507972762721437e-06
-9.398648578561897e-06   2.01263606090297e-06   1.8466519524867593e-05
-9.398648578561897e-06   2.01263606090297e-06   1.8466519524867593e-05
-9.398648578561897e-06   2.01263606090297e-06   1.8466519524867593e-05
-9.398648578561897e-06   2.01263606090297e-06   1.8466519524867593e-05
-3.9009438021730925e-06   1.7853299466713546e-06   2.8795593153391717e-05
-3.9009438021730925e-06   1.7853299466713546e-06   2.8795593153391717e-05
-3.9009438021730925e-06   1.7853299466713546e-06   2.8795593153391717e-05
-3.9009438021730925e-06   1.7853299466713546e-06   2.8795593153391717e-05
-1.5473516036575266e-05   1.6721451745098717e-06   9.440061899424596e-06
-1.5473516036575266e-05   1.6721451745098717e-06   9.440061899424596e-06
-1.5473516036575266e-05   1.6721451745098717e-06   9.440061899424596e-06
-1.5473516036575266e-05   1.6721451745098717e-06   9.440061899424596e-06
-1.598265232507411e-05   1.3635734148666895e-06   2.911167670937285e-05
-1.598265232507411e-05   1.3635734148666895e-06   2.911167670937285e-05
-1.598265232507411e-05   1.3635734148666895e-06   2.911167670937285e-05
-1.598265232507411e-05   1.3635734148666895e-06   2.911167670937285e-05
-4.417970951980338e-06   1.2087994297460807e-06   9.930072145289127e-06
-4.417970951980338e-06   1.2087994297460807e-06   9.930072145289127e-06
-4.417970951980338e-06   1.2087994297460807e-06   9.930072145289127e-06
-4.417970951980338e-06   1.2087994297460807e-06   9.930072145289127e-06
-9.880569905407819e-06   1.6677764268207412e-06   1.8759017536090176e-05
-9.880569905407819e-06   1.6677764268207412e-06   1.8759017536090176e-05
-9.880569905407819e-06   1.6677764268207412e-06   1.8759017536090176e-05
-9.880569905407819e-06   1.6677764268207412e-06   1.8759017536090176e-05
-1.4455153542176799e-05   5.279553014782366e-06   2.5451094890856685e-05
-1.4455153542176799e-05   5.279553014782366e-06   2.5451094890856685e-05
-1.4455153542176799e-05   5.279553014782366e-06   2.5451094890856685e-05
-1.4455153542176799e-05   5.279553014782366e-06   2.5451094890856685e-05
-2.5849229003642237e-05   4.5302532066424876e-06   6.011389236863871e-06
-2.5849229003642237e-05   4.5302532066424876e-06   6.011389236863871e-06
-2.5849229003642237e-05   4.5302532066424876e-06   6.011389236863871e-06
-2.5849229003642237e-05   4.5302532066424876e-06   6.011389236863871e-06
-2.6389152501849508e-05   4.847446327369042e-06   2.5115679319113147e-05
-2.6389152501849508e-05   4.847446327369042e-06   2.5115679319113147e-05
-2.6389152501849508e-05   4.847446327369042e-06   2.5115679319113147e-05
-2.6389152501849508e-05   4.847446327369042e-06   2.5115679319113147e-05
-1.4958316781099265e-05   4.054899186481647e-06   6.539814735728711e-06
-1.4958316781099265e-05   4.054899186481647e-06   6.539814735728711e-06
-1.4958316781099265e-05   4.054899186481647e-06   6.539814735728711e-06
-1.4958316781099265e-05   4.054899186481647e-06   6.539814735728711e-06
-2.035517327966799e-05   4.597931854775916e-06   1.520875596570069e-05
-2.035517327966799e-05   4.597931854775916e-06   1.520875596570069e-05
-2.035517327966799e-05   4.597931854775916e-06   1.520875596570069e-05
-2.035517327966799e-05   4.597931854775916e-06   1.520875596570069e-05
-1.4958316781099319e-05   4.847446327368825e-06   2.559120760364591e-05
-1.4958316781099319e-05   4.847446327368825e-06   2.559120760364591e-05
-1.4958316781099319e-05   4.847446327368825e-06   2.559120760364591e-05
-1.4958316781099319e-05   4.847446327368825e-06   2.559120760364591e-05
-2.6389152501849454e-05   4.05489918648143e-06   6.064286451196383e-06
-2.6389152501849454e-05   4.05489918648143e-06   6.064286451196383e-06
-2.6389152501849454e-05   4.05489918648143e-06   6.064286451196383e-06
-2.6389152501849454e-05   4.05489918648143e-06   6.064286451196383e-06
-2.69966225095338e-05   4.444376785010459e-06   2.5975480905638358e-05
-2.69966225095338e-05   4.444376785010459e-06   2.5975480905638358e-05
-2.69966225095338e-05   4.444376785010459e-06   2.5975480905638358e-05
-2.69966225095338e-05   4.444376785010459e-06   2.5975480905638358e-05
-1.547351603657524e-05   3.6146825361147404e-06   7.268120000044893e-06
-1.547351603657524e-05   3.6146825361147404e-06   7.268120000044893e-06
-1.547351603657524e-05   3.6146825361147404e-06   7.268120000044893e-06
-1.547351603657524e-05   3.6146825361147404e-06   7.268120000044893e-06
-2.0728401265933996e-05   4.274282698454998e-06   1.563050195157274e-05
-2.0728401265933996e-05   4.274282698454998e-06   1.563050195157274e-05
-2.0728401265933996e-05   4.274282698454998e-06   1.563050195157274e-05
-2.0728401265933996e-05   4.274282698454998e-06   1.563050195157274e-05
-1.5473516036575266e-05   4.444376785010459e-06   2.6473297454975746e-05
-1.5473516036575266e-05   4.444376785010459e-06   2.6473297454975746e-05
-1.5473516036575266e-05   4.444376785010459e-06   2.6473297454975746e-05
-1.5473516036575266e-05   4.444376785010459e-06   2.6473297454975746e-05
-2.6996622509533745e-05   3.6146825361147404e-06   6.770303450707614e-06
-2.6996622509533745e-05   3.6146825361147404e-06   6.770303450707614e-06
-2.6996622509533745e-05   3.6146825361147404e-06   6.770303450707614e-06
-2.6996622509533745e-05   3.6146825361147404e-06   6.770303450707614e-06
-2.7536439672454005e-05   3.97458283487662e-06   2.6699436563830696e-05
-2.7536439672454005e-05   3.97458283487662e-06   2.6699436563830696e-05
-2.7536439672454005e-05   3.97458283487662e-06   2.6699436563830696e-05
-2.7536439672454005e-05   3.97458283487662e-06   2.6699436563830696e-05
-1.5982652325074054e-05   3.1222095337648387e-06   7.954548298864602e-06
-1.5982652325074054e-05   3.1222095337648387e-06   7.954548298864602e-06
-1.5982652325074054e-05   3.1222095337648387e-06   7.954548298864602e-06
-1.5982652325074054e-05   3.1222095337648387e-06   7.954548298864602e-06
-2.133767909522557e-05   3.9332102915203265e-06   1.6392992461131183e-05
-2.133767909522557e-05   3.9332102915203265e-06   1.6392992461131183e-05
-2.133767909522557e-05   3.9332102915203265e-06   1.6392992461131183e-05
-2.133767909522557e-05   3.9332102915203265e-06   1.6392992461131183e-05
-2.5849229003642237e-05   7.281964020733724e-06   1.2235113707250193e-05
-2.5849229003642237e-05   7.281964020733724e-06   1.2235113707250193e-05
-2.5849229003642237e-05   7.281964020733724e-06   1.2235113707250193e-05
-2.5849229003642237e-05   7.281964020733724e-06   1.2235113707250193e-05
-3.654268290788641e-05   5.9477473230680825e-06   -6.387839485089738e-06
-3.654268290788641e-05   5.9477473230680825e-06   -6.387839485089738e-06
-3.654268290788641e-05   5.9477473230680825e-06   -6.387839485089738e-06
-3.654268290788641e-05   5.9477473230680825e-06   -6.387839485089738e-06
-3.7672290091818285e-05   7.247276992633847e-06   1.56968112923336e-05
-3.7672290091818285e-05   7.247276992633847e-06   1.56968112923336e-05
-3.7672290091818285e-05   7.247276992633847e-06   1.56968112923336e-05
-3.7672290091818285e-05   7.247276992633847e-06   1.56968112923336e-05
-2.63891525018494e-05   5.796184018298182e-06   -2.237762239679726e-06
-2.63891525018494e-05   5.796184018298182e-06   -2.237762239679726e-06
-2.63891525018494e-05   5.796184018298182e-06   -2.237762239679726e-06
-2.63891525018494e-05   5.796184018298182e-06   -2.237762239679726e-06
-3.0428323088421862e-05   6.448156107286213e-06   4.103005484548672e-06
-3.0428323088421862e-05   6.448156107286213e-06   4.103005484548672e-06
-3.0428323088421862e-05   6.448156107286213e-06   4.103005484548672e-06
-3.0428323088421862e-05   6.448156107286213e-06   4.103005484548672e-06
-2.638915250184948e-05   7.247276992633847e-06   1.656746707693474e-05
-2.638915250184948e-05   7.247276992633847e-06   1.656746707693474e-05
-2.638915250184948e-05   7.247276992633847e-06   1.656746707693474e-05
-2.638915250184948e-05   7.247276992633847e-06   1.656746707693474e-05
-3.767229009181834e-05   5.796184018298399e-06   -3.1084180242811903e-06
-3.767229009181834e-05   5.796184018298399e-06   -3.1084180242811903e-06
-3.767229009181834e-05   5.796184018298399e-06   -3.1084180242811903e-06
-3.767229009181834e-05   5.796184018298399e-06   -3.1084180242811903e-06
-3.865738564480726e-05   7.10016437180383e-06   1.869302466045268e-05
-3.865738564480726e-05   7.10016437180383e-06   1.869302466045268e-05
-3.865738564480726e-05   7.10016437180383e-06   1.869302466045268e-05
-3.865738564480726e-05   7.10016437180383e-06   1.869302466045268e-05
-2.699662250953369e-05   5.609479136396743e-06   1.5283057624141836e-07
-2.699662250953369e-05   5.609479136396743e-06   1.5283057624141836e-07
-2.699662250953369e-05   5.609479136396743e-06   1.5283057624141836e-07
-2.699662250953369e-05   5.609479136396743e-06   1.5283057624141836e-07
-3.162615055247451e-05   6.453022777224348e-06   7.36258446331397e-06
-3.162615055247451e-05   6.453022777224348e-06   7.36258446331397e-06
-3.162615055247451e-05   6.453022777224348e-06   7.36258446331397e-06
-3.162615055247451e-05   6.453022777224348e-06   7.36258446331397e-06
-2.69966225095338e-05   7.10016437180383e-06   1.9587435801697085e-05
-2.69966225095338e-05   7.10016437180383e-06   1.9587435801697085e-05
-2.69966225095338e-05   7.10016437180383e-06   1.9587435801697085e-05
-2.69966225095338e-05   7.10016437180383e-06   1.9587435801697085e-05
-3.865738564480726e-05   5.609479136396743e-06   -7.415805650029311e-07
-3.865738564480726e-05   5.609479136396743e-06   -7.415805650029311e-07
-3.865738564480726e-05   5.609479136396743e-06   -7.415805650029311e-07
-3.865738564480726e-05   5.609479136396743e-06   -7.415805650029311e-07
-3.979968719051817e-05   6.449847530356828e-06   2.389809327563424e-05
-3.979968719051817e-05   6.449847530356828e-06   2.389809327563424e-05
-3.979968719051817e-05   6.449847530356828e-06   2.389809327563424e-05
-3.979968719051817e-05   6.449847530356828e-06   2.389809327563424e-05
-2.7536439672453896e-05   4.981817214593995e-06   4.340165601651887e-06
-2.7536439672453896e-05   4.981817214593995e-06   4.340165601651887e-06
-2.7536439672453896e-05   4.981817214593995e-06   4.340165601651887e-06
-2.7536439672453896e-05   4.981817214593995e-06   4.340165601651887e-06
-3.189060008917625e-05   6.179568399223125e-06   1.0878448918744598e-05
-3.189060008917625e-05   6.179568399223125e-06   1.0878448918744598e-05
-3.189060008917625e-05   6.179568399223125e-06   1.0878448918744598e-05
-3.189060008917625e-05   6.179568399223125e-06   1.0878448918744598e-05
1.1968813978128652e-05   -1.3737383883084386e-06   1.692704622172959e-05
1.1968813978128652e-05   -1.3737383883084386e-06   1.692704622172959e-05
1.1968813978128652e-05   -1.3737383883084386e-06   1.692704622172959e-05
1.1968813978128652e-05   -1.3737383883084386e-06   1.692704622172959e-05
3.147646574242337e-06   2.1556696871982695e-08   3.0622775996940648e-06
3.147646574242337e-06   2.1556696871982695e-08   3.0622775996940648e-06
3.147646574242337e-06   2.1556696871982695e-08   3.0622775996940648e-06
3.147646574242337e-06   2.1556696871982695e-08   3.0622775996940648e-06
2.732001225575414e-06   -1.9042653522862059e-06   1.577595226417625e-05
2.732001225575414e-06   -1.9042653522862059e-06   1.577595226417625e-05
2.732001225575414e-06   -1.9042653522862059e-06   1.577595226417625e-05
2.732001225575414e-06   -1.9042653522862059e-06   1.577595226417625e-05
1.0940889341738992e-05   -4.542805541896816e-07   1.2244811917126697e-06
1.0940889341738992e-05   -4.542805541896816e-07   1.2244811917126697e-06
1.0940889341738992e-05   -4.542805541896816e-07   1.2244811917126697e-06
1.0940889341738992e-05   -4.542805541896816e-07   1.2244811917126697e-06
6.773249102604534e-06   -9.950287814587157e-07   8.494997193298588e-06
6.773249102604534e-06   -9.950287814587157e-07   8.494997193298588e-06
6.773249102604534e-06   -9.950287814587157e-07   8.494997193298588e-06
6.773249102604534e-06   -9.950287814587157e-07   8.494997193298588e-06
1.0940889341739012e-05   -1.9042653522862059e-06   1.490596138531853e-05
1.0940889341739012e-05   -1.9042653522862059e-06   1.490596138531853e-05
1.0940889341739012e-05   -1.9042653522862059e-06   1.490596138531853e-05
1.0940889341739012e-05   -1.9042653522862059e-06   1.490596138531853e-05
2.7320012255754106e-06   -4.542805541896816e-07   2.0944720705704705e-06
2.7320012255754106e-06   -4.542805541896816e-07   2.0944720705704705e-06
2.7320012255754106e-06   -4.542805541896816e-07   2.0944720705704705e-06
2.7320012255754106e-06   -4.542805541896816e-07   2.0944720705704705e-06
2.2473046250559683e-06   -2.086550605413578e-06   1.480235186645867e-05
2.2473046250559683e-06   -2.086550605413578e-06   1.480235186645867e-05
2.2473046250559683e-06   -2.086550605413578e-06   1.480235186645867e-05
2.2473046250559683e-06   -2.086550605413578e-06   1.480235186645867e-05
1.00702183861223e-05   -6.589559445725843e-07   9.076054681770429e-07
1.00702183861223e-05   -6.589559445725843e-07   9.076054681770429e-07
1.00702183861223e-05   -6.589559445725843e-07   9.076054681770429e-07
1.00702183861223e-05   -6.589559445725843e-07   9.076054681770429e-07
6.27766860968777e-06   -1.2027815398170816e-06   7.554817119381275e-06
6.27766860968777e-06   -1.2027815398170816e-06   7.554817119381275e-06
6.27766860968777e-06   -1.2027815398170816e-06   7.554817119381275e-06
6.27766860968777e-06   -1.2027815398170816e-06   7.554817119381275e-06
1.00702183861223e-05   -2.086550605413578e-06   1.3945795069954226e-05
1.00702183861223e-05   -2.086550605413578e-06   1.3945795069954226e-05
1.00702183861223e-05   -2.086550605413578e-06   1.3945795069954226e-05
1.00702183861223e-05   -2.086550605413578e-06   1.3945795069954226e-05
2.247304625055958e-06   -6.589559445725843e-07   1.7641622646816365e-06
2.247304625055958e-06   -6.589559445725843e-07   1.7641622646816365e-06
2.247304625055958e-06   -6.589559445725843e-07   1.7641622646816365e-06
2.247304625055958e-06   -6.589559445725843e-07   1.7641622646816365e-06
1.8272026712988054e-06   -2.3263987443604243e-06   1.367419899996167e-05
1.8272026712988054e-06   -2.3263987443604243e-06   1.367419899996167e-05
1.8272026712988054e-06   -2.3263987443604243e-06   1.367419899996167e-05
1.8272026712988054e-06   -2.3263987443604243e-06   1.367419899996167e-05
9.050177460197012e-06   -9.989675598847444e-07   8.394489744462677e-07
9.050177460197012e-06   -9.989675598847444e-07   8.394489744462677e-07
9.050177460197012e-06   -9.989675598847444e-07   8.394489744462677e-07
9.050177460197012e-06   -9.989675598847444e-07   8.394489744462677e-07
5.544165386376318e-06   -1.3090682267295067e-06   6.868862830921121e-06
5.544165386376318e-06   -1.3090682267295067e-06   6.868862830921121e-06
5.544165386376318e-06   -1.3090682267295067e-06   6.868862830921121e-06
5.544165386376318e-06   -1.3090682267295067e-06   6.868862830921121e-06
3.1476465742423403e-06   6.983294592484424e-07   2.3252961569420415e-05
3.1476465742423403e-06   6.983294592484424e-07   2.3252961569420415e-05
3.1476465742423403e-06   6.983294592484424e-07   2.3252961569420415e-05
3.1476465742423403e-06   6.983294592484424e-07   2.3252961569420415e-05
-4.885790312930663e-06   1.331115115029086e-06   1.0243571484267193e-05
-4.885790312930663e-06   1.331115115029086e-06   1.0243571484267193e-05
-4.885790312930663e-06   1.331115115029086e-06   1.0243571484267193e-05
-4.885790312930663e-06   1.331115115029086e-06   1.0243571484267193e-05
-5.2510834001664466e-06   1.618613094597765e-07   2.3324937865394743e-05
-5.2510834001664466e-06   1.618613094597765e-07   2.3324937865394743e-05
-5.2510834001664466e-06   1.618613094597765e-07   2.3324937865394743e-05
-5.2510834001664466e-06   1.618613094597765e-07   2.3324937865394743e-05
2.7320012255754106e-06   7.94063738267627e-07   9.64047536520704e-06
2.7320012255754106e-06   7.94063738267627e-07   9.64047536520704e-06
2.7320012255754106e-06   7.94063738267627e-07   9.64047536520704e-06
2.7320012255754106e-06   7.94063738267627e-07   9.64047536520704e-06
-1.1245991580042418e-06   6.92522145006539e-07   1.6129067627130493e-05
-1.1245991580042418e-06   6.92522145006539e-07   1.6129067627130493e-05
-1.1245991580042418e-06   6.92522145006539e-07   1.6129067627130493e-05
-1.1245991580042418e-06   6.92522145006539e-07   1.6129067627130493e-05
2.7320012255754106e-06   1.618613094597765e-07   2.2945616408109903e-05
2.7320012255754106e-06   1.618613094597765e-07   2.2945616408109903e-05
2.7320012255754106e-06   1.618613094597765e-07   2.2945616408109903e-05
2.7320012255754106e-06   1.618613094597765e-07   2.2945616408109903e-05
-5.2510834001664466e-06   7.94063738267627e-07   1.0019796822491886e-05
-5.2510834001664466e-06   7.94063738267627e-07   1.0019796822491886e-05
-5.2510834001664466e-06   7.94063738267627e-07   1.0019796822491886e-05
-5.2510834001664466e-06   7.94063738267627e-07   1.0019796822491886e-05
-5.627110122202324e-06   -2.7664320454627404e-07   2.3172500618656895e-05
-5.627110122202324e-06   -2.7664320454627404e-07   2.3172500618656895e-05
-5.627110122202324e-06   -2.7664320454627404e-07   2.3172500618656895e-05
-5.627110122202324e-06   -2.7664320454627404e-07   2.3172500618656895e-05
2.247304625055958e-06   3.3939586846802247e-07   9.678852596084714e-06
2.247304625055958e-06   3.3939586846802247e-07   9.678852596084714e-06
2.247304625055958e-06   3.3939586846802247e-07   9.678852596084714e-06
2.247304625055958e-06   3.3939586846802247e-07   9.678852596084714e-06
-1.5147244726863228e-06   3.1826262894855614e-07   1.5961581036033948e-05
-1.5147244726863228e-06   3.1826262894855614e-07   1.5961581036033948e-05
-1.5147244726863228e-06   3.1826262894855614e-07   1.5961581036033948e-05
-1.5147244726863228e-06   3.1826262894855614e-07   1.5961581036033948e-05
2.2473046250559683e-06   -2.7664320454627404e-07   2.2802877174848317e-05
2.2473046250559683e-06   -2.7664320454627404e-07   2.2802877174848317e-05
2.2473046250559683e-06   -2.7664320454627404e-07   2.2802877174848317e-05
2.2473046250559683e-06   -2.7664320454627404e-07   2.2802877174848317e-05
-5.627110122202324e-06   3.3939586846802247e-07   1.00484760398934e-05
-5.627110122202324e-06   3.3939586846802247e-07   1.00484760398934e-05
-5.627110122202324e-06   3.3939586846802247e-07   1.00484760398934e-05
-5.627110122202324e-06   3.3939586846802247e-07   1.00484760398934e-05
-5.997602938380623e-06   -7.081733931313221e-07   2.347467051776696e-05
-5.997602938380623e-06   -7.081733931313221e-07   2.347467051776696e-05
-5.997602938380623e-06   -7.081733931313221e-07   2.347467051776696e-05
-5.997602938380623e-06   -7.081733931313221e-07   2.347467051776696e-05
1.8272026712987986e-06   -1.2464926795038508e-07   1.0083213359859692e-05
1.8272026712987986e-06   -1.2464926795038508e-07   1.0083213359859692e-05
1.8272026712987986e-06   -1.2464926795038508e-07   1.0083213359859692e-05
1.8272026712987986e-06   -1.2464926795038508e-07   1.0083213359859692e-05
-1.8447447787044238e-06   -1.7037118511548793e-08   1.6138558486868473e-05
-1.8447447787044238e-06   -1.7037118511548793e-08   1.6138558486868473e-05
-1.8447447787044238e-06   -1.7037118511548793e-08   1.6138558486868473e-05
-1.8447447787044238e-06   -1.7037118511548793e-08   1.6138558486868473e-05
-4.885790312930663e-06   2.640468577437202e-06   2.578071101200165e-05
-4.885790312930663e-06   2.640468577437202e-06   2.578071101200165e-05
-4.885790312930663e-06   2.640468577437202e-06   2.578071101200165e-05
-4.885790312930663e-06   2.640468577437202e-06   2.578071101200165e-05
-1.2781221968528639e-05   2.4906316717331067e-06   1.2531756109249355e-05
-1.2781221968528639e-05   2.4906316717331067e-06   1.2531756109249355e-05
-1.2781221968528639e-05   2.4906316717331067e-06   1.2531756109249355e-05
-1.2781221968528639e-05   2.4906316717331067e-06   1.2531756109249355e-05
-1.313185742521665e-05   2.1535056417081554e-06   2.5552711140898856e-05
-1.313185742521665e-05   2.1535056417081554e-06   2.5552711140898856e-05
-1.313185742521665e-05   2.1535056417081554e-06   2.5552711140898856e-05
-1.313185742521665e-05   2.1535056417081554e-06   2.5552711140898856e-05
-5.2510834001664195e-06   1.99600051146759e-06   1.2512590843959565e-05
-5.2510834001664195e-06   1.99600051146759e-06   1.2512590843959565e-05
-5.2510834001664195e-06   1.99600051146759e-06   1.2512590843959565e-05
-5.2510834001664195e-06   1.99600051146759e-06   1.2512590843959565e-05
-9.02944512275516e-06   2.264268477214504e-06   1.8648899602160087e-05
-9.02944512275516e-06   2.264268477214504e-06   1.8648899602160087e-05
-9.02944512275516e-06   2.264268477214504e-06   1.8648899602160087e-05
-9.02944512275516e-06   2.264268477214504e-06   1.8648899602160087e-05
-5.2510834001664466e-06   2.1535056417081554e-06   2.5647214219043173e-05
-5.2510834001664466e-06   2.1535056417081554e-06   2.5647214219043173e-05
-5.2510834001664466e-06   2.1535056417081554e-06   2.5647214219043173e-05
-5.2510834001664466e-06   2.1535056417081554e-06   2.5647214219043173e-05
-1.3131857425216622e-05   1.99600051146759e-06   1.2418087765815383e-05
-1.3131857425216622e-05   1.99600051146759e-06   1.2418087765815383e-05
-1.3131857425216622e-05   1.99600051146759e-06   1.2418087765815383e-05
-1.3131857425216622e-05   1.99600051146759e-06   1.2418087765815383e-05
-1.349393503831571e-05   1.6721451745098717e-06   2.5721012240164645e-05
-1.349393503831571e-05   1.6721451745098717e-06   2.5721012240164645e-05
-1.349393503831571e-05   1.6721451745098717e-06   2.5721012240164645e-05
-1.349393503831571e-05   1.6721451745098717e-06   2.5721012240164645e-05
-5.62711012220231e-06   1.5039165240130718e-06   1.2710574570273879e-05
-5.62711012220231e-06   1.5039165240130718e-06   1.2710574570273879e-05
-5.62711012220231e-06   1.5039165240130718e-06   1.2710574570273879e-05
-5.62711012220231e-06   1.5039165240130718e-06   1.2710574570273879e-05
-9.341527506166763e-06   1.8882634449483848e-06   1.867066205765342e-05
-9.341527506166763e-06   1.8882634449483848e-06   1.867066205765342e-05
-9.341527506166763e-06   1.8882634449483848e-06   1.867066205765342e-05
-9.341527506166763e-06   1.8882634449483848e-06   1.867066205765342e-05
-5.627110122202324e-06   1.6721451745098717e-06   2.5821949430462725e-05
-5.627110122202324e-06   1.6721451745098717e-06   2.5821949430462725e-05
-5.627110122202324e-06   1.6721451745098717e-06   2.5821949430462725e-05
-5.627110122202324e-06   1.6721451745098717e-06   2.5821949430462725e-05
-1.3493935038315683e-05   1.5039165240130718e-06   1.2609637379975744e-05
-1.3493935038315683e-05   1.5039165240130718e-06   1.2609637379975744e-05
-1.3493935038315683e-05   1.5039165240130718e-06   1.2609637379975744e-05
-1.3493935038315683e-05   1.5039165240130718e-06   1.2609637379975744e-05
-1.3850320675840412e-05   1.2087994297460807e-06   2.613445259066745e-05
-1.3850320675840412e-05   1.2087994297460807e-06   2.613445259066745e-05
-1.3850320675840412e-05   1.2087994297460807e-06   2.613445259066745e-05
-1.3850320675840412e-05   1.2087994297460807e-06   2.613445259066745e-05
-5.9976029383806094e-06   1.0328592487257593e-06   1.3152153803513625e-05
-5.9976029383806094e-06   1.0328592487257593e-06   1.3152153803513625e-05
-5.9976029383806094e-06   1.0328592487257593e-06   1.3152153803513625e-05
-5.9976029383806094e-06   1.0328592487257593e-06   1.3152153803513625e-05
-9.673541810151385e-06   1.5198538554381334e-06   1.898652182577104e-05
-9.673541810151385e-06   1.5198538554381334e-06   1.898652182577104e-05
-9.673541810151385e-06   1.5198538554381334e-06   1.898652182577104e-05
-9.673541810151385e-06   1.5198538554381334e-06   1.898652182577104e-05
-1.2781221968528639e-05   4.5302532066424876e-06   2.271495978057171e-05
-1.2781221968528639e-05   4.5302532066424876e-06   2.271495978057171e-05
-1.2781221968528639e-05   4.5302532066424876e-06   2.271495978057171e-05
-1.2781221968528639e-05   4.5302532066424876e-06   2.271495978057171e-05
-2.0535637437887704e-05   3.7029893127612287e-06   9.294575661977745e-06
-2.0535637437887704e-05   3.7029893127612287e-06   9.294575661977745e-06
-2.0535637437887704e-05   3.7029893127612287e-06   9.294575661977745e-06
-2.0535637437887704e-05   3.7029893127612287e-06   9.294575661977745e-06
-2.091797461395721e-05   4.054899186481647e-06   2.2297286393632015e-05
-2.091797461395721e-05   4.054899186481647e-06   2.2297286393632015e-05
-2.091797461395721e-05   4.054899186481647e-06   2.2297286393632015e-05
-2.091797461395721e-05   4.054899186481647e-06   2.2297286393632015e-05
-1.3131857425216595e-05   3.2043793855810344e-06   9.8307362929383e-06
-1.3131857425216595e-05   3.2043793855810344e-06   9.8307362929383e-06
-1.3131857425216595e-05   3.2043793855810344e-06   9.8307362929383e-06
-1.3131857425216595e-05   3.2043793855810344e-06   9.8307362929383e-06
-1.6800998678540122e-05   3.8095161166056338e-06   1.5582889676530188e-05
-1.6800998678540122e-05   3.8095161166056338e-06   1.5582889676530188e-05
-1.6800998678540122e-05   3.8095161166056338e-06   1.5582889676530188e-05
-1.6800998678540122e-05   3.8095161166056338e-06   1.5582889676530188e-05
-1.313185742521665e-05   4.054899186481647e-06   2.2807598274172405e-05
-1.313185742521665e-05   4.054899186481647e-06   2.2807598274172405e-05
-1.313185742521665e-05   4.054899186481647e-06   2.2807598274172405e-05
-1.313185742521665e-05   4.054899186481647e-06   2.2807598274172405e-05
-2.0917974613957155e-05   3.2043793855810344e-06   9.320424412397911e-06
-2.0917974613957155e-05   3.2043793855810344e-06   9.320424412397911e-06
-2.0917974613957155e-05   3.2043793855810344e-06   9.320424412397911e-06
-2.0917974613957155e-05   3.2043793855810344e-06   9.320424412397911e-06
-2.137058838409475e-05   3.6146825361147404e-06   2.3030718450695042e-05
-2.137058838409475e-05   3.6146825361147404e-06   2.3030718450695042e-05
-2.137058838409475e-05   3.6146825361147404e-06   2.3030718450695042e-05
-2.137058838409475e-05   3.6146825361147404e-06   2.3030718450695042e-05
-1.3493935038315656e-05   2.7507627192980243e-06   1.0421314764486598e-05
-1.3493935038315656e-05   2.7507627192980243e-06   1.0421314764486598e-05
-1.3493935038315656e-05   2.7507627192980243e-06   1.0421314764486598e-05
-1.3493935038315656e-05   2.7507627192980243e-06   1.0421314764486598e-05
-1.7048289901377335e-05   3.457021554849381e-06   1.5921484234925174e-05
-1.7048289901377335e-05   3.457021554849381e-06   1.5921484234925174e-05
-1.7048289901377335e-05   3.457021554849381e-06   1.5921484234925174e-05
-1.7048289901377335e-05   3.457021554849381e-06   1.5921484234925174e-05
-1.3493935038315683e-05   3.6146825361147404e-06   2.3549070340784834e-05
-1.3493935038315683e-05   3.6146825361147404e-06   2.3549070340784834e-05
-1.3493935038315683e-05   3.6146825361147404e-06   2.3549070340784834e-05
-1.3493935038315683e-05   3.6146825361147404e-06   2.3549070340784834e-05
-2.1370588384094695e-05   2.7507627192980243e-06   9.90296287439659e-06
-2.1370588384094695e-05   2.7507627192980243e-06   9.90296287439659e-06
-2.1370588384094695e-05   2.7507627192980243e-06   9.90296287439659e-06
-2.1370588384094695e-05   2.7507627192980243e-06   9.90296287439659e-06
-2.175875855752813e-05   3.1222095337648387e-06   2.3737879363073047e-05
-2.175875855752813e-05   3.1222095337648387e-06   2.3737879363073047e-05
-2.175875855752813e-05   3.1222095337648387e-06   2.3737879363073047e-05
-2.175875855752813e-05   3.1222095337648387e-06   2.3737879363073047e-05
-1.3850320675840358e-05   2.265686580027633e-06   1.1071063332502575e-05
-1.3850320675840358e-05   2.265686580027633e-06   1.1071063332502575e-05
-1.3850320675840358e-05   2.265686580027633e-06   1.1071063332502575e-05
-1.3850320675840358e-05   2.265686580027633e-06   1.1071063332502575e-05
-1.7474388475843537e-05   3.103680436629744e-06   1.6608380018547433e-05
-1.7474388475843537e-05   3.103680436629744e-06   1.6608380018547433e-05
-1.7474388475843537e-05   3.103680436629744e-06   1.6608380018547433e-05
-1.7474388475843537e-05   3.103680436629744e-06   1.6608380018547433e-05
-2.0535637437887758e-05   5.9477473230680825e-06   1.0619902740888892e-05
-2.0535637437887758e-05   5.9477473230680825e-06   1.0619902740888892e-05
-2.0535637437887758e-05   5.9477473230680825e-06   1.0619902740888892e-05
-2.0535637437887758e-05   5.9477473230680825e-06   1.0619902740888892e-05
-2.7538364291923632e-05   4.560667662315649e-06   -1.8835564789557657e-06
-2.7538364291923632e-05   4.560667662315649e-06   -1.8835564789557657e-06
-2.7538364291923632e-05   4.560667662315649e-06   -1.8835564789557657e-06
-2.7538364291923632e-05   4.560667662315649e-06   -1.8835564789557657e-06
-2.8518926197357308e-05   5.796184018298399e-06   1.3100856992628819e-05
-2.8518926197357308e-05   5.796184018298399e-06   1.3100856992628819e-05
-2.8518926197357308e-05   5.796184018298399e-06   1.3100856992628819e-05
-2.8518926197357308e-05   5.796184018298399e-06   1.3100856992628819e-05
-2.0917974613957155e-05   4.305549501420298e-06   1.3269850637555075e-06
-2.0917974613957155e-05   4.305549501420298e-06   1.3269850637555075e-06
-2.0917974613957155e-05   4.305549501420298e-06   1.3269850637555075e-06
-2.0917974613957155e-05   4.305549501420298e-06   1.3269850637555075e-06
-2.3489687201176435e-05   5.057220279228386e-06   5.162170242437188e-06
-2.3489687201176435e-05   5.057220279228386e-06   5.162170242437188e-06
-2.3489687201176435e-05   5.057220279228386e-06   5.162170242437188e-06
-2.3489687201176435e-05   5.057220279228386e-06   5.162170242437188e-06
-2.0917974613957155e-05   5.796184018298399e-06   1.3995237702755419e-05
-2.0917974613957155e-05   5.796184018298399e-06   1.3995237702755419e-05
-2.0917974613957155e-05   5.796184018298399e-06   1.3995237702755419e-05
-2.0917974613957155e-05   5.796184018298399e-06   1.3995237702755419e-05
-2.8518926197357308e-05   4.305549501420298e-06   4.326043536286635e-07
-2.8518926197357308e-05   4.305549501420298e-06   4.326043536286635e-07
-2.8518926197357308e-05   4.305549501420298e-06   4.326043536286635e-07
-2.8518926197357308e-05   4.305549501420298e-06   4.326043536286635e-07
-2.93627542956753e-05   5.609479136396743e-06   1.5502634661468048e-05
-2.93627542956753e-05   5.609479136396743e-06   1.5502634661468048e-05
-2.93627542956753e-05   5.609479136396743e-06   1.5502634661468048e-05
-2.93627542956753e-05   5.609479136396743e-06   1.5502634661468048e-05
-2.1370588384094695e-05   4.0917942784625665e-06   3.0929690569278046e-06
-2.1370588384094695e-05   4.0917942784625665e-06   3.0929690569278046e-06
-2.1370588384094695e-05   4.0917942784625665e-06   3.0929690569278046e-06
-2.1370588384094695e-05   4.0917942784625665e-06   3.0929690569278046e-06
-2.4432058706614723e-05   4.991479742381868e-06   7.655608316109908e-06
-2.4432058706614723e-05   4.991479742381868e-06   7.655608316109908e-06
-2.4432058706614723e-05   4.991479742381868e-06   7.655608316109908e-06
-2.4432058706614723e-05   4.991479742381868e-06   7.655608316109908e-06
-2.137058838409475e-05   5.6094791363965266e-06   1.6413245576228576e-05
-2.137058838409475e-05   5.6094791363965266e-06   1.6413245576228576e-05
-2.137058838409475e-05   5.6094791363965266e-06   1.6413245576228576e-05
-2.137058838409475e-05   5.6094791363965266e-06   1.6413245576228576e-05
-2.93627542956753e-05   4.0917942784625665e-06   2.1823581421671955e-06
-2.93627542956753e-05   4.0917942784625665e-06   2.1823581421671955e-06
-2.93627542956753e-05   4.0917942784625665e-06   2.1823581421671955e-06
-2.93627542956753e-05   4.0917942784625665e-06   2.1823581421671955e-06
-3.0372212870884954e-05   4.981817214593995e-06   1.975148699565445e-05
-3.0372212870884954e-05   4.981817214593995e-06   1.975148699565445e-05
-3.0372212870884954e-05   4.981817214593995e-06   1.975148699565445e-05
-3.0372212870884954e-05   4.981817214593995e-06   1.975148699565445e-05
-2.175875855752802e-05   3.5094277964727895e-06   6.279163457599221e-06
-2.175875855752802e-05   3.5094277964727895e-06   6.279163457599221e-06
-2.175875855752802e-05   3.5094277964727895e-06   6.279163457599221e-06
-2.175875855752802e-05   3.5094277964727895e-06   6.279163457599221e-06
-2.466508805803555e-05   4.726647776533187e-06   1.039271397040918e-05
-2.466508805803555e-05   4.726647776533187e-06   1.039271397040918e-05
-2.466508805803555e-05   4.726647776533187e-06   1.039271397040918e-05
-2.466508805803555e-05   4.726647776533187e-06   1.039271397040918e-05
2.4596811807880704e-06   2.1556696871982695e-08   1.265414391902022e-05
2.4596811807880704e-06   2.1556696871982695e-08   1.265414391902022e-05
2.4596811807880704e-06   2.1556696871982695e-08   1.265414391902022e-05
2.4596811807880704e-06   2.1556696871982695e-08   1.265414391902022e-05
-2.6062987639327e-06   1.362700575853167e-06   5.01553033854091e-06
-2.6062987639327e-06   1.362700575853167e-06   5.01553033854091e-06
-2.6062987639327e-06   1.362700575853167e-06   5.01553033854091e-06
-2.6062987639327e-06   1.362700575853167e-06   5.01553033854091e-06
-2.9016052929458398e-06   -4.5428055418989845e-07   1.2473520624304451e-05
-2.9016052929458398e-06   -4.5428055418989845e-07   1.2473520624304451e-05
-2.9016052929458398e-06   -4.5428055418989845e-07   1.2473520624304451e-05
-2.9016052929458398e-06   -4.5428055418989845e-07   1.2473520624304451e-05
1.5617131933688986e-06   9.187410097486045e-07   4.210843542083517e-06
1.5617131933688986e-06   9.187410097486045e-07   4.210843542083517e-06
1.5617131933688986e-06   9.187410097486045e-07   4.210843542083517e-06
1.5617131933688986e-06   9.187410097486045e-07   4.210843542083517e-06
-4.919809114650275e-07   3.859488129282808e-07   7.953342368232231e-06
-4.919809114650275e-07   3.859488129282808e-07   7.953342368232231e-06
-4.919809114650275e-07   3.859488129282808e-07   7.953342368232231e-06
-4.919809114650275e-07   3.859488129282808e-07   7.953342368232231e-06
1.5617131933688986e-06   -4.5428055418989845e-07   1.1649707685941393e-05
1.5617131933688986e-06   -4.5428055418989845e-07   1.1649707685941393e-05
1.5617131933688986e-06   -4.5428055418989845e-07   1.1649707685941393e-05
1.5617131933688986e-06   -4.5428055418989845e-07   1.1649707685941393e-05
-2.9016052929458398e-06   9.187410097486045e-07   5.0346564804465074e-06
-2.9016052929458398e-06   9.187410097486045e-07   5.0346564804465074e-06
-2.9016052929458398e-06   9.187410097486045e-07   5.0346564804465074e-06
-2.9016052929458398e-06   9.187410097486045e-07   5.0346564804465074e-06
-3.2665598783011394e-06   -6.589559445725843e-07   1.2142372882309157e-05
-3.2665598783011394e-06   -6.589559445725843e-07   1.2142372882309157e-05
-3.2665598783011394e-06   -6.589559445725843e-07   1.2142372882309157e-05
-3.2665598783011394e-06   -6.589559445725843e-07   1.2142372882309157e-05
7.820968784829854e-07   6.750409174181111e-07   4.594213503807763e-06
7.820968784829854e-07   6.750409174181111e-07   4.594213503807763e-06
7.820968784829854e-07   6.750409174181111e-07   4.594213503807763e-06
7.820968784829854e-07   6.750409174181111e-07   4.594213503807763e-06
-9.75864538627206e-07   1.9682829248369657e-07   7.811076773952034e-06
-9.75864538627206e-07   1.9682829248369657e-07   7.811076773952034e-06
-9.75864538627206e-07   1.9682829248369657e-07   7.811076773952034e-06
-9.75864538627206e-07   1.9682829248369657e-07   7.811076773952034e-06
7.820968784829854e-07   -6.589559445725843e-07   1.1341974765114436e-05
7.820968784829854e-07   -6.589559445725843e-07   1.1341974765114436e-05
7.820968784829854e-07   -6.589559445725843e-07   1.1341974765114436e-05
7.820968784829854e-07   -6.589559445725843e-07   1.1341974765114436e-05
-3.266559878301136e-06   6.750409174181111e-07   5.394611621002362e-06
-3.266559878301136e-06   6.750409174181111e-07   5.394611621002362e-06
-3.266559878301136e-06   6.750409174181111e-07   5.394611621002362e-06
-3.266559878301136e-06   6.750409174181111e-07   5.394611621002362e-06
-3.5718393369003874e-06   -9.989675598847444e-07   1.2017510513052747e-05
-3.5718393369003874e-06   -9.989675598847444e-07   1.2017510513052747e-05
-3.5718393369003874e-06   -9.989675598847444e-07   1.2017510513052747e-05
-3.5718393369003874e-06   -9.989675598847444e-07   1.2017510513052747e-05
-1.9630577974654438e-07   1.588248853117433e-07   5.696945784011852e-06
-1.9630577974654438e-07   1.588248853117433e-07   5.696945784011852e-06
-1.9630577974654438e-07   1.588248853117433e-07   5.696945784011852e-06
-1.9630577974654438e-07   1.588248853117433e-07   5.696945784011852e-06
-1.4994468854588768e-06   2.4472638414678102e-08   7.949458975004041e-06
-1.4994468854588768e-06   2.4472638414678102e-08   7.949458975004041e-06
-1.4994468854588768e-06   2.4472638414678102e-08   7.949458975004041e-06
-1.4994468854588768e-06   2.4472638414678102e-08   7.949458975004041e-06
-2.6062987639327e-06   1.331115115029086e-06   2.0260452737513738e-05
-2.6062987639327e-06   1.331115115029086e-06   2.0260452737513738e-05
-2.6062987639327e-06   1.331115115029086e-06   2.0260452737513738e-05
-2.6062987639327e-06   1.331115115029086e-06   2.0260452737513738e-05
-6.845235924976718e-06   1.5970232266574597e-06   1.3355102336084156e-05
-6.845235924976718e-06   1.5970232266574597e-06   1.3355102336084156e-05
-6.845235924976718e-06   1.5970232266574597e-06   1.3355102336084156e-05
-6.845235924976718e-06   1.5970232266574597e-06   1.3355102336084156e-05
-7.0682711129551186e-06   7.94063738267627e-07   2.020404746394175e-05
-7.0682711129551186e-06   7.94063738267627e-07   2.020404746394175e-05
-7.0682711129551186e-06   7.94063738267627e-07   2.020404746394175e-05
-7.0682711129551186e-06   7.94063738267627e-07   2.020404746394175e-05
-2.9016052929458398e-06   1.1016029799355018e-06   1.3075080885592203e-05
-2.9016052929458398e-06   1.1016029799355018e-06   1.3075080885592203e-05
-2.9016052929458398e-06   1.1016029799355018e-06   1.3075080885592203e-05
-2.9016052929458398e-06   1.1016029799355018e-06   1.3075080885592203e-05
-4.884989552770526e-06   1.1480978495789947e-06   1.6352824396847278e-05
-4.884989552770526e-06   1.1480978495789947e-06   1.6352824396847278e-05
-4.884989552770526e-06   1.1480978495789947e-06   1.6352824396847278e-05
-4.884989552770526e-06   1.1480978495789947e-06   1.6352824396847278e-05
-2.901605292945843e-06   7.94063738267627e-07   2.0019523918940918e-05
-2.901605292945843e-06   7.94063738267627e-07   2.0019523918940918e-05
-2.901605292945843e-06   7.94063738267627e-07   2.0019523918940918e-05
-2.901605292945843e-06   7.94063738267627e-07   2.0019523918940918e-05
-7.0682711129551186e-06   1.1016029799355018e-06   1.3259604430592928e-05
-7.0682711129551186e-06   1.1016029799355018e-06   1.3259604430592928e-05
-7.0682711129551186e-06   1.1016029799355018e-06   1.3259604430592928e-05
-7.0682711129551186e-06   1.1016029799355018e-06   1.3259604430592928e-05
-7.2983663621497885e-06   3.3939586846802247e-07   2.024035909686773e-05
-7.2983663621497885e-06   3.3939586846802247e-07   2.024035909686773e-05
-7.2983663621497885e-06   3.3939586846802247e-07   2.024035909686773e-05
-7.2983663621497885e-06   3.3939586846802247e-07   2.024035909686773e-05
-3.266559878301136e-06   6.448890070602986e-07   1.3337385740631248e-05
-3.266559878301136e-06   6.448890070602986e-07   1.3337385740631248e-05
-3.266559878301136e-06   6.448890070602986e-07   1.3337385740631248e-05
-3.266559878301136e-06   6.448890070602986e-07   1.3337385740631248e-05
-5.11282091267891e-06   7.864121325598661e-07   1.6329573589294672e-05
-5.11282091267891e-06   7.864121325598661e-07   1.6329573589294672e-05
-5.11282091267891e-06   7.864121325598661e-07   1.6329573589294672e-05
-5.11282091267891e-06   7.864121325598661e-07   1.6329573589294672e-05
-3.2665598783011394e-06   3.3939586846802247e-07   2.0057063213712234e-05
-3.2665598783011394e-06   3.3939586846802247e-07   2.0057063213712234e-05
-3.2665598783011394e-06   3.3939586846802247e-07   2.0057063213712234e-05
-3.2665598783011394e-06   3.3939586846802247e-07   2.0057063213712234e-05
-7.2983663621497885e-06   6.448890070602986e-07   1.352068162378654e-05
-7.2983663621497885e-06   6.448890070602986e-07   1.352068162378654e-05
-7.2983663621497885e-06   6.448890070602986e-07   1.352068162378654e-05
-7.2983663621497885e-06   6.448890070602986e-07   1.352068162378654e-05
-7.52420136929673e-06   -1.2464926795038508e-07   2.063004688386582e-05
-7.52420136929673e-06   -1.2464926795038508e-07   2.063004688386582e-05
-7.52420136929673e-06   -1.2464926795038508e-07   2.063004688386582e-05
-7.52420136929673e-06   -1.2464926795038508e-07   2.063004688386582e-05
-3.5718393369003874e-06   1.507352255245356e-07   1.387754613378715e-05
-3.5718393369003874e-06   1.507352255245356e-07   1.387754613378715e-05
-3.5718393369003874e-06   1.507352255245356e-07   1.387754613378715e-05
-3.5718393369003874e-06   1.507352255245356e-07   1.387754613378715e-05
-5.340171677051603e-06   4.31501506644328e-07   1.6656306932033918e-05
-5.340171677051603e-06   4.31501506644328e-07   1.6656306932033918e-05
-5.340171677051603e-06   4.31501506644328e-07   1.6656306932033918e-05
-5.340171677051603e-06   4.31501506644328e-07   1.6656306932033918e-05
-6.845235924976705e-06   2.4906316717331067e-06   2.279808437289526e-05
-6.845235924976705e-06   2.4906316717331067e-06   2.279808437289526e-05
-6.845235924976705e-06   2.4906316717331067e-06   2.279808437289526e-05
-6.845235924976705e-06   2.4906316717331067e-06   2.279808437289526e-05
-1.1066267011888191e-05   1.9191458055661543e-06   1.542014104167599e-05
-1.1066267011888191e-05   1.9191458055661543e-06   1.542014104167599e-05
-1.1066267011888191e-05   1.9191458055661543e-06   1.542014104167599e-05
-1.1066267011888191e-05   1.9191458055661543e-06   1.542014104167599e-05
-1.125524878632314e-05   1.996000511467807e-06   2.2375553488869796e-05
-1.125524878632314e-05   1.996000511467807e-06   2.2375553488869796e-05
-1.125524878632314e-05   1.996000511467807e-06   2.2375553488869796e-05
-1.125524878632314e-05   1.996000511467807e-06   2.2375553488869796e-05
-7.0682711129551186e-06   1.460520517235003e-06   1.5718545363129372e-05
-7.0682711129551186e-06   1.460520517235003e-06   1.5718545363129372e-05
-7.0682711129551186e-06   1.460520517235003e-06   1.5718545363129372e-05
-7.0682711129551186e-06   1.460520517235003e-06   1.5718545363129372e-05
-9.06353479405756e-06   1.9281304616002894e-06   1.8763418865014217e-05
-9.06353479405756e-06   1.9281304616002894e-06   1.8763418865014217e-05
-9.06353479405756e-06   1.9281304616002894e-06   1.8763418865014217e-05
-9.06353479405756e-06   1.9281304616002894e-06   1.8763418865014217e-05
-7.0682711129551186e-06   1.996000511467807e-06   2.2696841485409457e-05
-7.0682711129551186e-06   1.996000511467807e-06   2.2696841485409457e-05
-7.0682711129551186e-06   1.996000511467807e-06   2.2696841485409457e-05
-7.0682711129551186e-06   1.996000511467807e-06   2.2696841485409457e-05
-1.125524878632314e-05   1.460520517235003e-06   1.5397257366589793e-05
-1.125524878632314e-05   1.460520517235003e-06   1.5397257366589793e-05
-1.125524878632314e-05   1.460520517235003e-06   1.5397257366589793e-05
-1.125524878632314e-05   1.460520517235003e-06   1.5397257366589793e-05
-1.1457671427033528e-05   1.5039165240130718e-06   2.2596776449320473e-05
-1.1457671427033528e-05   1.5039165240130718e-06   2.2596776449320473e-05
-1.1457671427033528e-05   1.5039165240130718e-06   2.2596776449320473e-05
-1.1457671427033528e-05   1.5039165240130718e-06   2.2596776449320473e-05
-7.2983663621497885e-06   9.944478941334954e-07   1.597028251910872e-05
-7.2983663621497885e-06   9.944478941334954e-07   1.597028251910872e-05
-7.2983663621497885e-06   9.944478941334954e-07   1.597028251910872e-05
-7.2983663621497885e-06   9.944478941334954e-07   1.597028251910872e-05
-9.225015002451613e-06   1.5611369111587009e-06   1.884135017606324e-05
-9.225015002451613e-06   1.5611369111587009e-06   1.884135017606324e-05
-9.225015002451613e-06   1.5611369111587009e-06   1.884135017606324e-05
-9.225015002451613e-06   1.5611369111587009e-06   1.884135017606324e-05
-7.2983663621497885e-06   1.5039165240130718e-06   2.2902457627248154e-05
-7.2983663621497885e-06   1.5039165240130718e-06   2.2902457627248154e-05
-7.2983663621497885e-06   1.5039165240130718e-06   2.2902457627248154e-05
-7.2983663621497885e-06   1.5039165240130718e-06   2.2902457627248154e-05
-1.1457671427033528e-05   9.944478941334954e-07   1.5664601341180875e-05
-1.1457671427033528e-05   9.944478941334954e-07   1.5664601341180875e-05
-1.1457671427033528e-05   9.944478941334954e-07   1.5664601341180875e-05
-1.1457671427033528e-05   9.944478941334954e-07   1.5664601341180875e-05
-1.1655919666510436e-05   1.0328592487257593e-06   2.3060867545539082e-05
-1.1655919666510436e-05   1.0328592487257593e-06   2.3060867545539082e-05
-1.1655919666510436e-05   1.0328592487257593e-06   2.3060867545539082e-05
-1.1655919666510436e-05   1.0328592487257593e-06   2.3060867545539082e-05
-7.524201369296717e-06   5.528504039389089e-07   1.6462675690388535e-05
-7.524201369296717e-06   5.528504039389089e-07   1.6462675690388535e-05
-7.524201369296717e-06   5.528504039389089e-07   1.6462675690388535e-05
-7.524201369296717e-06   5.528504039389089e-07   1.6462675690388535e-05
-9.404915836133324e-06   1.1997651010653074e-06   1.9209050983506898e-05
-9.404915836133324e-06   1.1997651010653074e-06   1.9209050983506898e-05
-9.404915836133324e-06   1.1997651010653074e-06   1.9209050983506898e-05
-9.404915836133324e-06   1.1997651010653074e-06   1.9209050983506898e-05
-1.1066267011888218e-05   3.7029893127612287e-06   1.971437074225243e-05
-1.1066267011888218e-05   3.7029893127612287e-06   1.971437074225243e-05
-1.1066267011888218e-05   3.7029893127612287e-06   1.971437074225243e-05
-1.1066267011888218e-05   3.7029893127612287e-06   1.971437074225243e-05
-1.521940703887696e-05   2.5970918029415667e-06   1.2128932191379294e-05
-1.521940703887696e-05   2.5970918029415667e-06   1.2128932191379294e-05
-1.521940703887696e-05   2.5970918029415667e-06   1.2128932191379294e-05
-1.521940703887696e-05   2.5970918029415667e-06   1.2128932191379294e-05
-1.5427129965005974e-05   3.2043793855810344e-06   1.9134356975609524e-05
-1.5427129965005974e-05   3.2043793855810344e-06   1.9134356975609524e-05
-1.5427129965005974e-05   3.2043793855810344e-06   1.9134356975609524e-05
-1.5427129965005974e-05   3.2043793855810344e-06   1.9134356975609524e-05
-1.125524878632314e-05   2.1146376516090323e-06   1.283506671818799e-05
-1.125524878632314e-05   2.1146376516090323e-06   1.283506671818799e-05
-1.125524878632314e-05   2.1146376516090323e-06   1.283506671818799e-05
-1.125524878632314e-05   2.1146376516090323e-06   1.283506671818799e-05
-1.3213949735435028e-05   2.879370785268602e-06   1.5640728419845417e-05
-1.3213949735435028e-05   2.879370785268602e-06   1.5640728419845417e-05
-1.3213949735435028e-05   2.879370785268602e-06   1.5640728419845417e-05
-1.3213949735435028e-05   2.879370785268602e-06   1.5640728419845417e-05
-1.125524878632314e-05   3.2043793855810344e-06   1.978820201599266e-05
-1.125524878632314e-05   3.2043793855810344e-06   1.978820201599266e-05
-1.125524878632314e-05   3.2043793855810344e-06   1.978820201599266e-05
-1.125524878632314e-05   3.2043793855810344e-06   1.978820201599266e-05
-1.542712996500592e-05   2.1146376516090323e-06   1.21812216778048e-05
-1.542712996500592e-05   2.1146376516090323e-06   1.21812216778048e-05
-1.542712996500592e-05   2.1146376516090323e-06   1.21812216778048e-05
-1.542712996500592e-05   2.1146376516090323e-06   1.21812216778048e-05
-1.571374223547831e-05   2.7507627192980243e-06   1.9769116331550397e-05
-1.571374223547831e-05   2.7507627192980243e-06   1.9769116331550397e-05
-1.571374223547831e-05   2.7507627192980243e-06   1.9769116331550397e-05
-1.571374223547831e-05   2.7507627192980243e-06   1.9769116331550397e-05
-1.1457671427033528e-05   1.6852002154966019e-06   1.3315002486423465e-05
-1.1457671427033528e-05   1.6852002154966019e-06   1.3315002486423465e-05
-1.1457671427033528e-05   1.6852002154966019e-06   1.3315002486423465e-05
-1.1457671427033528e-05   1.6852002154966019e-06   1.3315002486423465e-05
-1.3326830586141614e-05   2.523708191073536e-06   1.592716296625735e-05
-1.3326830586141614e-05   2.523708191073536e-06   1.592716296625735e-05
-1.3326830586141614e-05   2.523708191073536e-06   1.592716296625735e-05
-1.3326830586141614e-05   2.523708191073536e-06   1.592716296625735e-05
-1.1457671427033528e-05   2.7507627192980243e-06   2.0408453833831055e-05
-1.1457671427033528e-05   2.7507627192980243e-06   2.0408453833831055e-05
-1.1457671427033528e-05   2.7507627192980243e-06   2.0408453833831055e-05
-1.1457671427033528e-05   2.7507627192980243e-06   2.0408453833831055e-05
-1.5713742235478256e-05   1.6852002154966019e-06   1.2675664984142454e-05
-1.5713742235478256e-05   1.6852002154966019e-06   1.2675664984142454e-05
-1.5713742235478256e-05   1.6852002154966019e-06   1.2675664984142454e-05
-1.5713742235478256e-05   1.6852002154966019e-06   1.2675664984142454e-05
-1.594340633060819e-05   2.265686580027633e-06   2.047441995296545e-05
-1.594340633060819e-05   2.265686580027633e-06   2.047441995296545e-05
-1.594340633060819e-05   2.265686580027633e-06   2.047441995296545e-05
-1.594340633060819e-05   2.265686580027633e-06   2.047441995296545e-05
-1.1655919666510409e-05   1.2474845297358967e-06   1.3939530076310946e-05
-1.1655919666510409e-05   1.2474845297358967e-06   1.3939530076310946e-05
-1.1655919666510409e-05   1.2474845297358967e-06   1.3939530076310946e-05
-1.1655919666510409e-05   1.2474845297358967e-06   1.3939530076310946e-05
-1.356447282469687e-05   2.1852351541526947e-06   1.65578016319719e-05
-1.356447282469687e-05   2.1852351541526947e-06   1.65578016319719e-05
-1.356447282469687e-05   2.1852351541526947e-06   1.65578016319719e-05
-1.356447282469687e-05   2.1852351541526947e-06   1.65578016319719e-05
-1.521940703887696e-05   4.560667662315649e-06   8.704947891878382e-06
-1.521940703887696e-05   4.560667662315649e-06   8.704947891878382e-06
-1.521940703887696e-05   4.560667662315649e-06   8.704947891878382e-06
-1.521940703887696e-05   4.560667662315649e-06   8.704947891878382e-06
-1.8491361507374257e-05   3.072888490138464e-06   2.359022941076604e-06
-1.8491361507374257e-05   3.072888490138464e-06   2.359022941076604e-06
-1.8491361507374257e-05   3.072888490138464e-06   2.359022941076604e-06
-1.8491361507374257e-05   3.072888490138464e-06   2.359022941076604e-06
-1.9278096837760698e-05   4.305549501420298e-06   1.0208738460531054e-05
-1.9278096837760698e-05   4.305549501420298e-06   1.0208738460531054e-05
-1.9278096837760698e-05   4.305549501420298e-06   1.0208738460531054e-05
-1.9278096837760698e-05   4.305549501420298e-06   1.0208738460531054e-05
-1.5427129965005974e-05   2.7519175573600084e-06   4.722639505709103e-06
-1.5427129965005974e-05   2.7519175573600084e-06   4.722639505709103e-06
-1.5427129965005974e-05   2.7519175573600084e-06   4.722639505709103e-06
-1.5427129965005974e-05   2.7519175573600084e-06   4.722639505709103e-06
-1.651026968655487e-05   3.634927800845022e-06   5.998066228866364e-06
-1.651026968655487e-05   3.634927800845022e-06   5.998066228866364e-06
-1.651026968655487e-05   3.634927800845022e-06   5.998066228866364e-06
-1.651026968655487e-05   3.634927800845022e-06   5.998066228866364e-06
-1.542712996500592e-05   4.305549501420298e-06   1.1140917626966903e-05
-1.542712996500592e-05   4.305549501420298e-06   1.1140917626966903e-05
-1.542712996500592e-05   4.305549501420298e-06   1.1140917626966903e-05
-1.542712996500592e-05   4.305549501420298e-06   1.1140917626966903e-05
-1.9278096837760752e-05   2.751917557360117e-06   3.790460339273024e-06
-1.9278096837760752e-05   2.751917557360117e-06   3.790460339273024e-06
-1.9278096837760752e-05   2.751917557360117e-06   3.790460339273024e-06
-1.9278096837760752e-05   2.751917557360117e-06   3.790460339273024e-06
-1.9953202098155773e-05   4.0917942784625665e-06   1.2022823455960742e-05
-1.9953202098155773e-05   4.0917942784625665e-06   1.2022823455960742e-05
-1.9953202098155773e-05   4.0917942784625665e-06   1.2022823455960742e-05
-1.9953202098155773e-05   4.0917942784625665e-06   1.2022823455960742e-05
-1.5713742235478256e-05   2.5312958482609895e-06   5.893356076285732e-06
-1.5713742235478256e-05   2.5312958482609895e-06   5.893356076285732e-06
-1.5713742235478256e-05   2.5312958482609895e-06   5.893356076285732e-06
-1.5713742235478256e-05   2.5312958482609895e-06   5.893356076285732e-06
-1.717746744746954e-05   3.509430680460543e-06   7.74601719695186e-06
-1.717746744746954e-05   3.509430680460543e-06   7.74601719695186e-06
-1.717746744746954e-05   3.509430680460543e-06   7.74601719695186e-06
-1.717746744746954e-05   3.509430680460543e-06   7.74601719695186e-06
-1.5713742235478256e-05   4.0917942784625665e-06   1.2959122514081341e-05
-1.5713742235478256e-05   4.0917942784625665e-06   1.2959122514081341e-05
-1.5713742235478256e-05   4.0917942784625665e-06   1.2959122514081341e-05
-1.5713742235478256e-05   4.0917942784625665e-06   1.2959122514081341e-05
-1.9953202098155827e-05   2.5312958482609895e-06   4.957057018164768e-06
-1.9953202098155827e-05   2.5312958482609895e-06   4.957057018164768e-06
-1.9953202098155827e-05   2.5312958482609895e-06   4.957057018164768e-06
-1.9953202098155827e-05   2.5312958482609895e-06   4.957057018164768e-06
-2.0812085226521685e-05   3.5094277964725726e-06   1.530503240280718e-05
-2.0812085226521685e-05   3.5094277964725726e-06   1.530503240280718e-05
-2.0812085226521685e-05   3.5094277964725726e-06   1.530503240280718e-05
-2.0812085226521685e-05   3.5094277964725726e-06   1.530503240280718e-05
-1.594340633060819e-05   2.023758717310852e-06   8.081969023781741e-06
-1.594340633060819e-05   2.023758717310852e-06   8.081969023781741e-06
-1.594340633060819e-05   2.023758717310852e-06   8.081969023781741e-06
-1.594340633060819e-05   2.023758717310852e-06   8.081969023781741e-06
-1.7367245362433833e-05   3.2675682542773407e-06   9.708748354644403e-06
-1.7367245362433833e-05   3.2675682542773407e-06   9.708748354644403e-06
-1.7367245362433833e-05   3.2675682542773407e-06   9.708748354644403e-06
-1.7367245362433833e-05   3.2675682542773407e-06   9.708748354644403e-06
-7.472646105470692e-06   1.362700575853167e-06   9.048769192533614e-06
-7.472646105470692e-06   1.362700575853167e-06   9.048769192533614e-06
-7.472646105470692e-06   1.362700575853167e-06   9.048769192533614e-06
-7.472646105470692e-06   1.362700575853167e-06   9.048769192533614e-06
-8.214484160640429e-06   2.5815709108712934e-06   8.543694634928262e-06
-8.214484160640429e-06   2.5815709108712934e-06   8.543694634928262e-06
-8.214484160640429e-06   2.5815709108712934e-06   8.543694634928262e-06
-8.214484160640429e-06   2.5815709108712934e-06   8.543694634928262e-06
-8.42788177805848e-06   9.187410097486045e-07   9.708742838421779e-06
-8.42788177805848e-06   9.187410097486045e-07   9.708742838421779e-06
-8.42788177805848e-06   9.187410097486045e-07   9.708742838421779e-06
-8.42788177805848e-06   9.187410097486045e-07   9.708742838421779e-06
-8.366507964219401e-06   2.0153552426463483e-06   8.948484608951312e-06
-8.366507964219401e-06   2.0153552426463483e-06   8.948484608951312e-06
-8.366507964219401e-06   2.0153552426463483e-06   8.948484608951312e-06
-8.366507964219401e-06   2.0153552426463483e-06   8.948484608951312e-06
-7.919952067947713e-06   1.6064991815497448e-06   8.44953841848986e-06
-7.919952067947713e-06   1.6064991815497448e-06   8.44953841848986e-06
-7.919952067947713e-06   1.6064991815497448e-06   8.44953841848986e-06
-7.919952067947713e-06   1.6064991815497448e-06   8.44953841848986e-06
-8.366507964219401e-06   9.187410097486045e-07   9.050774298682927e-06
-8.366507964219401e-06   9.187410097486045e-07   9.050774298682927e-06
-8.366507964219401e-06   9.187410097486045e-07   9.050774298682927e-06
-8.366507964219401e-06   9.187410097486045e-07   9.050774298682927e-06
-8.42788177805848e-06   2.0153552426463483e-06   9.606453148689961e-06
-8.42788177805848e-06   2.0153552426463483e-06   9.606453148689961e-06
-8.42788177805848e-06   2.0153552426463483e-06   9.606453148689961e-06
-8.42788177805848e-06   2.0153552426463483e-06   9.606453148689961e-06
-8.704768604842186e-06   6.750409174181111e-07   1.0009088943400718e-05
-8.704768604842186e-06   6.750409174181111e-07   1.0009088943400718e-05
-8.704768604842186e-06   6.750409174181111e-07   1.0009088943400718e-05
-8.704768604842186e-06   6.750409174181111e-07   1.0009088943400718e-05
-9.236364800614126e-06   1.6245416346431524e-06   1.0325382172685568e-05
-9.236364800614126e-06   1.6245416346431524e-06   1.0325382172685568e-05
-9.236364800614126e-06   1.6245416346431524e-06   1.0325382172685568e-05
-9.236364800614126e-06   1.6245416346431524e-06   1.0325382172685568e-05
-8.45174861592658e-06   1.362459643613513e-06   9.174937726157118e-06
-8.45174861592658e-06   1.362459643613513e-06   9.174937726157118e-06
-8.45174861592658e-06   1.362459643613513e-06   9.174937726157118e-06
-8.45174861592658e-06   1.362459643613513e-06   9.174937726157118e-06
-9.236364800614146e-06   6.750409174181111e-07   9.439388513065553e-06
-9.236364800614146e-06   6.750409174181111e-07   9.439388513065553e-06
-9.236364800614146e-06   6.750409174181111e-07   9.439388513065553e-06
-9.236364800614146e-06   6.750409174181111e-07   9.439388513065553e-06
-8.704768604842186e-06   1.6245416346431524e-06   1.089508260302053e-05
-8.704768604842186e-06   1.6245416346431524e-06   1.089508260302053e-05
-8.704768604842186e-06   1.6245416346431524e-06   1.089508260302053e-05
-8.704768604842186e-06   1.6245416346431524e-06   1.089508260302053e-05
-8.881772348013366e-06   1.588248853117433e-07   1.0988821402924001e-05
-8.881772348013366e-06   1.588248853117433e-07   1.0988821402924001e-05
-8.881772348013366e-06   1.588248853117433e-07   1.0988821402924001e-05
-8.881772348013366e-06   1.588248853117433e-07   1.0988821402924001e-05
-1.0162834826905273e-05   6.636374161640441e-07   1.2821038015899014e-05
-1.0162834826905273e-05   6.636374161640441e-07   1.2821038015899014e-05
-1.0162834826905273e-05   6.636374161640441e-07   1.2821038015899014e-05
-1.0162834826905273e-05   6.636374161640441e-07   1.2821038015899014e-05
-8.827082630748784e-06   1.0637215774548375e-06   1.0354733858863451e-05
-8.827082630748784e-06   1.0637215774548375e-06   1.0354733858863451e-05
-8.827082630748784e-06   1.0637215774548375e-06   1.0354733858863451e-05
-8.827082630748784e-06   1.0637215774548375e-06   1.0354733858863451e-05
-8.214484160640415e-06   1.5970232266574597e-06   1.796011852411058e-05
-8.214484160640415e-06   1.5970232266574597e-06   1.796011852411058e-05
-8.214484160640415e-06   1.5970232266574597e-06   1.796011852411058e-05
-8.214484160640415e-06   1.5970232266574597e-06   1.796011852411058e-05
-8.35249494983061e-06   6.686076599614127e-07   1.717305120210933e-05
-8.35249494983061e-06   6.686076599614127e-07   1.717305120210933e-05
-8.35249494983061e-06   6.686076599614127e-07   1.717305120210933e-05
-8.35249494983061e-06   6.686076599614127e-07   1.717305120210933e-05
-8.41960721088604e-06   1.1016029799356102e-06   1.7279761954055225e-05
-8.41960721088604e-06   1.1016029799356102e-06   1.7279761954055225e-05
-8.41960721088604e-06   1.1016029799356102e-06   1.7279761954055225e-05
-8.41960721088604e-06   1.1016029799356102e-06   1.7279761954055225e-05
-8.42788177805848e-06   3.192608307483113e-07   1.776295818885495e-05
-8.42788177805848e-06   3.192608307483113e-07   1.776295818885495e-05
-8.42788177805848e-06   3.192608307483113e-07   1.776295818885495e-05
-8.42788177805848e-06   3.192608307483113e-07   1.776295818885495e-05
-8.328614629572486e-06   8.144852499425729e-07   1.730037828986169e-05
-8.328614629572486e-06   8.144852499425729e-07   1.730037828986169e-05
-8.328614629572486e-06   8.144852499425729e-07   1.730037828986169e-05
-8.328614629572486e-06   8.144852499425729e-07   1.730037828986169e-05
-8.427881778058474e-06   1.1016029799356102e-06   1.7749167243567257e-05
-8.427881778058474e-06   1.1016029799356102e-06   1.7749167243567257e-05
-8.427881778058474e-06   1.1016029799356102e-06   1.7749167243567257e-05
-8.427881778058474e-06   1.1016029799356102e-06   1.7749167243567257e-05
-8.419607210886026e-06   3.192608307483113e-07   1.729355289934256e-05
-8.419607210886026e-06   3.192608307483113e-07   1.729355289934256e-05
-8.419607210886026e-06   3.192608307483113e-07   1.729355289934256e-05
-8.419607210886026e-06   3.192608307483113e-07   1.729355289934256e-05
-8.502538400117777e-06   6.44889007060407e-07   1.7514148476946933e-05
-8.502538400117777e-06   6.44889007060407e-07   1.7514148476946933e-05
-8.502538400117777e-06   6.44889007060407e-07   1.7514148476946933e-05
-8.502538400117777e-06   6.44889007060407e-07   1.7514148476946933e-05
-8.704768604842186e-06   -8.463530307752792e-08   1.8288913404236793e-05
-8.704768604842186e-06   -8.463530307752792e-08   1.8288913404236793e-05
-8.704768604842186e-06   -8.463530307752792e-08   1.8288913404236793e-05
-8.704768604842186e-06   -8.463530307752792e-08   1.8288913404236793e-05
-8.410615506138898e-06   5.257454020102161e-07   1.7432429816678483e-05
-8.410615506138898e-06   5.257454020102161e-07   1.7432429816678483e-05
-8.410615506138898e-06   5.257454020102161e-07   1.7432429816678483e-05
-8.410615506138898e-06   5.257454020102161e-07   1.7432429816678483e-05
-8.704768604842186e-06   6.448890070602986e-07   1.7951863063029347e-05
-8.704768604842186e-06   6.448890070602986e-07   1.7951863063029347e-05
-8.704768604842186e-06   6.448890070602986e-07   1.7951863063029347e-05
-8.704768604842186e-06   6.448890070602986e-07   1.7951863063029347e-05
-8.502538400117737e-06   -8.463530307752792e-08   1.785119881815404e-05
-8.502538400117737e-06   -8.463530307752792e-08   1.785119881815404e-05
-8.502538400117737e-06   -8.463530307752792e-08   1.785119881815404e-05
-8.502538400117737e-06   -8.463530307752792e-08   1.785119881815404e-05
-8.563519999381925e-06   1.507352255244272e-07   1.80155135622096e-05
-8.563519999381925e-06   1.507352255244272e-07   1.80155135622096e-05
-8.563519999381925e-06   1.507352255244272e-07   1.80155135622096e-05
-8.563519999381925e-06   1.507352255244272e-07   1.80155135622096e-05
-8.88177234801336e-06   -6.14652646761739e-07   1.9005166866633634e-05
-8.88177234801336e-06   -6.14652646761739e-07   1.9005166866633634e-05
-8.88177234801336e-06   -6.14652646761739e-07   1.9005166866633634e-05
-8.88177234801336e-06   -6.14652646761739e-07   1.9005166866633634e-05
-8.539213129638572e-06   1.871564976265068e-07   1.79531493493755e-05
-8.539213129638572e-06   1.871564976265068e-07   1.79531493493755e-05
-8.539213129638572e-06   1.871564976265068e-07   1.79531493493755e-05
-8.539213129638572e-06   1.871564976265068e-07   1.79531493493755e-05
-8.352494949830636e-06   1.9191458055662627e-06   1.9810999409385045e-05
-8.352494949830636e-06   1.9191458055662627e-06   1.9810999409385045e-05
-8.352494949830636e-06   1.9191458055662627e-06   1.9810999409385045e-05
-8.352494949830636e-06   1.9191458055662627e-06   1.9810999409385045e-05
-9.015912353233971e-06   1.8658409768222348e-07   1.7665766712315667e-05
-9.015912353233971e-06   1.8658409768222348e-07   1.7665766712315667e-05
-9.015912353233971e-06   1.8658409768222348e-07   1.7665766712315667e-05
-9.015912353233971e-06   1.8658409768222348e-07   1.7665766712315667e-05
-9.039555204594856e-06   1.460520517235003e-06   1.8797728286014696e-05
-9.039555204594856e-06   1.460520517235003e-06   1.8797728286014696e-05
-9.039555204594856e-06   1.460520517235003e-06   1.8797728286014696e-05
-9.039555204594856e-06   1.460520517235003e-06   1.8797728286014696e-05
-8.419607210886026e-06   -1.0777048372657451e-07   1.8705456230410375e-05
-8.419607210886026e-06   -1.0777048372657451e-07   1.8705456230410375e-05
-8.419607210886026e-06   -1.0777048372657451e-07   1.8705456230410375e-05
-8.419607210886026e-06   -1.0777048372657451e-07   1.8705456230410375e-05
-8.692290808848632e-06   8.35067590914014e-07   1.8594226048896973e-05
-8.692290808848632e-06   8.35067590914014e-07   1.8594226048896973e-05
-8.692290808848632e-06   8.35067590914014e-07   1.8594226048896973e-05
-8.692290808848632e-06   8.35067590914014e-07   1.8594226048896973e-05
-8.41960721088604e-06   1.460520517235003e-06   1.9738702886591534e-05
-8.41960721088604e-06   1.460520517235003e-06   1.9738702886591534e-05
-8.41960721088604e-06   1.460520517235003e-06   1.9738702886591534e-05
-8.41960721088604e-06   1.460520517235003e-06   1.9738702886591534e-05
-9.03955520459483e-06   -1.0777048372657451e-07   1.776448162983332e-05
-9.03955520459483e-06   -1.0777048372657451e-07   1.776448162983332e-05
-9.03955520459483e-06   -1.0777048372657451e-07   1.776448162983332e-05
-9.03955520459483e-06   -1.0777048372657451e-07   1.776448162983332e-05
-9.081272140489509e-06   9.94447894133387e-07   1.909096365858699e-05
-9.081272140489509e-06   9.94447894133387e-07   1.909096365858699e-05
-9.081272140489509e-06   9.94447894133387e-07   1.909096365858699e-05
-9.081272140489509e-06   9.94447894133387e-07   1.909096365858699e-05
-8.502538400117764e-06   -4.601949620032259e-07   1.8999193138315873e-05
-8.502538400117764e-06   -4.601949620032259e-07   1.8999193138315873e-05
-8.502538400117764e-06   -4.601949620032259e-07   1.8999193138315873e-05
-8.502538400117764e-06   -4.601949620032259e-07   1.8999193138315873e-05
-8.698647103902916e-06   5.438332607217997e-07   1.8723624044322297e-05
-8.698647103902916e-06   5.438332607217997e-07   1.8723624044322297e-05
-8.698647103902916e-06   5.438332607217997e-07   1.8723624044322297e-05
-8.698647103902916e-06   5.438332607217997e-07   1.8723624044322297e-05
-8.502538400117777e-06   9.944478941334954e-07   1.9963749372268677e-05
-8.502538400117777e-06   9.944478941334954e-07   1.9963749372268677e-05
-8.502538400117777e-06   9.944478941334954e-07   1.9963749372268677e-05
-8.502538400117777e-06   9.944478941334954e-07   1.9963749372268677e-05
-9.081272140489482e-06   -4.601949620032259e-07   1.812640742463386e-05
-9.081272140489482e-06   -4.601949620032259e-07   1.812640742463386e-05
-9.081272140489482e-06   -4.601949620032259e-07   1.812640742463386e-05
-9.081272140489482e-06   -4.601949620032259e-07   1.812640742463386e-05
-9.108596935984361e-06   5.528504039389089e-07   1.9615530653165677e-05
-9.108596935984361e-06   5.528504039389089e-07   1.9615530653165677e-05
-9.108596935984361e-06   5.528504039389089e-07   1.9615530653165677e-05
-9.108596935984361e-06   5.528504039389089e-07   1.9615530653165677e-05
-8.563519999381912e-06   -8.136192119951625e-07   1.952695086172184e-05
-8.563519999381912e-06   -8.136192119951625e-07   1.952695086172184e-05
-8.563519999381912e-06   -8.136192119951625e-07   1.952695086172184e-05
-8.563519999381912e-06   -8.136192119951625e-07   1.952695086172184e-05
-8.719547106019264e-06   2.445208774721694e-07   1.9152111985769652e-05
-8.719547106019264e-06   2.445208774721694e-07   1.9152111985769652e-05
-8.719547106019264e-06   2.445208774721694e-07   1.9152111985769652e-05
-8.719547106019264e-06   2.445208774721694e-07   1.9152111985769652e-05
-9.015912353233971e-06   2.5970918029415667e-06   1.6143792040249777e-05
-9.015912353233971e-06   2.5970918029415667e-06   1.6143792040249777e-05
-9.015912353233971e-06   2.5970918029415667e-06   1.6143792040249777e-05
-9.015912353233971e-06   2.5970918029415667e-06   1.6143792040249777e-05
-9.965257161704438e-06   8.541006357045246e-07   1.3515755992456907e-05
-9.965257161704438e-06   8.541006357045246e-07   1.3515755992456907e-05
-9.965257161704438e-06   8.541006357045246e-07   1.3515755992456907e-05
-9.965257161704438e-06   8.541006357045246e-07   1.3515755992456907e-05
-9.983270165818295e-06   2.1146376516090323e-06   1.5246380754214517e-05
-9.983270165818295e-06   2.1146376516090323e-06   1.5246380754214517e-05
-9.983270165818295e-06   2.1146376516090323e-06   1.5246380754214517e-05
-9.983270165818295e-06   2.1146376516090323e-06   1.5246380754214517e-05
-9.039555204594856e-06   4.660428459449641e-07   1.4662679368907243e-05
-9.039555204594856e-06   4.660428459449641e-07   1.4662679368907243e-05
-9.039555204594856e-06   4.660428459449641e-07   1.4662679368907243e-05
-9.039555204594856e-06   4.660428459449641e-07   1.4662679368907243e-05
-9.476213082361084e-06   1.5430826078985035e-06   1.47442186413455e-05
-9.476213082361084e-06   1.5430826078985035e-06   1.47442186413455e-05
-9.476213082361084e-06   1.5430826078985035e-06   1.47442186413455e-05
-9.476213082361084e-06   1.5430826078985035e-06   1.47442186413455e-05
-9.039555204594856e-06   2.114637651608924e-06   1.6235537637612784e-05
-9.039555204594856e-06   2.114637651608924e-06   1.6235537637612784e-05
-9.039555204594856e-06   2.114637651608924e-06   1.6235537637612784e-05
-9.039555204594856e-06   2.114637651608924e-06   1.6235537637612784e-05
-9.983270165818295e-06   4.660428459449641e-07   1.3673522485508812e-05
-9.983270165818295e-06   4.660428459449641e-07   1.3673522485508812e-05
-9.983270165818295e-06   4.660428459449641e-07   1.3673522485508812e-05
-9.983270165818295e-06   4.660428459449641e-07   1.3673522485508812e-05
-1.0092858743782041e-05   1.6852002154966019e-06   1.5810416293342787e-05
-1.0092858743782041e-05   1.6852002154966019e-06   1.5810416293342787e-05
-1.0092858743782041e-05   1.6852002154966019e-06   1.5810416293342787e-05
-1.0092858743782041e-05   1.6852002154966019e-06   1.5810416293342787e-05
-9.081272140489509e-06   1.3361936468554974e-07   1.505538713167517e-05
-9.081272140489509e-06   1.3361936468554974e-07   1.505538713167517e-05
-9.081272140489509e-06   1.3361936468554974e-07   1.505538713167517e-05
-9.081272140489509e-06   1.3361936468554974e-07   1.505538713167517e-05
-9.450636864310311e-06   1.2246230636656303e-06   1.5016392785321107e-05
-9.450636864310311e-06   1.2246230636656303e-06   1.5016392785321107e-05
-9.450636864310311e-06   1.2246230636656303e-06   1.5016392785321107e-05
-9.450636864310311e-06   1.2246230636656303e-06   1.5016392785321107e-05
-9.081272140489482e-06   1.6852002154966019e-06   1.6741364803829093e-05
-9.081272140489482e-06   1.6852002154966019e-06   1.6741364803829093e-05
-9.081272140489482e-06   1.6852002154966019e-06   1.6741364803829093e-05
-9.081272140489482e-06   1.6852002154966019e-06   1.6741364803829093e-05
-1.0092858743782041e-05   1.3361936468554974e-07   1.4124438621188522e-05
-1.0092858743782041e-05   1.3361936468554974e-07   1.4124438621188522e-05
-1.0092858743782041e-05   1.3361936468554974e-07   1.4124438621188522e-05
-1.0092858743782041e-05   1.3361936468554974e-07   1.4124438621188522e-05
-1.0158641347674912e-05   1.2474845297358967e-06   1.651095488567093e-05
-1.0158641347674912e-05   1.2474845297358967e-06   1.651095488567093e-05
-1.0158641347674912e-05   1.2474845297358967e-06   1.651095488567093e-05
-1.0158641347674912e-05   1.2474845297358967e-06   1.651095488567093e-05
-9.108596935984361e-06   -2.015745707458199e-07   1.563031632647574e-05
-9.108596935984361e-06   -2.015745707458199e-07   1.563031632647574e-05
-9.108596935984361e-06   -2.015745707458199e-07   1.563031632647574e-05
-9.108596935984361e-06   -2.015745707458199e-07   1.563031632647574e-05
-9.49959861778468e-06   9.400059788798815e-07   1.5597037466367255e-05
-9.49959861778468e-06   9.400059788798815e-07   1.5597037466367255e-05
-9.49959861778468e-06   9.400059788798815e-07   1.5597037466367255e-05
-9.49959861778468e-06   9.400059788798815e-07   1.5597037466367255e-05
-9.965257161704383e-06   3.072888490138464e-06   6.220755592911296e-06
-9.965257161704383e-06   3.072888490138464e-06   6.220755592911296e-06
-9.965257161704383e-06   3.072888490138464e-06   6.220755592911296e-06
-9.965257161704383e-06   3.072888490138464e-06   6.220755592911296e-06
-9.865424483013695e-06   1.4105169282138588e-06   5.389720453574415e-06
-9.865424483013695e-06   1.4105169282138588e-06   5.389720453574415e-06
-9.865424483013695e-06   1.4105169282138588e-06   5.389720453574415e-06
-9.865424483013695e-06   1.4105169282138588e-06   5.389720453574415e-06
-1.0372841651816358e-05   2.751917557360117e-06   6.8179684762326945e-06
-1.0372841651816358e-05   2.751917557360117e-06   6.8179684762326945e-06
-1.0372841651816358e-05   2.751917557360117e-06   6.8179684762326945e-06
-1.0372841651816358e-05   2.751917557360117e-06   6.8179684762326945e-06
-9.98327016581824e-06   1.1355340475499793e-06   7.138512772121813e-06
-9.98327016581824e-06   1.1355340475499793e-06   7.138512772121813e-06
-9.98327016581824e-06   1.1355340475499793e-06   7.138512772121813e-06
-9.98327016581824e-06   1.1355340475499793e-06   7.138512772121813e-06
-9.720073357125179e-06   2.1629247330858924e-06   6.083417012978445e-06
-9.720073357125179e-06   2.1629247330858924e-06   6.083417012978445e-06
-9.720073357125179e-06   2.1629247330858924e-06   6.083417012978445e-06
-9.720073357125179e-06   2.1629247330858924e-06   6.083417012978445e-06
-9.98327016581824e-06   2.751917557360117e-06   7.787798582118604e-06
-9.98327016581824e-06   2.751917557360117e-06   7.787798582118604e-06
-9.98327016581824e-06   2.751917557360117e-06   7.787798582118604e-06
-9.98327016581824e-06   2.751917557360117e-06   7.787798582118604e-06
-1.0372841651816412e-05   1.1355340475499793e-06   6.168682666235958e-06
-1.0372841651816412e-05   1.1355340475499793e-06   6.168682666235958e-06
-1.0372841651816412e-05   1.1355340475499793e-06   6.168682666235958e-06
-1.0372841651816412e-05   1.1355340475499793e-06   6.168682666235958e-06
-1.0818219798265204e-05   2.5312958482609895e-06   8.082821117975556e-06
-1.0818219798265204e-05   2.5312958482609895e-06   8.082821117975556e-06
-1.0818219798265204e-05   2.5312958482609895e-06   8.082821117975556e-06
-1.0818219798265204e-05   2.5312958482609895e-06   8.082821117975556e-06
-1.0092858743782041e-05   9.558187357434477e-07   7.819172294680423e-06
-1.0092858743782041e-05   9.558187357434477e-07   7.819172294680423e-06
-1.0092858743782041e-05   9.558187357434477e-07   7.819172294680423e-06
-1.0092858743782041e-05   9.558187357434477e-07   7.819172294680423e-06
-1.0082292892891787e-05   2.0028696794965753e-06   7.17333197694449e-06
-1.0082292892891787e-05   2.0028696794965753e-06   7.17333197694449e-06
-1.0082292892891787e-05   2.0028696794965753e-06   7.17333197694449e-06
-1.0082292892891787e-05   2.0028696794965753e-06   7.17333197694449e-06
-1.0092858743781987e-05   2.5312958482609895e-06   9.028107385485712e-06
-1.0092858743781987e-05   2.5312958482609895e-06   9.028107385485712e-06
-1.0092858743781987e-05   2.5312958482609895e-06   9.028107385485712e-06
-1.0092858743781987e-05   2.5312958482609895e-06   9.028107385485712e-06
-1.0818219798265259e-05   9.558187357434477e-07   6.873886027170022e-06
-1.0818219798265259e-05   9.558187357434477e-07   6.873886027170022e-06
-1.0818219798265259e-05   9.558187357434477e-07   6.873886027170022e-06
-1.0818219798265259e-05   9.558187357434477e-07   6.873886027170022e-06
-1.1479043757081132e-05   2.0237587173107434e-06   1.0406054620193807e-05
-1.1479043757081132e-05   2.0237587173107434e-06   1.0406054620193807e-05
-1.1479043757081132e-05   2.0237587173107434e-06   1.0406054620193807e-05
-1.1479043757081132e-05   2.0237587173107434e-06   1.0406054620193807e-05
-1.0158641347674858e-05   5.933246454392334e-07   9.063644380972861e-06
-1.0158641347674858e-05   5.933246454392334e-07   9.063644380972861e-06
-1.0158641347674858e-05   5.933246454392334e-07   9.063644380972861e-06
-1.0158641347674858e-05   5.933246454392334e-07   9.063644380972861e-06
-1.020489239848341e-05   1.8117642785192697e-06   8.409665685804894e-06
-1.020489239848341e-05   1.8117642785192697e-06   8.409665685804894e-06
-1.020489239848341e-05   1.8117642785192697e-06   8.409665685804894e-06
-1.020489239848341e-05   1.8117642785192697e-06   8.409665685804894e-06
-1.9492125836430322e-05   2.5815709108714018e-06   7.584130316427829e-06
-1.9492125836430322e-05   2.5815709108714018e-06   7.584130316427829e-06
-1.9492125836430322e-05   2.5815709108714018e-06   7.584130316427829e-06
-1.9492125836430322e-05   2.5815709108714018e-06   7.584130316427829e-06
-1.3176795642267118e-05   3.572529743182994e-06   1.870425593942016e-05
-1.3176795642267118e-05   3.572529743182994e-06   1.870425593942016e-05
-1.3176795642267118e-05   3.572529743182994e-06   1.870425593942016e-05
-1.3176795642267118e-05   3.572529743182994e-06   1.870425593942016e-05
-1.3171680420201729e-05   2.0153552426463483e-06   8.59926321283738e-06
-1.3171680420201729e-05   2.0153552426463483e-06   8.59926321283738e-06
-1.3171680420201729e-05   2.0153552426463483e-06   8.59926321283738e-06
-1.3171680420201729e-05   2.0153552426463483e-06   8.59926321283738e-06
-2.1480192176273245e-05   1.4390408351685233e-06   2.2792571450776816e-05
-2.1480192176273245e-05   1.4390408351685233e-06   2.2792571450776816e-05
-2.1480192176273245e-05   1.4390408351685233e-06   2.2792571450776816e-05
-2.1480192176273245e-05   1.4390408351685233e-06   2.2792571450776816e-05
-1.596135913383385e-05   2.1151182835387958e-06   1.3188869911022363e-05
-1.596135913383385e-05   2.1151182835387958e-06   1.3188869911022363e-05
-1.596135913383385e-05   2.1151182835387958e-06   1.3188869911022363e-05
-1.596135913383385e-05   2.1151182835387958e-06   1.3188869911022363e-05
-2.148019217627328e-05   2.0153552426464567e-06   8.945051857324156e-06
-2.148019217627328e-05   2.0153552426464567e-06   8.945051857324156e-06
-2.148019217627328e-05   2.0153552426464567e-06   8.945051857324156e-06
-2.148019217627328e-05   2.0153552426464567e-06   8.945051857324156e-06
-1.3171680420201729e-05   1.4390408351685233e-06   2.2446782806290108e-05
-1.3171680420201729e-05   1.4390408351685233e-06   2.2446782806290108e-05
-1.3171680420201729e-05   1.4390408351685233e-06   2.2446782806290108e-05
-1.3171680420201729e-05   1.4390408351685233e-06   2.2446782806290108e-05
-1.335436081120716e-05   1.6245416346431524e-06   9.611090488719192e-06
-1.335436081120716e-05   1.6245416346431524e-06   9.611090488719192e-06
-1.335436081120716e-05   1.6245416346431524e-06   9.611090488719192e-06
-1.335436081120716e-05   1.6245416346431524e-06   9.611090488719192e-06
-2.155851276844918e-05   1.0297101985231932e-06   2.3641575945794366e-05
-2.155851276844918e-05   1.0297101985231932e-06   2.3641575945794366e-05
-2.155851276844918e-05   1.0297101985231932e-06   2.3641575945794366e-05
-2.155851276844918e-05   1.0297101985231932e-06   2.3641575945794366e-05
-1.7036901820330487e-05   1.318384316446495e-06   1.5932353228175804e-05
-1.7036901820330487e-05   1.318384316446495e-06   1.5932353228175804e-05
-1.7036901820330487e-05   1.318384316446495e-06   1.5932353228175804e-05
-1.7036901820330487e-05   1.318384316446495e-06   1.5932353228175804e-05
-2.155851276844922e-05   1.6245416346431524e-06   9.967989350391103e-06
-2.155851276844922e-05   1.6245416346431524e-06   9.967989350391103e-06
-2.155851276844922e-05   1.6245416346431524e-06   9.967989350391103e-06
-2.155851276844922e-05   1.6245416346431524e-06   9.967989350391103e-06
-1.3354360811207132e-05   1.0297101985231932e-06   2.3284677084122455e-05
-1.3354360811207132e-05   1.0297101985231932e-06   2.3284677084122455e-05
-1.3354360811207132e-05   1.0297101985231932e-06   2.3284677084122455e-05
-1.3354360811207132e-05   1.0297101985231932e-06   2.3284677084122455e-05
-1.3214763490841722e-05   6.636374161640441e-07   1.1380290506565326e-05
-1.3214763490841722e-05   6.636374161640441e-07   1.1380290506565326e-05
-1.3214763490841722e-05   6.636374161640441e-07   1.1380290506565326e-05
-1.3214763490841722e-05   6.636374161640441e-07   1.1380290506565326e-05
-2.179652801862241e-05   -7.127425239471566e-07   2.650905935026644e-05
-2.179652801862241e-05   -7.127425239471566e-07   2.650905935026644e-05
-2.179652801862241e-05   -7.127425239471566e-07   2.650905935026644e-05
-2.179652801862241e-05   -7.127425239471566e-07   2.650905935026644e-05
-1.6779919044520526e-05   6.356763635349729e-07   1.7338993060940665e-05
-1.6779919044520526e-05   6.356763635349729e-07   1.7338993060940665e-05
-1.6779919044520526e-05   6.356763635349729e-07   1.7338993060940665e-05
-1.6779919044520526e-05   6.356763635349729e-07   1.7338993060940665e-05
-1.3176795642267142e-05   6.686076599614127e-07   1.736511152301346e-05
-1.3176795642267142e-05   6.686076599614127e-07   1.736511152301346e-05
-1.3176795642267142e-05   6.686076599614127e-07   1.736511152301346e-05
-1.3176795642267142e-05   6.686076599614127e-07   1.736511152301346e-05
-8.093500556449472e-06   -4.060581165205165e-06   2.2999756704276334e-05
-8.093500556449472e-06   -4.060581165205165e-06   2.2999756704276334e-05
-8.093500556449472e-06   -4.060581165205165e-06   2.2999756704276334e-05
-8.093500556449472e-06   -4.060581165205165e-06   2.2999756704276334e-05
-8.111863733440162e-06   3.192608307483113e-07   1.4567278736230546e-05
-8.111863733440162e-06   3.192608307483113e-07   1.4567278736230546e-05
-8.111863733440162e-06   3.192608307483113e-07   1.4567278736230546e-05
-8.111863733440162e-06   3.192608307483113e-07   1.4567278736230546e-05
-1.3171680420201729e-05   -3.3282216972046813e-06   2.5188796064271783e-05
-1.3171680420201729e-05   -3.3282216972046813e-06   2.5188796064271783e-05
-1.3171680420201729e-05   -3.3282216972046813e-06   2.5188796064271783e-05
-1.3171680420201729e-05   -3.3282216972046813e-06   2.5188796064271783e-05
-1.0582755953481575e-05   -2.008631227997564e-06   2.0082167671547343e-05
-1.0582755953481575e-05   -2.008631227997564e-06   2.0082167671547343e-05
-1.0582755953481575e-05   -2.008631227997564e-06   2.0082167671547343e-05
-1.0582755953481575e-05   -2.008631227997564e-06   2.0082167671547343e-05
-1.3171680420201735e-05   3.192608307483113e-07   1.67557682530022e-05
-1.3171680420201735e-05   3.192608307483113e-07   1.67557682530022e-05
-1.3171680420201735e-05   3.192608307483113e-07   1.67557682530022e-05
-1.3171680420201735e-05   3.192608307483113e-07   1.67557682530022e-05
-8.111863733440149e-06   -3.3282216972046813e-06   2.300030654749998e-05
-8.111863733440149e-06   -3.3282216972046813e-06   2.300030654749998e-05
-8.111863733440149e-06   -3.3282216972046813e-06   2.300030654749998e-05
-8.111863733440149e-06   -3.3282216972046813e-06   2.300030654749998e-05
-8.14654487784815e-06   -8.463530307752792e-08   1.5014151055256454e-05
-8.14654487784815e-06   -8.463530307752792e-08   1.5014151055256454e-05
-8.14654487784815e-06   -8.463530307752792e-08   1.5014151055256454e-05
-8.14654487784815e-06   -8.463530307752792e-08   1.5014151055256454e-05
-1.3354360811207132e-05   -3.4025856942092834e-06   2.568461451220037e-05
-1.3354360811207132e-05   -3.4025856942092834e-06   2.568461451220037e-05
-1.3354360811207132e-05   -3.4025856942092834e-06   2.568461451220037e-05
-1.3354360811207132e-05   -3.4025856942092834e-06   2.568461451220037e-05
-1.0507540247299743e-05   -1.755069350189856e-06   1.9951403765942948e-05
-1.0507540247299743e-05   -1.755069350189856e-06   1.9951403765942948e-05
-1.0507540247299743e-05   -1.755069350189856e-06   1.9951403765942948e-05
-1.0507540247299743e-05   -1.755069350189856e-06   1.9951403765942948e-05
-1.335436081120716e-05   -8.463530307752792e-08   1.7004921289935496e-05
-1.335436081120716e-05   -8.463530307752792e-08   1.7004921289935496e-05
-1.335436081120716e-05   -8.463530307752792e-08   1.7004921289935496e-05
-1.335436081120716e-05   -8.463530307752792e-08   1.7004921289935496e-05
-8.14654487784815e-06   -3.4025856942092834e-06   2.3693844277521326e-05
-8.14654487784815e-06   -3.4025856942092834e-06   2.3693844277521326e-05
-8.14654487784815e-06   -3.4025856942092834e-06   2.3693844277521326e-05
-8.14654487784815e-06   -3.4025856942092834e-06   2.3693844277521326e-05
-8.070405268786624e-06   -6.14652646761739e-07   1.5572104535531916e-05
-8.070405268786624e-06   -6.14652646761739e-07   1.5572104535531916e-05
-8.070405268786624e-06   -6.14652646761739e-07   1.5572104535531916e-05
-8.070405268786624e-06   -6.14652646761739e-07   1.5572104535531916e-05
-1.3214763490841688e-05   -3.4303648188560728e-06   2.5835462208880245e-05
-1.3214763490841688e-05   -3.4303648188560728e-06   2.5835462208880245e-05
-1.3214763490841688e-05   -3.4303648188560728e-06   2.5835462208880245e-05
-1.3214763490841688e-05   -3.4303648188560728e-06   2.5835462208880245e-05
-1.055944079556988e-05   -1.968497504775419e-06   2.0532803994978828e-05
-1.055944079556988e-05   -1.968497504775419e-06   2.0532803994978828e-05
-1.055944079556988e-05   -1.968497504775419e-06   2.0532803994978828e-05
-1.055944079556988e-05   -1.968497504775419e-06   2.0532803994978828e-05
-8.093500556449472e-06   1.865840976823319e-07   1.6059850762850268e-05
-8.093500556449472e-06   1.865840976823319e-07   1.6059850762850268e-05
-8.093500556449472e-06   1.865840976823319e-07   1.6059850762850268e-05
-8.093500556449472e-06   1.865840976823319e-07   1.6059850762850268e-05
-5.9663504000566706e-06   -3.1724713584090265e-06   1.758966774985016e-05
-5.9663504000566706e-06   -3.1724713584090265e-06   1.758966774985016e-05
-5.9663504000566706e-06   -3.1724713584090265e-06   1.758966774985016e-05
-5.9663504000566706e-06   -3.1724713584090265e-06   1.758966774985016e-05
-5.9154639405223385e-06   -1.0777048372657451e-07   1.4174392845573282e-05
-5.9154639405223385e-06   -1.0777048372657451e-07   1.4174392845573282e-05
-5.9154639405223385e-06   -1.0777048372657451e-07   1.4174392845573282e-05
-5.9154639405223385e-06   -1.0777048372657451e-07   1.4174392845573282e-05
-8.111863733440149e-06   -3.115752519934861e-06   1.9639848388828027e-05
-8.111863733440149e-06   -3.115752519934861e-06   1.9639848388828027e-05
-8.111863733440149e-06   -3.115752519934861e-06   1.9639848388828027e-05
-8.111863733440149e-06   -3.115752519934861e-06   1.9639848388828027e-05
-6.979013275274525e-06   -1.6025552718953746e-06   1.6843845943061858e-05
-6.979013275274525e-06   -1.6025552718953746e-06   1.6843845943061858e-05
-6.979013275274525e-06   -1.6025552718953746e-06   1.6843845943061858e-05
-6.979013275274525e-06   -1.6025552718953746e-06   1.6843845943061858e-05
-8.111863733440149e-06   -1.0777048372657451e-07   1.59791820672982e-05
-8.111863733440149e-06   -1.0777048372657451e-07   1.59791820672982e-05
-8.111863733440149e-06   -1.0777048372657451e-07   1.59791820672982e-05
-8.111863733440149e-06   -1.0777048372657451e-07   1.59791820672982e-05
-5.9154639405223114e-06   -3.115752519934861e-06   1.7835059167103144e-05
-5.9154639405223114e-06   -3.115752519934861e-06   1.7835059167103144e-05
-5.9154639405223114e-06   -3.115752519934861e-06   1.7835059167103144e-05
-5.9154639405223114e-06   -3.115752519934861e-06   1.7835059167103144e-05
-5.872630667862796e-06   -4.601949620032259e-07   1.4512115281600075e-05
-5.872630667862796e-06   -4.601949620032259e-07   1.4512115281600075e-05
-5.872630667862796e-06   -4.601949620032259e-07   1.4512115281600075e-05
-5.872630667862796e-06   -4.601949620032259e-07   1.4512115281600075e-05
-8.14654487784815e-06   -3.210245118366866e-06   1.9952002392060455e-05
-8.14654487784815e-06   -3.210245118366866e-06   1.9952002392060455e-05
-8.14654487784815e-06   -3.210245118366866e-06   1.9952002392060455e-05
-8.14654487784815e-06   -3.210245118366866e-06   1.9952002392060455e-05
-6.919847502198085e-06   -1.7076486510953903e-06   1.700594888561375e-05
-6.919847502198085e-06   -1.7076486510953903e-06   1.700594888561375e-05
-6.919847502198085e-06   -1.7076486510953903e-06   1.700594888561375e-05
-6.919847502198085e-06   -1.7076486510953903e-06   1.700594888561375e-05
-8.14654487784815e-06   -4.601949620032259e-07   1.616214537541826e-05
-8.14654487784815e-06   -4.601949620032259e-07   1.616214537541826e-05
-8.14654487784815e-06   -4.601949620032259e-07   1.616214537541826e-05
-8.14654487784815e-06   -4.601949620032259e-07   1.616214537541826e-05
-5.872630667862796e-06   -3.210245118366866e-06   1.830197229824225e-05
-5.872630667862796e-06   -3.210245118366866e-06   1.830197229824225e-05
-5.872630667862796e-06   -3.210245118366866e-06   1.830197229824225e-05
-5.872630667862796e-06   -3.210245118366866e-06   1.830197229824225e-05
-5.760882263446083e-06   -8.13619211995271e-07   1.5035460557932551e-05
-5.760882263446083e-06   -8.13619211995271e-07   1.5035460557932551e-05
-5.760882263446083e-06   -8.13619211995271e-07   1.5035460557932551e-05
-5.760882263446083e-06   -8.13619211995271e-07   1.5035460557932551e-05
-8.070405268786624e-06   -3.3430537054273107e-06   2.040232626289261e-05
-8.070405268786624e-06   -3.3430537054273107e-06   2.040232626289261e-05
-8.070405268786624e-06   -3.3430537054273107e-06   2.040232626289261e-05
-8.070405268786624e-06   -3.3430537054273107e-06   2.040232626289261e-05
-6.85086460673067e-06   -1.861502668005176e-06   1.7480827870346117e-05
-6.85086460673067e-06   -1.861502668005176e-06   1.7480827870346117e-05
-6.85086460673067e-06   -1.861502668005176e-06   1.7480827870346117e-05
-6.85086460673067e-06   -1.861502668005176e-06   1.7480827870346117e-05
-5.9663504000566706e-06   8.541006357045246e-07   1.0940201469678858e-05
-5.9663504000566706e-06   8.541006357045246e-07   1.0940201469678858e-05
-5.9663504000566706e-06   8.541006357045246e-07   1.0940201469678858e-05
-5.9663504000566706e-06   8.541006357045246e-07   1.0940201469678858e-05
-4.9885241989533285e-06   -1.3029831937645849e-06   1.1275661507169588e-05
-4.9885241989533285e-06   -1.3029831937645849e-06   1.1275661507169588e-05
-4.9885241989533285e-06   -1.3029831937645849e-06   1.1275661507169588e-05
-4.9885241989533285e-06   -1.3029831937645849e-06   1.1275661507169588e-05
-4.884163803486809e-06   4.660428459449641e-07   9.878485324996719e-06
-4.884163803486809e-06   4.660428459449641e-07   9.878485324996719e-06
-4.884163803486809e-06   4.660428459449641e-07   9.878485324996719e-06
-4.884163803486809e-06   4.660428459449641e-07   9.878485324996719e-06
-5.9154639405223385e-06   -1.5241325868056103e-06   1.2791424146373195e-05
-5.9154639405223385e-06   -1.5241325868056103e-06   1.2791424146373195e-05
-5.9154639405223385e-06   -1.5241325868056103e-06   1.2791424146373195e-05
-5.9154639405223385e-06   -1.5241325868056103e-06   1.2791424146373195e-05
-5.399064000983231e-06   -2.974503263781982e-07   1.119474822421833e-05
-5.399064000983231e-06   -2.974503263781982e-07   1.119474822421833e-05
-5.399064000983231e-06   -2.974503263781982e-07   1.119474822421833e-05
-5.399064000983231e-06   -2.974503263781982e-07   1.119474822421833e-05
-5.9154639405223385e-06   4.660428459449641e-07   1.107259058464715e-05
-5.9154639405223385e-06   4.660428459449641e-07   1.107259058464715e-05
-5.9154639405223385e-06   4.660428459449641e-07   1.107259058464715e-05
-5.9154639405223385e-06   4.660428459449641e-07   1.107259058464715e-05
-4.884163803486809e-06   -1.5241325868056103e-06   1.1597318886722764e-05
-4.884163803486809e-06   -1.5241325868056103e-06   1.1597318886722764e-05
-4.884163803486809e-06   -1.5241325868056103e-06   1.1597318886722764e-05
-4.884163803486809e-06   -1.5241325868056103e-06   1.1597318886722764e-05
-4.838777706942367e-06   1.3361936468554974e-07   1.0344760135821605e-05
-4.838777706942367e-06   1.3361936468554974e-07   1.0344760135821605e-05
-4.838777706942367e-06   1.3361936468554974e-07   1.0344760135821605e-05
-4.838777706942367e-06   1.3361936468554974e-07   1.0344760135821605e-05
-5.872630667862769e-06   -1.6936053900138749e-06   1.3164183256841801e-05
-5.872630667862769e-06   -1.6936053900138749e-06   1.3164183256841801e-05
-5.872630667862769e-06   -1.6936053900138749e-06   1.3164183256841801e-05
-5.872630667862769e-06   -1.6936053900138749e-06   1.3164183256841801e-05
-5.295486534888776e-06   -5.334561821608835e-07   1.1506186843839548e-05
-5.295486534888776e-06   -5.334561821608835e-07   1.1506186843839548e-05
-5.295486534888776e-06   -5.334561821608835e-07   1.1506186843839548e-05
-5.295486534888776e-06   -5.334561821608835e-07   1.1506186843839548e-05
-5.872630667862769e-06   1.3361936468554974e-07   1.144109498864114e-05
-5.872630667862769e-06   1.3361936468554974e-07   1.144109498864114e-05
-5.872630667862769e-06   1.3361936468554974e-07   1.144109498864114e-05
-5.872630667862769e-06   1.3361936468554974e-07   1.144109498864114e-05
-4.838777706942367e-06   -1.6936053900138749e-06   1.206784840402213e-05
-4.838777706942367e-06   -1.6936053900138749e-06   1.206784840402213e-05
-4.838777706942367e-06   -1.6936053900138749e-06   1.206784840402213e-05
-4.838777706942367e-06   -1.6936053900138749e-06   1.206784840402213e-05
-4.762038496847372e-06   -2.015745707458199e-07   1.0930300344164394e-05
-4.762038496847372e-06   -2.015745707458199e-07   1.0930300344164394e-05
-4.762038496847372e-06   -2.015745707458199e-07   1.0930300344164394e-05
-4.762038496847372e-06   -2.015745707458199e-07   1.0930300344164394e-05
-5.760882263446083e-06   -1.915586984216778e-06   1.3623447403244703e-05
-5.760882263446083e-06   -1.915586984216778e-06   1.3623447403244703e-05
-5.760882263446083e-06   -1.915586984216778e-06   1.3623447403244703e-05
-5.760882263446083e-06   -1.915586984216778e-06   1.3623447403244703e-05
-5.216205360256563e-06   -7.405543125896946e-07   1.2010632961619548e-05
-5.216205360256563e-06   -7.405543125896946e-07   1.2010632961619548e-05
-5.216205360256563e-06   -7.405543125896946e-07   1.2010632961619548e-05
-5.216205360256563e-06   -7.405543125896946e-07   1.2010632961619548e-05
-4.9885241989533285e-06   1.4105169282137503e-06   2.517338570269534e-06
-4.9885241989533285e-06   1.4105169282137503e-06   2.517338570269534e-06
-4.9885241989533285e-06   1.4105169282137503e-06   2.517338570269534e-06
-4.9885241989533285e-06   1.4105169282137503e-06   2.517338570269534e-06
-2.9068904518407914e-06   -1.438668769744209e-07   5.054097865677526e-06
-2.9068904518407914e-06   -1.438668769744209e-07   5.054097865677526e-06
-2.9068904518407914e-06   -1.438668769744209e-07   5.054097865677526e-06
-2.9068904518407914e-06   -1.438668769744209e-07   5.054097865677526e-06
-3.0741881795036006e-06   1.1355340475499793e-06   2.5413163389892933e-06
-3.0741881795036006e-06   1.1355340475499793e-06   2.5413163389892933e-06
-3.0741881795036006e-06   1.1355340475499793e-06   2.5413163389892933e-06
-3.0741881795036006e-06   1.1355340475499793e-06   2.5413163389892933e-06
-4.884163803486809e-06   -2.0139807348462354e-07   6.3601016515820764e-06
-4.884163803486809e-06   -2.0139807348462354e-07   6.3601016515820764e-06
-4.884163803486809e-06   -2.0139807348462354e-07   6.3601016515820764e-06
-4.884163803486809e-06   -2.0139807348462354e-07   6.3601016515820764e-06
-3.827082221937676e-06   7.255792748963111e-07   4.0421126066385316e-06
-3.827082221937676e-06   7.255792748963111e-07   4.0421126066385316e-06
-3.827082221937676e-06   7.255792748963111e-07   4.0421126066385316e-06
-3.827082221937676e-06   7.255792748963111e-07   4.0421126066385316e-06
-4.884163803486809e-06   1.1355340475499793e-06   3.343475611609773e-06
-4.884163803486809e-06   1.1355340475499793e-06   3.343475611609773e-06
-4.884163803486809e-06   1.1355340475499793e-06   3.343475611609773e-06
-4.884163803486809e-06   1.1355340475499793e-06   3.343475611609773e-06
-3.074188179503655e-06   -2.0139807348462354e-07   5.55794237896138e-06
-3.074188179503655e-06   -2.0139807348462354e-07   5.55794237896138e-06
-3.074188179503655e-06   -2.0139807348462354e-07   5.55794237896138e-06
-3.074188179503655e-06   -2.0139807348462354e-07   5.55794237896138e-06
-3.2118637746382213e-06   9.558187357434477e-07   3.2985962753002886e-06
-3.2118637746382213e-06   9.558187357434477e-07   3.2985962753002886e-06
-3.2118637746382213e-06   9.558187357434477e-07   3.2985962753002886e-06
-3.2118637746382213e-06   9.558187357434477e-07   3.2985962753002886e-06
-4.838777706942367e-06   -2.7901048761197434e-07   6.751017029820415e-06
-4.838777706942367e-06   -2.7901048761197434e-07   6.751017029820415e-06
-4.838777706942367e-06   -2.7901048761197434e-07   6.751017029820415e-06
-4.838777706942367e-06   -2.7901048761197434e-07   6.751017029820415e-06
-3.8974564841551295e-06   5.900622088681222e-07   4.660704707286638e-06
-3.8974564841551295e-06   5.900622088681222e-07   4.660704707286638e-06
-3.8974564841551295e-06   5.900622088681222e-07   4.660704707286638e-06
-3.8974564841551295e-06   5.900622088681222e-07   4.660704707286638e-06
-4.838777706942367e-06   9.558187357435561e-07   4.039493809313596e-06
-4.838777706942367e-06   9.558187357435561e-07   4.039493809313596e-06
-4.838777706942367e-06   9.558187357435561e-07   4.039493809313596e-06
-4.838777706942367e-06   9.558187357435561e-07   4.039493809313596e-06
-3.2118637746382755e-06   -2.7901048761192013e-07   6.010119495807053e-06
-3.2118637746382755e-06   -2.7901048761192013e-07   6.010119495807053e-06
-3.2118637746382755e-06   -2.7901048761192013e-07   6.010119495807053e-06
-3.2118637746382755e-06   -2.7901048761192013e-07   6.010119495807053e-06
-3.545871282204622e-06   5.933246454392334e-07   4.652604772133369e-06
-3.545871282204622e-06   5.933246454392334e-07   4.652604772133369e-06
-3.545871282204622e-06   5.933246454392334e-07   4.652604772133369e-06
-3.545871282204622e-06   5.933246454392334e-07   4.652604772133369e-06
-4.762038496847372e-06   -3.741071659230338e-07   7.2600092166883205e-06
-4.762038496847372e-06   -3.741071659230338e-07   7.2600092166883205e-06
-4.762038496847372e-06   -3.741071659230338e-07   7.2600092166883205e-06
-4.762038496847372e-06   -3.741071659230338e-07   7.2600092166883205e-06
-3.908786320086846e-06   4.978914527003055e-07   5.314723084246854e-06
-3.908786320086846e-06   4.978914527003055e-07   5.314723084246854e-06
-3.908786320086846e-06   4.978914527003055e-07   5.314723084246854e-06
-3.908786320086846e-06   4.978914527003055e-07   5.314723084246854e-06
-4.575478597352825e-05   3.572529743183048e-06   1.971268383920357e-05
-4.575478597352825e-05   3.572529743183048e-06   1.971268383920357e-05
-4.575478597352825e-05   3.572529743183048e-06   1.971268383920357e-05
-4.575478597352825e-05   3.572529743183048e-06   1.971268383920357e-05
-1.0744309144113579e-05   -2.2487462816202256e-05   6.242748301926357e-05
-1.0744309144113579e-05   -2.2487462816202256e-05   6.242748301926357e-05
-1.0744309144113579e-05   -2.2487462816202256e-05   6.242748301926357e-05
-1.0744309144113579e-05   -2.2487462816202256e-05   6.242748301926357e-05
-1.2619389288083352e-05   1.4390408351685233e-06   1.08103173319927e-05
-1.2619389288083352e-05   1.4390408351685233e-06   1.08103173319927e-05
-1.2619389288083352e-05   1.4390408351685233e-06   1.08103173319927e-05
-1.2619389288083352e-05   1.4390408351685233e-06   1.08103173319927e-05
-4.172977349425907e-05   -1.7497886965737533e-05   7.06897810228291e-05
-4.172977349425907e-05   -1.7497886965737533e-05   7.06897810228291e-05
-4.172977349425907e-05   -1.7497886965737533e-05   7.06897810228291e-05
-4.172977349425907e-05   -1.7497886965737533e-05   7.06897810228291e-05
-2.7819952855369398e-05   -8.710450065267704e-06   4.223428448439773e-05
-2.7819952855369398e-05   -8.710450065267704e-06   4.223428448439773e-05
-2.7819952855369398e-05   -8.710450065267704e-06   4.223428448439773e-05
-2.7819952855369398e-05   -8.710450065267704e-06   4.223428448439773e-05
-4.1729773494259e-05   1.4390408351685233e-06   2.2172474012536298e-05
-4.1729773494259e-05   1.4390408351685233e-06   2.2172474012536298e-05
-4.1729773494259e-05   1.4390408351685233e-06   2.2172474012536298e-05
-4.1729773494259e-05   1.4390408351685233e-06   2.2172474012536298e-05
-1.2619389288083373e-05   -1.7497886965737533e-05   5.9327624342285455e-05
-1.2619389288083373e-05   -1.7497886965737533e-05   5.9327624342285455e-05
-1.2619389288083373e-05   -1.7497886965737533e-05   5.9327624342285455e-05
-1.2619389288083373e-05   -1.7497886965737533e-05   5.9327624342285455e-05
-1.2908894320396858e-05   1.0297101985231932e-06   1.1880013393151729e-05
-1.2908894320396858e-05   1.0297101985231932e-06   1.1880013393151729e-05
-1.2908894320396858e-05   1.0297101985231932e-06   1.1880013393151729e-05
-1.2908894320396858e-05   1.0297101985231932e-06   1.1880013393151729e-05
-3.937411286882878e-05   -1.509623735857992e-05   6.566427950813337e-05
-3.937411286882878e-05   -1.509623735857992e-05   6.566427950813337e-05
-3.937411286882878e-05   -1.509623735857992e-05   6.566427950813337e-05
-3.937411286882878e-05   -1.509623735857992e-05   6.566427950813337e-05
-2.699113913333293e-05   -8.254327149294057e-06   4.0920843823402145e-05
-2.699113913333293e-05   -8.254327149294057e-06   4.0920843823402145e-05
-2.699113913333293e-05   -8.254327149294057e-06   4.0920843823402145e-05
-2.699113913333293e-05   -8.254327149294057e-06   4.0920843823402145e-05
-3.937411286882871e-05   1.0297101985231932e-06   2.1555581927413598e-05
-3.937411286882871e-05   1.0297101985231932e-06   2.1555581927413598e-05
-3.937411286882871e-05   1.0297101985231932e-06   2.1555581927413598e-05
-3.937411286882871e-05   1.0297101985231932e-06   2.1555581927413598e-05
-1.2908894320396878e-05   -1.509623735857992e-05   5.59887109738715e-05
-1.2908894320396878e-05   -1.509623735857992e-05   5.59887109738715e-05
-1.2908894320396878e-05   -1.509623735857992e-05   5.59887109738715e-05
-1.2908894320396878e-05   -1.509623735857992e-05   5.59887109738715e-05
-1.4148737945693024e-05   -7.127425239471566e-07   1.4872662738980763e-05
-1.4148737945693024e-05   -7.127425239471566e-07   1.4872662738980763e-05
-1.4148737945693024e-05   -7.127425239471566e-07   1.4872662738980763e-05
-1.4148737945693024e-05   -7.127425239471566e-07   1.4872662738980763e-05
-3.635314439819236e-05   -1.1905192417765486e-05   5.859547676277053e-05
-3.635314439819236e-05   -1.1905192417765486e-05   5.859547676277053e-05
-3.635314439819236e-05   -1.1905192417765486e-05   5.859547676277053e-05
-3.635314439819236e-05   -1.1905192417765486e-05   5.859547676277053e-05
-2.596590003686659e-05   -7.620408181945666e-06   3.8712532285735736e-05
-2.596590003686659e-05   -7.620408181945666e-06   3.8712532285735736e-05
-2.596590003686659e-05   -7.620408181945666e-06   3.8712532285735736e-05
-2.596590003686659e-05   -7.620408181945666e-06   3.8712532285735736e-05
-1.0744309144113551e-05   -4.060581165205165e-06   1.1209702363528483e-05
-1.0744309144113551e-05   -4.060581165205165e-06   1.1209702363528483e-05
-1.0744309144113551e-05   -4.060581165205165e-06   1.1209702363528483e-05
-1.0744309144113551e-05   -4.060581165205165e-06   1.1209702363528483e-05
-3.739131741225919e-06   -7.0067735400239225e-06   2.11172826101167e-05
-3.739131741225919e-06   -7.0067735400239225e-06   2.11172826101167e-05
-3.739131741225919e-06   -7.0067735400239225e-06   2.11172826101167e-05
-3.739131741225919e-06   -7.0067735400239225e-06   2.11172826101167e-05
-4.181881729781005e-06   -3.3282216972046813e-06   9.984349850227718e-06
-4.181881729781005e-06   -3.3282216972046813e-06   9.984349850227718e-06
-4.181881729781005e-06   -3.3282216972046813e-06   9.984349850227718e-06
-4.181881729781005e-06   -3.3282216972046813e-06   9.984349850227718e-06
-1.2619389288083373e-05   -9.274856263449139e-06   2.76148431871449e-05
-1.2619389288083373e-05   -9.274856263449139e-06   2.76148431871449e-05
-1.2619389288083373e-05   -9.274856263449139e-06   2.76148431871449e-05
-1.2619389288083373e-05   -9.274856263449139e-06   2.76148431871449e-05
-7.413260902103241e-06   -4.853957789078005e-06   1.628542345922195e-05
-7.413260902103241e-06   -4.853957789078005e-06   1.628542345922195e-05
-7.413260902103241e-06   -4.853957789078005e-06   1.628542345922195e-05
-7.413260902103241e-06   -4.853957789078005e-06   1.628542345922195e-05
-1.2619389288083345e-05   -3.3282216972046813e-06   1.3552330589974241e-05
-1.2619389288083345e-05   -3.3282216972046813e-06   1.3552330589974241e-05
-1.2619389288083345e-05   -3.3282216972046813e-06   1.3552330589974241e-05
-1.2619389288083345e-05   -3.3282216972046813e-06   1.3552330589974241e-05
-4.181881729781032e-06   -9.274856263449139e-06   2.404686244739826e-05
-4.181881729781032e-06   -9.274856263449139e-06   2.404686244739826e-05
-4.181881729781032e-06   -9.274856263449139e-06   2.404686244739826e-05
-4.181881729781032e-06   -9.274856263449139e-06   2.404686244739826e-05
-4.56158356405305e-06   -3.4025856942092834e-06   1.1227021877032676e-05
-4.56158356405305e-06   -3.4025856942092834e-06   1.1227021877032676e-05
-4.56158356405305e-06   -3.4025856942092834e-06   1.1227021877032676e-05
-4.56158356405305e-06   -3.4025856942092834e-06   1.1227021877032676e-05
-1.2908894320396878e-05   -8.49080060120424e-06   2.8192135415135923e-05
-1.2908894320396878e-05   -8.49080060120424e-06   2.8192135415135923e-05
-1.2908894320396878e-05   -8.49080060120424e-06   2.8192135415135923e-05
-1.2908894320396878e-05   -8.49080060120424e-06   2.8192135415135923e-05
-8.364914401044283e-06   -5.929749914891365e-06   1.9082205137760692e-05
-8.364914401044283e-06   -5.929749914891365e-06   1.9082205137760692e-05
-8.364914401044283e-06   -5.929749914891365e-06   1.9082205137760692e-05
-8.364914401044283e-06   -5.929749914891365e-06   1.9082205137760692e-05
-1.2908894320396858e-05   -3.4025856942092834e-06   1.4279950821229629e-05
-1.2908894320396858e-05   -3.4025856942092834e-06   1.4279950821229629e-05
-1.2908894320396858e-05   -3.4025856942092834e-06   1.4279950821229629e-05
-1.2908894320396858e-05   -3.4025856942092834e-06   1.4279950821229629e-05
-4.561583564053077e-06   -8.49080060120424e-06   2.5139206470938976e-05
-4.561583564053077e-06   -8.49080060120424e-06   2.5139206470938976e-05
-4.561583564053077e-06   -8.49080060120424e-06   2.5139206470938976e-05
-4.561583564053077e-06   -8.49080060120424e-06   2.5139206470938976e-05
-5.18005125027578e-06   -3.4303648188560728e-06   1.2285876566608695e-05
-5.18005125027578e-06   -3.4303648188560728e-06   1.2285876566608695e-05
-5.18005125027578e-06   -3.4303648188560728e-06   1.2285876566608695e-05
-5.18005125027578e-06   -3.4303648188560728e-06   1.2285876566608695e-05
-1.4148737945693038e-05   -7.995393143943704e-06   2.997270472068997e-05
-1.4148737945693038e-05   -7.995393143943704e-06   2.997270472068997e-05
-1.4148737945693038e-05   -7.995393143943704e-06   2.997270472068997e-05
-1.4148737945693038e-05   -7.995393143943704e-06   2.997270472068997e-05
-8.923259396561243e-06   -5.414907659758659e-06   1.9715282514959326e-05
-8.923259396561243e-06   -5.414907659758659e-06   1.9715282514959326e-05
-8.923259396561243e-06   -5.414907659758659e-06   1.9715282514959326e-05
-8.923259396561243e-06   -5.414907659758659e-06   1.9715282514959326e-05
-3.739131741225919e-06   -3.1724713584090265e-06   6.0473312578658285e-06
-3.739131741225919e-06   -3.1724713584090265e-06   6.0473312578658285e-06
-3.739131741225919e-06   -3.1724713584090265e-06   6.0473312578658285e-06
-3.739131741225919e-06   -3.1724713584090265e-06   6.0473312578658285e-06
-2.088354986908383e-06   -1.9777566454819415e-06   9.515454676151309e-06
-2.088354986908383e-06   -1.9777566454819415e-06   9.515454676151309e-06
-2.088354986908383e-06   -1.9777566454819415e-06   9.515454676151309e-06
-2.088354986908383e-06   -1.9777566454819415e-06   9.515454676151309e-06
-2.0098941816304873e-06   -3.115752519934861e-06   6.944040712605752e-06
-2.0098941816304873e-06   -3.115752519934861e-06   6.944040712605752e-06
-2.0098941816304873e-06   -3.115752519934861e-06   6.944040712605752e-06
-2.0098941816304873e-06   -3.115752519934861e-06   6.944040712605752e-06
-4.181881729781032e-06   -2.582170818185067e-06   1.0243870938473281e-05
-4.181881729781032e-06   -2.582170818185067e-06   1.0243870938473281e-05
-4.181881729781032e-06   -2.582170818185067e-06   1.0243870938473281e-05
-4.181881729781032e-06   -2.582170818185067e-06   1.0243870938473281e-05
-2.8144191699543114e-06   -2.563781258760751e-06   7.953732936440757e-06
-2.8144191699543114e-06   -2.563781258760751e-06   7.953732936440757e-06
-2.8144191699543114e-06   -2.563781258760751e-06   7.953732936440757e-06
-2.8144191699543114e-06   -2.563781258760751e-06   7.953732936440757e-06
-4.181881729781005e-06   -3.115752519934807e-06   6.62389169155586e-06
-4.181881729781005e-06   -3.115752519934807e-06   6.62389169155586e-06
-4.181881729781005e-06   -3.115752519934807e-06   6.62389169155586e-06
-4.181881729781005e-06   -3.115752519934807e-06   6.62389169155586e-06
-2.0098941816304873e-06   -2.582170818185067e-06   1.0564019959523173e-05
-2.0098941816304873e-06   -2.582170818185067e-06   1.0564019959523173e-05
-2.0098941816304873e-06   -2.582170818185067e-06   1.0564019959523173e-05
-2.0098941816304873e-06   -2.582170818185067e-06   1.0564019959523173e-05
-2.0162141079546755e-06   -3.210245118366866e-06   7.426438138859171e-06
-2.0162141079546755e-06   -3.210245118366866e-06   7.426438138859171e-06
-2.0162141079546755e-06   -3.210245118366866e-06   7.426438138859171e-06
-2.0162141079546755e-06   -3.210245118366866e-06   7.426438138859171e-06
-4.561583564053077e-06   -3.3081482062212546e-06   1.1727462418402348e-05
-4.561583564053077e-06   -3.3081482062212546e-06   1.1727462418402348e-05
-4.561583564053077e-06   -3.3081482062212546e-06   1.1727462418402348e-05
-4.561583564053077e-06   -3.3081482062212546e-06   1.1727462418402348e-05
-2.9878910118806817e-06   -2.802979299140171e-06   8.801540153866472e-06
-2.9878910118806817e-06   -2.802979299140171e-06   8.801540153866472e-06
-2.9878910118806817e-06   -2.802979299140171e-06   8.801540153866472e-06
-2.9878910118806817e-06   -2.802979299140171e-06   8.801540153866472e-06
-4.56158356405305e-06   -3.21024511836692e-06   7.485179991571723e-06
-4.56158356405305e-06   -3.21024511836692e-06   7.485179991571723e-06
-4.56158356405305e-06   -3.21024511836692e-06   7.485179991571723e-06
-4.56158356405305e-06   -3.21024511836692e-06   7.485179991571723e-06
-2.0162141079546755e-06   -3.3081482062212546e-06   1.1668720565689714e-05
-2.0162141079546755e-06   -3.3081482062212546e-06   1.1668720565689714e-05
-2.0162141079546755e-06   -3.3081482062212546e-06   1.1668720565689714e-05
-2.0162141079546755e-06   -3.3081482062212546e-06   1.1668720565689714e-05
-2.0521590249517356e-06   -3.3430537054272564e-06   8.149408657405054e-06
-2.0521590249517356e-06   -3.3430537054272564e-06   8.149408657405054e-06
-2.0521590249517356e-06   -3.3430537054272564e-06   8.149408657405054e-06
-2.0521590249517356e-06   -3.3430537054272564e-06   8.149408657405054e-06
-5.18005125027578e-06   -3.997652482881726e-06   1.375532163275101e-05
-5.18005125027578e-06   -3.997652482881726e-06   1.375532163275101e-05
-5.18005125027578e-06   -3.997652482881726e-06   1.375532163275101e-05
-5.18005125027578e-06   -3.997652482881726e-06   1.375532163275101e-05
-3.1862179329083525e-06   -3.0582737503528e-06   9.868638864287977e-06
-3.1862179329083525e-06   -3.0582737503528e-06   9.868638864287977e-06
-3.1862179329083525e-06   -3.0582737503528e-06   9.868638864287977e-06
-3.1862179329083525e-06   -3.0582737503528e-06   9.868638864287977e-06
-2.088354986908383e-06   -1.302983193764639e-06   1.7444041406231502e-06
-2.088354986908383e-06   -1.302983193764639e-06   1.7444041406231502e-06
-2.088354986908383e-06   -1.302983193764639e-06   1.7444041406231502e-06
-2.088354986908383e-06   -1.302983193764639e-06   1.7444041406231502e-06
-1.5563209119822058e-06   3.1726697443281284e-07   3.603277699751892e-06
-1.5563209119822058e-06   3.1726697443281284e-07   3.603277699751892e-06
-1.5563209119822058e-06   3.1726697443281284e-07   3.603277699751892e-06
-1.5563209119822058e-06   3.1726697443281284e-07   3.603277699751892e-06
-1.2618860263770098e-06   -1.5241325868056103e-06   2.874166568345312e-06
-1.2618860263770098e-06   -1.5241325868056103e-06   2.874166568345312e-06
-1.2618860263770098e-06   -1.5241325868056103e-06   2.874166568345312e-06
-1.2618860263770098e-06   -1.5241325868056103e-06   2.874166568345312e-06
-2.0098941816304873e-06   9.880220731044167e-08   3.14708595063138e-06
-2.0098941816304873e-06   9.880220731044167e-08   3.14708595063138e-06
-2.0098941816304873e-06   9.880220731044167e-08   3.14708595063138e-06
-2.0098941816304873e-06   9.880220731044167e-08   3.14708595063138e-06
-1.622190437888121e-06   -6.191171692794485e-07   2.931664670347803e-06
-1.622190437888121e-06   -6.191171692794485e-07   2.931664670347803e-06
-1.622190437888121e-06   -6.191171692794485e-07   2.931664670347803e-06
-1.622190437888121e-06   -6.191171692794485e-07   2.931664670347803e-06
-2.0098941816304873e-06   -1.5241325868056103e-06   1.9004056918756746e-06
-2.0098941816304873e-06   -1.5241325868056103e-06   1.9004056918756746e-06
-2.0098941816304873e-06   -1.5241325868056103e-06   1.9004056918756746e-06
-2.0098941816304873e-06   -1.5241325868056103e-06   1.9004056918756746e-06
-1.2618860263770098e-06   9.880220731044167e-08   4.120846827100936e-06
-1.2618860263770098e-06   9.880220731044167e-08   4.120846827100936e-06
-1.2618860263770098e-06   9.880220731044167e-08   4.120846827100936e-06
-1.2618860263770098e-06   9.880220731044167e-08   4.120846827100936e-06
-1.1014484064613642e-06   -1.6936053900138749e-06   3.1576808728813474e-06
-1.1014484064613642e-06   -1.6936053900138749e-06   3.1576808728813474e-06
-1.1014484064613642e-06   -1.6936053900138749e-06   3.1576808728813474e-06
-1.1014484064613642e-06   -1.6936053900138749e-06   3.1576808728813474e-06
-2.0162141079546755e-06   -2.4521909764312324e-07   3.8132585999475256e-06
-2.0162141079546755e-06   -2.4521909764312324e-07   3.8132585999475256e-06
-2.0162141079546755e-06   -2.4521909764312324e-07   3.8132585999475256e-06
-2.0162141079546755e-06   -2.4521909764312324e-07   3.8132585999475256e-06
-1.4727605932598445e-06   -7.914471730886103e-07   3.235239587390216e-06
-1.4727605932598445e-06   -7.914471730886103e-07   3.235239587390216e-06
-1.4727605932598445e-06   -7.914471730886103e-07   3.235239587390216e-06
-1.4727605932598445e-06   -7.914471730886103e-07   3.235239587390216e-06
-2.0162141079546484e-06   -1.6936053900138749e-06   2.2886490974587277e-06
-2.0162141079546484e-06   -1.6936053900138749e-06   2.2886490974587277e-06
-2.0162141079546484e-06   -1.6936053900138749e-06   2.2886490974587277e-06
-2.0162141079546484e-06   -1.6936053900138749e-06   2.2886490974587277e-06
-1.1014484064613642e-06   -2.4521909764312324e-07   4.682290375370064e-06
-1.1014484064613642e-06   -2.4521909764312324e-07   4.682290375370064e-06
-1.1014484064613642e-06   -2.4521909764312324e-07   4.682290375370064e-06
-1.1014484064613642e-06   -2.4521909764312324e-07   4.682290375370064e-06
-8.555187765152536e-07   -1.915586984216832e-06   3.468194525599582e-06
-8.555187765152536e-07   -1.915586984216832e-06   3.468194525599582e-06
-8.555187765152536e-07   -1.915586984216832e-06   3.468194525599582e-06
-8.555187765152536e-07   -1.915586984216832e-06   3.468194525599582e-06
-2.0521590249517356e-06   -9.489135979114968e-07   4.882590907877044e-06
-2.0521590249517356e-06   -9.489135979114968e-07   4.882590907877044e-06
-2.0521590249517356e-06   -9.489135979114968e-07   4.882590907877044e-06
-2.0521590249517356e-06   -9.489135979114968e-07   4.882590907877044e-06
-1.352241817297289e-06   -1.0539322884912169e-06   3.7790734428010814e-06
-1.352241817297289e-06   -1.0539322884912169e-06   3.7790734428010814e-06
-1.352241817297289e-06   -1.0539322884912169e-06   3.7790734428010814e-06
-1.352241817297289e-06   -1.0539322884912169e-06   3.7790734428010814e-06
-1.5563209119822058e-06   -1.438668769743667e-07   -2.57237911683767e-06
-1.5563209119822058e-06   -1.438668769743667e-07   -2.57237911683767e-06
-1.5563209119822058e-06   -1.438668769743667e-07   -2.57237911683767e-06
-1.5563209119822058e-06   -1.438668769743667e-07   -2.57237911683767e-06
-2.9531709842920296e-07   2.2050376914123794e-07   -2.520837065799809e-07
-2.9531709842920296e-07   2.2050376914123794e-07   -2.520837065799809e-07
-2.9531709842920296e-07   2.2050376914123794e-07   -2.520837065799809e-07
-2.9531709842920296e-07   2.2050376914123794e-07   -2.520837065799809e-07
-6.4037052873930356e-09   -2.0139807348456933e-07   -2.0138797499285417e-06
-6.4037052873930356e-09   -2.0139807348456933e-07   -2.0138797499285417e-06
-6.4037052873930356e-09   -2.0139807348456933e-07   -2.0138797499285417e-06
-6.4037052873930356e-09   -2.0139807348456933e-07   -2.0138797499285417e-06
-1.2618860263770098e-06   3.80553454626719e-07   -2.705801316460867e-07
-1.2618860263770098e-06   3.80553454626719e-07   -2.705801316460867e-07
-1.2618860263770098e-06   3.80553454626719e-07   -2.705801316460867e-07
-1.2618860263770098e-06   3.80553454626719e-07   -2.705801316460867e-07
-7.129174029086476e-07   1.0265892573312974e-07   -1.0187911200908607e-06
-7.129174029086476e-07   1.0265892573312974e-07   -1.0187911200908607e-06
-7.129174029086476e-07   1.0265892573312974e-07   -1.0187911200908607e-06
-7.129174029086476e-07   1.0265892573312974e-07   -1.0187911200908607e-06
-1.2618860263770098e-06   -2.0139807348462354e-07   -2.3630506667953485e-06
-1.2618860263770098e-06   -2.0139807348462354e-07   -2.3630506667953485e-06
-1.2618860263770098e-06   -2.0139807348462354e-07   -2.3630506667953485e-06
-1.2618860263770098e-06   -2.0139807348462354e-07   -2.3630506667953485e-06
-6.403705287447246e-09   3.80553454626719e-07   7.859078522069306e-08
-6.403705287447246e-09   3.80553454626719e-07   7.859078522069306e-08
-6.403705287447246e-09   3.80553454626719e-07   7.859078522069306e-08
-6.403705287447246e-09   3.80553454626719e-07   7.859078522069306e-08
1.4375199177974743e-07   -2.7901048761197434e-07   -1.7978589533404173e-06
1.4375199177974743e-07   -2.7901048761197434e-07   -1.7978589533404173e-06
1.4375199177974743e-07   -2.7901048761197434e-07   -1.7978589533404173e-06
1.4375199177974743e-07   -2.7901048761197434e-07   -1.7978589533404173e-06
-1.1014484064613642e-06   3.2314209235475194e-07   -8.381650425234519e-08
-1.1014484064613642e-06   3.2314209235475194e-07   -8.381650425234519e-08
-1.1014484064613642e-06   3.2314209235475194e-07   -8.381650425234519e-08
-1.1014484064613642e-06   3.2314209235475194e-07   -8.381650425234519e-08
-5.00040558230804e-07   6.682642769817557e-08   -9.323735191755882e-07
-5.00040558230804e-07   6.682642769817557e-08   -9.323735191755882e-07
-5.00040558230804e-07   6.682642769817557e-08   -9.323735191755882e-07
-5.00040558230804e-07   6.682642769817557e-08   -9.323735191755882e-07
-1.1014484064613642e-06   -2.7901048761197434e-07   -2.1591505013206387e-06
-1.1014484064613642e-06   -2.7901048761197434e-07   -2.1591505013206387e-06
-1.1014484064613642e-06   -2.7901048761197434e-07   -2.1591505013206387e-06
-1.1014484064613642e-06   -2.7901048761197434e-07   -2.1591505013206387e-06
1.4375199177969322e-07   3.2314209235475194e-07   2.774750437276865e-07
1.4375199177969322e-07   3.2314209235475194e-07   2.774750437276865e-07
1.4375199177969322e-07   3.2314209235475194e-07   2.774750437276865e-07
1.4375199177969322e-07   3.2314209235475194e-07   2.774750437276865e-07
3.2982189643538046e-07   -3.741071659230338e-07   -1.479199330645174e-06
3.2982189643538046e-07   -3.741071659230338e-07   -1.479199330645174e-06
3.2982189643538046e-07   -3.741071659230338e-07   -1.479199330645174e-06
3.2982189643538046e-07   -3.741071659230338e-07   -1.479199330645174e-06
-8.555187765152536e-07   2.7195430445868564e-07   1.0873157537674098e-07
-8.555187765152536e-07   2.7195430445868564e-07   1.0873157537674098e-07
-8.555187765152536e-07   2.7195430445868564e-07   1.0873157537674098e-07
-8.555187765152536e-07   2.7195430445868564e-07   1.0873157537674098e-07
-3.076484393569874e-07   2.2942660862123243e-08   -6.549786670624266e-07
-3.076484393569874e-07   2.2942660862123243e-08   -6.549786670624266e-07
-3.076484393569874e-07   2.2942660862123243e-08   -6.549786670624266e-07
-3.076484393569874e-07   2.2942660862123243e-08   -6.549786670624266e-07
              </DataArray>   
             <DataArray type="Float64" NumberOfComponents="3" Name="Stress" format="ascii">   
-2.3771219531900982   -0.5942804882975246   -0.5942804882975246
-2.3771219531900982   -0.5942804882975246   -0.5942804882975246
-2.3771219531900982   -0.5942804882975246   -0.5942804882975246
-2.3771219531900982   -0.5942804882975246   -0.5942804882975246
-1.3755014091423088   -0.04382676782567563   -0.027675237861822716
-1.3755014091423088   -0.04382676782567563   -0.027675237861822716
-1.3755014091423088   -0.04382676782567563   -0.027675237861822716
-1.3755014091423088   -0.04382676782567563   -0.027675237861822716
-1.4824257224739354   -0.37060643061848386   -0.37060643061848386
-1.4824257224739354   -0.37060643061848386   -0.37060643061848386
-1.4824257224739354   -0.37060643061848386   -0.37060643061848386
-1.4824257224739354   -0.37060643061848386   -0.37060643061848386
-2.2909561359525825   -0.18833190986601606   -0.07208508265233195
-2.2909561359525825   -0.18833190986601606   -0.07208508265233195
-2.2909561359525825   -0.18833190986601606   -0.07208508265233195
-2.2909561359525825   -0.18833190986601606   -0.07208508265233195
-1.7967270972932907   -0.2946783841850929   -0.004974832037299828
-1.7967270972932907   -0.2946783841850929   -0.004974832037299828
-1.7967270972932907   -0.2946783841850929   -0.004974832037299828
-1.7967270972932907   -0.2946783841850929   -0.004974832037299828
-2.487636374943241   -0.6219090937358103   -0.6219090937358103
-2.487636374943241   -0.6219090937358103   -0.6219090937358103
-2.487636374943241   -0.6219090937358103   -0.6219090937358103
-2.487636374943241   -0.6219090937358103   -0.6219090937358103
-1.3324086234541324   0.016307613280458544   -0.007434979418411106
-1.3324086234541324   0.016307613280458544   -0.007434979418411106
-1.3324086234541324   0.016307613280458544   -0.007434979418411106
-1.3324086234541324   0.016307613280458544   -0.007434979418411106
-1.486489032871346   -0.3716222582178365   -0.3716222582178365
-1.486489032871346   -0.3716222582178365   -0.3716222582178365
-1.486489032871346   -0.3716222582178365   -0.3716222582178365
-1.486489032871346   -0.3716222582178365   -0.3716222582178365
-2.3678189509279206   -0.19010149378544405   -0.10561271011258672
-2.3678189509279206   -0.19010149378544405   -0.10561271011258672
-2.3678189509279206   -0.19010149378544405   -0.10561271011258672
-2.3678189509279206   -0.19010149378544405   -0.10561271011258672
-1.8636149619069513   -0.27740188490117107   -0.09889075705077993
-1.8636149619069513   -0.27740188490117107   -0.09889075705077993
-1.8636149619069513   -0.27740188490117107   -0.09889075705077993
-1.8636149619069513   -0.27740188490117107   -0.09889075705077993
-2.5651956779425764   -0.6412989194856441   -0.6412989194856441
-2.5651956779425764   -0.6412989194856441   -0.6412989194856441
-2.5651956779425764   -0.6412989194856441   -0.6412989194856441
-2.5651956779425764   -0.6412989194856441   -0.6412989194856441
-1.3284265101179715   0.04026096322108663   0.006807134110113397
-1.3284265101179715   0.04026096322108663   0.006807134110113397
-1.3284265101179715   0.04026096322108663   0.006807134110113397
-1.3284265101179715   0.04026096322108663   0.006807134110113397
-1.4855753673111198   -0.37139384182777996   -0.37139384182777996
-1.4855753673111198   -0.37139384182777996   -0.37139384182777996
-1.4855753673111198   -0.37139384182777996   -0.37139384182777996
-1.4855753673111198   -0.37139384182777996   -0.37139384182777996
-2.5051728385537064   -0.1666552320384821   -0.06342568805086568
-2.5051728385537064   -0.1666552320384821   -0.06342568805086568
-2.5051728385537064   -0.1666552320384821   -0.06342568805086568
-2.5051728385537064   -0.1666552320384821   -0.06342568805086568
-1.9131972839600464   -0.27304929652330534   -0.17870227145612413
-1.9131972839600464   -0.27304929652330534   -0.17870227145612413
-1.9131972839600464   -0.27304929652330534   -0.17870227145612413
-1.9131972839600464   -0.27304929652330534   -0.17870227145612413
-1.5124455644497905   -0.3781113911124476   -0.3781113911124476
-1.5124455644497905   -0.3781113911124476   -0.3781113911124476
-1.5124455644497905   -0.3781113911124476   -0.3781113911124476
-1.5124455644497905   -0.3781113911124476   -0.3781113911124476
-0.6311901986611117   -0.04216141828686261   -0.013687174530529072
-0.6311901986611117   -0.04216141828686261   -0.013687174530529072
-0.6311901986611117   -0.04216141828686261   -0.013687174530529072
-0.6311901986611117   -0.04216141828686261   -0.013687174530529072
-0.6624710583305301   -0.16561776458263253   -0.16561776458263253
-0.6624710583305301   -0.16561776458263253   -0.16561776458263253
-0.6624710583305301   -0.16561776458263253   -0.16561776458263253
-0.6624710583305301   -0.16561776458263253   -0.16561776458263253
-1.3769113827078727   -0.1620410694973781   -0.05160009290927555
-1.3769113827078727   -0.1620410694973781   -0.05160009290927555
-1.3769113827078727   -0.1620410694973781   -0.05160009290927555
-1.3769113827078727   -0.1620410694973781   -0.05160009290927555
-1.0156196705867278   -0.1924523256220463   0.007916373944119367
-1.0156196705867278   -0.1924523256220463   0.007916373944119367
-1.0156196705867278   -0.1924523256220463   0.007916373944119367
-1.0156196705867278   -0.1924523256220463   0.007916373944119367
-1.4824257224739341   -0.37060643061848353   -0.37060643061848353
-1.4824257224739341   -0.37060643061848353   -0.37060643061848353
-1.4824257224739341   -0.37060643061848353   -0.37060643061848353
-1.4824257224739341   -0.37060643061848353   -0.37060643061848353
-0.5954017903741733   0.004502524728767249   -0.00039171411224813574
-0.5954017903741733   0.004502524728767249   -0.00039171411224813574
-0.5954017903741733   0.004502524728767249   -0.00039171411224813574
-0.5954017903741733   0.004502524728767249   -0.00039171411224813574
-0.6475732239254118   -0.16189330598135296   -0.16189330598135296
-0.6475732239254118   -0.16189330598135296   -0.16189330598135296
-0.6475732239254118   -0.16189330598135296   -0.16189330598135296
-0.6475732239254118   -0.16189330598135296   -0.16189330598135296
-1.3733348669520542   -0.13215994672093886   -0.045313740118274944
-1.3733348669520542   -0.13215994672093886   -0.045313740118274944
-1.3733348669520542   -0.13215994672093886   -0.045313740118274944
-1.3733348669520542   -0.13215994672093886   -0.045313740118274944
-1.0013673556335996   -0.16199610130929998   -0.052343047460176345
-1.0013673556335996   -0.16199610130929998   -0.052343047460176345
-1.0013673556335996   -0.16199610130929998   -0.052343047460176345
-1.0013673556335996   -0.16199610130929998   -0.052343047460176345
-1.486489032871346   -0.3716222582178365   -0.3716222582178365
-1.486489032871346   -0.3716222582178365   -0.3716222582178365
-1.486489032871346   -0.3716222582178365   -0.3716222582178365
-1.486489032871346   -0.3716222582178365   -0.3716222582178365
-0.5716553889221346   0.04033267459953005   0.015469888454150003
-0.5716553889221346   0.04033267459953005   0.015469888454150003
-0.5716553889221346   0.04033267459953005   0.015469888454150003
-0.5716553889221346   0.04033267459953005   0.015469888454150003
-0.6339881862043006   -0.15849704655107516   -0.15849704655107516
-0.6339881862043006   -0.15849704655107516   -0.15849704655107516
-0.6339881862043006   -0.15849704655107516   -0.15849704655107516
-0.6339881862043006   -0.15849704655107516   -0.15849704655107516
-1.3631213598300376   -0.10194468147803992   -0.028572964772125647
-1.3631213598300376   -0.10194468147803992   -0.028572964772125647
-1.3631213598300376   -0.10194468147803992   -0.028572964772125647
-1.3631213598300376   -0.10194468147803992   -0.028572964772125647
-1.0061998497185523   -0.14332482000702157   -0.11660068566553695
-1.0061998497185523   -0.14332482000702157   -0.11660068566553695
-1.0061998497185523   -0.14332482000702157   -0.11660068566553695
-1.0061998497185523   -0.14332482000702157   -0.11660068566553695
-0.6889116445529272   -0.1722279111382318   -0.1722279111382318
-0.6889116445529272   -0.1722279111382318   -0.1722279111382318
-0.6889116445529272   -0.1722279111382318   -0.1722279111382318
-0.6889116445529272   -0.1722279111382318   -0.1722279111382318
0.08135074335666995   0.0052537806127035645   0.0006719908599194654
0.08135074335666995   0.0052537806127035645   0.0006719908599194654
0.08135074335666995   0.0052537806127035645   0.0006719908599194654
0.08135074335666995   0.0052537806127035645   0.0006719908599194654
0.10600427729026415   0.02650106932256604   0.02650106932256604
0.10600427729026415   0.02650106932256604   0.02650106932256604
0.10600427729026415   0.02650106932256604   0.02650106932256604
0.10600427729026415   0.02650106932256604   0.02650106932256604
-0.6227713141720406   -0.10763807866456276   -0.025098729708254885
-0.6227713141720406   -0.10763807866456276   -0.025098729708254885
-0.6227713141720406   -0.10763807866456276   -0.025098729708254885
-0.6227713141720406   -0.10763807866456276   -0.025098729708254885
-0.26680552413204817   -0.06767420258647433   0.04518815826722243
-0.26680552413204817   -0.06767420258647433   0.04518815826722243
-0.26680552413204817   -0.06767420258647433   0.04518815826722243
-0.26680552413204817   -0.06767420258647433   0.04518815826722243
-0.6624710583305301   -0.16561776458263253   -0.16561776458263253
-0.6624710583305301   -0.16561776458263253   -0.16561776458263253
-0.6624710583305301   -0.16561776458263253   -0.16561776458263253
-0.6624710583305301   -0.16561776458263253   -0.16561776458263253
0.10791160598243063   0.046688339774312665   0.015850442331651053
0.10791160598243063   0.046688339774312665   0.015850442331651053
0.10791160598243063   0.046688339774312665   0.015850442331651053
0.10791160598243063   0.046688339774312665   0.015850442331651053
0.11938312812847415   0.029845782032118538   0.029845782032118538
0.11938312812847415   0.029845782032118538   0.029845782032118538
0.11938312812847415   0.029845782032118538   0.029845782032118538
0.11938312812847415   0.029845782032118538   0.029845782032118538
-0.6006670630943809   -0.07242544517126119   -0.016830362636295764
-0.6006670630943809   -0.07242544517126119   -0.016830362636295764
-0.6006670630943809   -0.07242544517126119   -0.016830362636295764
-0.6006670630943809   -0.07242544517126119   -0.016830362636295764
-0.25584670336341336   -0.04181174080108689   -0.015473933061354642
-0.25584670336341336   -0.04181174080108689   -0.015473933061354642
-0.25584670336341336   -0.04181174080108689   -0.015473933061354642
-0.25584670336341336   -0.04181174080108689   -0.015473933061354642
-0.6475732239254118   -0.16189330598135296   -0.16189330598135296
-0.6475732239254118   -0.16189330598135296   -0.16189330598135296
-0.6475732239254118   -0.16189330598135296   -0.16189330598135296
-0.6475732239254118   -0.16189330598135296   -0.16189330598135296
0.129257801385863   0.08228215526856901   0.026782775082611378
0.129257801385863   0.08228215526856901   0.026782775082611378
0.129257801385863   0.08228215526856901   0.026782775082611378
0.129257801385863   0.08228215526856901   0.026782775082611378
0.13734546670730313   0.03433636667682578   0.03433636667682578
0.13734546670730313   0.03433636667682578   0.03433636667682578
0.13734546670730313   0.03433636667682578   0.03433636667682578
0.13734546670730313   0.03433636667682578   0.03433636667682578
-0.5766127565058738   -0.030440687189596083   0.00032374257957676345
-0.5766127565058738   -0.030440687189596083   0.00032374257957676345
-0.5766127565058738   -0.030440687189596083   0.00032374257957676345
-0.5766127565058738   -0.030440687189596083   0.00032374257957676345
-0.24809720203681598   -0.016879328479138617   -0.07559422796419954
-0.24809720203681598   -0.016879328479138617   -0.07559422796419954
-0.24809720203681598   -0.016879328479138617   -0.07559422796419954
-0.24809720203681598   -0.016879328479138617   -0.07559422796419954
0.08907287673571718   0.022268219183929294   0.022268219183929294
0.08907287673571718   0.022268219183929294   0.022268219183929294
0.08907287673571718   0.022268219183929294   0.022268219183929294
0.08907287673571718   0.022268219183929294   0.022268219183929294
0.861432526323692   0.07905281348569622   0.026625518570974425
0.861432526323692   0.07905281348569622   0.026625518570974425
0.861432526323692   0.07905281348569622   0.026625518570974425
0.861432526323692   0.07905281348569622   0.026625518570974425
0.9354565865514467   0.23386414663786168   0.23386414663786168
0.9354565865514467   0.23386414663786168   0.23386414663786168
0.9354565865514467   0.23386414663786168   0.23386414663786168
0.9354565865514467   0.23386414663786168   0.23386414663786168
0.08074888210857485   -0.060646416459229836   -0.012628420804086233
0.08074888210857485   -0.060646416459229836   -0.012628420804086233
0.08074888210857485   -0.060646416459229836   -0.012628420804086233
0.08074888210857485   -0.060646416459229836   -0.012628420804086233
0.49110634046150103   0.061148957846926526   0.0891914520644597
0.49110634046150103   0.061148957846926526   0.0891914520644597
0.49110634046150103   0.061148957846926526   0.0891914520644597
0.49110634046150103   0.061148957846926526   0.0891914520644597
0.10600427729026451   0.02650106932256613   0.02650106932256613
0.10600427729026451   0.02650106932256613   0.02650106932256613
0.10600427729026451   0.02650106932256613   0.02650106932256613
0.10600427729026451   0.02650106932256613   0.02650106932256613
0.8717833970641954   0.10829886655050404   0.04106347928896256
0.8717833970641954   0.10829886655050404   0.04106347928896256
0.8717833970641954   0.10829886655050404   0.04106347928896256
0.8717833970641954   0.10829886655050404   0.04106347928896256
0.9315649497309823   0.23289123743274556   0.23289123743274556
0.9315649497309823   0.23289123743274556   0.23289123743274556
0.9315649497309823   0.23289123743274556   0.23289123743274556
0.9315649497309823   0.23289123743274556   0.23289123743274556
0.1022297644195424   -0.02620971712052792   0.00013446264010529008
0.1022297644195424   -0.02620971712052792   0.00013446264010529008
0.1022297644195424   -0.02620971712052792   0.00013446264010529008
0.1022297644195424   -0.02620971712052792   0.00013446264010529008
0.48759891984802706   0.08029640984996783   0.023167428592362045
0.48759891984802706   0.08029640984996783   0.023167428592362045
0.48759891984802706   0.08029640984996783   0.023167428592362045
0.48759891984802706   0.08029640984996783   0.023167428592362045
0.11938312812847426   0.029845782032118566   0.029845782032118566
0.11938312812847426   0.029845782032118566   0.029845782032118566
0.11938312812847426   0.029845782032118566   0.029845782032118566
0.11938312812847426   0.029845782032118566   0.029845782032118566
0.8763636507613284   0.13878780301937718   0.05098817699784481
0.8763636507613284   0.13878780301937718   0.05098817699784481
0.8763636507613284   0.13878780301937718   0.05098817699784481
0.8763636507613284   0.13878780301937718   0.05098817699784481
0.9497168557869017   0.23742921394672542   0.23742921394672542
0.9497168557869017   0.23742921394672542   0.23742921394672542
0.9497168557869017   0.23742921394672542   0.23742921394672542
0.9497168557869017   0.23742921394672542   0.23742921394672542
0.13036156824099507   0.019338453018488355   0.014414788003621655
0.13036156824099507   0.019338453018488355   0.014414788003621655
0.13036156824099507   0.019338453018488355   0.014414788003621655
0.13036156824099507   0.019338453018488355   0.014414788003621655
0.4952765496248747   0.1089586626719508   -0.038050878357171365
0.4952765496248747   0.1089586626719508   -0.038050878357171365
0.4952765496248747   0.1089586626719508   -0.038050878357171365
0.4952765496248747   0.1089586626719508   -0.038050878357171365
0.9336631776803976   0.2334157944200994   0.2334157944200994
0.9336631776803976   0.2334157944200994   0.2334157944200994
0.9336631776803976   0.2334157944200994   0.2334157944200994
0.9336631776803976   0.2334157944200994   0.2334157944200994
1.9374285300673535   0.14771958168360844   0.05080307182439264
1.9374285300673535   0.14771958168360844   0.05080307182439264
1.9374285300673535   0.14771958168360844   0.05080307182439264
1.9374285300673535   0.14771958168360844   0.05080307182439264
1.9804720013392543   0.49511800033481357   0.49511800033481357
1.9804720013392543   0.49511800033481357   0.49511800033481357
1.9804720013392543   0.49511800033481357   0.49511800033481357
1.9804720013392543   0.49511800033481357   0.49511800033481357
0.8315521095797637   -0.04719413675645079   -0.004599954826240836
0.8315521095797637   -0.04719413675645079   -0.004599954826240836
0.8315521095797637   -0.04719413675645079   -0.004599954826240836
0.8315521095797637   -0.04719413675645079   -0.004599954826240836
1.3816639306774496   0.19559366624072588   0.15592183435230472
1.3816639306774496   0.19559366624072588   0.15592183435230472
1.3816639306774496   0.19559366624072588   0.15592183435230472
1.3816639306774496   0.19559366624072588   0.15592183435230472
0.9354565865514458   0.23386414663786145   0.23386414663786145
0.9354565865514458   0.23386414663786145   0.23386414663786145
0.9354565865514458   0.23386414663786145   0.23386414663786145
0.9354565865514458   0.23386414663786145   0.23386414663786145
1.8353842437677432   0.1728764363406788   0.0919207764714238
1.8353842437677432   0.1728764363406788   0.0919207764714238
1.8353842437677432   0.1728764363406788   0.0919207764714238
1.8353842437677432   0.1728764363406788   0.0919207764714238
1.9214471049999156   0.4803617762499789   0.4803617762499789
1.9214471049999156   0.4803617762499789   0.4803617762499789
1.9214471049999156   0.4803617762499789   0.4803617762499789
1.9214471049999156   0.4803617762499789   0.4803617762499789
0.8345691311683081   -0.02596455895630309   0.006767941008423699
0.8345691311683081   -0.02596455895630309   0.006767941008423699
0.8345691311683081   -0.02596455895630309   0.006767941008423699
0.8345691311683081   -0.02596455895630309   0.006767941008423699
1.3408137395854356   0.20127686177544932   0.07475853016116757
1.3408137395854356   0.20127686177544932   0.07475853016116757
1.3408137395854356   0.20127686177544932   0.07475853016116757
1.3408137395854356   0.20127686177544932   0.07475853016116757
0.9315649497309823   0.23289123743274556   0.23289123743274556
0.9315649497309823   0.23289123743274556   0.23289123743274556
0.9315649497309823   0.23289123743274556   0.23289123743274556
0.9315649497309823   0.23289123743274556   0.23289123743274556
1.7764239703713427   0.1734786637950371   0.06212921556208797
1.7764239703713427   0.1734786637950371   0.06212921556208797
1.7764239703713427   0.1734786637950371   0.06212921556208797
1.7764239703713427   0.1734786637950371   0.06212921556208797
1.8334954065099192   0.4583738516274798   0.4583738516274798
1.8334954065099192   0.4583738516274798   0.4583738516274798
1.8334954065099192   0.4583738516274798   0.4583738516274798
1.8334954065099192   0.4583738516274798   0.4583738516274798
0.8655697830850231   0.027542684604457968   0.02658037977959972
0.8655697830850231   0.027542684604457968   0.02658037977959972
0.8655697830850231   0.027542684604457968   0.02658037977959972
0.8655697830850231   0.027542684604457968   0.02658037977959972
1.2840030605290051   0.21828137335567038   -0.01965187225268021
1.2840030605290051   0.21828137335567038   -0.01965187225268021
1.2840030605290051   0.21828137335567038   -0.01965187225268021
1.2840030605290051   0.21828137335567038   -0.01965187225268021
-1.877775072515734   -0.13448224013161336   0.021321063981917715
-1.877775072515734   -0.13448224013161336   0.021321063981917715
-1.877775072515734   -0.13448224013161336   0.021321063981917715
-1.877775072515734   -0.13448224013161336   0.021321063981917715
-1.1954116186840567   -0.02774994059262878   -0.007794724236046595
-1.1954116186840567   -0.02774994059262878   -0.007794724236046595
-1.1954116186840567   -0.02774994059262878   -0.007794724236046595
-1.1954116186840567   -0.02774994059262878   -0.007794724236046595
-1.2033682882615728   0.04865210851931645   0.025247161583322686
-1.2033682882615728   0.04865210851931645   0.025247161583322686
-1.2033682882615728   0.04865210851931645   0.025247161583322686
-1.2033682882615728   0.04865210851931645   0.025247161583322686
-1.9056601561710171   -0.13008262293655032   -0.022645675194986545
-1.9056601561710171   -0.13008262293655032   -0.022645675194986545
-1.9056601561710171   -0.13008262293655032   -0.022645675194986545
-1.9056601561710171   -0.13008262293655032   -0.022645675194986545
-1.484752920622125   -0.050760072750010654   -0.0059791748311089216
-1.484752920622125   -0.050760072750010654   -0.0059791748311089216
-1.484752920622125   -0.050760072750010654   -0.0059791748311089216
-1.484752920622125   -0.050760072750010654   -0.0059791748311089216
-1.8917250759704964   -0.09223271730409943   0.009179820175166553
-1.8917250759704964   -0.09223271730409943   0.009179820175166553
-1.8917250759704964   -0.09223271730409943   0.009179820175166553
-1.8917250759704964   -0.09223271730409943   0.009179820175166553
-1.2192941727167381   0.008811398632225409   -0.014541550805390588
-1.2192941727167381   0.008811398632225409   -0.014541550805390588
-1.2192941727167381   0.008811398632225409   -0.014541550805390588
-1.2192941727167381   0.008811398632225409   -0.014541550805390588
-1.2047250322420746   0.06938320334148346   0.02871685683620462
-1.2047250322420746   0.06938320334148346   0.02871685683620462
-1.2047250322420746   0.06938320334148346   0.02871685683620462
-1.2047250322420746   0.06938320334148346   0.02871685683620462
-1.9171031772367824   -0.1145512191298847   -0.029886905928844465
-1.9171031772367824   -0.1145512191298847   -0.029886905928844465
-1.9171031772367824   -0.1145512191298847   -0.029886905928844465
-1.9171031772367824   -0.1145512191298847   -0.029886905928844465
-1.5263505798361905   -0.03394990891432781   -0.014520121565137642
-1.5263505798361905   -0.03394990891432781   -0.014520121565137642
-1.5263505798361905   -0.03394990891432781   -0.014520121565137642
-1.5263505798361905   -0.03394990891432781   -0.014520121565137642
-1.8825937345583066   -0.055260075685231114   0.08336916401886374
-1.8825937345583066   -0.055260075685231114   0.08336916401886374
-1.8825937345583066   -0.055260075685231114   0.08336916401886374
-1.8825937345583066   -0.055260075685231114   0.08336916401886374
-1.2248806422803753   0.0244458925370038   -0.02712388255080886
-1.2248806422803753   0.0244458925370038   -0.02712388255080886
-1.2248806422803753   0.0244458925370038   -0.02712388255080886
-1.2248806422803753   0.0244458925370038   -0.02712388255080886
-1.1827245389508538   0.12093607565846354   0.052082550831011556
-1.1827245389508538   0.12093607565846354   0.052082550831011556
-1.1827245389508538   0.12093607565846354   0.052082550831011556
-1.1827245389508538   0.12093607565846354   0.052082550831011556
-1.8639585124037377   -0.09236089273162423   -0.04885021999998511
-1.8639585124037377   -0.09236089273162423   -0.04885021999998511
-1.8639585124037377   -0.09236089273162423   -0.04885021999998511
-1.8639585124037377   -0.09236089273162423   -0.04885021999998511
-1.4678562069093857   0.013763137169019335   0.03255826098920564
-1.4678562069093857   0.013763137169019335   0.03255826098920564
-1.4678562069093857   0.013763137169019335   0.03255826098920564
-1.4678562069093857   0.013763137169019335   0.03255826098920564
-1.225057302497235   -0.16246001743907929   -0.0213130664554889
-1.225057302497235   -0.16246001743907929   -0.0213130664554889
-1.225057302497235   -0.16246001743907929   -0.0213130664554889
-1.225057302497235   -0.16246001743907929   -0.0213130664554889
-0.5646010242290646   -0.012663300638522945   0.005966008995387274
-0.5646010242290646   -0.012663300638522945   0.005966008995387274
-0.5646010242290646   -0.012663300638522945   0.005966008995387274
-0.5646010242290646   -0.012663300638522945   0.005966008995387274
-0.5727796495314607   0.01082368698991018   0.0085919563507557
-0.5727796495314607   0.01082368698991018   0.0085919563507557
-0.5727796495314607   0.01082368698991018   0.0085919563507557
-0.5727796495314607   0.01082368698991018   0.0085919563507557
-1.2492886213386818   -0.11890188219538247   -0.036800513087522364
-1.2492886213386818   -0.11890188219538247   -0.036800513087522364
-1.2492886213386818   -0.11890188219538247   -0.036800513087522364
-1.2492886213386818   -0.11890188219538247   -0.036800513087522364
-0.9029149696040547   -0.07336420878227619   -0.02074365399792211
-0.9029149696040547   -0.07336420878227619   -0.02074365399792211
-0.9029149696040547   -0.07336420878227619   -0.02074365399792211
-0.9029149696040547   -0.07336420878227619   -0.02074365399792211
-1.2480961446905625   -0.1299216714337701   -0.019818340608543664
-1.2480961446905625   -0.1299216714337701   -0.019818340608543664
-1.2480961446905625   -0.1299216714337701   -0.019818340608543664
-1.2480961446905625   -0.1299216714337701   -0.019818340608543664
-0.5717474952828719   0.024068107125005678   0.0005083074586084216
-0.5717474952828719   0.024068107125005678   0.0005083074586084216
-0.5717474952828719   0.024068107125005678   0.0005083074586084216
-0.5717474952828719   0.024068107125005678   0.0005083074586084216
-0.5705537647772856   0.03978593640619227   0.011634573342614002
-0.5705537647772856   0.03978593640619227   0.011634573342614002
-0.5705537647772856   0.03978593640619227   0.011634573342614002
-0.5705537647772856   0.03978593640619227   0.011634573342614002
-1.2497254651093312   -0.08709334595686569   -0.03980875820172855
-1.2497254651093312   -0.08709334595686569   -0.03980875820172855
-1.2497254651093312   -0.08709334595686569   -0.03980875820172855
-1.2497254651093312   -0.08709334595686569   -0.03980875820172855
-0.901095982618985   -0.04081232262280199   -0.009865143754939486
-0.901095982618985   -0.04081232262280199   -0.009865143754939486
-0.901095982618985   -0.04081232262280199   -0.009865143754939486
-0.901095982618985   -0.04081232262280199   -0.009865143754939486
-1.2448250441466202   -0.09822936167100454   -0.00417063767403536
-1.2448250441466202   -0.09822936167100454   -0.00417063767403536
-1.2448250441466202   -0.09822936167100454   -0.00417063767403536
-1.2448250441466202   -0.09822936167100454   -0.00417063767403536
-0.571322351829   0.05505378603132982   -0.007476211541085853
-0.571322351829   0.05505378603132982   -0.007476211541085853
-0.571322351829   0.05505378603132982   -0.007476211541085853
-0.571322351829   0.05505378603132982   -0.007476211541085853
-0.5609344728065299   0.06887166274224929   0.023321869305814737
-0.5609344728065299   0.06887166274224929   0.023321869305814737
-0.5609344728065299   0.06887166274224929   0.023321869305814737
-0.5609344728065299   0.06887166274224929   0.023321869305814737
-1.2362678869577333   -0.050339669626039224   -0.04435844391888926
-1.2362678869577333   -0.050339669626039224   -0.04435844391888926
-1.2362678869577333   -0.050339669626039224   -0.04435844391888926
-1.2362678869577333   -0.050339669626039224   -0.04435844391888926
-0.8972581617175782   -0.010006686004323834   0.004500848788834368
-0.8972581617175782   -0.010006686004323834   0.004500848788834368
-0.8972581617175782   -0.010006686004323834   0.004500848788834368
-0.8972581617175782   -0.010006686004323834   0.004500848788834368
-0.5953371891592486   -0.13524485610106338   -0.025133260192996762
-0.5953371891592486   -0.13524485610106338   -0.025133260192996762
-0.5953371891592486   -0.13524485610106338   -0.025133260192996762
-0.5953371891592486   -0.13524485610106338   -0.025133260192996762
0.06131029563322569   0.013932253786904419   0.02319185270487903
0.06131029563322569   0.013932253786904419   0.02319185270487903
0.06131029563322569   0.013932253786904419   0.02319185270487903
0.06131029563322569   0.013932253786904419   0.02319185270487903
0.05857088101001168   0.03402412371573759   0.0018700870111946176
0.05857088101001168   0.03402412371573759   0.0018700870111946176
0.05857088101001168   0.03402412371573759   0.0018700870111946176
0.05857088101001168   0.03402412371573759   0.0018700870111946176
-0.5977866108460246   -0.08956726252654473   -0.016051900705609072
-0.5977866108460246   -0.08956726252654473   -0.016051900705609072
-0.5977866108460246   -0.08956726252654473   -0.016051900705609072
-0.5977866108460246   -0.08956726252654473   -0.016051900705609072
-0.27090679760163944   -0.0448703094632988   -0.008594193202708489
-0.27090679760163944   -0.0448703094632988   -0.008594193202708489
-0.27090679760163944   -0.0448703094632988   -0.008594193202708489
-0.27090679760163944   -0.0448703094632988   -0.008594193202708489
-0.601924178797235   -0.1030919218713266   -0.02321508111687967
-0.601924178797235   -0.1030919218713266   -0.02321508111687967
-0.601924178797235   -0.1030919218713266   -0.02321508111687967
-0.601924178797235   -0.1030919218713266   -0.02321508111687967
0.06500110611314255   0.04984144021244048   0.01820389603014611
0.06500110611314255   0.04984144021244048   0.01820389603014611
0.06500110611314255   0.04984144021244048   0.01820389603014611
0.06500110611314255   0.04984144021244048   0.01820389603014611
0.0633187655213343   0.06589232743339007   0.010772671771247267
0.0633187655213343   0.06589232743339007   0.010772671771247267
0.0633187655213343   0.06589232743339007   0.010772671771247267
0.0633187655213343   0.06589232743339007   0.010772671771247267
-0.5957681636847663   -0.05461836428485381   -0.020033120503742716
-0.5957681636847663   -0.05461836428485381   -0.020033120503742716
-0.5957681636847663   -0.05461836428485381   -0.020033120503742716
-0.5957681636847663   -0.05461836428485381   -0.020033120503742716
-0.2665900639117807   -0.011008394613976312   0.003168319378584262
-0.2665900639117807   -0.011008394613976312   0.003168319378584262
-0.2665900639117807   -0.011008394613976312   0.003168319378584262
-0.2665900639117807   -0.011008394613976312   0.003168319378584262
-0.5973730543374008   -0.07077979875246701   -0.011896139299302921
-0.5973730543374008   -0.07077979875246701   -0.011896139299302921
-0.5973730543374008   -0.07077979875246701   -0.011896139299302921
-0.5973730543374008   -0.07077979875246701   -0.011896139299302921
0.06739138580583064   0.08452149153286485   0.012506609094253806
0.06739138580583064   0.08452149153286485   0.012506609094253806
0.06739138580583064   0.08452149153286485   0.012506609094253806
0.06739138580583064   0.08452149153286485   0.012506609094253806
0.06488050994217248   0.10133686951263514   0.0177182596426865
0.06488050994217248   0.10133686951263514   0.0177182596426865
0.06488050994217248   0.10133686951263514   0.0177182596426865
0.06488050994217248   0.10133686951263514   0.0177182596426865
-0.5878759361520226   -0.01726341588953359   -0.02525036878986306
-0.5878759361520226   -0.01726341588953359   -0.02525036878986306
-0.5878759361520226   -0.01726341588953359   -0.02525036878986306
-0.5878759361520226   -0.01726341588953359   -0.02525036878986306
-0.25982467256180086   0.02440306407687501   0.016045602724101427
-0.25982467256180086   0.02440306407687501   0.016045602724101427
-0.25982467256180086   0.02440306407687501   0.016045602724101427
-0.25982467256180086   0.02440306407687501   0.016045602724101427
0.027870607753412133   -0.09916628377000958   -0.030908049137274726
0.027870607753412133   -0.09916628377000958   -0.030908049137274726
0.027870607753412133   -0.09916628377000958   -0.030908049137274726
0.027870607753412133   -0.09916628377000958   -0.030908049137274726
0.7081456133130355   0.0488243854052591   0.042592375748806206
0.7081456133130355   0.0488243854052591   0.042592375748806206
0.7081456133130355   0.0488243854052591   0.042592375748806206
0.7081456133130355   0.0488243854052591   0.042592375748806206
0.7073742699700162   0.06583854811926718   -0.006828985773046338
0.7073742699700162   0.06583854811926718   -0.006828985773046338
0.7073742699700162   0.06583854811926718   -0.006828985773046338
0.7073742699700162   0.06583854811926718   -0.006828985773046338
0.04035105388340396   -0.05951539875303381   0.004310473846927423
0.04035105388340396   -0.05951539875303381   0.004310473846927423
0.04035105388340396   -0.05951539875303381   0.004310473846927423
0.04035105388340396   -0.05951539875303381   0.004310473846927423
0.3663589171508237   -0.008536131161038268   0.0007466186139223757
0.3663589171508237   -0.008536131161038268   0.0007466186139223757
0.3663589171508237   -0.008536131161038268   0.0007466186139223757
0.3663589171508237   -0.008536131161038268   0.0007466186139223757
0.03228558331074316   -0.07243320634321743   -0.02309907142619246
0.03228558331074316   -0.07243320634321743   -0.02309907142619246
0.03228558331074316   -0.07243320634321743   -0.02309907142619246
0.03228558331074316   -0.07243320634321743   -0.02309907142619246
0.7195657366383964   0.08288235180516923   0.037084543882946214
0.7195657366383964   0.08288235180516923   0.037084543882946214
0.7195657366383964   0.08288235180516923   0.037084543882946214
0.7195657366383964   0.08288235180516923   0.037084543882946214
0.7130923228820853   0.0973635419504666   0.007138199532533088
0.7130923228820853   0.0973635419504666   0.007138199532533088
0.7130923228820853   0.0973635419504666   0.007138199532533088
0.7130923228820853   0.0973635419504666   0.007138199532533088
0.041923878294825224   -0.028274666126585777   -0.0020347708013222273
0.041923878294825224   -0.028274666126585777   -0.0020347708013222273
0.041923878294825224   -0.028274666126585777   -0.0020347708013222273
0.041923878294825224   -0.028274666126585777   -0.0020347708013222273
0.37137978326208193   0.021593890730393632   0.01520358918675324
0.37137978326208193   0.021593890730393632   0.01520358918675324
0.37137978326208193   0.021593890730393632   0.01520358918675324
0.37137978326208193   0.021593890730393632   0.01520358918675324
0.03603757887247083   -0.042852694638249034   -0.016888239401430666
0.03603757887247083   -0.042852694638249034   -0.016888239401430666
0.03603757887247083   -0.042852694638249034   -0.016888239401430666
0.03603757887247083   -0.042852694638249034   -0.016888239401430666
0.7219652639657814   0.11492821212346949   0.033938234777997886
0.7219652639657814   0.11492821212346949   0.033938234777997886
0.7219652639657814   0.11492821212346949   0.033938234777997886
0.7219652639657814   0.11492821212346949   0.033938234777997886
0.7017518706389044   0.13374500830337796   0.015057262030160353
0.7017518706389044   0.13374500830337796   0.015057262030160353
0.7017518706389044   0.13374500830337796   0.015057262030160353
0.7017518706389044   0.13374500830337796   0.015057262030160353
0.04165584798304887   0.01039718011381621   -0.00746536075411266
0.04165584798304887   0.01039718011381621   -0.00746536075411266
0.04165584798304887   0.01039718011381621   -0.00746536075411266
0.04165584798304887   0.01039718011381621   -0.00746536075411266
0.3769994526057181   0.05603590056151142   0.028591880012114088
0.3769994526057181   0.05603590056151142   0.028591880012114088
0.3769994526057181   0.05603590056151142   0.028591880012114088
0.3769994526057181   0.05603590056151142   0.028591880012114088
0.6522363211786795   -0.1309211786354566   -0.057208520882258446
0.6522363211786795   -0.1309211786354566   -0.057208520882258446
0.6522363211786795   -0.1309211786354566   -0.057208520882258446
0.6522363211786795   -0.1309211786354566   -0.057208520882258446
1.3434928971643225   0.08874560604556797   0.04158102104799584
1.3434928971643225   0.08874560604556797   0.04158102104799584
1.3434928971643225   0.08874560604556797   0.04158102104799584
1.3434928971643225   0.08874560604556797   0.04158102104799584
1.3588296401821303   0.04196795399103728   -0.086067031691167
1.3588296401821303   0.04196795399103728   -0.086067031691167
1.3588296401821303   0.04196795399103728   -0.086067031691167
1.3588296401821303   0.04196795399103728   -0.086067031691167
0.6952072470398428   -0.026721148098145103   0.024895595793486623
0.6952072470398428   -0.026721148098145103   0.024895595793486623
0.6952072470398428   -0.026721148098145103   0.024895595793486623
0.6952072470398428   -0.026721148098145103   0.024895595793486623
0.9620896341381185   -0.016905224828671767   -0.0241427311307486
0.9620896341381185   -0.016905224828671767   -0.0241427311307486
0.9620896341381185   -0.016905224828671767   -0.0241427311307486
0.9620896341381185   -0.016905224828671767   -0.0241427311307486
0.6707644135727664   -0.08603302410050631   -0.03800669553952488
0.6707644135727664   -0.08603302410050631   -0.03800669553952488
0.6707644135727664   -0.08603302410050631   -0.03800669553952488
0.6707644135727664   -0.08603302410050631   -0.03800669553952488
1.3956307935191767   0.11363814986337098   0.02626853912173293
1.3956307935191767   0.11363814986337098   0.02626853912173293
1.3956307935191767   0.11363814986337098   0.02626853912173293
1.3956307935191767   0.11363814986337098   0.02626853912173293
1.3739934291910412   0.07664601844182103   -0.019603470023688542
1.3739934291910412   0.07664601844182103   -0.019603470023688542
1.3739934291910412   0.07664601844182103   -0.019603470023688542
1.3739934291910412   0.07664601844182103   -0.019603470023688542
0.6925408615452524   -0.011132219753717226   0.012876654552539744
0.6925408615452524   -0.011132219753717226   0.012876654552539744
0.6925408615452524   -0.011132219753717226   0.012876654552539744
0.6925408615452524   -0.011132219753717226   0.012876654552539744
1.012661737214417   0.02530634771074247   0.016658979758344072
1.012661737214417   0.02530634771074247   0.016658979758344072
1.012661737214417   0.02530634771074247   0.016658979758344072
1.012661737214417   0.02530634771074247   0.016658979758344072
0.6729149475533338   -0.06577167576094603   -0.030613459399818556
0.6729149475533338   -0.06577167576094603   -0.030613459399818556
0.6729149475533338   -0.06577167576094603   -0.030613459399818556
0.6729149475533338   -0.06577167576094603   -0.030613459399818556
1.3919943306823026   0.12966046194839423   0.017386593926046683
1.3919943306823026   0.12966046194839423   0.017386593926046683
1.3919943306823026   0.12966046194839423   0.017386593926046683
1.3919943306823026   0.12966046194839423   0.017386593926046683
1.3719152479800116   0.11750213467968595   -0.02996783473924909
1.3719152479800116   0.11750213467968595   -0.02996783473924909
1.3719152479800116   0.11750213467968595   -0.02996783473924909
1.3719152479800116   0.11750213467968595   -0.02996783473924909
0.678381009184217   0.024760184719248596   0.007187778340840827
0.678381009184217   0.024760184719248596   0.007187778340840827
0.678381009184217   0.024760184719248596   0.007187778340840827
0.678381009184217   0.024760184719248596   0.007187778340840827
0.9869205808670592   0.04442554306210403   0.012409565057964457
0.9869205808670592   0.04442554306210403   0.012409565057964457
0.9869205808670592   0.04442554306210403   0.012409565057964457
0.9869205808670592   0.04442554306210403   0.012409565057964457
-1.475040673039337   -0.06689360147160786   0.07611602572433834
-1.475040673039337   -0.06689360147160786   0.07611602572433834
-1.475040673039337   -0.06689360147160786   0.07611602572433834
-1.475040673039337   -0.06689360147160786   0.07611602572433834
-0.9798817810725736   -0.037345695003867335   -0.019805566914903268
-0.9798817810725736   -0.037345695003867335   -0.019805566914903268
-0.9798817810725736   -0.037345695003867335   -0.019805566914903268
-0.9798817810725736   -0.037345695003867335   -0.019805566914903268
-0.944446530388547   0.07945718079922637   0.06383971770142673
-0.944446530388547   0.07945718079922637   0.06383971770142673
-0.944446530388547   0.07945718079922637   0.06383971770142673
-0.944446530388547   0.07945718079922637   0.06383971770142673
-1.4817968608311627   -0.10583179751403371   -0.031022453504212427
-1.4817968608311627   -0.10583179751403371   -0.031022453504212427
-1.4817968608311627   -0.10583179751403371   -0.031022453504212427
-1.4817968608311627   -0.10583179751403371   -0.031022453504212427
-1.1707603575274048   -0.018099908678907095   -0.002241809139788803
-1.1707603575274048   -0.018099908678907095   -0.002241809139788803
-1.1707603575274048   -0.018099908678907095   -0.002241809139788803
-1.1707603575274048   -0.018099908678907095   -0.002241809139788803
-1.440467090508032   -0.015463295537895383   0.08525789613530312
-1.440467090508032   -0.015463295537895383   0.08525789613530312
-1.440467090508032   -0.015463295537895383   0.08525789613530312
-1.440467090508032   -0.015463295537895383   0.08525789613530312
-0.9792686837853312   -0.004403704250566576   -0.02641016423270086
-0.9792686837853312   -0.004403704250566576   -0.02641016423270086
-0.9792686837853312   -0.004403704250566576   -0.02641016423270086
-0.9792686837853312   -0.004403704250566576   -0.02641016423270086
-0.9405449086560527   0.09856981273759396   0.05915998482781909
-0.9405449086560527   0.09856981273759396   0.05915998482781909
-0.9405449086560527   0.09856981273759396   0.05915998482781909
-0.9405449086560527   0.09856981273759396   0.05915998482781909
-1.45874262774511   -0.08850150790612776   -0.042461861949132346
-1.45874262774511   -0.08850150790612776   -0.042461861949132346
-1.45874262774511   -0.08850150790612776   -0.042461861949132346
-1.45874262774511   -0.08850150790612776   -0.042461861949132346
-1.1731659622854673   0.0043543799050989596   0.013481638092824266
-1.1731659622854673   0.0043543799050989596   0.013481638092824266
-1.1731659622854673   0.0043543799050989596   0.013481638092824266
-1.1731659622854673   0.0043543799050989596   0.013481638092824266
-1.4202609323794178   0.0025696936849977647   0.05887541328820328
-1.4202609323794178   0.0025696936849977647   0.05887541328820328
-1.4202609323794178   0.0025696936849977647   0.05887541328820328
-1.4202609323794178   0.0025696936849977647   0.05887541328820328
-0.9768824480471933   0.00964276712102241   -0.03360066651130566
-0.9768824480471933   0.00964276712102241   -0.03360066651130566
-0.9768824480471933   0.00964276712102241   -0.03360066651130566
-0.9768824480471933   0.00964276712102241   -0.03360066651130566
-0.9414100428121188   0.11130735099352587   0.04694252903414646
-0.9414100428121188   0.11130735099352587   0.04694252903414646
-0.9414100428121188   0.11130735099352587   0.04694252903414646
-0.9414100428121188   0.11130735099352587   0.04694252903414646
-1.428845788695901   -0.07006055195377664   -0.054136368147560024
-1.428845788695901   -0.07006055195377664   -0.054136368147560024
-1.428845788695901   -0.07006055195377664   -0.054136368147560024
-1.428845788695901   -0.07006055195377664   -0.054136368147560024
-1.1393751832127461   0.02447476175215116   0.028123351030973798
-1.1393751832127461   0.02447476175215116   0.028123351030973798
-1.1393751832127461   0.02447476175215116   0.028123351030973798
-1.1393751832127461   0.02447476175215116   0.028123351030973798
-0.9827513402021595   -0.09315531428796628   0.02165625672126565
-0.9827513402021595   -0.09315531428796628   0.02165625672126565
-0.9827513402021595   -0.09315531428796628   0.02165625672126565
-0.9827513402021595   -0.09315531428796628   0.02165625672126565
-0.49656087868063575   -0.018021301430356032   0.0009390413775413088
-0.49656087868063575   -0.018021301430356032   0.0009390413775413088
-0.49656087868063575   -0.018021301430356032   0.0009390413775413088
-0.49656087868063575   -0.018021301430356032   0.0009390413775413088
-0.4824209704980419   0.04876946517094724   0.03468857290348625
-0.4824209704980419   0.04876946517094724   0.03468857290348625
-0.4824209704980419   0.04876946517094724   0.03468857290348625
-0.4824209704980419   0.04876946517094724   0.03468857290348625
-0.998360441614198   -0.09186708133763127   -0.03440557628998092
-0.998360441614198   -0.09186708133763127   -0.03440557628998092
-0.998360441614198   -0.09186708133763127   -0.03440557628998092
-0.998360441614198   -0.09186708133763127   -0.03440557628998092
-0.7374043055035369   -0.036186910192937544   -0.014981635536651293
-0.7374043055035369   -0.036186910192937544   -0.014981635536651293
-0.7374043055035369   -0.036186910192937544   -0.014981635536651293
-0.7374043055035369   -0.036186910192937544   -0.014981635536651293
-0.979597969903705   -0.05341309092159233   0.020952791846451373
-0.979597969903705   -0.05341309092159233   0.020952791846451373
-0.979597969903705   -0.05341309092159233   0.020952791846451373
-0.979597969903705   -0.05341309092159233   0.020952791846451373
-0.49738439178021415   0.014114525183230697   -0.005473593519654804
-0.49738439178021415   0.014114525183230697   -0.005473593519654804
-0.49738439178021415   0.014114525183230697   -0.005473593519654804
-0.49738439178021415   0.014114525183230697   -0.005473593519654804
-0.48084553941864605   0.08064521485719517   0.030004120177890725
-0.48084553941864605   0.08064521485719517   0.030004120177890725
-0.48084553941864605   0.08064521485719517   0.030004120177890725
-0.48084553941864605   0.08064521485719517   0.030004120177890725
-0.9926410302879938   -0.06212243159264322   -0.04062837900164871
-0.9926410302879938   -0.06212243159264322   -0.04062837900164871
-0.9926410302879938   -0.06212243159264322   -0.04062837900164871
-0.9926410302879938   -0.06212243159264322   -0.04062837900164871
-0.7293023711892584   -0.003950081893375257   -7.559224290203115e-05
-0.7293023711892584   -0.003950081893375257   -7.559224290203115e-05
-0.7293023711892584   -0.003950081893375257   -7.559224290203115e-05
-0.7293023711892584   -0.003950081893375257   -7.559224290203115e-05
-0.9734963629370359   -0.021076057208300608   0.01404858336879776
-0.9734963629370359   -0.021076057208300608   0.01404858336879776
-0.9734963629370359   -0.021076057208300608   0.01404858336879776
-0.9734963629370359   -0.021076057208300608   0.01404858336879776
-0.4968970016195496   0.042692045622909   -0.012300021592331643
-0.4968970016195496   0.042692045622909   -0.012300021592331643
-0.4968970016195496   0.042692045622909   -0.012300021592331643
-0.4968970016195496   0.042692045622909   -0.012300021592331643
-0.4806567176810025   0.11414946315576581   0.022476050713401058
-0.4806567176810025   0.11414946315576581   0.022476050713401058
-0.4806567176810025   0.11414946315576581   0.022476050713401058
-0.4806567176810025   0.11414946315576581   0.022476050713401058
-0.9878064533071347   -0.03001512621659394   -0.04371704623081721
-0.9878064533071347   -0.03001512621659394   -0.04371704623081721
-0.9878064533071347   -0.03001512621659394   -0.04371704623081721
-0.9878064533071347   -0.03001512621659394   -0.04371704623081721
-0.7297199672929957   0.02562737903560569   0.011324149992247394
-0.7297199672929957   0.02562737903560569   0.011324149992247394
-0.7297199672929957   0.02562737903560569   0.011324149992247394
-0.7297199672929957   0.02562737903560569   0.011324149992247394
-0.515035280164472   -0.10655507117334254   -0.002899196298658112
-0.515035280164472   -0.10655507117334254   -0.002899196298658112
-0.515035280164472   -0.10655507117334254   -0.002899196298658112
-0.515035280164472   -0.10655507117334254   -0.002899196298658112
-0.017696736459301355   0.005182654849461207   0.021991102187563814
-0.017696736459301355   0.005182654849461207   0.021991102187563814
-0.017696736459301355   0.005182654849461207   0.021991102187563814
-0.017696736459301355   0.005182654849461207   0.021991102187563814
-0.01953497561047599   0.03139657729316575   0.010515663157390963
-0.01953497561047599   0.03139657729316575   0.010515663157390963
-0.01953497561047599   0.03139657729316575   0.010515663157390963
-0.01953497561047599   0.03139657729316575   0.010515663157390963
-0.5153346100483072   -0.06824892922247591   -0.012861230454416952
-0.5153346100483072   -0.06824892922247591   -0.012861230454416952
-0.5153346100483072   -0.06824892922247591   -0.012861230454416952
-0.5153346100483072   -0.06824892922247591   -0.012861230454416952
-0.26772127687333264   -0.03343129814406547   -0.008394234615571225
-0.26772127687333264   -0.03343129814406547   -0.008394234615571225
-0.26772127687333264   -0.03343129814406547   -0.008394234615571225
-0.26772127687333264   -0.03343129814406547   -0.008394234615571225
-0.5147793576604864   -0.07118517607989416   -0.007148721657894439
-0.5147793576604864   -0.07118517607989416   -0.007148721657894439
-0.5147793576604864   -0.07118517607989416   -0.007148721657894439
-0.5147793576604864   -0.07118517607989416   -0.007148721657894439
-0.017258873118546396   0.037164179030333845   0.016128573879871058
-0.017258873118546396   0.037164179030333845   0.016128573879871058
-0.017258873118546396   0.037164179030333845   0.016128573879871058
-0.017258873118546396   0.037164179030333845   0.016128573879871058
-0.01713764995763719   0.06612076449585523   0.00503200967267349
-0.01713764995763719   0.06612076449585523   0.00503200967267349
-0.01713764995763719   0.06612076449585523   0.00503200967267349
-0.01713764995763719   0.06612076449585523   0.00503200967267349
-0.513989497273653   -0.03621077882079553   -0.018859675419147803
-0.513989497273653   -0.03621077882079553   -0.018859675419147803
-0.513989497273653   -0.03621077882079553   -0.018859675419147803
-0.513989497273653   -0.03621077882079553   -0.018859675419147803
-0.2650749828615259   -0.0013291708155399595   0.003651888436046493
-0.2650749828615259   -0.0013291708155399595   0.003651888436046493
-0.2650749828615259   -0.0013291708155399595   0.003651888436046493
-0.2650749828615259   -0.0013291708155399595   0.003651888436046493
-0.5132172865364892   -0.03695287072106232   -0.01425652983306229
-0.5132172865364892   -0.03695287072106232   -0.01425652983306229
-0.5132172865364892   -0.03695287072106232   -0.01425652983306229
-0.5132172865364892   -0.03695287072106232   -0.01425652983306229
-0.015572298329982494   0.0692004187609405   0.009779113545861938
-0.015572298329982494   0.0692004187609405   0.009779113545861938
-0.015572298329982494   0.0692004187609405   0.009779113545861938
-0.015572298329982494   0.0692004187609405   0.009779113545861938
-0.016589814284627483   0.10188030874566231   -0.0008178674812787112
-0.016589814284627483   0.10188030874566231   -0.0008178674812787112
-0.016589814284627483   0.10188030874566231   -0.0008178674812787112
-0.016589814284627483   0.10188030874566231   -0.0008178674812787112
-0.5136925001614033   -0.0036298900896292313   -0.024923508443210028
-0.5136925001614033   -0.0036298900896292313   -0.024923508443210028
-0.5136925001614033   -0.0036298900896292313   -0.024923508443210028
-0.5136925001614033   -0.0036298900896292313   -0.024923508443210028
-0.26300896164838145   0.03080368403183019   0.014699275904822891
-0.26300896164838145   0.03080368403183019   0.014699275904822891
-0.26300896164838145   0.03080368403183019   0.014699275904822891
-0.26300896164838145   0.03080368403183019   0.014699275904822891
-0.0515849502925225   -0.11674472074285758   -0.025522591386223002
-0.0515849502925225   -0.11674472074285758   -0.025522591386223002
-0.0515849502925225   -0.11674472074285758   -0.025522591386223002
-0.0515849502925225   -0.11674472074285758   -0.025522591386223002
0.4592864828560901   0.032331969371419245   0.04181368652675236
0.4592864828560901   0.032331969371419245   0.04181368652675236
0.4592864828560901   0.032331969371419245   0.04181368652675236
0.4592864828560901   0.032331969371419245   0.04181368652675236
0.44425035330872664   0.017095891350024706   -0.016532375063102643
0.44425035330872664   0.017095891350024706   -0.016532375063102643
0.44425035330872664   0.017095891350024706   -0.016532375063102643
0.44425035330872664   0.017095891350024706   -0.016532375063102643
-0.03465040875751781   -0.04269063503556706   0.00902570975091487
-0.03465040875751781   -0.04269063503556706   0.00902570975091487
-0.03465040875751781   -0.04269063503556706   0.00902570975091487
-0.03465040875751781   -0.04269063503556706   0.00902570975091487
0.20142793275716422   -0.027078326567750874   -0.004745763542130944
0.20142793275716422   -0.027078326567750874   -0.004745763542130944
0.20142793275716422   -0.027078326567750874   -0.004745763542130944
0.20142793275716422   -0.027078326567750874   -0.004745763542130944
-0.05135611453789415   -0.08513134836998743   -0.032062105816546435
-0.05135611453789415   -0.08513134836998743   -0.032062105816546435
-0.05135611453789415   -0.08513134836998743   -0.032062105816546435
-0.05135611453789415   -0.08513134836998743   -0.032062105816546435
0.4641765811602496   0.06275712675559236   0.037437528788944546
0.4641765811602496   0.06275712675559236   0.037437528788944546
0.4641765811602496   0.06275712675559236   0.037437528788944546
0.4641765811602496   0.06275712675559236   0.037437528788944546
0.45150726415255876   0.04940441771893073   -0.0232227374314694
0.45150726415255876   0.04940441771893073   -0.0232227374314694
0.45150726415255876   0.04940441771893073   -0.0232227374314694
0.45150726415255876   0.04940441771893073   -0.0232227374314694
-0.03364065048760227   -0.01398467590107474   0.0026224474197785496
-0.03364065048760227   -0.01398467590107474   0.0026224474197785496
-0.03364065048760227   -0.01398467590107474   0.0026224474197785496
-0.03364065048760227   -0.01398467590107474   0.0026224474197785496
0.20325782751390245   0.0019720230768111233   0.007227225066192848
0.20325782751390245   0.0019720230768111233   0.007227225066192848
0.20325782751390245   0.0019720230768111233   0.007227225066192848
0.20325782751390245   0.0019720230768111233   0.007227225066192848
-0.04988924254559553   -0.05395947824054838   -0.03864571053071446
-0.04988924254559553   -0.05395947824054838   -0.03864571053071446
-0.04988924254559553   -0.05395947824054838   -0.03864571053071446
-0.04988924254559553   -0.05395947824054838   -0.03864571053071446
0.4712657757686565   0.09288913961650942   0.032085098751440576
0.4712657757686565   0.09288913961650942   0.032085098751440576
0.4712657757686565   0.09288913961650942   0.032085098751440576
0.4712657757686565   0.09288913961650942   0.032085098751440576
0.45599875501231457   0.08990697060730554   -0.024259315315927885
0.45599875501231457   0.08990697060730554   -0.024259315315927885
0.45599875501231457   0.08990697060730554   -0.024259315315927885
0.45599875501231457   0.08990697060730554   -0.024259315315927885
-0.03364533680459814   0.019550338804816644   -0.003765510140285964
-0.03364533680459814   0.019550338804816644   -0.003765510140285964
-0.03364533680459814   0.019550338804816644   -0.003765510140285964
-0.03364533680459814   0.019550338804816644   -0.003765510140285964
0.21035249947369408   0.03435375308406817   0.02144036066418992
0.21035249947369408   0.03435375308406817   0.02144036066418992
0.21035249947369408   0.03435375308406817   0.02144036066418992
0.21035249947369408   0.03435375308406817   0.02144036066418992
0.4113218347539087   -0.11595027297388355   -0.049727311638847874
0.4113218347539087   -0.11595027297388355   -0.049727311638847874
0.4113218347539087   -0.11595027297388355   -0.049727311638847874
0.4113218347539087   -0.11595027297388355   -0.049727311638847874
0.9048343217174357   0.06723393383712273   0.046555644414445624
0.9048343217174357   0.06723393383712273   0.046555644414445624
0.9048343217174357   0.06723393383712273   0.046555644414445624
0.9048343217174357   0.06723393383712273   0.046555644414445624
0.8977945652585644   -0.004421205126615674   -0.06619200756759155
0.8977945652585644   -0.004421205126615674   -0.06619200756759155
0.8977945652585644   -0.004421205126615674   -0.06619200756759155
0.8977945652585644   -0.004421205126615674   -0.06619200756759155
0.4484695632459778   -0.009603618964386884   0.031263184937568675
0.4484695632459778   -0.009603618964386884   0.031263184937568675
0.4484695632459778   -0.009603618964386884   0.031263184937568675
0.4484695632459778   -0.009603618964386884   0.031263184937568675
0.6332927990456862   -0.022659775580454233   -0.020808931409817252
0.6332927990456862   -0.022659775580454233   -0.020808931409817252
0.6332927990456862   -0.022659775580454233   -0.020808931409817252
0.6332927990456862   -0.022659775580454233   -0.020808931409817252
0.4117788360374404   -0.10062063622601944   -0.06117343384348272
0.4117788360374404   -0.10062063622601944   -0.06117343384348272
0.4117788360374404   -0.10062063622601944   -0.06117343384348272
0.4117788360374404   -0.10062063622601944   -0.06117343384348272
0.9371200705166207   0.08923059018453572   0.036783723411538724
0.9371200705166207   0.08923059018453572   0.036783723411538724
0.9371200705166207   0.08923059018453572   0.036783723411538724
0.9371200705166207   0.08923059018453572   0.036783723411538724
0.919914854436452   0.014007075188039203   -0.0888008636298776
0.919914854436452   0.014007075188039203   -0.0888008636298776
0.919914854436452   0.014007075188039203   -0.0888008636298776
0.919914854436452   0.014007075188039203   -0.0888008636298776
0.45182338355930474   0.0044556778362993404   0.023306599484897737
0.45182338355930474   0.0044556778362993404   0.023306599484897737
0.45182338355930474   0.0044556778362993404   0.023306599484897737
0.45182338355930474   0.0044556778362993404   0.023306599484897737
0.6620415281326626   -0.0027297230198176092   -0.006330574591158954
0.6620415281326626   -0.0027297230198176092   -0.006330574591158954
0.6620415281326626   -0.0027297230198176092   -0.006330574591158954
0.6620415281326626   -0.0027297230198176092   -0.006330574591158954
0.4165076469353154   -0.08223122895496912   -0.06658517684378265
0.4165076469353154   -0.08223122895496912   -0.06658517684378265
0.4165076469353154   -0.08223122895496912   -0.06658517684378265
0.4165076469353154   -0.08223122895496912   -0.06658517684378265
0.9610519658706138   0.10651535678948107   0.024376411939497418
0.9610519658706138   0.10651535678948107   0.024376411939497418
0.9610519658706138   0.10651535678948107   0.024376411939497418
0.9610519658706138   0.10651535678948107   0.024376411939497418
0.9550329713048435   0.0619431952160219   -0.0835491312959192
0.9550329713048435   0.0619431952160219   -0.0835491312959192
0.9550329713048435   0.0619431952160219   -0.0835491312959192
0.9550329713048435   0.0619431952160219   -0.0835491312959192
0.453372423579933   0.0354894981159037   0.017026500013574735
0.453372423579933   0.0354894981159037   0.017026500013574735
0.453372423579933   0.0354894981159037   0.017026500013574735
0.453372423579933   0.0354894981159037   0.017026500013574735
0.6670278971298648   0.020048912185708007   0.009700900907699726
0.6670278971298648   0.020048912185708007   0.009700900907699726
0.6670278971298648   0.020048912185708007   0.009700900907699726
0.6670278971298648   0.020048912185708007   0.009700900907699726
-1.053595476184467   -0.03434425422674861   0.06891533208258377
-1.053595476184467   -0.03434425422674861   0.06891533208258377
-1.053595476184467   -0.03434425422674861   0.06891533208258377
-1.053595476184467   -0.03434425422674861   0.06891533208258377
-0.7374867272729637   -0.049345390654852606   -0.026008938026043406
-0.7374867272729637   -0.049345390654852606   -0.026008938026043406
-0.7374867272729637   -0.049345390654852606   -0.026008938026043406
-0.7374867272729637   -0.049345390654852606   -0.026008938026043406
-0.6940966354915153   0.0696633942657861   0.05875328005523908
-0.6940966354915153   0.0696633942657861   0.05875328005523908
-0.6940966354915153   0.0696633942657861   0.05875328005523908
-0.6940966354915153   0.0696633942657861   0.05875328005523908
-1.0536738020772227   -0.08674918882562319   -0.038049064012699314
-1.0536738020772227   -0.08674918882562319   -0.038049064012699314
-1.0536738020772227   -0.08674918882562319   -0.038049064012699314
-1.0536738020772227   -0.08674918882562319   -0.038049064012699314
-0.8484861749320036   -0.013504133467175938   -0.0019363643869710692
-0.8484861749320036   -0.013504133467175938   -0.0019363643869710692
-0.8484861749320036   -0.013504133467175938   -0.0019363643869710692
-0.8484861749320036   -0.013504133467175938   -0.0019363643869710692
-1.0142048820844656   0.007000298634367325   0.06554604849109555
-1.0142048820844656   0.007000298634367325   0.06554604849109555
-1.0142048820844656   0.007000298634367325   0.06554604849109555
-1.0142048820844656   0.007000298634367325   0.06554604849109555
-0.7303528764669599   -0.02087341417689062   -0.03199111637929931
-0.7303528764669599   -0.02087341417689062   -0.03199111637929931
-0.7303528764669599   -0.02087341417689062   -0.03199111637929931
-0.7303528764669599   -0.02087341417689062   -0.03199111637929931
-0.6875568579621298   0.08415688207990288   0.049644318198033256
-0.6875568579621298   0.08415688207990288   0.049644318198033256
-0.6875568579621298   0.08415688207990288   0.049644318198033256
-0.6875568579621298   0.08415688207990288   0.049644318198033256
-1.028696116549488   -0.07059184867811466   -0.048090298720624446
-1.028696116549488   -0.07059184867811466   -0.048090298720624446
-1.028696116549488   -0.07059184867811466   -0.048090298720624446
-1.028696116549488   -0.07059184867811466   -0.048090298720624446
-0.8425270570241453   0.005608250288907213   0.00886075817698305
-0.8425270570241453   0.005608250288907213   0.00886075817698305
-0.8425270570241453   0.005608250288907213   0.00886075817698305
-0.8425270570241453   0.005608250288907213   0.00886075817698305
-0.9895706828510732   0.024345214734312087   0.05259980635902251
-0.9895706828510732   0.024345214734312087   0.05259980635902251
-0.9895706828510732   0.024345214734312087   0.05259980635902251
-0.9895706828510732   0.024345214734312087   0.05259980635902251
-0.7237792914719251   -0.007877181143903733   -0.039433786127132504
-0.7237792914719251   -0.007877181143903733   -0.039433786127132504
-0.7237792914719251   -0.007877181143903733   -0.039433786127132504
-0.7237792914719251   -0.007877181143903733   -0.039433786127132504
-0.683937065591613   0.09829212250803387   0.042718281057212676
-0.683937065591613   0.09829212250803387   0.042718281057212676
-0.683937065591613   0.09829212250803387   0.042718281057212676
-0.683937065591613   0.09829212250803387   0.042718281057212676
-0.9952531723670829   -0.049220687314350475   -0.05757167122183135
-0.9952531723670829   -0.049220687314350475   -0.05757167122183135
-0.9952531723670829   -0.049220687314350475   -0.05757167122183135
-0.9952531723670829   -0.049220687314350475   -0.05757167122183135
-0.8108912933165507   0.02352483532329719   0.0239966282648962
-0.8108912933165507   0.02352483532329719   0.0239966282648962
-0.8108912933165507   0.02352483532329719   0.0239966282648962
-0.8108912933165507   0.02352483532329719   0.0239966282648962
-0.7291445699490233   -0.059545463643151816   0.02590192158194989
-0.7291445699490233   -0.059545463643151816   0.02590192158194989
-0.7291445699490233   -0.059545463643151816   0.02590192158194989
-0.7291445699490233   -0.059545463643151816   0.02590192158194989
-0.4231004279503729   -0.03197297320964627   -0.004199008303207177
-0.4231004279503729   -0.03197297320964627   -0.004199008303207177
-0.4231004279503729   -0.03197297320964627   -0.004199008303207177
-0.4231004279503729   -0.03197297320964627   -0.004199008303207177
-0.40159523953042664   0.04070245857901045   0.031676921209456435
-0.40159523953042664   0.04070245857901045   0.031676921209456435
-0.40159523953042664   0.04070245857901045   0.031676921209456435
-0.40159523953042664   0.04070245857901045   0.031676921209456435
-0.7401255705033438   -0.07088364349747275   -0.030844357240644223
-0.7401255705033438   -0.07088364349747275   -0.030844357240644223
-0.7401255705033438   -0.07088364349747275   -0.030844357240644223
-0.7401255705033438   -0.07088364349747275   -0.030844357240644223
-0.5711935263748117   -0.027832617167213178   -0.01169043225336221
-0.5711935263748117   -0.027832617167213178   -0.01169043225336221
-0.5711935263748117   -0.027832617167213178   -0.01169043225336221
-0.5711935263748117   -0.027832617167213178   -0.01169043225336221
-0.7205859571681097   -0.025197546669006365   0.021167612607055436
-0.7205859571681097   -0.025197546669006365   0.021167612607055436
-0.7205859571681097   -0.025197546669006365   0.021167612607055436
-0.7205859571681097   -0.025197546669006365   0.021167612607055436
-0.4186280314041845   -0.0024768167879804376   -0.010307762792341961
-0.4186280314041845   -0.0024768167879804376   -0.010307762792341961
-0.4186280314041845   -0.0024768167879804376   -0.010307762792341961
-0.4186280314041845   -0.0024768167879804376   -0.010307762792341961
-0.39648851474500313   0.07042737779836596   0.025968152410414454
-0.39648851474500313   0.07042737779836596   0.025968152410414454
-0.39648851474500313   0.07042737779836596   0.025968152410414454
-0.39648851474500313   0.07042737779836596   0.025968152410414454
-0.7301541825017853   -0.042840606391212246   -0.03634481602912873
-0.7301541825017853   -0.042840606391212246   -0.03634481602912873
-0.7301541825017853   -0.042840606391212246   -0.03634481602912873
-0.7301541825017853   -0.042840606391212246   -0.03634481602912873
-0.5602231609606279   0.0013735802202842345   0.0008571589376293112
-0.5602231609606279   0.0013735802202842345   0.0008571589376293112
-0.5602231609606279   0.0013735802202842345   0.0008571589376293112
-0.5602231609606279   0.0013735802202842345   0.0008571589376293112
-0.7091360200365712   0.006571103532596156   0.01933428637313351
-0.7091360200365712   0.006571103532596156   0.01933428637313351
-0.7091360200365712   0.006571103532596156   0.01933428637313351
-0.7091360200365712   0.006571103532596156   0.01933428637313351
-0.4143936686887358   0.024128676396036983   -0.01725891590591684
-0.4143936686887358   0.024128676396036983   -0.01725891590591684
-0.4143936686887358   0.024128676396036983   -0.01725891590591684
-0.4143936686887358   0.024128676396036983   -0.01725891590591684
-0.3915541385437059   0.10210913996032074   0.020651969890319817
-0.3915541385437059   0.10210913996032074   0.020651969890319817
-0.3915541385437059   0.10210913996032074   0.020651969890319817
-0.3915541385437059   0.10210913996032074   0.020651969890319817
-0.7226940673935871   -0.01261108363494609   -0.04016352180967336
-0.7226940673935871   -0.01261108363494609   -0.04016352180967336
-0.7226940673935871   -0.01261108363494609   -0.04016352180967336
-0.7226940673935871   -0.01261108363494609   -0.04016352180967336
-0.5559687819090697   0.028867337604593257   0.012810201563471915
-0.5559687819090697   0.028867337604593257   0.012810201563471915
-0.5559687819090697   0.028867337604593257   0.012810201563471915
-0.5559687819090697   0.028867337604593257   0.012810201563471915
-0.43202357430212746   -0.08186539650911868   0.0010776832374904506
-0.43202357430212746   -0.08186539650911868   0.0010776832374904506
-0.43202357430212746   -0.08186539650911868   0.0010776832374904506
-0.43202357430212746   -0.08186539650911868   0.0010776832374904506
-0.11193030506200104   -0.00962310254284276   0.01760770898934888
-0.11193030506200104   -0.00962310254284276   0.01760770898934888
-0.11193030506200104   -0.00962310254284276   0.01760770898934888
-0.11193030506200104   -0.00962310254284276   0.01760770898934888
-0.10919656680882171   0.016751923485268907   0.006004989844821668
-0.10919656680882171   0.016751923485268907   0.006004989844821668
-0.10919656680882171   0.016751923485268907   0.006004989844821668
-0.10919656680882171   0.016751923485268907   0.006004989844821668
-0.42728612910031954   -0.04786126180811262   -0.008213806252889783
-0.42728612910031954   -0.04786126180811262   -0.008213806252889783
-0.42728612910031954   -0.04786126180811262   -0.008213806252889783
-0.42728612910031954   -0.04786126180811262   -0.008213806252889783
-0.2705711326468455   -0.029337767819878985   -0.008312255949805275
-0.2705711326468455   -0.029337767819878985   -0.008312255949805275
-0.2705711326468455   -0.029337767819878985   -0.008312255949805275
-0.2705711326468455   -0.029337767819878985   -0.008312255949805275
-0.4265871786874071   -0.04870271671558376   -0.00387759928085628
-0.4265871786874071   -0.04870271671558376   -0.00387759928085628
-0.4265871786874071   -0.04870271671558376   -0.00387759928085628
-0.4265871786874071   -0.04870271671558376   -0.00387759928085628
-0.10738231829876367   0.020106577315710552   0.01172157856467021
-0.10738231829876367   0.020106577315710552   0.01172157856467021
-0.10738231829876367   0.020106577315710552   0.01172157856467021
-0.10738231829876367   0.020106577315710552   0.01172157856467021
-0.10302920646325435   0.050064113235506635   0.001554494051964412
-0.10302920646325435   0.050064113235506635   0.001554494051964412
-0.10302920646325435   0.050064113235506635   0.001554494051964412
-0.10302920646325435   0.050064113235506635   0.001554494051964412
-0.4221736542717317   -0.017923869513839452   -0.014106297911023212
-0.4221736542717317   -0.017923869513839452   -0.014106297911023212
-0.4221736542717317   -0.017923869513839452   -0.014106297911023212
-0.4221736542717317   -0.017923869513839452   -0.014106297911023212
-0.2639833848710783   0.0005934462905119592   0.003515294488773267
-0.2639833848710783   0.0005934462905119592   0.003515294488773267
-0.2639833848710783   0.0005934462905119592   0.003515294488773267
-0.2639833848710783   0.0005934462905119592   0.003515294488773267
-0.42060290495063174   -0.015497341196860581   -0.008679079622501987
-0.42060290495063174   -0.015497341196860581   -0.008679079622501987
-0.42060290495063174   -0.015497341196860581   -0.008679079622501987
-0.42060290495063174   -0.015497341196860581   -0.008679079622501987
-0.10227946426972762   0.04995807643315595   0.005409241821949691
-0.10227946426972762   0.04995807643315595   0.005409241821949691
-0.10227946426972762   0.04995807643315595   0.005409241821949691
-0.10227946426972762   0.04995807643315595   0.005409241821949691
-0.09749535448307187   0.08385950463259392   -0.003673680510425638
-0.09749535448307187   0.08385950463259392   -0.003673680510425638
-0.09749535448307187   0.08385950463259392   -0.003673680510425638
-0.09749535448307187   0.08385950463259392   -0.003673680510425638
-0.41768880463273683   0.012359548149506544   -0.020271768744023533
-0.41768880463273683   0.012359548149506544   -0.020271768744023533
-0.41768880463273683   0.012359548149506544   -0.020271768744023533
-0.41768880463273683   0.012359548149506544   -0.020271768744023533
-0.257968957740491   0.030668242677670536   0.0149100239186504
-0.257968957740491   0.030668242677670536   0.0149100239186504
-0.257968957740491   0.030668242677670536   0.0149100239186504
-0.257968957740491   0.030668242677670536   0.0149100239186504
-0.1381952920557849   -0.1001626571839909   -0.023177671338423314
-0.1381952920557849   -0.1001626571839909   -0.023177671338423314
-0.1381952920557849   -0.1001626571839909   -0.023177671338423314
-0.1381952920557849   -0.1001626571839909   -0.023177671338423314
0.19505797707077827   0.015433555282448538   0.038179119652418325
0.19505797707077827   0.015433555282448538   0.038179119652418325
0.19505797707077827   0.015433555282448538   0.038179119652418325
0.19505797707077827   0.015433555282448538   0.038179119652418325
0.18138423909013765   -0.005557790246211884   -0.021344714149964736
0.18138423909013765   -0.005557790246211884   -0.021344714149964736
0.18138423909013765   -0.005557790246211884   -0.021344714149964736
0.18138423909013765   -0.005557790246211884   -0.021344714149964736
-0.11556129528464022   -0.02322738375199327   0.014160654702991332
-0.11556129528464022   -0.02322738375199327   0.014160654702991332
-0.11556129528464022   -0.02322738375199327   0.014160654702991332
-0.11556129528464022   -0.02322738375199327   0.014160654702991332
0.029439571635788565   -0.027590529652608026   -0.005919330169661221
0.029439571635788565   -0.027590529652608026   -0.005919330169661221
0.029439571635788565   -0.027590529652608026   -0.005919330169661221
0.029439571635788565   -0.027590529652608026   -0.005919330169661221
-0.1334472167878033   -0.06996200492064215   -0.028534331644175133
-0.1334472167878033   -0.06996200492064215   -0.028534331644175133
-0.1334472167878033   -0.06996200492064215   -0.028534331644175133
-0.1334472167878033   -0.06996200492064215   -0.028534331644175133
0.20226077871057344   0.04416744903970905   0.033312744666289286
0.20226077871057344   0.04416744903970905   0.033312744666289286
0.20226077871057344   0.04416744903970905   0.033312744666289286
0.20226077871057344   0.04416744903970905   0.033312744666289286
0.19286329196452806   0.02595449190117929   -0.024185656021081612
0.19286329196452806   0.02595449190117929   -0.024185656021081612
0.19286329196452806   0.02595449190117929   -0.024185656021081612
0.19286329196452806   0.02595449190117929   -0.024185656021081612
-0.11111111204201635   0.0035454792006536957   0.007663600193008303
-0.11111111204201635   0.0035454792006536957   0.007663600193008303
-0.11111111204201635   0.0035454792006536957   0.007663600193008303
-0.11111111204201635   0.0035454792006536957   0.007663600193008303
0.03554804520507558   -0.00044464301759605286   0.006114654482288071
0.03554804520507558   -0.00044464301759605286   0.006114654482288071
0.03554804520507558   -0.00044464301759605286   0.006114654482288071
0.03554804520507558   -0.00044464301759605286   0.006114654482288071
-0.1283720159752318   -0.0403954387808662   -0.03470000149154926
-0.1283720159752318   -0.0403954387808662   -0.03470000149154926
-0.1283720159752318   -0.0403954387808662   -0.03470000149154926
-0.1283720159752318   -0.0403954387808662   -0.03470000149154926
0.2127179806385963   0.072489194623551   0.028553084626882122
0.2127179806385963   0.072489194623551   0.028553084626882122
0.2127179806385963   0.072489194623551   0.028553084626882122
0.2127179806385963   0.072489194623551   0.028553084626882122
0.2021085541068873   0.06186394199409316   -0.027951385105396513
0.2021085541068873   0.06186394199409316   -0.027951385105396513
0.2021085541068873   0.06186394199409316   -0.027951385105396513
0.2021085541068873   0.06186394199409316   -0.027951385105396513
-0.10635541485777991   0.03440257152576592   0.001482950722861226
-0.10635541485777991   0.03440257152576592   0.001482950722861226
-0.10635541485777991   0.03440257152576592   0.001482950722861226
-0.10635541485777991   0.03440257152576592   0.001482950722861226
0.044975499909396886   0.029075005199561788   0.018572887600116713
0.044975499909396886   0.029075005199561788   0.018572887600116713
0.044975499909396886   0.029075005199561788   0.018572887600116713
0.044975499909396886   0.029075005199561788   0.018572887600116713
0.1549410291742258   -0.10120855538665716   -0.04576350916123616
0.1549410291742258   -0.10120855538665716   -0.04576350916123616
0.1549410291742258   -0.10120855538665716   -0.04576350916123616
0.1549410291742258   -0.10120855538665716   -0.04576350916123616
0.4677186647081912   0.04615258518941963   0.04948489213667319
0.4677186647081912   0.04615258518941963   0.04948489213667319
0.4677186647081912   0.04615258518941963   0.04948489213667319
0.4677186647081912   0.04615258518941963   0.04948489213667319
0.4630323448758649   -0.02499375746893938   -0.06025028921508095
0.4630323448758649   -0.02499375746893938   -0.06025028921508095
0.4630323448758649   -0.02499375746893938   -0.06025028921508095
0.4630323448758649   -0.02499375746893938   -0.06025028921508095
0.19583692241318235   0.008427262128863237   0.0369336500901817
0.19583692241318235   0.008427262128863237   0.0369336500901817
0.19583692241318235   0.008427262128863237   0.0369336500901817
0.19583692241318235   0.008427262128863237   0.0369336500901817
0.30367742181649415   -0.0209709654425847   -0.016080978138673874
0.30367742181649415   -0.0209709654425847   -0.016080978138673874
0.30367742181649415   -0.0209709654425847   -0.016080978138673874
0.30367742181649415   -0.0209709654425847   -0.016080978138673874
0.1593221051339372   -0.08427365200812077   -0.05293952216906018
0.1593221051339372   -0.08427365200812077   -0.05293952216906018
0.1593221051339372   -0.08427365200812077   -0.05293952216906018
0.1593221051339372   -0.08427365200812077   -0.05293952216906018
0.5025962671387211   0.07075626165165697   0.041819302978611576
0.5025962671387211   0.07075626165165697   0.041819302978611576
0.5025962671387211   0.07075626165165697   0.041819302978611576
0.5025962671387211   0.07075626165165697   0.041819302978611576
0.4884092296591815   -0.00734310979174764   -0.07227318475520617
0.4884092296591815   -0.00734310979174764   -0.07227318475520617
0.4884092296591815   -0.00734310979174764   -0.07227318475520617
0.4884092296591815   -0.00734310979174764   -0.07227318475520617
0.20254241585557492   0.021357394206648672   0.028807061128677498
0.20254241585557492   0.021357394206648672   0.028807061128677498
0.20254241585557492   0.021357394206648672   0.028807061128677498
0.20254241585557492   0.021357394206648672   0.028807061128677498
0.32929285641063577   -0.003167565561637567   -0.001908822273153133
0.32929285641063577   -0.003167565561637567   -0.001908822273153133
0.32929285641063577   -0.003167565561637567   -0.001908822273153133
0.32929285641063577   -0.003167565561637567   -0.001908822273153133
0.16631163779330657   -0.0695882318409021   -0.06140120313511132
0.16631163779330657   -0.0695882318409021   -0.06140120313511132
0.16631163779330657   -0.0695882318409021   -0.06140120313511132
0.16631163779330657   -0.0695882318409021   -0.06140120313511132
0.5278184354969204   0.0867809440312761   0.03064879061046912
0.5278184354969204   0.0867809440312761   0.03064879061046912
0.5278184354969204   0.0867809440312761   0.03064879061046912
0.5278184354969204   0.0867809440312761   0.03064879061046912
0.527386429494434   0.03141150620558375   -0.07737746545251838
0.527386429494434   0.03141150620558375   -0.07737746545251838
0.527386429494434   0.03141150620558375   -0.07737746545251838
0.527386429494434   0.03141150620558375   -0.07737746545251838
0.20940396371676648   0.04749763551690396   0.022891969421186754
0.20940396371676648   0.04749763551690396   0.022891969421186754
0.20940396371676648   0.04749763551690396   0.022891969421186754
0.20940396371676648   0.04749763551690396   0.022891969421186754
0.34209924877180253   0.016444714051799904   0.010296082117616198
0.34209924877180253   0.016444714051799904   0.010296082117616198
0.34209924877180253   0.016444714051799904   0.010296082117616198
0.34209924877180253   0.016444714051799904   0.010296082117616198
-0.630960386132585   -0.010489211909688156   0.0617456145594156
-0.630960386132585   -0.010489211909688156   0.0617456145594156
-0.630960386132585   -0.010489211909688156   0.0617456145594156
-0.630960386132585   -0.010489211909688156   0.0617456145594156
-0.4925436836036026   -0.06258067064331434   -0.030518508130199875
-0.4925436836036026   -0.06258067064331434   -0.030518508130199875
-0.4925436836036026   -0.06258067064331434   -0.030518508130199875
-0.4925436836036026   -0.06258067064331434   -0.030518508130199875
-0.44582342198652314   0.05298881273697925   0.052790563709613374
-0.44582342198652314   0.05298881273697925   0.052790563709613374
-0.44582342198652314   0.05298881273697925   0.052790563709613374
-0.44582342198652314   0.05298881273697925   0.052790563709613374
-0.6283143271657363   -0.06845803725370779   -0.04155107063387138
-0.6283143271657363   -0.06845803725370779   -0.04155107063387138
-0.6283143271657363   -0.06845803725370779   -0.04155107063387138
-0.6283143271657363   -0.06845803725370779   -0.04155107063387138
-0.5284009140716415   -0.014523771264490337   -0.00783804505776272
-0.5284009140716415   -0.014523771264490337   -0.00783804505776272
-0.5284009140716415   -0.014523771264490337   -0.00783804505776272
-0.5284009140716415   -0.014523771264490337   -0.00783804505776272
-0.5894131510098957   0.02551009064058901   0.058986682251034726
-0.5894131510098957   0.02551009064058901   0.058986682251034726
-0.5894131510098957   0.02551009064058901   0.058986682251034726
-0.5894131510098957   0.02551009064058901   0.058986682251034726
-0.48201839155798776   -0.03827310857294032   -0.036922362837782594
-0.48201839155798776   -0.03827310857294032   -0.036922362837782594
-0.48201839155798776   -0.03827310857294032   -0.036922362837782594
-0.48201839155798776   -0.03827310857294032   -0.036922362837782594
-0.4347832663609165   0.06673779041581507   0.044645046560452796
-0.4347832663609165   0.06673779041581507   0.044645046560452796
-0.4347832663609165   0.06673779041581507   0.044645046560452796
-0.4347832663609165   0.06673779041581507   0.044645046560452796
-0.5994543232105608   -0.05287703952591931   -0.05190473322112209
-0.5994543232105608   -0.05287703952591931   -0.05190473322112209
-0.5994543232105608   -0.05287703952591931   -0.05190473322112209
-0.5994543232105608   -0.05287703952591931   -0.05190473322112209
-0.5133136933280396   0.003468505456671156   0.0036490262870710714
-0.5133136933280396   0.003468505456671156   0.0036490262870710714
-0.5133136933280396   0.003468505456671156   0.0036490262870710714
-0.5133136933280396   0.003468505456671156   0.0036490262870710714
-0.5605287054317345   0.04219079709914844   0.047655519047937724
-0.5605287054317345   0.04219079709914844   0.047655519047937724
-0.5605287054317345   0.04219079709914844   0.047655519047937724
-0.5605287054317345   0.04219079709914844   0.047655519047937724
-0.47114857675743327   -0.025769738826943098   -0.04467397617936862
-0.47114857675743327   -0.025769738826943098   -0.04467397617936862
-0.47114857675743327   -0.025769738826943098   -0.04467397617936862
-0.47114857675743327   -0.025769738826943098   -0.04467397617936862
-0.4258470029502855   0.0838755233068448   0.038503212467347434
-0.4258470029502855   0.0838755233068448   0.038503212467347434
-0.4258470029502855   0.0838755233068448   0.038503212467347434
-0.4258470029502855   0.0838755233068448   0.038503212467347434
-0.5606845575697207   -0.02792963321830029   -0.06006401799900278
-0.5606845575697207   -0.02792963321830029   -0.06006401799900278
-0.5606845575697207   -0.02792963321830029   -0.06006401799900278
-0.5606845575697207   -0.02792963321830029   -0.06006401799900278
-0.4828776826907973   0.021217280272835246   0.017894536665910947
-0.4828776826907973   0.021217280272835246   0.017894536665910947
-0.4828776826907973   0.021217280272835246   0.017894536665910947
-0.4828776826907973   0.021217280272835246   0.017894536665910947
-0.47523638660972495   -0.03572741836808369   0.02916472456395775
-0.47523638660972495   -0.03572741836808369   0.02916472456395775
-0.47523638660972495   -0.03572741836808369   0.02916472456395775
-0.47523638660972495   -0.03572741836808369   0.02916472456395775
-0.34923786685962205   -0.047443271782045625   -0.00903349601837646
-0.34923786685962205   -0.047443271782045625   -0.00903349601837646
-0.34923786685962205   -0.047443271782045625   -0.00903349601837646
-0.34923786685962205   -0.047443271782045625   -0.00903349601837646
-0.3232021342504952   0.024067671059338894   0.02698877929056539
-0.3232021342504952   0.024067671059338894   0.02698877929056539
-0.3232021342504952   0.024067671059338894   0.02698877929056539
-0.3232021342504952   0.024067671059338894   0.02698877929056539
-0.4822956982275308   -0.05052435652676344   -0.026057648231674974
-0.4822956982275308   -0.05052435652676344   -0.026057648231674974
-0.4822956982275308   -0.05052435652676344   -0.026057648231674974
-0.4822956982275308   -0.05052435652676344   -0.026057648231674974
-0.40637594443710373   -0.02524126986194819   -0.010965694455455265
-0.40637594443710373   -0.02524126986194819   -0.010965694455455265
-0.40637594443710373   -0.02524126986194819   -0.010965694455455265
-0.40637594443710373   -0.02524126986194819   -0.010965694455455265
-0.46287575147293647   -0.00430105203363107   0.0248187810481569
-0.46287575147293647   -0.00430105203363107   0.0248187810481569
-0.46287575147293647   -0.00430105203363107   0.0248187810481569
-0.46287575147293647   -0.00430105203363107   0.0248187810481569
-0.34043952258167953   -0.01997307501038475   -0.015157416295632801
-0.34043952258167953   -0.01997307501038475   -0.015157416295632801
-0.34043952258167953   -0.01997307501038475   -0.015157416295632801
-0.34043952258167953   -0.01997307501038475   -0.015157416295632801
-0.31368433883476327   0.052039159754005804   0.021584171029939526
-0.31368433883476327   0.052039159754005804   0.021584171029939526
-0.31368433883476327   0.052039159754005804   0.021584171029939526
-0.31368433883476327   0.052039159754005804   0.021584171029939526
-0.4680275136533489   -0.023640694953015642   -0.031197704532870265
-0.4680275136533489   -0.023640694953015642   -0.031197704532870265
-0.4680275136533489   -0.023640694953015642   -0.031197704532870265
-0.4680275136533489   -0.023640694953015642   -0.031197704532870265
-0.3926034758983022   0.001719773322174753   0.0011096130512653624
-0.3926034758983022   0.001719773322174753   0.0011096130512653624
-0.3926034758983022   0.001719773322174753   0.0011096130512653624
-0.3926034758983022   0.001719773322174753   0.0011096130512653624
-0.4474673981426889   0.025465124416592447   0.0224970536508136
-0.4474673981426889   0.025465124416592447   0.0224970536508136
-0.4474673981426889   0.025465124416592447   0.0224970536508136
-0.4474673981426889   0.025465124416592447   0.0224970536508136
-0.33172484260388896   0.0054529521259275016   -0.022032140187614433
-0.33172484260388896   0.0054529521259275016   -0.022032140187614433
-0.33172484260388896   0.0054529521259275016   -0.022032140187614433
-0.33172484260388896   0.0054529521259275016   -0.022032140187614433
-0.30419650484639876   0.08240842661780717   0.016436466906904597
-0.30419650484639876   0.08240842661780717   0.016436466906904597
-0.30419650484639876   0.08240842661780717   0.016436466906904597
-0.30419650484639876   0.08240842661780717   0.016436466906904597
-0.4562558377696534   0.005730035244819895   -0.03539547356745967
-0.4562558377696534   0.005730035244819895   -0.03539547356745967
-0.4562558377696534   0.005730035244819895   -0.03539547356745967
-0.4562558377696534   0.005730035244819895   -0.03539547356745967
-0.3826467989978253   0.028159611969023834   0.012924217295488538
-0.3826467989978253   0.028159611969023834   0.012924217295488538
-0.3826467989978253   0.028159611969023834   0.012924217295488538
-0.3826467989978253   0.028159611969023834   0.012924217295488538
-0.3488091568326835   -0.059489215189996995   0.005155997524260167
-0.3488091568326835   -0.059489215189996995   0.005155997524260167
-0.3488091568326835   -0.059489215189996995   0.005155997524260167
-0.3488091568326835   -0.059489215189996995   0.005155997524260167
-0.20784085466596608   -0.025078581532983008   0.012804114439503175
-0.20784085466596608   -0.025078581532983008   0.012804114439503175
-0.20784085466596608   -0.025078581532983008   0.012804114439503175
-0.20784085466596608   -0.025078581532983008   0.012804114439503175
-0.20076340580403257   -0.0005841812795573387   0.0016488730935996579
-0.20076340580403257   -0.0005841812795573387   0.0016488730935996579
-0.20076340580403257   -0.0005841812795573387   0.0016488730935996579
-0.20076340580403257   -0.0005841812795573387   0.0016488730935996579
-0.3394372623400953   -0.027112057783361954   -0.003007132314734373
-0.3394372623400953   -0.027112057783361954   -0.003007132314734373
-0.3394372623400953   -0.027112057783361954   -0.003007132314734373
-0.3394372623400953   -0.027112057783361954   -0.003007132314734373
-0.27464956497392595   -0.026752155715464167   -0.007988740622229469
-0.27464956497392595   -0.026752155715464167   -0.007988740622229469
-0.27464956497392595   -0.026752155715464167   -0.007988740622229469
-0.27464956497392595   -0.026752155715464167   -0.007988740622229469
-0.3390282681036901   -0.028484810117855523   0.00041059120178151866
-0.3390282681036901   -0.028484810117855523   0.00041059120178151866
-0.3390282681036901   -0.028484810117855523   0.00041059120178151866
-0.3390282681036901   -0.028484810117855523   0.00041059120178151866
-0.19900164012175423   0.002959330973616635   0.006914189251817436
-0.19900164012175423   0.002959330973616635   0.006914189251817436
-0.19900164012175423   0.002959330973616635   0.006914189251817436
-0.19900164012175423   0.002959330973616635   0.006914189251817436
-0.19042226322317826   0.030693878230633312   -0.0027689502372281564
-0.19042226322317826   0.030693878230633312   -0.0027689502372281564
-0.19042226322317826   0.030693878230633312   -0.0027689502372281564
-0.19042226322317826   0.030693878230633312   -0.0027689502372281564
-0.32990172822648595   0.0013263552065375661   -0.00878997138120962
-0.32990172822648595   0.0013263552065375661   -0.00878997138120962
-0.32990172822648595   0.0013263552065375661   -0.00878997138120962
-0.32990172822648595   0.0013263552065375661   -0.00878997138120962
-0.2637400731814104   0.0013642497470573792   0.0037238066824079943
-0.2637400731814104   0.0013642497470573792   0.0037238066824079943
-0.2637400731814104   0.0013642497470573792   0.0037238066824079943
-0.2637400731814104   0.0013642497470573792   0.0037238066824079943
-0.32875272680301826   0.002698211458869587   -0.004416820516206819
-0.32875272680301826   0.002698211458869587   -0.004416820516206819
-0.32875272680301826   0.002698211458869587   -0.004416820516206819
-0.32875272680301826   0.002698211458869587   -0.004416820516206819
-0.189607959990742   0.03128532663420233   0.0007111175213856055
-0.189607959990742   0.03128532663420233   0.0007111175213856055
-0.189607959990742   0.03128532663420233   0.0007111175213856055
-0.189607959990742   0.03128532663420233   0.0007111175213856055
-0.18065432231199977   0.06225971807065468   -0.007805401459004609
-0.18065432231199977   0.06225971807065468   -0.007805401459004609
-0.18065432231199977   0.06225971807065468   -0.007805401459004609
-0.18065432231199977   0.06225971807065468   -0.007805401459004609
-0.320963481322693   0.02998372458316939   -0.014973713439926858
-0.320963481322693   0.02998372458316939   -0.014973713439926858
-0.320963481322693   0.02998372458316939   -0.014973713439926858
-0.320963481322693   0.02998372458316939   -0.014973713439926858
-0.25342276382721823   0.02958177054705769   0.014964721093874082
-0.25342276382721823   0.02958177054705769   0.014964721093874082
-0.25342276382721823   0.02958177054705769   0.014964721093874082
-0.25342276382721823   0.02958177054705769   0.014964721093874082
-0.22523314403915284   -0.08008972971825401   -0.019146184241163343
-0.22523314403915284   -0.08008972971825401   -0.019146184241163343
-0.22523314403915284   -0.08008972971825401   -0.019146184241163343
-0.22523314403915284   -0.08008972971825401   -0.019146184241163343
-0.07048248529590054   -0.0013341351052990535   0.033566125573791544
-0.07048248529590054   -0.0013341351052990535   0.033566125573791544
-0.07048248529590054   -0.0013341351052990535   0.033566125573791544
-0.07048248529590054   -0.0013341351052990535   0.033566125573791544
-0.08004202994175467   -0.02389706269304891   -0.024707005345187747
-0.08004202994175467   -0.02389706269304891   -0.024707005345187747
-0.08004202994175467   -0.02389706269304891   -0.024707005345187747
-0.08004202994175467   -0.02389706269304891   -0.024707005345187747
-0.19774153533426167   -0.0030547087079547536   0.019228752870849707
-0.19774153533426167   -0.0030547087079547536   0.019228752870849707
-0.19774153533426167   -0.0030547087079547536   0.019228752870849707
-0.19774153533426167   -0.0030547087079547536   0.019228752870849707
-0.14334157991665017   -0.02591279418952854   -0.005766147919079929
-0.14334157991665017   -0.02591279418952854   -0.005766147919079929
-0.14334157991665017   -0.02591279418952854   -0.005766147919079929
-0.14334157991665017   -0.02591279418952854   -0.005766147919079929
-0.21602108487270594   -0.050996844430056   -0.024226859099271938
-0.21602108487270594   -0.050996844430056   -0.024226859099271938
-0.21602108487270594   -0.050996844430056   -0.024226859099271938
-0.21602108487270594   -0.050996844430056   -0.024226859099271938
-0.059330633368622425   0.026476920063740375   0.02847599476368608
-0.059330633368622425   0.026476920063740375   0.02847599476368608
-0.059330633368622425   0.026476920063740375   0.02847599476368608
-0.059330633368622425   0.026476920063740375   0.02847599476368608
-0.06490465023053686   0.00569092222747189   -0.02781564648438021
-0.06490465023053686   0.00569092222747189   -0.02781564648438021
-0.06490465023053686   0.00569092222747189   -0.02781564648438021
-0.06490465023053686   0.00569092222747189   -0.02781564648438021
-0.18894551524919923   0.022479266526413022   0.012829401336887331
-0.18894551524919923   0.022479266526413022   0.012829401336887331
-0.18894551524919923   0.022479266526413022   0.012829401336887331
-0.18894551524919923   0.022479266526413022   0.012829401336887331
-0.1317296808688312   0.0002790997424015722   0.006171935339308767
-0.1317296808688312   0.0002790997424015722   0.006171935339308767
-0.1317296808688312   0.0002790997424015722   0.006171935339308767
-0.1317296808688312   0.0002790997424015722   0.006171935339308767
-0.20664458175769873   -0.02310938976410365   -0.03007727491509607
-0.20664458175769873   -0.02310938976410365   -0.03007727491509607
-0.20664458175769873   -0.02310938976410365   -0.03007727491509607
-0.20664458175769873   -0.02310938976410365   -0.03007727491509607
-0.044941645763483196   0.05354351647654518   0.024146781601816703
-0.044941645763483196   0.05354351647654518   0.024146781601816703
-0.044941645763483196   0.05354351647654518   0.024146781601816703
-0.044941645763483196   0.05354351647654518   0.024146781601816703
-0.05210162540272632   0.038723962678110284   -0.03116388297047054
-0.05210162540272632   0.038723962678110284   -0.03116388297047054
-0.05210162540272632   0.038723962678110284   -0.03116388297047054
-0.05210162540272632   0.038723962678110284   -0.03116388297047054
-0.17994056696943259   0.051362968771398995   0.006660124553086819
-0.17994056696943259   0.051362968771398995   0.006660124553086819
-0.17994056696943259   0.051362968771398995   0.006660124553086819
-0.17994056696943259   0.051362968771398995   0.006660124553086819
-0.11971742957682681   0.027570275426440895   0.018107709059912994
-0.11971742957682681   0.027570275426440895   0.018107709059912994
-0.11971742957682681   0.027570275426440895   0.018107709059912994
-0.11971742957682681   0.027570275426440895   0.018107709059912994
-0.1024785684878269   -0.08611127081278874   -0.04163715467835054
-0.1024785684878269   -0.08611127081278874   -0.04163715467835054
-0.1024785684878269   -0.08611127081278874   -0.04163715467835054
-0.1024785684878269   -0.08611127081278874   -0.04163715467835054
0.03300263594808708   0.025339712438137617   0.05122188809381026
0.03300263594808708   0.025339712438137617   0.05122188809381026
0.03300263594808708   0.025339712438137617   0.05122188809381026
0.03300263594808708   0.025339712438137617   0.05122188809381026
0.03322531287245962   -0.04251109255311368   -0.055146513778980166
0.03322531287245962   -0.04251109255311368   -0.055146513778980166
0.03322531287245962   -0.04251109255311368   -0.055146513778980166
0.03322531287245962   -0.04251109255311368   -0.055146513778980166
-0.05661775286100007   0.026592848569754107   0.04192446879578228
-0.05661775286100007   0.026592848569754107   0.04192446879578228
-0.05661775286100007   0.026592848569754107   0.04192446879578228
-0.05661775286100007   0.026592848569754107   0.04192446879578228
-0.024282433759894157   -0.018319376196312732   -0.009711949109219804
-0.024282433759894157   -0.018319376196312732   -0.009711949109219804
-0.024282433759894157   -0.018319376196312732   -0.009711949109219804
-0.024282433759894157   -0.018319376196312732   -0.009711949109219804
-0.09316239405333546   -0.066333757418087   -0.04787213117805171
-0.09316239405333546   -0.066333757418087   -0.04787213117805171
-0.09316239405333546   -0.066333757418087   -0.04787213117805171
-0.09316239405333546   -0.066333757418087   -0.04787213117805171
0.0723692598547233   0.05301481922465348   0.04504730935457108
0.0723692598547233   0.05301481922465348   0.04504730935457108
0.0723692598547233   0.05301481922465348   0.04504730935457108
0.0723692598547233   0.05301481922465348   0.04504730935457108
0.06223218360012665   -0.025569810085483563   -0.06551872807653542
0.06223218360012665   -0.025569810085483563   -0.06551872807653542
0.06223218360012665   -0.025569810085483563   -0.06551872807653542
0.06223218360012665   -0.025569810085483563   -0.06551872807653542
-0.045976774285103564   0.03888606075218191   0.033628594718078164
-0.045976774285103564   0.03888606075218191   0.033628594718078164
-0.045976774285103564   0.03888606075218191   0.033628594718078164
-0.045976774285103564   0.03888606075218191   0.033628594718078164
-0.0004557368537883363   -0.000883633194300513   0.003219289294277002
-0.0004557368537883363   -0.000883633194300513   0.003219289294277002
-0.0004557368537883363   -0.000883633194300513   0.003219289294277002
-0.0004557368537883363   -0.000883633194300513   0.003219289294277002
-0.08203324253676943   -0.0523939057126416   -0.05537378007542955
-0.08203324253676943   -0.0523939057126416   -0.05537378007542955
-0.08203324253676943   -0.0523939057126416   -0.05537378007542955
-0.08203324253676943   -0.0523939057126416   -0.05537378007542955
0.10089132562891796   0.06831283015646253   0.033894341825475086
0.10089132562891796   0.06831283015646253   0.033894341825475086
0.10089132562891796   0.06831283015646253   0.033894341825475086
0.10089132562891796   0.06831283015646253   0.033894341825475086
0.10290346346817589   0.007584440690251467   -0.07017350446348511
0.10290346346817589   0.007584440690251467   -0.07017350446348511
0.10290346346817589   0.007584440690251467   -0.07017350446348511
0.10290346346817589   0.007584440690251467   -0.07017350446348511
-0.036037647590181646   0.06055090902433091   0.02732905974603416
-0.036037647590181646   0.06055090902433091   0.02732905974603416
-0.036037647590181646   0.06055090902433091   0.02732905974603416
-0.036037647590181646   0.06055090902433091   0.02732905974603416
0.021051366318549935   0.017426279726545438   0.01586750531174044
0.021051366318549935   0.017426279726545438   0.01586750531174044
0.021051366318549935   0.017426279726545438   0.01586750531174044
0.021051366318549935   0.017426279726545438   0.01586750531174044
-0.20844099399791494   0.012048551660364636   0.058524913782507376
-0.20844099399791494   0.012048551660364636   0.058524913782507376
-0.20844099399791494   0.012048551660364636   0.058524913782507376
-0.20844099399791494   0.012048551660364636   0.058524913782507376
-0.24849023378363702   -0.07626023782961883   -0.03445925137812536
-0.24849023378363702   -0.07626023782961883   -0.03445925137812536
-0.24849023378363702   -0.07626023782961883   -0.03445925137812536
-0.24849023378363702   -0.07626023782961883   -0.03445925137812536
-0.19838910335281648   0.035419718797261884   0.047912485808072586
-0.19838910335281648   0.035419718797261884   0.047912485808072586
-0.19838910335281648   0.035419718797261884   0.047912485808072586
-0.19838910335281648   0.035419718797261884   0.047912485808072586
-0.2024312508680494   -0.050059359581840775   -0.04442051432103672
-0.2024312508680494   -0.050059359581840775   -0.04442051432103672
-0.2024312508680494   -0.050059359581840775   -0.04442051432103672
-0.2024312508680494   -0.050059359581840775   -0.04442051432103672
-0.20903905453389496   -0.016075256310078202   -0.016040067515316447
-0.20903905453389496   -0.016075256310078202   -0.016040067515316447
-0.20903905453389496   -0.016075256310078202   -0.016040067515316447
-0.20903905453389496   -0.016075256310078202   -0.016040067515316447
-0.16390681186597536   0.043635120128761765   0.05450720097873084
-0.16390681186597536   0.043635120128761765   0.05450720097873084
-0.16390681186597536   0.043635120128761765   0.05450720097873084
-0.16390681186597536   0.043635120128761765   0.05450720097873084
-0.23449445102452854   -0.0558556695829787   -0.04133886417024716
-0.23449445102452854   -0.0558556695829787   -0.04133886417024716
-0.23449445102452854   -0.0558556695829787   -0.04133886417024716
-0.23449445102452854   -0.0558556695829787   -0.04133886417024716
-0.1829672468826258   0.04886439577735889   0.040315366967349255
-0.1829672468826258   0.04886439577735889   0.040315366967349255
-0.1829672468826258   0.04886439577735889   0.040315366967349255
-0.1829672468826258   0.04886439577735889   0.040315366967349255
-0.16933183015979567   -0.03486512732953125   -0.05532147689294887
-0.16933183015979567   -0.03486512732953125   -0.05532147689294887
-0.16933183015979567   -0.03486512732953125   -0.05532147689294887
-0.16933183015979567   -0.03486512732953125   -0.05532147689294887
-0.18462190346946564   0.001097272197907291   -0.0033677672061817685
-0.18462190346946564   0.001097272197907291   -0.0033677672061817685
-0.18462190346946564   0.001097272197907291   -0.0033677672061817685
-0.18462190346946564   0.001097272197907291   -0.0033677672061817685
-0.13059012370616196   0.05998427719026627   0.04353765085542228
-0.13059012370616196   0.05998427719026627   0.04353765085542228
-0.13059012370616196   0.05998427719026627   0.04353765085542228
-0.13059012370616196   0.05998427719026627   0.04353765085542228
-0.21942915111384975   -0.043705206520033936   -0.04942455189137755
-0.21942915111384975   -0.043705206520033936   -0.04942455189137755
-0.21942915111384975   -0.043705206520033936   -0.04942455189137755
-0.21942915111384975   -0.043705206520033936   -0.04942455189137755
-0.16886320994937457   0.06941130093238831   0.0348193051341094
-0.16886320994937457   0.06941130093238831   0.0348193051341094
-0.16886320994937457   0.06941130093238831   0.0348193051341094
-0.16886320994937457   0.06941130093238831   0.0348193051341094
-0.1251477794679194   -0.005984174021895973   -0.062317319597313695
-0.1251477794679194   -0.005984174021895973   -0.062317319597313695
-0.1251477794679194   -0.005984174021895973   -0.062317319597313695
-0.1251477794679194   -0.005984174021895973   -0.062317319597313695
-0.15528080767600566   0.019047499156910293   0.010194141344651356
-0.15528080767600566   0.019047499156910293   0.010194141344651356
-0.15528080767600566   0.019047499156910293   0.010194141344651356
-0.15528080767600566   0.019047499156910293   0.010194141344651356
-0.22240777229322553   -0.013609991680190968   0.03330280992450021
-0.22240777229322553   -0.013609991680190968   0.03330280992450021
-0.22240777229322553   -0.013609991680190968   0.03330280992450021
-0.22240777229322553   -0.013609991680190968   0.03330280992450021
-0.2765501599674447   -0.06220788027081983   -0.013462240646992701
-0.2765501599674447   -0.06220788027081983   -0.013462240646992701
-0.2765501599674447   -0.06220788027081983   -0.013462240646992701
-0.2765501599674447   -0.06220788027081983   -0.013462240646992701
-0.24661026459834184   0.006271245420278224   0.02223492787434435
-0.24661026459834184   0.006271245420278224   0.02223492787434435
-0.24661026459834184   0.006271245420278224   0.02223492787434435
-0.24661026459834184   0.006271245420278224   0.02223492787434435
-0.22499333488727338   -0.029317607528347698   -0.02037134553859841
-0.22499333488727338   -0.029317607528347698   -0.02037134553859841
-0.22499333488727338   -0.029317607528347698   -0.02037134553859841
-0.22499333488727338   -0.029317607528347698   -0.02037134553859841
-0.242820794962767   -0.022817506707690803   -0.011273648678090843
-0.242820794962767   -0.022817506707690803   -0.011273648678090843
-0.242820794962767   -0.022817506707690803   -0.011273648678090843
-0.242820794962767   -0.022817506707690803   -0.011273648678090843
-0.20609442420612586   0.015740456659675044   0.02906514367911247
-0.20609442420612586   0.015740456659675044   0.02906514367911247
-0.20609442420612586   0.015740456659675044   0.02906514367911247
-0.20609442420612586   0.015740456659675044   0.02906514367911247
-0.26361391189215816   -0.036891555380414276   -0.0196205077940465
-0.26361391189215816   -0.036891555380414276   -0.0196205077940465
-0.26361391189215816   -0.036891555380414276   -0.0196205077940465
-0.26361391189215816   -0.036891555380414276   -0.0196205077940465
-0.2328425614850442   0.03302828601288914   0.016962248128349042
-0.2328425614850442   0.03302828601288914   0.016962248128349042
-0.2328425614850442   0.03302828601288914   0.016962248128349042
-0.2328425614850442   0.03302828601288914   0.016962248128349042
-0.20656839794778775   -0.0035362274523288023   -0.025289765128769022
-0.20656839794778775   -0.0035362274523288023   -0.025289765128769022
-0.20656839794778775   -0.0035362274523288023   -0.025289765128769022
-0.20656839794778775   -0.0035362274523288023   -0.025289765128769022
-0.2263679592419308   0.00214371835567409   0.0004206375759432529
-0.2263679592419308   0.00214371835567409   0.0004206375759432529
-0.2263679592419308   0.00214371835567409   0.0004206375759432529
-0.2263679592419308   0.00214371835567409   0.0004206375759432529
-0.18674965614014774   0.044089967289684506   0.026177749167414003
-0.18674965614014774   0.044089967289684506   0.026177749167414003
-0.18674965614014774   0.044089967289684506   0.026177749167414003
-0.18674965614014774   0.044089967289684506   0.026177749167414003
-0.2506409333722356   -0.012577538808674224   -0.026423786486048345
-0.2506409333722356   -0.012577538808674224   -0.026423786486048345
-0.2506409333722356   -0.012577538808674224   -0.026423786486048345
-0.2506409333722356   -0.012577538808674224   -0.026423786486048345
-0.21900727630893546   0.0626489570621808   0.011950574058626921
-0.21900727630893546   0.0626489570621808   0.011950574058626921
-0.21900727630893546   0.0626489570621808   0.011950574058626921
-0.21900727630893546   0.0626489570621808   0.011950574058626921
-0.19067585747297497   0.025083516923076414   -0.029916148474580528
-0.19067585747297497   0.025083516923076414   -0.029916148474580528
-0.19067585747297497   0.025083516923076414   -0.029916148474580528
-0.19067585747297497   0.025083516923076414   -0.029916148474580528
-0.21081227880431244   0.02792775129409391   0.012325246107953838
-0.21081227880431244   0.02792775129409391   0.012325246107953838
-0.21081227880431244   0.02792775129409391   0.012325246107953838
-0.21081227880431244   0.02792775129409391   0.012325246107953838
-0.26706473469812825   -0.037610649451304996   0.009367654880070813
-0.26706473469812825   -0.037610649451304996   0.009367654880070813
-0.26706473469812825   -0.037610649451304996   0.009367654880070813
-0.26706473469812825   -0.037610649451304996   0.009367654880070813
-0.3044978541843226   -0.03932452652420751   0.008137466343689486
-0.3044978541843226   -0.03932452652420751   0.008137466343689486
-0.3044978541843226   -0.03932452652420751   0.008137466343689486
-0.3044978541843226   -0.03932452652420751   0.008137466343689486
-0.29347314650362394   -0.017894930913965795   -0.0028856138042249596
-0.29347314650362394   -0.017894930913965795   -0.0028856138042249596
-0.29347314650362394   -0.017894930913965795   -0.0028856138042249596
-0.29347314650362394   -0.017894930913965795   -0.0028856138042249596
-0.25284143794378905   -0.005308977703762818   0.002659284271149448
-0.25284143794378905   -0.005308977703762818   0.002659284271149448
-0.25284143794378905   -0.005308977703762818   0.002659284271149448
-0.25284143794378905   -0.005308977703762818   0.002659284271149448
-0.27988859220613466   -0.02361582964122244   -0.007485733417212294
-0.27988859220613466   -0.02361582964122244   -0.007485733417212294
-0.27988859220613466   -0.02361582964122244   -0.007485733417212294
-0.27988859220613466   -0.02361582964122244   -0.007485733417212294
-0.2530400201829662   -0.008299753178908215   0.00465714855040518
-0.2530400201829662   -0.008299753178908215   0.00465714855040518
-0.2530400201829662   -0.008299753178908215   0.00465714855040518
-0.2530400201829662   -0.008299753178908215   0.00465714855040518
-0.29148702682066224   -0.013116617995036106   0.0022666716916562163
-0.29148702682066224   -0.013116617995036106   0.0022666716916562163
-0.29148702682066224   -0.013116617995036106   0.0022666716916562163
-0.29148702682066224   -0.013116617995036106   0.0022666716916562163
-0.27900805720368205   0.011799262099457211   -0.0073191079394000075
-0.27900805720368205   0.011799262099457211   -0.0073191079394000075
-0.27900805720368205   0.011799262099457211   -0.0073191079394000075
-0.27900805720368205   0.011799262099457211   -0.0073191079394000075
-0.23912008115983835   0.021621971948972488   -0.0030190361817048067
-0.23912008115983835   0.021621971948972488   -0.0030190361817048067
-0.23912008115983835   0.021621971948972488   -0.0030190361817048067
-0.23912008115983835   0.021621971948972488   -0.0030190361817048067
-0.26477551206569194   0.0029240345054530326   0.0040624228390234995
-0.26477551206569194   0.0029240345054530326   0.0040624228390234995
-0.26477551206569194   0.0029240345054530326   0.0040624228390234995
-0.26477551206569194   0.0029240345054530326   0.0040624228390234995
-0.23863215006030922   0.02128898614082802   -0.000246394875918772
-0.23863215006030922   0.02128898614082802   -0.000246394875918772
-0.23863215006030922   0.02128898614082802   -0.000246394875918772
-0.23863215006030922   0.02128898614082802   -0.000246394875918772
-0.2779363405683005   0.013691895642511623   -0.0038531583055469443
-0.2779363405683005   0.013691895642511623   -0.0038531583055469443
-0.2779363405683005   0.013691895642511623   -0.0038531583055469443
-0.2779363405683005   0.013691895642511623   -0.0038531583055469443
-0.26515710719581825   0.04167561109087052   -0.012320655028295997
-0.26515710719581825   0.04167561109087052   -0.012320655028295997
-0.26515710719581825   0.04167561109087052   -0.012320655028295997
-0.26515710719581825   0.04167561109087052   -0.012320655028295997
-0.22604586652878142   0.0486632044810006   -0.009256624459422543
-0.22604586652878142   0.0486632044810006   -0.009256624459422543
-0.22604586652878142   0.0486632044810006   -0.009256624459422543
-0.22604586652878142   0.0486632044810006   -0.009256624459422543
-0.25036353545706885   0.029512785150203988   0.015069934212535791
-0.25036353545706885   0.029512785150203988   0.015069934212535791
-0.25036353545706885   0.029512785150203988   0.015069934212535791
-0.25036353545706885   0.029512785150203988   0.015069934212535791
-0.31322350835401475   -0.05963219253122827   -0.01518313849775562
-0.31322350835401475   -0.05963219253122827   -0.01518313849775562
-0.31322350835401475   -0.05963219253122827   -0.01518313849775562
-0.31322350835401475   -0.05963219253122827   -0.01518313849775562
-0.33485312223466657   -0.01691089457816424   0.02877437688480059
-0.33485312223466657   -0.01691089457816424   0.02877437688480059
-0.33485312223466657   -0.01691089457816424   0.02877437688480059
-0.33485312223466657   -0.01691089457816424   0.02877437688480059
-0.34027485954018627   -0.04107523809802885   -0.028340569873611554
-0.34027485954018627   -0.04107523809802885   -0.028340569873611554
-0.34027485954018627   -0.04107523809802885   -0.028340569873611554
-0.34027485954018627   -0.04107523809802885   -0.028340569873611554
-0.2808861454469002   0.017858122641177476   0.024296337924250594
-0.2808861454469002   0.017858122641177476   0.024296337924250594
-0.2808861454469002   0.017858122641177476   0.024296337924250594
-0.2808861454469002   0.017858122641177476   0.024296337924250594
-0.3159863728896721   -0.023329116519801393   -0.0047065091098219165
-0.3159863728896721   -0.023329116519801393   -0.0047065091098219165
-0.3159863728896721   -0.023329116519801393   -0.0047065091098219165
-0.3159863728896721   -0.023329116519801393   -0.0047065091098219165
-0.29958268093715706   -0.0312786098165604   -0.020049607069298536
-0.29958268093715706   -0.0312786098165604   -0.020049607069298536
-0.29958268093715706   -0.0312786098165604   -0.020049607069298536
-0.29958268093715706   -0.0312786098165604   -0.020049607069298536
-0.319704120701632   0.00993569770800086   0.023502188513129938
-0.319704120701632   0.00993569770800086   0.023502188513129938
-0.319704120701632   0.00993569770800086   0.023502188513129938
-0.319704120701632   0.00993569770800086   0.023502188513129938
-0.3213043901351719   -0.012917934206906553   -0.03179772744375321
-0.3213043901351719   -0.012917934206906553   -0.03179772744375321
-0.3213043901351719   -0.012917934206906553   -0.03179772744375321
-0.3213043901351719   -0.012917934206906553   -0.03179772744375321
-0.2678661198661743   0.04214638680502682   0.018043454042566385
-0.2678661198661743   0.04214638680502682   0.018043454042566385
-0.2678661198661743   0.04214638680502682   0.018043454042566385
-0.2678661198661743   0.04214638680502682   0.018043454042566385
-0.29880530416977585   0.0022320001121502314   0.007215493987484719
-0.29880530416977585   0.0022320001121502314   0.007215493987484719
-0.29880530416977585   0.0022320001121502314   0.007215493987484719
-0.29880530416977585   0.0022320001121502314   0.007215493987484719
-0.2859828385114437   -0.0046440240576347686   -0.025749728321122534
-0.2859828385114437   -0.0046440240576347686   -0.025749728321122534
-0.2859828385114437   -0.0046440240576347686   -0.025749728321122534
-0.2859828385114437   -0.0046440240576347686   -0.025749728321122534
-0.30129360346140116   0.03576654468425643   0.01957172703394128
-0.30129360346140116   0.03576654468425643   0.01957172703394128
-0.30129360346140116   0.03576654468425643   0.01957172703394128
-0.30129360346140116   0.03576654468425643   0.01957172703394128
-0.3047057011809742   0.018098927565703346   -0.034894947263849854
-0.3047057011809742   0.018098927565703346   -0.034894947263849854
-0.3047057011809742   0.018098927565703346   -0.034894947263849854
-0.3047057011809742   0.018098927565703346   -0.034894947263849854
-0.25481038917285   0.06921241111031239   0.011876135067103319
-0.25481038917285   0.06921241111031239   0.011876135067103319
-0.25481038917285   0.06921241111031239   0.011876135067103319
-0.25481038917285   0.06921241111031239   0.011876135067103319
-0.2842255876751096   0.027589224948774506   0.018612204705045522
-0.2842255876751096   0.027589224948774506   0.018612204705045522
-0.2842255876751096   0.027589224948774506   0.018612204705045522
-0.2842255876751096   0.027589224948774506   0.018612204705045522
-0.3590219493056059   -0.07092142736748018   -0.03805922568058574
-0.3590219493056059   -0.07092142736748018   -0.03805922568058574
-0.3590219493056059   -0.07092142736748018   -0.03805922568058574
-0.3590219493056059   -0.07092142736748018   -0.03805922568058574
-0.3975292538912385   0.005364926278904628   0.05181153627066333
-0.3975292538912385   0.005364926278904628   0.05181153627066333
-0.3975292538912385   0.005364926278904628   0.05181153627066333
-0.3975292538912385   0.005364926278904628   0.05181153627066333
-0.39224907244332785   -0.05905998783363328   -0.05070839363882691
-0.39224907244332785   -0.05905998783363328   -0.05070839363882691
-0.39224907244332785   -0.05905998783363328   -0.05070839363882691
-0.39224907244332785   -0.05905998783363328   -0.05070839363882691
-0.30815838353002106   0.0447258904481848   0.046440681630999125
-0.30815838353002106   0.0447258904481848   0.046440681630999125
-0.30815838353002106   0.0447258904481848   0.046440681630999125
-0.30815838353002106   0.0447258904481848   0.046440681630999125
-0.3496339370666636   -0.01527014219524682   -0.0022929137630842873
-0.3496339370666636   -0.01527014219524682   -0.0022929137630842873
-0.3496339370666636   -0.01527014219524682   -0.0022929137630842873
-0.3496339370666636   -0.01527014219524682   -0.0022929137630842873
-0.3447190413822139   -0.048116371941671156   -0.043520345240114895
-0.3447190413822139   -0.048116371941671156   -0.043520345240114895
-0.3447190413822139   -0.048116371941671156   -0.043520345240114895
-0.3447190413822139   -0.048116371941671156   -0.043520345240114895
-0.35370744158985623   0.03576324755750171   0.047176525237388287
-0.35370744158985623   0.03576324755750171   0.047176525237388287
-0.35370744158985623   0.03576324755750171   0.047176525237388287
-0.35370744158985623   0.03576324755750171   0.047176525237388287
-0.3594576947223006   -0.042625053500030284   -0.060446056105770446
-0.3594576947223006   -0.042625053500030284   -0.060446056105770446
-0.3594576947223006   -0.042625053500030284   -0.060446056105770446
-0.3594576947223006   -0.042625053500030284   -0.060446056105770446
-0.29349746857905634   0.05630213894489458   0.03801680718502382
-0.29349746857905634   0.05630213894489458   0.03801680718502382
-0.29349746857905634   0.05630213894489458   0.03801680718502382
-0.29349746857905634   0.05630213894489458   0.03801680718502382
-0.32746857058122836   0.0019102473785266444   0.009141988851052444
-0.32746857058122836   0.0019102473785266444   0.009141988851052444
-0.32746857058122836   0.0019102473785266444   0.009141988851052444
-0.32746857058122836   0.0019102473785266444   0.009141988851052444
-0.3293508130820473   -0.03458668435652767   -0.050361092028510676
-0.3293508130820473   -0.03458668435652767   -0.050361092028510676
-0.3293508130820473   -0.03458668435652767   -0.050361092028510676
-0.3293508130820473   -0.03458668435652767   -0.050361092028510676
-0.3215278411017095   0.05034027891899176   0.036237879578162956
-0.3215278411017095   0.05034027891899176   0.036237879578162956
-0.3215278411017095   0.05034027891899176   0.036237879578162956
-0.3215278411017095   0.05034027891899176   0.036237879578162956
-0.31639728908925524   -0.014200021515188663   -0.06606595145249017
-0.31639728908925524   -0.014200021515188663   -0.06606595145249017
-0.31639728908925524   -0.014200021515188663   -0.06606595145249017
-0.31639728908925524   -0.014200021515188663   -0.06606595145249017
-0.28037261510544564   0.07355566242600939   0.03131374825348299
-0.28037261510544564   0.07355566242600939   0.03131374825348299
-0.28037261510544564   0.07355566242600939   0.03131374825348299
-0.28037261510544564   0.07355566242600939   0.03131374825348299
-0.29708692168601236   0.019068637434993943   0.022387713053068567
-0.29708692168601236   0.019068637434993943   0.022387713053068567
-0.29708692168601236   0.019068637434993943   0.022387713053068567
-0.29708692168601236   0.019068637434993943   0.022387713053068567
0.21733854225778274   0.03511086551916255   0.05656748932433114
0.21733854225778274   0.03511086551916255   0.05656748932433114
0.21733854225778274   0.03511086551916255   0.05656748932433114
0.21733854225778274   0.03511086551916255   0.05656748932433114
-0.005077344212973924   -0.09088080922560057   -0.03733523415968795
-0.005077344212973924   -0.09088080922560057   -0.03733523415968795
-0.005077344212973924   -0.09088080922560057   -0.03733523415968795
-0.005077344212973924   -0.09088080922560057   -0.03733523415968795
0.04831622884674428   0.017713601008437746   0.043696808915562206
0.04831622884674428   0.017713601008437746   0.043696808915562206
0.04831622884674428   0.017713601008437746   0.043696808915562206
0.04831622884674428   0.017713601008437746   0.043696808915562206
0.22666922183722732   -0.03174790886130245   -0.0467419731816515
0.22666922183722732   -0.03174790886130245   -0.0467419731816515
0.22666922183722732   -0.03174790886130245   -0.0467419731816515
0.22666922183722732   -0.03174790886130245   -0.0467419731816515
0.11092602485217289   -0.017622714774956978   -0.026963787571570388
0.11092602485217289   -0.017622714774956978   -0.026963787571570388
0.11092602485217289   -0.017622714774956978   -0.026963787571570388
0.11092602485217289   -0.017622714774956978   -0.026963787571570388
0.2650826947344921   0.06253585740962277   0.0510416250337395
0.2650826947344921   0.06253585740962277   0.0510416250337395
0.2650826947344921   0.06253585740962277   0.0510416250337395
0.2650826947344921   0.06253585740962277   0.0510416250337395
0.012269708218333217   -0.07420321299363505   -0.04461898022442034
0.012269708218333217   -0.07420321299363505   -0.04461898022442034
0.012269708218333217   -0.07420321299363505   -0.04461898022442034
0.012269708218333217   -0.07420321299363505   -0.04461898022442034
0.06775163636568081   0.030908498748991573   0.036463186974188766
0.06775163636568081   0.030908498748991573   0.036463186974188766
0.06775163636568081   0.030908498748991573   0.036463186974188766
0.06775163636568081   0.030908498748991573   0.036463186974188766
0.26393135723242134   -0.016843171671331855   -0.05846277277511529
0.26393135723242134   -0.016843171671331855   -0.05846277277511529
0.26393135723242134   -0.016843171671331855   -0.05846277277511529
0.26393135723242134   -0.016843171671331855   -0.05846277277511529
0.14455652046017678   -0.0011767679909437667   -0.012687985009233347
0.14455652046017678   -0.0011767679909437667   -0.012687985009233347
0.14455652046017678   -0.0011767679909437667   -0.012687985009233347
0.14455652046017678   -0.0011767679909437667   -0.012687985009233347
0.3027624415745861   0.07865659820734189   0.04019287905703498
0.3027624415745861   0.07865659820734189   0.04019287905703498
0.3027624415745861   0.07865659820734189   0.04019287905703498
0.3027624415745861   0.07865659820734189   0.04019287905703498
0.031234008607067754   -0.06227781454613041   -0.05293863852375451
0.031234008607067754   -0.06227781454613041   -0.05293863852375451
0.031234008607067754   -0.06227781454613041   -0.05293863852375451
0.031234008607067754   -0.06227781454613041   -0.05293863852375451
0.086611743740875   0.05514180022504218   0.03155302842858262
0.086611743740875   0.05514180022504218   0.03155302842858262
0.086611743740875   0.05514180022504218   0.03155302842858262
0.086611743740875   0.05514180022504218   0.03155302842858262
0.3134000481982059   0.01651449771167196   -0.06447067203685626
0.3134000481982059   0.01651449771167196   -0.06447067203685626
0.3134000481982059   0.01651449771167196   -0.06447067203685626
0.3134000481982059   0.01651449771167196   -0.06447067203685626
0.17276197937474186   0.01726073563689609   0.0008048293496407868
0.17276197937474186   0.01726073563689609   0.0008048293496407868
0.17276197937474186   0.01726073563689609   0.0008048293496407868
0.17276197937474186   0.01726073563689609   0.0008048293496407868
0.030152472403589568   0.00950975189357101   0.03842328780395792
0.030152472403589568   0.00950975189357101   0.03842328780395792
0.030152472403589568   0.00950975189357101   0.03842328780395792
0.030152472403589568   0.00950975189357101   0.03842328780395792
-0.2061672826139594   -0.07717138341438763   -0.017129838115084096
-0.2061672826139594   -0.07717138341438763   -0.017129838115084096
-0.2061672826139594   -0.07717138341438763   -0.017129838115084096
-0.2061672826139594   -0.07717138341438763   -0.017129838115084096
-0.17249362411372154   -0.011234653906598484   0.017543711796595817
-0.17249362411372154   -0.011234653906598484   0.017543711796595817
-0.17249362411372154   -0.011234653906598484   0.017543711796595817
-0.17249362411372154   -0.011234653906598484   0.017543711796595817
0.031557894161721514   -0.008791032384570944   -0.013590231116542938
0.031557894161721514   -0.008791032384570944   -0.013590231116542938
0.031557894161721514   -0.008791032384570944   -0.013590231116542938
0.031557894161721514   -0.008791032384570944   -0.013590231116542938
-0.08094169121485148   -0.019945845617980643   -0.01295506310354621
-0.08094169121485148   -0.019945845617980643   -0.01295506310354621
-0.08094169121485148   -0.019945845617980643   -0.01295506310354621
-0.08094169121485148   -0.019945845617980643   -0.01295506310354621
0.050173076654405034   0.03660739473347367   0.034087254228830036
0.050173076654405034   0.03660739473347367   0.034087254228830036
0.050173076654405034   0.03660739473347367   0.034087254228830036
0.050173076654405034   0.03660739473347367   0.034087254228830036
-0.18938449748154984   -0.05490877189978788   -0.023236537049356257
-0.18938449748154984   -0.05490877189978788   -0.023236537049356257
-0.18938449748154984   -0.05490877189978788   -0.023236537049356257
-0.18938449748154984   -0.05490877189978788   -0.023236537049356257
-0.15477426447695575   0.014360102938132058   0.012397753352703246
-0.15477426447695575   0.014360102938132058   0.012397753352703246
-0.15477426447695575   0.014360102938132058   0.012397753352703246
-0.15477426447695575   0.014360102938132058   0.012397753352703246
0.05369761632465769   0.015495284602077988   -0.01839369908401322
0.05369761632465769   0.015495284602077988   -0.01839369908401322
0.05369761632465769   0.015495284602077988   -0.01839369908401322
0.05369761632465769   0.015495284602077988   -0.01839369908401322
-0.062159097045551864   0.0026306342464353597   -0.0015794918720636831
-0.062159097045551864   0.0026306342464353597   -0.0015794918720636831
-0.062159097045551864   0.0026306342464353597   -0.0015794918720636831
-0.062159097045551864   0.0026306342464353597   -0.0015794918720636831
0.07309636713404463   0.06356145541899283   0.030533884146006673
0.07309636713404463   0.06356145541899283   0.030533884146006673
0.07309636713404463   0.06356145541899283   0.030533884146006673
0.07309636713404463   0.06356145541899283   0.030533884146006673
-0.17251314256378278   -0.032046195156217754   -0.02989033898708214
-0.17251314256378278   -0.032046195156217754   -0.02989033898708214
-0.17251314256378278   -0.032046195156217754   -0.02989033898708214
-0.17251314256378278   -0.032046195156217754   -0.02989033898708214
-0.1369483845200896   0.04331071606020076   0.007492374258155857
-0.1369483845200896   0.04331071606020076   0.007492374258155857
-0.1369483845200896   0.04331071606020076   0.007492374258155857
-0.1369483845200896   0.04331071606020076   0.007492374258155857
0.07318372308502546   0.043039881744431865   -0.023485156370050903
0.07318372308502546   0.043039881744431865   -0.023485156370050903
0.07318372308502546   0.043039881744431865   -0.023485156370050903
0.07318372308502546   0.043039881744431865   -0.023485156370050903
-0.04138104646221363   0.02756304711124495   0.01055037171817045
-0.04138104646221363   0.02756304711124495   0.01055037171817045
-0.04138104646221363   0.02756304711124495   0.01055037171817045
-0.04138104646221363   0.02756304711124495   0.01055037171817045
-0.18749756521879904   -0.014785407425473504   0.013832772871805316
-0.18749756521879904   -0.014785407425473504   0.013832772871805316
-0.18749756521879904   -0.014785407425473504   0.013832772871805316
-0.18749756521879904   -0.014785407425473504   0.013832772871805316
-0.4036095574538361   -0.0548725869586128   0.0035444483901473254
-0.4036095574538361   -0.0548725869586128   0.0035444483901473254
-0.4036095574538361   -0.0548725869586128   0.0035444483901473254
-0.4036095574538361   -0.0548725869586128   0.0035444483901473254
-0.38810276299397833   -0.034413355823656955   -0.007601281278131922
-0.38810276299397833   -0.034413355823656955   -0.007601281278131922
-0.38810276299397833   -0.034413355823656955   -0.007601281278131922
-0.38810276299397833   -0.034413355823656955   -0.007601281278131922
-0.16917622537467006   0.014327834641337849   0.008568216943918865
-0.16917622537467006   0.014327834641337849   0.008568216943918865
-0.16917622537467006   0.014327834641337849   0.008568216943918865
-0.16917622537467006   0.014327834641337849   0.008568216943918865
-0.28751573228117766   -0.020602348847988096   -0.0075475833951560035
-0.28751573228117766   -0.020602348847988096   -0.0075475833951560035
-0.28751573228117766   -0.020602348847988096   -0.0075475833951560035
-0.28751573228117766   -0.020602348847988096   -0.0075475833951560035
-0.16939269557657005   0.01267637835883538   0.009137322216921435
-0.16939269557657005   0.01267637835883538   0.009137322216921435
-0.16939269557657005   0.01267637835883538   0.009137322216921435
-0.16939269557657005   0.01267637835883538   0.009137322216921435
-0.38640614061359313   -0.03128174736266925   -0.0022497778371935433
-0.38640614061359313   -0.03128174736266925   -0.0022497778371935433
-0.38640614061359313   -0.03128174736266925   -0.0022497778371935433
-0.38640614061359313   -0.03128174736266925   -0.0022497778371935433
-0.3694686687807618   -0.00623458849910688   -0.011953250801178233
-0.3694686687807618   -0.00623458849910688   -0.011953250801178233
-0.3694686687807618   -0.00623458849910688   -0.011953250801178233
-0.3694686687807618   -0.00623458849910688   -0.011953250801178233
-0.15163270174666085   0.039308411220610684   0.0031572587217008653
-0.15163270174666085   0.039308411220610684   0.0031572587217008653
-0.15163270174666085   0.039308411220610684   0.0031572587217008653
-0.15163270174666085   0.039308411220610684   0.0031572587217008653
-0.26827504458090173   0.0041463114837728896   0.003914560132524805
-0.26827504458090173   0.0041463114837728896   0.003914560132524805
-0.26827504458090173   0.0041463114837728896   0.003914560132524805
-0.26827504458090173   0.0041463114837728896   0.003914560132524805
-0.15117601099252168   0.040637014967815244   0.004112108745192335
-0.15117601099252168   0.040637014967815244   0.004112108745192335
-0.15117601099252168   0.040637014967815244   0.004112108745192335
-0.15117601099252168   0.040637014967815244   0.004112108745192335
-0.36874165219313576   -0.006379484904551938   -0.008173271457606691
-0.36874165219313576   -0.006379484904551938   -0.008173271457606691
-0.36874165219313576   -0.006379484904551938   -0.008173271457606691
-0.36874165219313576   -0.006379484904551938   -0.008173271457606691
-0.3515862339034443   0.02202307570597596   -0.016916900959882835
-0.3515862339034443   0.02202307570597596   -0.016916900959882835
-0.3515862339034443   0.02202307570597596   -0.016916900959882835
-0.3515862339034443   0.02202307570597596   -0.016916900959882835
-0.1348517711641803   0.06436248564485239   -0.0030763285469476154
-0.1348517711641803   0.06436248564485239   -0.0030763285469476154
-0.1348517711641803   0.06436248564485239   -0.0030763285469476154
-0.1348517711641803   0.06436248564485239   -0.0030763285469476154
-0.25003985623899183   0.02882765981773598   0.014628540682878236
-0.25003985623899183   0.02882765981773598   0.014628540682878236
-0.25003985623899183   0.02882765981773598   0.014628540682878236
-0.25003985623899183   0.02882765981773598   0.014628540682878236
-0.4033802561064934   -0.038672935913204684   -0.011508695918544108
-0.4033802561064934   -0.038672935913204684   -0.011508695918544108
-0.4033802561064934   -0.038672935913204684   -0.011508695918544108
-0.4033802561064934   -0.038672935913204684   -0.011508695918544108
-0.5990647533585726   -0.033913027910776744   0.02383802353438156
-0.5990647533585726   -0.033913027910776744   0.02383802353438156
-0.5990647533585726   -0.033913027910776744   0.02383802353438156
-0.5990647533585726   -0.033913027910776744   0.02383802353438156
-0.5993051766555333   -0.05711637729390348   -0.03215713054252099
-0.5993051766555333   -0.05711637729390348   -0.03215713054252099
-0.5993051766555333   -0.05711637729390348   -0.03215713054252099
-0.5993051766555333   -0.05711637729390348   -0.03215713054252099
-0.3665777095215538   0.036404412410006706   0.029206217850327308
-0.3665777095215538   0.036404412410006706   0.029206217850327308
-0.3665777095215538   0.036404412410006706   0.029206217850327308
-0.3665777095215538   0.036404412410006706   0.029206217850327308
-0.48932810108772784   -0.020933788577054663   -0.0031816066118197997
-0.48932810108772784   -0.020933788577054663   -0.0031816066118197997
-0.48932810108772784   -0.020933788577054663   -0.0031816066118197997
-0.48932810108772784   -0.020933788577054663   -0.0031816066118197997
-0.38512107152610797   -0.011057805093339104   -0.01604837466909392
-0.38512107152610797   -0.011057805093339104   -0.01604837466909392
-0.38512107152610797   -0.011057805093339104   -0.01604837466909392
-0.38512107152610797   -0.011057805093339104   -0.01604837466909392
-0.5795368198686007   -0.008429165008182693   0.01799744110642728
-0.5795368198686007   -0.008429165008182693   0.01799744110642728
-0.5795368198686007   -0.008429165008182693   0.01799744110642728
-0.5795368198686007   -0.008429165008182693   0.01799744110642728
-0.5759498883423673   -0.030235290218800517   -0.03578116260037739
-0.5759498883423673   -0.030235290218800517   -0.03578116260037739
-0.5759498883423673   -0.030235290218800517   -0.03578116260037739
-0.5759498883423673   -0.030235290218800517   -0.03578116260037739
-0.34935455315590513   0.0591382080809334   0.02324453074306458
-0.34935455315590513   0.0591382080809334   0.02324453074306458
-0.34935455315590513   0.0591382080809334   0.02324453074306458
-0.34935455315590513   0.0591382080809334   0.02324453074306458
-0.4662410566430341   0.004014832965859291   0.008630517193989933
-0.4662410566430341   0.004014832965859291   0.008630517193989933
-0.4662410566430341   0.004014832965859291   0.008630517193989933
-0.4662410566430341   0.004014832965859291   0.008630517193989933
-0.3672827091759607   0.014335641566083343   -0.021593682842364636
-0.3672827091759607   0.014335641566083343   -0.021593682842364636
-0.3672827091759607   0.014335641566083343   -0.021593682842364636
-0.3672827091759607   0.014335641566083343   -0.021593682842364636
-0.556644425222931   0.015944583395435058   0.014566279382568048
-0.556644425222931   0.015944583395435058   0.014566279382568048
-0.556644425222931   0.015944583395435058   0.014566279382568048
-0.556644425222931   0.015944583395435058   0.014566279382568048
-0.5550574311918355   -0.0009157227049007843   -0.038517491989977004
-0.5550574311918355   -0.0009157227049007843   -0.038517491989977004
-0.5550574311918355   -0.0009157227049007843   -0.038517491989977004
-0.5550574311918355   -0.0009157227049007843   -0.038517491989977004
-0.3323109076676485   0.08424502624722587   0.017237779677846322
-0.3323109076676485   0.08424502624722587   0.017237779677846322
-0.3323109076676485   0.08424502624722587   0.017237779677846322
-0.3323109076676485   0.08424502624722587   0.017237779677846322
-0.44897278834757076   0.027280334710997348   0.01921642398099152
-0.44897278834757076   0.027280334710997348   0.01921642398099152
-0.44897278834757076   0.027280334710997348   0.01921642398099152
-0.44897278834757076   0.027280334710997348   0.01921642398099152
-0.6151564888563316   -0.055524636951075734   -0.03500904491411471
-0.6151564888563316   -0.055524636951075734   -0.03500904491411471
-0.6151564888563316   -0.055524636951075734   -0.03500904491411471
-0.6151564888563316   -0.055524636951075734   -0.03500904491411471
-0.8219151779444526   -0.014536708648019148   0.05168471407438656
-0.8219151779444526   -0.014536708648019148   0.05168471407438656
-0.8219151779444526   -0.014536708648019148   0.05168471407438656
-0.8219151779444526   -0.014536708648019148   0.05168471407438656
-0.8105333182680446   -0.07438508874761385   -0.04673927961000118
-0.8105333182680446   -0.07438508874761385   -0.04673927961000118
-0.8105333182680446   -0.07438508874761385   -0.04673927961000118
-0.8105333182680446   -0.07438508874761385   -0.04673927961000118
-0.5589528035505946   0.061537782175114575   0.050950575513155044
-0.5589528035505946   0.061537782175114575   0.050950575513155044
-0.5589528035505946   0.061537782175114575   0.050950575513155044
-0.5589528035505946   0.061537782175114575   0.050950575513155044
-0.6713871561820479   -0.011920820434389412   0.005596550731147253
-0.6713871561820479   -0.011920820434389412   0.005596550731147253
-0.6713871561820479   -0.011920820434389412   0.005596550731147253
-0.6713871561820479   -0.011920820434389412   0.005596550731147253
-0.5953546101147624   -0.029921355184558796   -0.03959931994800808
-0.5953546101147624   -0.029921355184558796   -0.03959931994800808
-0.5953546101147624   -0.029921355184558796   -0.03959931994800808
-0.5953546101147624   -0.029921355184558796   -0.03959931994800808
-0.7730188047495397   0.01818675556638963   0.048261443668506196
-0.7730188047495397   0.01818675556638963   0.048261443668506196
-0.7730188047495397   0.01818675556638963   0.048261443668506196
-0.7730188047495397   0.01818675556638963   0.048261443668506196
-0.773554156207219   -0.058439222351312076   -0.055633311667846665
-0.773554156207219   -0.058439222351312076   -0.055633311667846665
-0.773554156207219   -0.058439222351312076   -0.055633311667846665
-0.773554156207219   -0.058439222351312076   -0.055633311667846665
-0.5399407456329376   0.07202230981064126   0.042006950917324336
-0.5399407456329376   0.07202230981064126   0.042006950917324336
-0.5399407456329376   0.07202230981064126   0.042006950917324336
-0.5399407456329376   0.07202230981064126   0.042006950917324336
-0.650455727367309   0.0048168796206649045   0.015133249022911147
-0.650455727367309   0.0048168796206649045   0.015133249022911147
-0.650455727367309   0.0048168796206649045   0.015133249022911147
-0.650455727367309   0.0048168796206649045   0.015133249022911147
-0.5752530503058505   -0.016798992803994925   -0.04573326983259883
-0.5752530503058505   -0.016798992803994925   -0.04573326983259883
-0.5752530503058505   -0.016798992803994925   -0.04573326983259883
-0.5752530503058505   -0.016798992803994925   -0.04573326983259883
-0.736881865382359   0.03174206641526639   0.03754685368987142
-0.736881865382359   0.03174206641526639   0.03754685368987142
-0.736881865382359   0.03174206641526639   0.03754685368987142
-0.736881865382359   0.03174206641526639   0.03754685368987142
-0.7279783973912841   -0.034637813723505106   -0.06204785020825096
-0.7279783973912841   -0.034637813723505106   -0.06204785020825096
-0.7279783973912841   -0.034637813723505106   -0.06204785020825096
-0.7279783973912841   -0.034637813723505106   -0.06204785020825096
-0.523239906785103   0.08466345078978102   0.03499095654900283
-0.523239906785103   0.08466345078978102   0.03499095654900283
-0.523239906785103   0.08466345078978102   0.03499095654900283
-0.523239906785103   0.08466345078978102   0.03499095654900283
-0.6111644255009792   0.0204895447667649   0.02857401749890562
-0.6111644255009792   0.0204895447667649   0.02857401749890562
-0.6111644255009792   0.0204895447667649   0.02857401749890562
-0.6111644255009792   0.0204895447667649   0.02857401749890562
0.6516919033255123   0.05923178759550775   0.056458502407367536
0.6516919033255123   0.05923178759550775   0.056458502407367536
0.6516919033255123   0.05923178759550775   0.056458502407367536
0.6516919033255123   0.05923178759550775   0.056458502407367536
0.23859253555940796   -0.108183555505369   -0.03715907528662571
0.23859253555940796   -0.108183555505369   -0.03715907528662571
0.23859253555940796   -0.108183555505369   -0.03715907528662571
0.23859253555940796   -0.108183555505369   -0.03715907528662571
0.2945002581968873   -0.000710434707874158   0.04061436122582996
0.2945002581968873   -0.000710434707874158   0.04061436122582996
0.2945002581968873   -0.000710434707874158   0.04061436122582996
0.2945002581968873   -0.000710434707874158   0.04061436122582996
0.6634471535655172   -0.014896649955960461   -0.04744563032848372
0.6634471535655172   -0.014896649955960461   -0.04744563032848372
0.6634471535655172   -0.014896649955960461   -0.04744563032848372
0.6634471535655172   -0.014896649955960461   -0.04744563032848372
0.4336385656575936   -0.019542086158446353   -0.04183235093180017
0.4336385656575936   -0.019542086158446353   -0.04183235093180017
0.4336385656575936   -0.019542086158446353   -0.04183235093180017
0.4336385656575936   -0.019542086158446353   -0.04183235093180017
0.7022357416694107   0.08252826815705638   0.04907239207795946
0.7022357416694107   0.08252826815705638   0.04907239207795946
0.7022357416694107   0.08252826815705638   0.04907239207795946
0.7022357416694107   0.08252826815705638   0.04907239207795946
0.2584612520060783   -0.09538577090780721   -0.04490533352827857
0.2584612520060783   -0.09538577090780721   -0.04490533352827857
0.2584612520060783   -0.09538577090780721   -0.04490533352827857
0.2584612520060783   -0.09538577090780721   -0.04490533352827857
0.31652670197330285   0.012065691725966193   0.03348619947049346
0.31652670197330285   0.012065691725966193   0.03348619947049346
0.31652670197330285   0.012065691725966193   0.03348619947049346
0.31652670197330285   0.012065691725966193   0.03348619947049346
0.7036529757771369   -0.0003784965528549067   -0.059750583388952595
0.7036529757771369   -0.0003784965528549067   -0.059750583388952595
0.7036529757771369   -0.0003784965528549067   -0.059750583388952595
0.7036529757771369   -0.0003784965528549067   -0.059750583388952595
0.4756396190775641   -0.003864904393814081   -0.025347456451328926
0.4756396190775641   -0.003864904393814081   -0.025347456451328926
0.4756396190775641   -0.003864904393814081   -0.025347456451328926
0.4756396190775641   -0.003864904393814081   -0.025347456451328926
0.7428679714667707   0.09818823785985996   0.03775766064649434
0.7428679714667707   0.09818823785985996   0.03775766064649434
0.7428679714667707   0.09818823785985996   0.03775766064649434
0.7428679714667707   0.09818823785985996   0.03775766064649434
0.2802335535555356   -0.08357919541487753   -0.052334655477494926
0.2802335535555356   -0.08357919541487753   -0.052334655477494926
0.2802335535555356   -0.08357919541487753   -0.052334655477494926
0.2802335535555356   -0.08357919541487753   -0.052334655477494926
0.3385234116220577   0.04023777687657021   0.029022360363783205
0.3385234116220577   0.04023777687657021   0.029022360363783205
0.3385234116220577   0.04023777687657021   0.029022360363783205
0.3385234116220577   0.04023777687657021   0.029022360363783205
0.7564583689658311   0.03748257966835984   -0.0644488027343804
0.7564583689658311   0.03748257966835984   -0.0644488027343804
0.7564583689658311   0.03748257966835984   -0.0644488027343804
0.7564583689658311   0.03748257966835984   -0.0644488027343804
0.5015133666259445   0.015215765065074743   -0.011097247960519807
0.5015133666259445   0.015215765065074743   -0.011097247960519807
0.5015133666259445   0.015215765065074743   -0.011097247960519807
0.5015133666259445   0.015215765065074743   -0.011097247960519807
0.28333019003629795   0.033186005880970745   0.04515963571148107
0.28333019003629795   0.033186005880970745   0.04515963571148107
0.28333019003629795   0.033186005880970745   0.04515963571148107
0.28333019003629795   0.033186005880970745   0.04515963571148107
-0.13821392972543586   -0.10094715102634146   -0.019472067399019716
-0.13821392972543586   -0.10094715102634146   -0.019472067399019716
-0.13821392972543586   -0.10094715102634146   -0.019472067399019716
-0.13821392972543586   -0.10094715102634146   -0.019472067399019716
-0.09978731565205273   -0.02961035597081485   0.013658360766011787
-0.09978731565205273   -0.02961035597081485   0.013658360766011787
-0.09978731565205273   -0.02961035597081485   0.013658360766011787
-0.09978731565205273   -0.02961035597081485   0.013658360766011787
0.28552015916761286   0.0009502256962484537   -0.005946794324661232
0.28552015916761286   0.0009502256962484537   -0.005946794324661232
0.28552015916761286   0.0009502256962484537   -0.005946794324661232
0.28552015916761286   0.0009502256962484537   -0.005946794324661232
0.07898372025704462   -0.02130522816276257   -0.017811214581372498
0.07898372025704462   -0.02130522816276257   -0.017811214581372498
0.07898372025704462   -0.02130522816276257   -0.017811214581372498
0.07898372025704462   -0.02130522816276257   -0.017811214581372498
0.305961402030616   0.056874703791530326   0.040334941895068914
0.305961402030616   0.056874703791530326   0.040334941895068914
0.305961402030616   0.056874703791530326   0.040334941895068914
0.305961402030616   0.056874703791530326   0.040334941895068914
-0.1185690245189443   -0.08387530006998575   -0.025985239469275077
-0.1185690245189443   -0.08387530006998575   -0.025985239469275077
-0.1185690245189443   -0.08387530006998575   -0.025985239469275077
-0.1185690245189443   -0.08387530006998575   -0.025985239469275077
-0.07926964381930948   -0.005693531247184155   0.00862948181361256
-0.07926964381930948   -0.005693531247184155   0.00862948181361256
-0.07926964381930948   -0.005693531247184155   0.00862948181361256
-0.07926964381930948   -0.005693531247184155   0.00862948181361256
0.30967627132355063   0.022404094525771023   -0.011104356578068453
0.30967627132355063   0.022404094525771023   -0.011104356578068453
0.30967627132355063   0.022404094525771023   -0.011104356578068453
0.30967627132355063   0.022404094525771023   -0.011104356578068453
0.09880295970260265   -0.0024094604971576367   -0.007081051966140327
0.09880295970260265   -0.0024094604971576367   -0.007081051966140327
0.09880295970260265   -0.0024094604971576367   -0.007081051966140327
0.09880295970260265   -0.0024094604971576367   -0.007081051966140327
0.3309360885427918   0.08178456972607359   0.0358142543178307
0.3309360885427918   0.08178456972607359   0.0358142543178307
0.3309360885427918   0.08178456972607359   0.0358142543178307
0.3309360885427918   0.08178456972607359   0.0358142543178307
-0.09886674437878201   -0.063411289787729   -0.031638262443205264
-0.09886674437878201   -0.063411289787729   -0.031638262443205264
-0.09886674437878201   -0.063411289787729   -0.031638262443205264
-0.09886674437878201   -0.063411289787729   -0.031638262443205264
-0.059007961201242146   0.022023503567210865   0.00362463703011171
-0.059007961201242146   0.022023503567210865   0.00362463703011171
-0.059007961201242146   0.022023503567210865   0.00362463703011171
-0.059007961201242146   0.022023503567210865   0.00362463703011171
0.33109187708519   0.04795801353716987   -0.015855548981154564
0.33109187708519   0.04795801353716987   -0.015855548981154564
0.33109187708519   0.04795801353716987   -0.015855548981154564
0.33109187708519   0.04795801353716987   -0.015855548981154564
0.12330615102422798   0.02077129794227427   0.005448627973659538
0.12330615102422798   0.02077129794227427   0.005448627973659538
0.12330615102422798   0.02077129794227427   0.005448627973659538
0.12330615102422798   0.02077129794227427   0.005448627973659538
-0.10884500394909423   0.007213763462985006   0.01921164699336384
-0.10884500394909423   0.007213763462985006   0.01921164699336384
-0.10884500394909423   0.007213763462985006   0.01921164699336384
-0.10884500394909423   0.007213763462985006   0.01921164699336384
-0.5075443857606561   -0.08915637569013071   -0.002587969427910431
-0.5075443857606561   -0.08915637569013071   -0.002587969427910431
-0.5075443857606561   -0.08915637569013071   -0.002587969427910431
-0.5075443857606561   -0.08915637569013071   -0.002587969427910431
-0.48322536717595443   -0.05257966285438912   -0.011920128733431607
-0.48322536717595443   -0.05257966285438912   -0.011920128733431607
-0.48322536717595443   -0.05257966285438912   -0.011920128733431607
-0.48322536717595443   -0.05257966285438912   -0.011920128733431607
-0.09136766158168107   0.013383048926713478   0.012763226220341841
-0.09136766158168107   0.013383048926713478   0.012763226220341841
-0.09136766158168107   0.013383048926713478   0.012763226220341841
-0.09136766158168107   0.013383048926713478   0.012763226220341841
-0.2982680204956379   -0.027398416335489652   -0.011122633312733598
-0.2982680204956379   -0.027398416335489652   -0.011122633312733598
-0.2982680204956379   -0.027398416335489652   -0.011122633312733598
-0.2982680204956379   -0.027398416335489652   -0.011122633312733598
-0.08731003146943599   0.031895262646047536   0.014539163062233214
-0.08731003146943599   0.031895262646047536   0.014539163062233214
-0.08731003146943599   0.031895262646047536   0.014539163062233214
-0.08731003146943599   0.031895262646047536   0.014539163062233214
-0.4861713822876838   -0.06998026157320746   -0.009249605573260076
-0.4861713822876838   -0.06998026157320746   -0.009249605573260076
-0.4861713822876838   -0.06998026157320746   -0.009249605573260076
-0.4861713822876838   -0.06998026157320746   -0.009249605573260076
-0.4606098187465331   -0.026338850752041343   -0.016101934141656345
-0.4606098187465331   -0.026338850752041343   -0.016101934141656345
-0.4606098187465331   -0.026338850752041343   -0.016101934141656345
-0.4606098187465331   -0.026338850752041343   -0.016101934141656345
-0.07139842511150835   0.03505675306602071   0.007235291039413404
-0.07139842511150835   0.03505675306602071   0.007235291039413404
-0.07139842511150835   0.03505675306602071   0.007235291039413404
-0.07139842511150835   0.03505675306602071   0.007235291039413404
-0.27545627488438895   -0.005444431919439788   -0.0001685803063455303
-0.27545627488438895   -0.005444431919439788   -0.0001685803063455303
-0.27545627488438895   -0.005444431919439788   -0.0001685803063455303
-0.27545627488438895   -0.005444431919439788   -0.0001685803063455303
-0.06650064092996112   0.057549637201870424   0.009231327811299829
-0.06650064092996112   0.057549637201870424   0.009231327811299829
-0.06650064092996112   0.057549637201870424   0.009231327811299829
-0.06650064092996112   0.057549637201870424   0.009231327811299829
-0.4644757513851932   -0.047799883344998836   -0.01397056474199945
-0.4644757513851932   -0.047799883344998836   -0.01397056474199945
-0.4644757513851932   -0.047799883344998836   -0.01397056474199945
-0.4644757513851932   -0.047799883344998836   -0.01397056474199945
-0.43955688959902656   -0.00018266325448147713   -0.021096954608770757
-0.43955688959902656   -0.00018266325448147713   -0.021096954608770757
-0.43955688959902656   -0.00018266325448147713   -0.021096954608770757
-0.43955688959902656   -0.00018266325448147713   -0.021096954608770757
-0.05234224657613255   0.05718984887333464   0.0017868648495377379
-0.05234224657613255   0.05718984887333464   0.0017868648495377379
-0.05234224657613255   0.05718984887333464   0.0017868648495377379
-0.05234224657613255   0.05718984887333464   0.0017868648495377379
-0.2545036860439128   0.016427613324534227   0.01025367928773823
-0.2545036860439128   0.016427613324534227   0.01025367928773823
-0.2545036860439128   0.016427613324534227   0.01025367928773823
-0.2545036860439128   0.016427613324534227   0.01025367928773823
-0.49455801989486026   -0.01928482423560164   -0.007527691553455264
-0.49455801989486026   -0.01928482423560164   -0.007527691553455264
-0.49455801989486026   -0.01928482423560164   -0.007527691553455264
-0.49455801989486026   -0.01928482423560164   -0.007527691553455264
-0.8685695682279666   -0.07227778419156636   0.01668565607709431
-0.8685695682279666   -0.07227778419156636   0.01668565607709431
-0.8685695682279666   -0.07227778419156636   0.01668565607709431
-0.8685695682279666   -0.07227778419156636   0.01668565607709431
-0.8567999451276007   -0.07465266680075205   -0.03585694259741951
-0.8567999451276007   -0.07465266680075205   -0.03585694259741951
-0.8567999451276007   -0.07465266680075205   -0.03585694259741951
-0.8567999451276007   -0.07465266680075205   -0.03585694259741951
-0.4571812245943193   0.03367081948081291   0.03205010183954604
-0.4571812245943193   0.03367081948081291   0.03205010183954604
-0.4571812245943193   0.03367081948081291   0.03205010183954604
-0.4571812245943193   0.03367081948081291   0.03205010183954604
-0.6646473159025807   -0.028970959531273502   -0.0038806299116058325
-0.6646473159025807   -0.028970959531273502   -0.0038806299116058325
-0.6646473159025807   -0.028970959531273502   -0.0038806299116058325
-0.6646473159025807   -0.028970959531273502   -0.0038806299116058325
-0.47114864581423715   0.007354787187965395   -0.011470971967195813
-0.47114864581423715   0.007354787187965395   -0.011470971967195813
-0.47114864581423715   0.007354787187965395   -0.011470971967195813
-0.47114864581423715   0.007354787187965395   -0.011470971967195813
-0.8427660551760283   -0.048270165776248986   0.007930006135945494
-0.8427660551760283   -0.048270165776248986   0.007930006135945494
-0.8427660551760283   -0.048270165776248986   0.007930006135945494
-0.8427660551760283   -0.048270165776248986   0.007930006135945494
-0.8272373912327591   -0.04901941012083735   -0.03966072218893531
-0.8272373912327591   -0.04901941012083735   -0.03966072218893531
-0.8272373912327591   -0.04901941012083735   -0.03966072218893531
-0.8272373912327591   -0.04901941012083735   -0.03966072218893531
-0.43613124020967464   0.054331360528013656   0.025620747262585612
-0.43613124020967464   0.054331360528013656   0.025620747262585612
-0.43613124020967464   0.054331360528013656   0.025620747262585612
-0.43613124020967464   0.054331360528013656   0.025620747262585612
-0.6345625908086359   -0.004707897789979598   0.00710857117242307
-0.6345625908086359   -0.004707897789979598   0.00710857117242307
-0.6345625908086359   -0.004707897789979598   0.00710857117242307
-0.6345625908086359   -0.004707897789979598   0.00710857117242307
-0.4492431884849286   0.03115837345781758   -0.016766007043490974
-0.4492431884849286   0.03115837345781758   -0.016766007043490974
-0.4492431884849286   0.03115837345781758   -0.016766007043490974
-0.4492431884849286   0.03115837345781758   -0.016766007043490974
-0.8134221744610795   -0.02514315455421609   0.005539106102841633
-0.8134221744610795   -0.02514315455421609   0.005539106102841633
-0.8134221744610795   -0.02514315455421609   0.005539106102841633
-0.8134221744610795   -0.02514315455421609   0.005539106102841633
-0.800804249889151   -0.021241790186038   -0.04170296026697055
-0.800804249889151   -0.021241790186038   -0.04170296026697055
-0.800804249889151   -0.021241790186038   -0.04170296026697055
-0.800804249889151   -0.021241790186038   -0.04170296026697055
-0.41574386814859265   0.07704141734550031   0.020744072043420506
-0.41574386814859265   0.07704141734550031   0.020744072043420506
-0.41574386814859265   0.07704141734550031   0.020744072043420506
-0.41574386814859265   0.07704141734550031   0.020744072043420506
-0.6142405920892893   0.01602878629451568   0.016586191026756188
-0.6142405920892893   0.01602878629451568   0.016586191026756188
-0.6142405920892893   0.01602878629451568   0.016586191026756188
-0.6142405920892893   0.01602878629451568   0.016586191026756188
-0.8721837795850113   -0.04138334064245608   -0.03227984425723936
-0.8721837795850113   -0.04138334064245608   -0.03227984425723936
-0.8721837795850113   -0.04138334064245608   -0.03227984425723936
-0.8721837795850113   -0.04138334064245608   -0.03227984425723936
-1.2433190344259262   -0.044868962375659766   0.0559240623718981
-1.2433190344259262   -0.044868962375659766   0.0559240623718981
-1.2433190344259262   -0.044868962375659766   0.0559240623718981
-1.2433190344259262   -0.044868962375659766   0.0559240623718981
-1.2195618002286033   -0.08933498541008966   -0.042804265734857655
-1.2195618002286033   -0.08933498541008966   -0.042804265734857655
-1.2195618002286033   -0.08933498541008966   -0.042804265734857655
-1.2195618002286033   -0.08933498541008966   -0.042804265734857655
-0.8094322793690717   0.06946670725607346   0.056862012138400496
-0.8094322793690717   0.06946670725607346   0.056862012138400496
-0.8094322793690717   0.06946670725607346   0.056862012138400496
-0.8094322793690717   0.06946670725607346   0.056862012138400496
-0.9901602282284618   -0.012236837362636838   0.011521803644089265
-0.9901602282284618   -0.012236837362636838   0.011521803644089265
-0.9901602282284618   -0.012236837362636838   0.011521803644089265
-0.9901602282284618   -0.012236837362636838   0.011521803644089265
-0.8444620075354108   -0.012931798343269546   -0.0358881230939494
-0.8444620075354108   -0.012931798343269546   -0.0358881230939494
-0.8444620075354108   -0.012931798343269546   -0.0358881230939494
-0.8444620075354108   -0.012931798343269546   -0.0358881230939494
-1.1839466533854952   -0.006351061133974267   0.05228754420455503
-1.1839466533854952   -0.006351061133974267   0.05228754420455503
-1.1839466533854952   -0.006351061133974267   0.05228754420455503
-1.1839466533854952   -0.006351061133974267   0.05228754420455503
-1.1747901466590749   -0.07343228723269449   -0.05041663327321692
-1.1747901466590749   -0.07343228723269449   -0.05041663327321692
-1.1747901466590749   -0.07343228723269449   -0.05041663327321692
-1.1747901466590749   -0.07343228723269449   -0.05041663327321692
-0.784633407963232   0.07927434608675693   0.04506543795110596
-0.784633407963232   0.07927434608675693   0.04506543795110596
-0.784633407963232   0.07927434608675693   0.04506543795110596
-0.784633407963232   0.07927434608675693   0.04506543795110596
-0.9671214908582513   0.005124164630875672   0.020655505135010577
-0.9671214908582513   0.005124164630875672   0.020655505135010577
-0.9671214908582513   0.005124164630875672   0.020655505135010577
-0.9671214908582513   0.005124164630875672   0.020655505135010577
-0.8176917062726069   -9.967833546647986e-05   -0.040852029173545086
-0.8176917062726069   -9.967833546647986e-05   -0.040852029173545086
-0.8176917062726069   -9.967833546647986e-05   -0.040852029173545086
-0.8176917062726069   -9.967833546647986e-05   -0.040852029173545086
-1.1411467583559707   0.006526827183259976   0.03784119382632918
-1.1411467583559707   0.006526827183259976   0.03784119382632918
-1.1411467583559707   0.006526827183259976   0.03784119382632918
-1.1411467583559707   0.006526827183259976   0.03784119382632918
-1.1258352127369728   -0.05434609117001499   -0.05746144729810726
-1.1258352127369728   -0.05434609117001499   -0.05746144729810726
-1.1258352127369728   -0.05434609117001499   -0.05746144729810726
-1.1258352127369728   -0.05434609117001499   -0.05746144729810726
-0.7628485162335648   0.08845954097144584   0.03837437685347696
-0.7628485162335648   0.08845954097144584   0.03837437685347696
-0.7628485162335648   0.08845954097144584   0.03837437685347696
-0.7628485162335648   0.08845954097144584   0.03837437685347696
-0.917704126093542   0.019549443789282306   0.0344771959083337
-0.917704126093542   0.019549443789282306   0.0344771959083337
-0.917704126093542   0.019549443789282306   0.0344771959083337
-0.917704126093542   0.019549443789282306   0.0344771959083337
1.093159441990274   0.08172590865382023   0.05782133907842379
1.093159441990274   0.08172590865382023   0.05782133907842379
1.093159441990274   0.08172590865382023   0.05782133907842379
1.093159441990274   0.08172590865382023   0.05782133907842379
0.4820549361056804   -0.12857028323929467   -0.026609771112775592
0.4820549361056804   -0.12857028323929467   -0.026609771112775592
0.4820549361056804   -0.12857028323929467   -0.026609771112775592
0.4820549361056804   -0.12857028323929467   -0.026609771112775592
0.5373877795504471   -0.022679231011194317   0.03970083841041707
0.5373877795504471   -0.022679231011194317   0.03970083841041707
0.5373877795504471   -0.022679231011194317   0.03970083841041707
0.5373877795504471   -0.022679231011194317   0.03970083841041707
1.1051517647854525   -0.0018566950841482355   -0.041680916391238325
1.1051517647854525   -0.0018566950841482355   -0.041680916391238325
1.1051517647854525   -0.0018566950841482355   -0.041680916391238325
1.1051517647854525   -0.0018566950841482355   -0.041680916391238325
0.7573282904904941   -0.022892232852705918   -0.05917552800856822
0.7573282904904941   -0.022892232852705918   -0.05917552800856822
0.7573282904904941   -0.022892232852705918   -0.05917552800856822
0.7573282904904941   -0.022892232852705918   -0.05917552800856822
1.1435929762458188   0.10029610817590359   0.04837233765053473
1.1435929762458188   0.10029610817590359   0.04837233765053473
1.1435929762458188   0.10029610817590359   0.04837233765053473
1.1435929762458188   0.10029610817590359   0.04837233765053473
0.5026396717863884   -0.12113893057493841   -0.035580000846125066
0.5026396717863884   -0.12113893057493841   -0.035580000846125066
0.5026396717863884   -0.12113893057493841   -0.035580000846125066
0.5026396717863884   -0.12113893057493841   -0.035580000846125066
0.559000009386943   -0.010940686174179176   0.03209143489462
0.559000009386943   -0.010940686174179176   0.03209143489462
0.559000009386943   -0.010940686174179176   0.03209143489462
0.559000009386943   -0.010940686174179176   0.03209143489462
1.1429588623684162   0.011084274479260081   -0.05206212862575829
1.1429588623684162   0.011084274479260081   -0.05206212862575829
1.1429588623684162   0.011084274479260081   -0.05206212862575829
1.1429588623684162   0.011084274479260081   -0.05206212862575829
0.8048315557069541   -0.009067534265244231   -0.04026234859443033
0.8048315557069541   -0.009067534265244231   -0.04026234859443033
0.8048315557069541   -0.009067534265244231   -0.04026234859443033
0.8048315557069541   -0.009067534265244231   -0.04026234859443033
1.1811727125830982   0.11424487239292522   0.035846524533986866
1.1811727125830982   0.11424487239292522   0.035846524533986866
1.1811727125830982   0.11424487239292522   0.035846524533986866
1.1811727125830982   0.11424487239292522   0.035846524533986866
0.5240169855044894   -0.11087045775561594   -0.0428939129362117
0.5240169855044894   -0.11087045775561594   -0.0428939129362117
0.5240169855044894   -0.11087045775561594   -0.0428939129362117
0.5240169855044894   -0.11087045775561594   -0.0428939129362117
0.5785818245207788   0.020424165506178524   0.028135670899765295
0.5785818245207788   0.020424165506178524   0.028135670899765295
0.5785818245207788   0.020424165506178524   0.028135670899765295
0.5785818245207788   0.020424165506178524   0.028135670899765295
1.1894857278261461   0.048954326514173474   -0.05451372056683647
1.1894857278261461   0.048954326514173474   -0.05451372056683647
1.1894857278261461   0.048954326514173474   -0.05451372056683647
1.1894857278261461   0.048954326514173474   -0.05451372056683647
0.822542721589054   0.00955460856366333   -0.027180199454217784
0.822542721589054   0.00955460856366333   -0.027180199454217784
0.822542721589054   0.00955460856366333   -0.027180199454217784
0.822542721589054   0.00955460856366333   -0.027180199454217784
0.5332536013904159   0.0478361859091279   0.05297708616247527
0.5332536013904159   0.0478361859091279   0.05297708616247527
0.5332536013904159   0.0478361859091279   0.05297708616247527
0.5332536013904159   0.0478361859091279   0.05297708616247527
-0.06622754185904503   -0.15834674936760176   -0.015163203737766341
-0.06622754185904503   -0.15834674936760176   -0.015163203737766341
-0.06622754185904503   -0.15834674936760176   -0.015163203737766341
-0.06622754185904503   -0.15834674936760176   -0.015163203737766341
-0.01860096742642639   -0.05599651010876777   0.013440653244296915
-0.01860096742642639   -0.05599651010876777   0.013440653244296915
-0.01860096742642639   -0.05599651010876777   0.013440653244296915
-0.01860096742642639   -0.05599651010876777   0.013440653244296915
0.5287219055277853   -0.028954535111325425   0.00264677239723924
0.5287219055277853   -0.028954535111325425   0.00264677239723924
0.5287219055277853   -0.028954535111325425   0.00264677239723924
0.5287219055277853   -0.028954535111325425   0.00264677239723924
0.2376657050483556   -0.04406483821668126   -0.028171090744977145
0.2376657050483556   -0.04406483821668126   -0.028171090744977145
0.2376657050483556   -0.04406483821668126   -0.028171090744977145
0.2376657050483556   -0.04406483821668126   -0.028171090744977145
0.5565135986839258   0.06572367756480599   0.046927025501813574
0.5565135986839258   0.06572367756480599   0.046927025501813574
0.5565135986839258   0.06572367756480599   0.046927025501813574
0.5565135986839258   0.06572367756480599   0.046927025501813574
-0.04444340908283691   -0.14872547128516866   -0.02304259386135475
-0.04444340908283691   -0.14872547128516866   -0.02304259386135475
-0.04444340908283691   -0.14872547128516866   -0.02304259386135475
-0.04444340908283691   -0.14872547128516866   -0.02304259386135475
0.0034359811642400723   -0.03498429984813723   0.008193961711731498
0.0034359811642400723   -0.03498429984813723   0.008193961711731498
0.0034359811642400723   -0.03498429984813723   0.008193961711731498
0.0034359811642400723   -0.03498429984813723   0.008193961711731498
0.5512993479982431   -0.013110232278576883   -0.004242325944482192
0.5512993479982431   -0.013110232278576883   -0.004242325944482192
0.5512993479982431   -0.013110232278576883   -0.004242325944482192
0.5512993479982431   -0.013110232278576883   -0.004242325944482192
0.2567967608543928   -0.03116124734286895   -0.018255508709491754
0.2567967608543928   -0.03116124734286895   -0.018255508709491754
0.2567967608543928   -0.03116124734286895   -0.018255508709491754
0.2567967608543928   -0.03116124734286895   -0.018255508709491754
0.5805843397340188   0.0871842163455352   0.04188818411028426
0.5805843397340188   0.0871842163455352   0.04188818411028426
0.5805843397340188   0.0871842163455352   0.04188818411028426
0.5805843397340188   0.0871842163455352   0.04188818411028426
-0.02468686177178356   -0.134116599672487   -0.03328795314403689
-0.02468686177178356   -0.134116599672487   -0.03328795314403689
-0.02468686177178356   -0.134116599672487   -0.03328795314403689
-0.02468686177178356   -0.134116599672487   -0.03328795314403689
0.02073607325164018   -0.010363672526275196   0.0028918245351699356
0.02073607325164018   -0.010363672526275196   0.0028918245351699356
0.02073607325164018   -0.010363672526275196   0.0028918245351699356
0.02073607325164018   -0.010363672526275196   0.0028918245351699356
0.5681987382087135   0.007106563074881292   -0.010462158229267809
0.5681987382087135   0.007106563074881292   -0.010462158229267809
0.5681987382087135   0.007106563074881292   -0.010462158229267809
0.5681987382087135   0.007106563074881292   -0.010462158229267809
0.280262002967417   -0.01185571001472207   -0.007609484981709758
0.280262002967417   -0.01185571001472207   -0.007609484981709758
0.280262002967417   -0.01185571001472207   -0.007609484981709758
0.280262002967417   -0.01185571001472207   -0.007609484981709758
-0.023575544681381507   0.01342082747324171   0.026329205309707785
-0.023575544681381507   0.01342082747324171   0.026329205309707785
-0.023575544681381507   0.01342082747324171   0.026329205309707785
-0.023575544681381507   0.01342082747324171   0.026329205309707785
-0.6102643354771915   -0.1986557130126845   -0.012175132905292704
-0.6102643354771915   -0.1986557130126845   -0.012175132905292704
-0.6102643354771915   -0.1986557130126845   -0.012175132905292704
-0.6102643354771915   -0.1986557130126845   -0.012175132905292704
-0.562123846281837   -0.08589099014188557   -0.012850784422497572
-0.562123846281837   -0.08589099014188557   -0.012850784422497572
-0.562123846281837   -0.08589099014188557   -0.012850784422497572
-0.562123846281837   -0.08589099014188557   -0.012850784422497572
-0.02130654255435491   -0.06797839875067124   0.01189466624655779
-0.02130654255435491   -0.06797839875067124   0.01189466624655779
-0.02130654255435491   -0.06797839875067124   0.01189466624655779
-0.02130654255435491   -0.06797839875067124   0.01189466624655779
-0.30569560653094086   -0.08023067835798635   -0.02515677831977513
-0.30569560653094086   -0.08023067835798635   -0.02515677831977513
-0.30569560653094086   -0.08023067835798635   -0.02515677831977513
-0.30569560653094086   -0.08023067835798635   -0.02515677831977513
0.0009023270092676046   0.03356377038636222   0.021396844927636896
0.0009023270092676046   0.03356377038636222   0.021396844927636896
0.0009023270092676046   0.03356377038636222   0.021396844927636896
0.0009023270092676046   0.03356377038636222   0.021396844927636896
-0.5829238644285548   -0.18602430786201954   -0.016717557435953115
-0.5829238644285548   -0.18602430786201954   -0.016717557435953115
-0.5829238644285548   -0.18602430786201954   -0.016717557435953115
-0.5829238644285548   -0.18602430786201954   -0.016717557435953115
-0.5347879839270171   -0.06256624127319477   -0.017490121841124563
-0.5347879839270171   -0.06256624127319477   -0.017490121841124563
-0.5347879839270171   -0.06256624127319477   -0.017490121841124563
-0.5347879839270171   -0.06256624127319477   -0.017490121841124563
-0.0007788571549582415   -0.05274995042804334   0.004885420695646046
-0.0007788571549582415   -0.05274995042804334   0.004885420695646046
-0.0007788571549582415   -0.05274995042804334   0.004885420695646046
-0.0007788571549582415   -0.05274995042804334   0.004885420695646046
-0.2791590804062503   -0.06345747795461117   -0.013958900463730814
-0.2791590804062503   -0.06345747795461117   -0.013958900463730814
-0.2791590804062503   -0.06345747795461117   -0.013958900463730814
-0.2791590804062503   -0.06345747795461117   -0.013958900463730814
0.02330081095461538   0.055880253528709   0.016653557286761815
0.02330081095461538   0.055880253528709   0.016653557286761815
0.02330081095461538   0.055880253528709   0.016653557286761815
0.02330081095461538   0.055880253528709   0.016653557286761815
-0.5588695573935262   -0.1711983505868819   -0.02926587985997884
-0.5588695573935262   -0.1711983505868819   -0.02926587985997884
-0.5588695573935262   -0.1711983505868819   -0.02926587985997884
-0.5588695573935262   -0.1711983505868819   -0.02926587985997884
-0.515469142016014   -0.04032787127540427   -0.022674840454244692
-0.515469142016014   -0.04032787127540427   -0.022674840454244692
-0.515469142016014   -0.04032787127540427   -0.022674840454244692
-0.515469142016014   -0.04032787127540427   -0.022674840454244692
0.012696157646439542   -0.04056949724267958   -0.007101928774430786
0.012696157646439542   -0.04056949724267958   -0.007101928774430786
0.012696157646439542   -0.04056949724267958   -0.007101928774430786
0.012696157646439542   -0.04056949724267958   -0.007101928774430786
-0.25969712418703944   -0.047807671130630135   -0.006939977497574659
-0.25969712418703944   -0.047807671130630135   -0.006939977497574659
-0.25969712418703944   -0.047807671130630135   -0.006939977497574659
-0.25969712418703944   -0.047807671130630135   -0.006939977497574659
-0.5715393011315348   -0.016374997354698828   -0.0008306768349998078
-0.5715393011315348   -0.016374997354698828   -0.0008306768349998078
-0.5715393011315348   -0.016374997354698828   -0.0008306768349998078
-0.5715393011315348   -0.016374997354698828   -0.0008306768349998078
-1.1568795502065128   -0.2135786277025883   -0.009772130232554258
-1.1568795502065128   -0.2135786277025883   -0.009772130232554258
-1.1568795502065128   -0.2135786277025883   -0.009772130232554258
-1.1568795502065128   -0.2135786277025883   -0.009772130232554258
-1.10521959917806   -0.10998399422788843   -0.038185592120189196
-1.10521959917806   -0.10998399422788843   -0.038185592120189196
-1.10521959917806   -0.10998399422788843   -0.038185592120189196
-1.10521959917806   -0.10998399422788843   -0.038185592120189196
-0.5514647111867738   -0.07063502803700056   0.02518892894792764
-0.5514647111867738   -0.07063502803700056   0.02518892894792764
-0.5514647111867738   -0.07063502803700056   0.02518892894792764
-0.5514647111867738   -0.07063502803700056   0.02518892894792764
-0.8388737250318268   -0.09648876670786807   -0.017726626534801476
-0.8388737250318268   -0.09648876670786807   -0.017726626534801476
-0.8388737250318268   -0.09648876670786807   -0.017726626534801476
-0.8388737250318268   -0.09648876670786807   -0.017726626534801476
-0.5413400550680992   0.009553724432501298   -0.004376542928201402
-0.5413400550680992   0.009553724432501298   -0.004376542928201402
-0.5413400550680992   0.009553724432501298   -0.004376542928201402
-0.5413400550680992   0.009553724432501298   -0.004376542928201402
-1.1157785469493073   -0.19060703834995624   -0.010357286854348058
-1.1157785469493073   -0.19060703834995624   -0.010357286854348058
-1.1157785469493073   -0.19060703834995624   -0.010357286854348058
-1.1157785469493073   -0.19060703834995624   -0.010357286854348058
-1.0661330263295559   -0.08563647618373102   -0.04421665017625646
-1.0661330263295559   -0.08563647618373102   -0.04421665017625646
-1.0661330263295559   -0.08563647618373102   -0.04421665017625646
-1.0661330263295559   -0.08563647618373102   -0.04421665017625646
-0.5249259073293463   -0.052360729735211456   0.021614749609250212
-0.5249259073293463   -0.052360729735211456   0.021614749609250212
-0.5249259073293463   -0.052360729735211456   0.021614749609250212
-0.5249259073293463   -0.052360729735211456   0.021614749609250212
-0.7986873491609722   -0.07312856404888461   -0.005799035803464147
-0.7986873491609722   -0.07312856404888461   -0.005799035803464147
-0.7986873491609722   -0.07312856404888461   -0.005799035803464147
-0.7986873491609722   -0.07312856404888461   -0.005799035803464147
-0.5139413399708724   0.03206713538044778   -0.007890278714045969
-0.5139413399708724   0.03206713538044778   -0.007890278714045969
-0.5139413399708724   0.03206713538044778   -0.007890278714045969
-0.5139413399708724   0.03206713538044778   -0.007890278714045969
-1.0789912327504496   -0.17193798036180935   -0.022206178102635987
-1.0789912327504496   -0.17193798036180935   -0.022206178102635987
-1.0789912327504496   -0.17193798036180935   -0.022206178102635987
-1.0789912327504496   -0.17193798036180935   -0.022206178102635987
-1.0344401135594252   -0.0599727253193201   -0.04563039586984874
-1.0344401135594252   -0.0599727253193201   -0.04563039586984874
-1.0344401135594252   -0.0599727253193201   -0.04563039586984874
-1.0344401135594252   -0.0599727253193201   -0.04563039586984874
-0.5096847039838543   -0.04074273542348164   0.006662213854635578
-0.5096847039838543   -0.04074273542348164   0.006662213854635578
-0.5096847039838543   -0.04074273542348164   0.006662213854635578
-0.5096847039838543   -0.04074273542348164   0.006662213854635578
-0.7765688789778322   -0.05889133606718648   -0.001900446482850312
-0.7765688789778322   -0.05889133606718648   -0.001900446482850312
-0.7765688789778322   -0.05889133606718648   -0.001900446482850312
-0.7765688789778322   -0.05889133606718648   -0.001900446482850312
-1.1253812321893832   -0.038031706643852775   -0.027827461205640898
-1.1253812321893832   -0.038031706643852775   -0.027827461205640898
-1.1253812321893832   -0.038031706643852775   -0.027827461205640898
-1.1253812321893832   -0.038031706643852775   -0.027827461205640898
-1.6969808038946548   -0.14458418791079244   0.06396485447276831
-1.6969808038946548   -0.14458418791079244   0.06396485447276831
-1.6969808038946548   -0.14458418791079244   0.06396485447276831
-1.6969808038946548   -0.14458418791079244   0.06396485447276831
-1.6389632496351931   -0.11526884048312044   -0.0372847562914474
-1.6389632496351931   -0.11526884048312044   -0.0372847562914474
-1.6389632496351931   -0.11526884048312044   -0.0372847562914474
-1.6389632496351931   -0.11526884048312044   -0.0372847562914474
-1.0577356227447319   0.03039826251519606   0.058852033303358
-1.0577356227447319   0.03039826251519606   0.058852033303358
-1.0577356227447319   0.03039826251519606   0.058852033303358
-1.0577356227447319   0.03039826251519606   0.058852033303358
-1.3180143459247184   -0.04531969532944352   0.006418701196168192
-1.3180143459247184   -0.04531969532944352   0.006418701196168192
-1.3180143459247184   -0.04531969532944352   0.006418701196168192
-1.3180143459247184   -0.04531969532944352   0.006418701196168192
-1.0822846435014357   -0.0026459413258912434   -0.030848866639059037
-1.0822846435014357   -0.0026459413258912434   -0.030848866639059037
-1.0822846435014357   -0.0026459413258912434   -0.030848866639059037
-1.0822846435014357   -0.0026459413258912434   -0.030848866639059037
-1.6104557308295306   -0.07826613859307185   0.06825013584681702
-1.6104557308295306   -0.07826613859307185   0.06825013584681702
-1.6104557308295306   -0.07826613859307185   0.06825013584681702
-1.6104557308295306   -0.07826613859307185   0.06825013584681702
-1.5767116309195928   -0.09703482698939997   -0.04440220447334846
-1.5767116309195928   -0.09703482698939997   -0.04440220447334846
-1.5767116309195928   -0.09703482698939997   -0.04440220447334846
-1.5767116309195928   -0.09703482698939997   -0.04440220447334846
-1.0190891625642062   0.04855349564508299   0.05681269682167926
-1.0190891625642062   0.04855349564508299   0.05681269682167926
-1.0190891625642062   0.04855349564508299   0.05681269682167926
-1.0190891625642062   0.04855349564508299   0.05681269682167926
-1.2813642730313644   -0.018279760846557136   0.026281999159544878
-1.2813642730313644   -0.018279760846557136   0.026281999159544878
-1.2813642730313644   -0.018279760846557136   0.026281999159544878
-1.2813642730313644   -0.018279760846557136   0.026281999159544878
-1.0445026367319856   0.01162264755697176   -0.03332382592909704
-1.0445026367319856   0.01162264755697176   -0.03332382592909704
-1.0445026367319856   0.01162264755697176   -0.03332382592909704
-1.0445026367319856   0.01162264755697176   -0.03332382592909704
-1.5504908715316095   -0.05929669368109047   0.04896345915824629
-1.5504908715316095   -0.05929669368109047   0.04896345915824629
-1.5504908715316095   -0.05929669368109047   0.04896345915824629
-1.5504908715316095   -0.05929669368109047   0.04896345915824629
-1.5123205078496071   -0.07984324690028555   -0.05366757088910719
-1.5123205078496071   -0.07984324690028555   -0.05366757088910719
-1.5123205078496071   -0.07984324690028555   -0.05366757088910719
-1.5123205078496071   -0.07984324690028555   -0.05366757088910719
-0.990488191836925   0.0702287177257516   0.04392776969758111
-0.990488191836925   0.0702287177257516   0.04392776969758111
-0.990488191836925   0.0702287177257516   0.04392776969758111
-0.990488191836925   0.0702287177257516   0.04392776969758111
-1.2120746116188272   0.004823268787989388   0.046213650765327755
-1.2120746116188272   0.004823268787989388   0.046213650765327755
-1.2120746116188272   0.004823268787989388   0.046213650765327755
-1.2120746116188272   0.004823268787989388   0.046213650765327755
1.492060913364272   0.08954928844088508   0.053982110029531856
1.492060913364272   0.08954928844088508   0.053982110029531856
1.492060913364272   0.08954928844088508   0.053982110029531856
1.492060913364272   0.08954928844088508   0.053982110029531856
0.7110690499204867   -0.13304560845491756   0.011968822520424582
0.7110690499204867   -0.13304560845491756   0.011968822520424582
0.7110690499204867   -0.13304560845491756   0.011968822520424582
0.7110690499204867   -0.13304560845491756   0.011968822520424582
0.750211589897081   -0.05620981617177309   0.04149365305900885
0.750211589897081   -0.05620981617177309   0.04149365305900885
0.750211589897081   -0.05620981617177309   0.04149365305900885
0.750211589897081   -0.05620981617177309   0.04149365305900885
1.4998664309887286   0.012952447525543143   -0.01210447118189728
1.4998664309887286   0.012952447525543143   -0.01210447118189728
1.4998664309887286   0.012952447525543143   -0.01210447118189728
1.4998664309887286   0.012952447525543143   -0.01210447118189728
1.0488923602615936   -0.028518567490155716   -0.06962689984861756
1.0488923602615936   -0.028518567490155716   -0.06962689984861756
1.0488923602615936   -0.028518567490155716   -0.06962689984861756
1.0488923602615936   -0.028518567490155716   -0.06962689984861756
1.5281571450338094   0.09961739463131722   0.042684151937732125
1.5281571450338094   0.09961739463131722   0.042684151937732125
1.5281571450338094   0.09961739463131722   0.042684151937732125
1.5281571450338094   0.09961739463131722   0.042684151937732125
0.7287018641951669   -0.1360937749343806   0.013828983312045628
0.7287018641951669   -0.1360937749343806   0.013828983312045628
0.7287018641951669   -0.1360937749343806   0.013828983312045628
0.7287018641951669   -0.1360937749343806   0.013828983312045628
0.7650152233786957   -0.04777859216257041   0.031567177154809625
0.7650152233786957   -0.04777859216257041   0.031567177154809625
0.7650152233786957   -0.04777859216257041   0.031567177154809625
0.7650152233786957   -0.04777859216257041   0.031567177154809625
1.5260699755084592   0.02245400670494524   -0.0037842171494380378
1.5260699755084592   0.02245400670494524   -0.0037842171494380378
1.5260699755084592   0.02245400670494524   -0.0037842171494380378
1.5260699755084592   0.02245400670494524   -0.0037842171494380378
1.0920809086121346   -0.022537123125679404   -0.047587122287914285
1.0920809086121346   -0.022537123125679404   -0.047587122287914285
1.0920809086121346   -0.022537123125679404   -0.047587122287914285
1.0920809086121346   -0.022537123125679404   -0.047587122287914285
1.5500131296347943   0.10882055474593644   0.029565005441245434
1.5500131296347943   0.10882055474593644   0.029565005441245434
1.5500131296347943   0.10882055474593644   0.029565005441245434
1.5500131296347943   0.10882055474593644   0.029565005441245434
0.7457888900548182   -0.12942831940110422   0.017085237773955764
0.7457888900548182   -0.12942831940110422   0.017085237773955764
0.7457888900548182   -0.12942831940110422   0.017085237773955764
0.7457888900548182   -0.12942831940110422   0.017085237773955764
0.7868128727283427   -0.01490586372926006   0.028858183313829756
0.7868128727283427   -0.01490586372926006   0.028858183313829756
0.7868128727283427   -0.01490586372926006   0.028858183313829756
0.7868128727283427   -0.01490586372926006   0.028858183313829756
1.5533398394955618   0.044264605087611875   -0.0007101874156285048
1.5533398394955618   0.044264605087611875   -0.0007101874156285048
1.5533398394955618   0.044264605087611875   -0.0007101874156285048
1.5533398394955618   0.044264605087611875   -0.0007101874156285048
1.097373719855291   -0.010347618260639457   -0.035600381621851696
1.097373719855291   -0.010347618260639457   -0.035600381621851696
1.097373719855291   -0.010347618260639457   -0.035600381621851696
1.097373719855291   -0.010347618260639457   -0.035600381621851696
0.7504895351375692   0.019362029007881837   0.056663611143037466
0.7504895351375692   0.019362029007881837   0.056663611143037466
0.7504895351375692   0.019362029007881837   0.056663611143037466
0.7504895351375692   0.019362029007881837   0.056663611143037466
0.038959406065521146   -0.2646857450938699   0.027067242209007164
0.038959406065521146   -0.2646857450938699   0.027067242209007164
0.038959406065521146   -0.2646857450938699   0.027067242209007164
0.038959406065521146   -0.2646857450938699   0.027067242209007164
0.08992538425844779   -0.11218317455498986   0.0253000964482546
0.08992538425844779   -0.11218317455498986   0.0253000964482546
0.08992538425844779   -0.11218317455498986   0.0253000964482546
0.08992538425844779   -0.11218317455498986   0.0253000964482546
0.7312659104626171   -0.126718230504103   0.017273670219013187
0.7312659104626171   -0.126718230504103   0.017273670219013187
0.7312659104626171   -0.126718230504103   0.017273670219013187
0.7312659104626171   -0.126718230504103   0.017273670219013187
0.38959210894841767   -0.11848634945324502   -0.044438810394474365
0.38959210894841767   -0.11848634945324502   -0.044438810394474365
0.38959210894841767   -0.11848634945324502   -0.044438810394474365
0.38959210894841767   -0.11848634945324502   -0.044438810394474365
0.7681974639704967   0.027878219623860195   0.04733498763045595
0.7681974639704967   0.027878219623860195   0.04733498763045595
0.7681974639704967   0.027878219623860195   0.04733498763045595
0.7681974639704967   0.027878219623860195   0.04733498763045595
0.06274517259517692   -0.25702828283833246   0.0342441464152447
0.06274517259517692   -0.25702828283833246   0.0342441464152447
0.06274517259517692   -0.25702828283833246   0.0342441464152447
0.06274517259517692   -0.25702828283833246   0.0342441464152447
0.11040081917320047   -0.096778337130533   0.01831567862077986
0.11040081917320047   -0.096778337130533   0.01831567862077986
0.11040081917320047   -0.096778337130533   0.01831567862077986
0.11040081917320047   -0.096778337130533   0.01831567862077986
0.7487985414008923   -0.1186349155307038   0.02134009063392607
0.7487985414008923   -0.1186349155307038   0.02134009063392607
0.7487985414008923   -0.1186349155307038   0.02134009063392607
0.7487985414008923   -0.1186349155307038   0.02134009063392607
0.40700424792838824   -0.11257741484042191   -0.022222180355622324
0.40700424792838824   -0.11257741484042191   -0.022222180355622324
0.40700424792838824   -0.11257741484042191   -0.022222180355622324
0.40700424792838824   -0.11257741484042191   -0.022222180355622324
0.7847181028738006   0.04240215031582495   0.03990083215193872
0.7847181028738006   0.04240215031582495   0.03990083215193872
0.7847181028738006   0.04240215031582495   0.03990083215193872
0.7847181028738006   0.04240215031582495   0.03990083215193872
0.08386131418703958   -0.2484353464903092   0.03727516304975166
0.08386131418703958   -0.2484353464903092   0.03727516304975166
0.08386131418703958   -0.2484353464903092   0.03727516304975166
0.08386131418703958   -0.2484353464903092   0.03727516304975166
0.14183841213857193   -0.07365102726956993   0.01211021611861762
0.14183841213857193   -0.07365102726956993   0.01211021611861762
0.14183841213857193   -0.07365102726956993   0.01211021611861762
0.14183841213857193   -0.07365102726956993   0.01211021611861762
0.7679790696107536   -0.10635469464061473   0.026137998637240728
0.7679790696107536   -0.10635469464061473   0.026137998637240728
0.7679790696107536   -0.10635469464061473   0.026137998637240728
0.7679790696107536   -0.10635469464061473   0.026137998637240728
0.4375962565446434   -0.09828347493075226   0.0036391110257048623
0.4375962565446434   -0.09828347493075226   0.0036391110257048623
0.4375962565446434   -0.09828347493075226   0.0036391110257048623
0.4375962565446434   -0.09828347493075226   0.0036391110257048623
0.08375451715037502   -0.050121254498526085   0.03647830703793281
0.08375451715037502   -0.050121254498526085   0.03647830703793281
0.08375451715037502   -0.050121254498526085   0.03647830703793281
0.08375451715037502   -0.050121254498526085   0.03647830703793281
-0.6385990507911141   -0.45440049195804094   0.0392954317079655
-0.6385990507911141   -0.45440049195804094   0.0392954317079655
-0.6385990507911141   -0.45440049195804094   0.0392954317079655
-0.6385990507911141   -0.45440049195804094   0.0392954317079655
-0.5580690434325374   -0.17719876932748355   0.0025553142406787265
-0.5580690434325374   -0.17719876932748355   0.0025553142406787265
-0.5580690434325374   -0.17719876932748355   0.0025553142406787265
-0.5580690434325374   -0.17719876932748355   0.0025553142406787265
0.04431695319057137   -0.33000094508242217   0.015075711636306763
0.04431695319057137   -0.33000094508242217   0.015075711636306763
0.04431695319057137   -0.33000094508242217   0.015075711636306763
0.04431695319057137   -0.33000094508242217   0.015075711636306763
-0.2754640712307092   -0.2547375947517986   -0.053318976860916294
-0.2754640712307092   -0.2547375947517986   -0.053318976860916294
-0.2754640712307092   -0.2547375947517986   -0.053318976860916294
-0.2754640712307092   -0.2547375947517986   -0.053318976860916294
0.10519532173397567   -0.03930303107344624   0.02876964034435225
0.10519532173397567   -0.03930303107344624   0.02876964034435225
0.10519532173397567   -0.03930303107344624   0.02876964034435225
0.10519532173397567   -0.03930303107344624   0.02876964034435225
-0.6048215634581401   -0.45377083481865726   0.045364779603842734
-0.6048215634581401   -0.45377083481865726   0.045364779603842734
-0.6048215634581401   -0.45377083481865726   0.045364779603842734
-0.6048215634581401   -0.45377083481865726   0.045364779603842734
-0.5270037482158062   -0.1589976534411961   -0.0001282033092391173
-0.5270037482158062   -0.1589976534411961   -0.0001282033092391173
-0.5270037482158062   -0.1589976534411961   -0.0001282033092391173
-0.5270037482158062   -0.1589976534411961   -0.0001282033092391173
0.06590692554216095   -0.32267856686438234   0.021746440199431533
0.06590692554216095   -0.32267856686438234   0.021746440199431533
0.06590692554216095   -0.32267856686438234   0.021746440199431533
0.06590692554216095   -0.32267856686438234   0.021746440199431533
-0.243988381244633   -0.24597937833978273   -0.019845668249253712
-0.243988381244633   -0.24597937833978273   -0.019845668249253712
-0.243988381244633   -0.24597937833978273   -0.019845668249253712
-0.243988381244633   -0.24597937833978273   -0.019845668249253712
0.12479857764145406   -0.02492193403466106   0.01844806786617582
0.12479857764145406   -0.02492193403466106   0.01844806786617582
0.12479857764145406   -0.02492193403466106   0.01844806786617582
0.12479857764145406   -0.02492193403466106   0.01844806786617582
-0.5731578691215401   -0.44401675507734617   0.05412029379825177
-0.5731578691215401   -0.44401675507734617   0.05412029379825177
-0.5731578691215401   -0.44401675507734617   0.05412029379825177
-0.5731578691215401   -0.44401675507734617   0.05412029379825177
-0.4757371863576118   -0.13803721603718105   -0.006007178742856183
-0.4757371863576118   -0.13803721603718105   -0.006007178742856183
-0.4757371863576118   -0.13803721603718105   -0.006007178742856183
-0.4757371863576118   -0.13803721603718105   -0.006007178742856183
0.09960543487506691   -0.30234729496158175   0.02964159749310262
0.09960543487506691   -0.30234729496158175   0.02964159749310262
0.09960543487506691   -0.30234729496158175   0.02964159749310262
0.09960543487506691   -0.30234729496158175   0.02964159749310262
-0.20315420763196326   -0.22646328663504894   0.015151940962631144
-0.20315420763196326   -0.22646328663504894   0.015151940962631144
-0.20315420763196326   -0.22646328663504894   0.015151940962631144
-0.20315420763196326   -0.22646328663504894   0.015151940962631144
-0.5702643249406881   -0.09082286900208053   0.017391438004129175
-0.5702643249406881   -0.09082286900208053   0.017391438004129175
-0.5702643249406881   -0.09082286900208053   0.017391438004129175
-0.5702643249406881   -0.09082286900208053   0.017391438004129175
-1.4196292263845602   -0.7069728485918595   -0.033021987266543026
-1.4196292263845602   -0.7069728485918595   -0.033021987266543026
-1.4196292263845602   -0.7069728485918595   -0.033021987266543026
-1.4196292263845602   -0.7069728485918595   -0.033021987266543026
-1.286780789797847   -0.230566000073814   -0.03914985262506625
-1.286780789797847   -0.230566000073814   -0.03914985262506625
-1.286780789797847   -0.230566000073814   -0.03914985262506625
-1.286780789797847   -0.230566000073814   -0.03914985262506625
-0.6388729762504735   -0.5906532201534884   0.011990100977002982
-0.6388729762504735   -0.5906532201534884   0.011990100977002982
-0.6388729762504735   -0.5906532201534884   0.011990100977002982
-0.6388729762504735   -0.5906532201534884   0.011990100977002982
-0.9777918262891531   -0.4181914323611011   -0.056037547141385285
-0.9777918262891531   -0.4181914323611011   -0.056037547141385285
-0.9777918262891531   -0.4181914323611011   -0.056037547141385285
-0.9777918262891531   -0.4181914323611011   -0.056037547141385285
-0.5335747789521599   -0.06877437826387234   0.016602245578954913
-0.5335747789521599   -0.06877437826387234   0.016602245578954913
-0.5335747789521599   -0.06877437826387234   0.016602245578954913
-0.5335747789521599   -0.06877437826387234   0.016602245578954913
-1.3888006433658588   -0.7491664982331181   -0.030648622305821466
-1.3888006433658588   -0.7491664982331181   -0.030648622305821466
-1.3888006433658588   -0.7491664982331181   -0.030648622305821466
-1.3888006433658588   -0.7491664982331181   -0.030648622305821466
-1.245391113698391   -0.2087587494142764   -0.03991014241702963
-1.245391113698391   -0.2087587494142764   -0.03991014241702963
-1.245391113698391   -0.2087587494142764   -0.03991014241702963
-1.245391113698391   -0.2087587494142764   -0.03991014241702963
-0.6087311138271613   -0.5859164344174799   0.01815374961027358
-0.6087311138271613   -0.5859164344174799   0.01815374961027358
-0.6087311138271613   -0.5859164344174799   0.01815374961027358
-0.6087311138271613   -0.5859164344174799   0.01815374961027358
-0.9343042769330299   -0.40676939191038486   -0.03915461046548024
-0.9343042769330299   -0.40676939191038486   -0.03915461046548024
-0.9343042769330299   -0.40676939191038486   -0.03915461046548024
-0.9343042769330299   -0.40676939191038486   -0.03915461046548024
-0.5043514177549913   -0.05145135219288506   0.00558714774652715
-0.5043514177549913   -0.05145135219288506   0.00558714774652715
-0.5043514177549913   -0.05145135219288506   0.00558714774652715
-0.5043514177549913   -0.05145135219288506   0.00558714774652715
-1.349652321917664   -0.743105343785972   -0.026869589141684608
-1.349652321917664   -0.743105343785972   -0.026869589141684608
-1.349652321917664   -0.743105343785972   -0.026869589141684608
-1.349652321917664   -0.743105343785972   -0.026869589141684608
-1.1807923677282282   -0.18534632577963497   -0.0452480741817572
-1.1807923677282282   -0.18534632577963497   -0.0452480741817572
-1.1807923677282282   -0.18534632577963497   -0.0452480741817572
-1.1807923677282282   -0.18534632577963497   -0.0452480741817572
-0.5435142098610362   -0.5264849074691443   0.04355539517199292
-0.5435142098610362   -0.5264849074691443   0.04355539517199292
-0.5435142098610362   -0.5264849074691443   0.04355539517199292
-0.5435142098610362   -0.5264849074691443   0.04355539517199292
-0.8858390775912465   -0.3684964182101804   -0.021593697721863016
-0.8858390775912465   -0.3684964182101804   -0.021593697721863016
-0.8858390775912465   -0.3684964182101804   -0.021593697721863016
-0.8858390775912465   -0.3684964182101804   -0.021593697721863016
-1.2889395915357413   -0.0775652072136874   -0.00898145440061978
-1.2889395915357413   -0.0775652072136874   -0.00898145440061978
-1.2889395915357413   -0.0775652072136874   -0.00898145440061978
-1.2889395915357413   -0.0775652072136874   -0.00898145440061978
-2.2731920956525533   -0.4499954725038856   0.023214733133125276
-2.2731920956525533   -0.4499954725038856   0.023214733133125276
-2.2731920956525533   -0.4499954725038856   0.023214733133125276
-2.2731920956525533   -0.4499954725038856   0.023214733133125276
-2.1839032618649594   -0.21615232487223723   -0.04773326451358087
-2.1839032618649594   -0.21615232487223723   -0.04773326451358087
-2.1839032618649594   -0.21615232487223723   -0.04773326451358087
-2.1839032618649594   -0.21615232487223723   -0.04773326451358087
-1.2608477914732041   -0.2334831087581467   0.09343224768247077
-1.2608477914732041   -0.2334831087581467   0.09343224768247077
-1.2608477914732041   -0.2334831087581467   0.09343224768247077
-1.2608477914732041   -0.2334831087581467   0.09343224768247077
-1.6807940865605566   -0.26088890224564665   0.02387366514612273
-1.6807940865605566   -0.26088890224564665   0.02387366514612273
-1.6807940865605566   -0.26088890224564665   0.02387366514612273
-1.6807940865605566   -0.26088890224564665   0.02387366514612273
-1.236182129562029   -0.017004963177411625   0.000282411657616527
-1.236182129562029   -0.017004963177411625   0.000282411657616527
-1.236182129562029   -0.017004963177411625   0.000282411657616527
-1.236182129562029   -0.017004963177411625   0.000282411657616527
-2.217027982991917   -0.4410895296687567   0.01158033464813335
-2.217027982991917   -0.4410895296687567   0.01158033464813335
-2.217027982991917   -0.4410895296687567   0.01158033464813335
-2.217027982991917   -0.4410895296687567   0.01158033464813335
-2.1348539829754687   -0.19808048455651722   -0.06059238377505895
-2.1348539829754687   -0.19808048455651722   -0.06059238377505895
-2.1348539829754687   -0.19808048455651722   -0.06059238377505895
-2.1348539829754687   -0.19808048455651722   -0.06059238377505895
-1.2182457042540433   -0.22186459147726617   0.10892274686771247
-1.2182457042540433   -0.22186459147726617   0.10892274686771247
-1.2182457042540433   -0.22186459147726617   0.10892274686771247
-1.2182457042540433   -0.22186459147726617   0.10892274686771247
-1.6550171315276716   -0.21490611759042869   0.02299930649532978
-1.6550171315276716   -0.21490611759042869   0.02299930649532978
-1.6550171315276716   -0.21490611759042869   0.02299930649532978
-1.6550171315276716   -0.21490611759042869   0.02299930649532978
-1.1982335800042017   -0.001011809899434224   -0.011869413460911374
-1.1982335800042017   -0.001011809899434224   -0.011869413460911374
-1.1982335800042017   -0.001011809899434224   -0.011869413460911374
-1.1982335800042017   -0.001011809899434224   -0.011869413460911374
-2.15793213125576   -0.421999290164802   0.04793568043175056
-2.15793213125576   -0.421999290164802   0.04793568043175056
-2.15793213125576   -0.421999290164802   0.04793568043175056
-2.15793213125576   -0.421999290164802   0.04793568043175056
-2.0329855572269153   -0.16061618452154358   -0.06779937614890469
-2.0329855572269153   -0.16061618452154358   -0.06779937614890469
-2.0329855572269153   -0.16061618452154358   -0.06779937614890469
-2.0329855572269153   -0.16061618452154358   -0.06779937614890469
-1.151947779706879   -0.20638653992691913   0.12001508007228334
-1.151947779706879   -0.20638653992691913   0.12001508007228334
-1.151947779706879   -0.20638653992691913   0.12001508007228334
-1.151947779706879   -0.20638653992691913   0.12001508007228334
-1.556286353130936   -0.16432455354531073   0.04734293172888411
-1.556286353130936   -0.16432455354531073   0.04734293172888411
-1.556286353130936   -0.16432455354531073   0.04734293172888411
-1.556286353130936   -0.16432455354531073   0.04734293172888411
1.6342910974230764   0.0537948240223835   0.022948937404340355
1.6342910974230764   0.0537948240223835   0.022948937404340355
1.6342910974230764   0.0537948240223835   0.022948937404340355
1.6342910974230764   0.0537948240223835   0.022948937404340355
0.8341074315656811   -0.044082133176725075   0.016790720525686753
0.8341074315656811   -0.044082133176725075   0.016790720525686753
0.8341074315656811   -0.044082133176725075   0.016790720525686753
0.8341074315656811   -0.044082133176725075   0.016790720525686753
0.8016292109501387   -0.11764177808575796   0.033161620800186906
0.8016292109501387   -0.11764177808575796   0.033161620800186906
0.8016292109501387   -0.11764177808575796   0.033161620800186906
0.8016292109501387   -0.11764177808575796   0.033161620800186906
1.6224419419149978   0.09139632746535842   0.012116389003504244
1.6224419419149978   0.09139632746535842   0.012116389003504244
1.6224419419149978   0.09139632746535842   0.012116389003504244
1.6224419419149978   0.09139632746535842   0.012116389003504244
1.1579323758126565   -0.016381668452845166   -0.04277958292461417
1.1579323758126565   -0.016381668452845166   -0.04277958292461417
1.1579323758126565   -0.016381668452845166   -0.04277958292461417
1.1579323758126565   -0.016381668452845166   -0.04277958292461417
1.613574621238044   0.04162516869050381   0.017550944393590617
1.613574621238044   0.04162516869050381   0.017550944393590617
1.613574621238044   0.04162516869050381   0.017550944393590617
1.613574621238044   0.04162516869050381   0.017550944393590617
0.8078452620559509   -0.07052188888204497   0.017121987125534185
0.8078452620559509   -0.07052188888204497   0.017121987125534185
0.8078452620559509   -0.07052188888204497   0.017121987125534185
0.8078452620559509   -0.07052188888204497   0.017121987125534185
0.7808999439922909   -0.120339255538262   0.02741950315069415
0.7808999439922909   -0.120339255538262   0.02741950315069415
0.7808999439922909   -0.120339255538262   0.02741950315069415
0.7808999439922909   -0.120339255538262   0.02741950315069415
1.6035129784340862   0.08746161439731387   0.021031423425380044
1.6035129784340862   0.08746161439731387   0.021031423425380044
1.6035129784340862   0.08746161439731387   0.021031423425380044
1.6035129784340862   0.08746161439731387   0.021031423425380044
1.1545594587217283   -0.02259375785036194   -0.04946886945035804
1.1545594587217283   -0.02259375785036194   -0.04946886945035804
1.1545594587217283   -0.02259375785036194   -0.04946886945035804
1.1545594587217283   -0.02259375785036194   -0.04946886945035804
1.5902842394941863   0.03710297629717385   0.0052463668260087915
1.5902842394941863   0.03710297629717385   0.0052463668260087915
1.5902842394941863   0.03710297629717385   0.0052463668260087915
1.5902842394941863   0.03710297629717385   0.0052463668260087915
0.7893591536731378   -0.07475014669718211   0.024126442713848686
0.7893591536731378   -0.07475014669718211   0.024126442713848686
0.7893591536731378   -0.07475014669718211   0.024126442713848686
0.7893591536731378   -0.07475014669718211   0.024126442713848686
0.7590408507504172   -0.10971760043711681   0.02367777370587265
0.7590408507504172   -0.10971760043711681   0.02367777370587265
0.7590408507504172   -0.10971760043711681   0.02367777370587265
0.7590408507504172   -0.10971760043711681   0.02367777370587265
1.5743555098436546   0.08851833688846683   0.03029583050811105
1.5743555098436546   0.08851833688846683   0.03029583050811105
1.5743555098436546   0.08851833688846683   0.03029583050811105
1.5743555098436546   0.08851833688846683   0.03029583050811105
1.1112548200323453   -0.02274009356230597   -0.0667442169969205
1.1112548200323453   -0.02274009356230597   -0.0667442169969205
1.1112548200323453   -0.02274009356230597   -0.0667442169969205
1.1112548200323453   -0.02274009356230597   -0.0667442169969205
0.8268710877394694   -0.10434290296441742   0.040869771182321143
0.8268710877394694   -0.10434290296441742   0.040869771182321143
0.8268710877394694   -0.10434290296441742   0.040869771182321143
0.8268710877394694   -0.10434290296441742   0.040869771182321143
0.1597461872960943   -0.09845081209572173   0.008646397202565916
0.1597461872960943   -0.09845081209572173   0.008646397202565916
0.1597461872960943   -0.09845081209572173   0.008646397202565916
0.1597461872960943   -0.09845081209572173   0.008646397202565916
0.1037289570867794   -0.24696739055901495   0.04356482332022982
0.1037289570867794   -0.24696739055901495   0.04356482332022982
0.1037289570867794   -0.24696739055901495   0.04356482332022982
0.1037289570867794   -0.24696739055901495   0.04356482332022982
0.8313248917157544   0.032456339459550426   0.031541907082956525
0.8313248917157544   0.032456339459550426   0.031541907082956525
0.8313248917157544   0.032456339459550426   0.031541907082956525
0.8313248917157544   0.032456339459550426   0.031541907082956525
0.47302972684337113   -0.10474626414965946   -0.0018339448940362518
0.47302972684337113   -0.10474626414965946   -0.0018339448940362518
0.47302972684337113   -0.10474626414965946   -0.0018339448940362518
0.47302972684337113   -0.10474626414965946   -0.0018339448940362518
0.8036061634579096   -0.10885332741515949   0.03425793266843838
0.8036061634579096   -0.10885332741515949   0.03425793266843838
0.8036061634579096   -0.10885332741515949   0.03425793266843838
0.8036061634579096   -0.10885332741515949   0.03425793266843838
0.12444506498436429   -0.11266034404457584   0.012838316293715249
0.12444506498436429   -0.11266034404457584   0.012838316293715249
0.12444506498436429   -0.11266034404457584   0.012838316293715249
0.12444506498436429   -0.11266034404457584   0.012838316293715249
0.07862409215355613   -0.24913823555004044   0.03899793978457895
0.07862409215355613   -0.24913823555004044   0.03899793978457895
0.07862409215355613   -0.24913823555004044   0.03899793978457895
0.07862409215355613   -0.24913823555004044   0.03899793978457895
0.8122100162992356   0.02627607783046268   0.03735453131669266
0.8122100162992356   0.02627607783046268   0.03735453131669266
0.8122100162992356   0.02627607783046268   0.03735453131669266
0.8122100162992356   0.02627607783046268   0.03735453131669266
0.43892026824118213   -0.1116274265280938   -0.02263678573862421
0.43892026824118213   -0.1116274265280938   -0.02263678573862421
0.43892026824118213   -0.1116274265280938   -0.02263678573862421
0.43892026824118213   -0.1116274265280938   -0.02263678573862421
0.7830794609957697   -0.11037598601045848   0.028353818640275225
0.7830794609957697   -0.11037598601045848   0.028353818640275225
0.7830794609957697   -0.11037598601045848   0.028353818640275225
0.7830794609957697   -0.11037598601045848   0.028353818640275225
0.10014277163451443   -0.1200980475316284   0.017551149170958354
0.10014277163451443   -0.1200980475316284   0.017551149170958354
0.10014277163451443   -0.1200980475316284   0.017551149170958354
0.10014277163451443   -0.1200980475316284   0.017551149170958354
0.0505361247019189   -0.24897025464549158   0.030503143521691048
0.0505361247019189   -0.24897025464549158   0.030503143521691048
0.0505361247019189   -0.24897025464549158   0.030503143521691048
0.0505361247019189   -0.24897025464549158   0.030503143521691048
0.7905163741294002   0.02669156168261444   0.044646228481060465
0.7905163741294002   0.02669156168261444   0.044646228481060465
0.7905163741294002   0.02669156168261444   0.044646228481060465
0.7905163741294002   0.02669156168261444   0.044646228481060465
0.41811373090393905   -0.11073101000196543   -0.040320186381364885
0.41811373090393905   -0.11073101000196543   -0.040320186381364885
0.41811373090393905   -0.11073101000196543   -0.040320186381364885
0.41811373090393905   -0.11073101000196543   -0.040320186381364885
0.12458361749226933   -0.3022887478545116   0.03667148394222887
0.12458361749226933   -0.3022887478545116   0.03667148394222887
0.12458361749226933   -0.3022887478545116   0.03667148394222887
0.12458361749226933   -0.3022887478545116   0.03667148394222887
-0.4886098286957982   -0.1526453849750879   0.00045726373822007824
-0.4886098286957982   -0.1526453849750879   0.00045726373822007824
-0.4886098286957982   -0.1526453849750879   0.00045726373822007824
-0.4886098286957982   -0.1526453849750879   0.00045726373822007824
-0.589952440567585   -0.4498843705546447   0.04992797803335057
-0.589952440567585   -0.4498843705546447   0.04992797803335057
-0.589952440567585   -0.4498843705546447   0.04992797803335057
-0.589952440567585   -0.4498843705546447   0.04992797803335057
0.14331940060930548   -0.025417959925424276   0.019967610299267646
0.14331940060930548   -0.025417959925424276   0.019967610299267646
0.14331940060930548   -0.025417959925424276   0.019967610299267646
0.14331940060930548   -0.025417959925424276   0.019967610299267646
-0.19996990753947622   -0.2292811279345295   0.008640507096220981
-0.19996990753947622   -0.2292811279345295   0.008640507096220981
-0.19996990753947622   -0.2292811279345295   0.008640507096220981
-0.19996990753947622   -0.2292811279345295   0.008640507096220981
0.08579421459839547   -0.3194465758868831   0.026370296206178298
0.08579421459839547   -0.3194465758868831   0.026370296206178298
0.08579421459839547   -0.3194465758868831   0.026370296206178298
0.08579421459839547   -0.3194465758868831   0.026370296206178298
-0.5422345508250528   -0.1656630508615538   0.004296107052916918
-0.5422345508250528   -0.1656630508615538   0.004296107052916918
-0.5422345508250528   -0.1656630508615538   0.004296107052916918
-0.5422345508250528   -0.1656630508615538   0.004296107052916918
-0.6249079201472457   -0.4570525927043615   0.04069115668888078
-0.6249079201472457   -0.4570525927043615   0.04069115668888078
-0.6249079201472457   -0.4570525927043615   0.04069115668888078
-0.6249079201472457   -0.4570525927043615   0.04069115668888078
0.11979373073935531   -0.032276850908411814   0.027984748071946258
0.11979373073935531   -0.032276850908411814   0.027984748071946258
0.11979373073935531   -0.032276850908411814   0.027984748071946258
0.11979373073935531   -0.032276850908411814   0.027984748071946258
-0.24365681466873684   -0.24318794125814627   -0.020531370277440862
-0.24365681466873684   -0.24318794125814627   -0.020531370277440862
-0.24365681466873684   -0.24318794125814627   -0.020531370277440862
-0.24365681466873684   -0.24318794125814627   -0.020531370277440862
0.05905259297897521   -0.3249985664538056   0.017000774815439504
0.05905259297897521   -0.3249985664538056   0.017000774815439504
0.05905259297897521   -0.3249985664538056   0.017000774815439504
0.05905259297897521   -0.3249985664538056   0.017000774815439504
-0.575843728109534   -0.17600782288163652   0.004967347054712079
-0.575843728109534   -0.17600782288163652   0.004967347054712079
-0.575843728109534   -0.17600782288163652   0.004967347054712079
-0.575843728109534   -0.17600782288163652   0.004967347054712079
-0.6628055241641653   -0.45391560781980156   0.03421099224123565
-0.6628055241641653   -0.45391560781980156   0.03421099224123565
-0.6628055241641653   -0.45391560781980156   0.03421099224123565
-0.6628055241641653   -0.45391560781980156   0.03421099224123565
0.09362177117794507   -0.036087864441366566   0.033048985697696855
0.09362177117794507   -0.036087864441366566   0.033048985697696855
0.09362177117794507   -0.036087864441366566   0.033048985697696855
0.09362177117794507   -0.036087864441366566   0.033048985697696855
-0.27911317963947185   -0.24845960856423854   -0.04969547903361013
-0.27911317963947185   -0.24845960856423854   -0.04969547903361013
-0.27911317963947185   -0.24845960856423854   -0.04969547903361013
-0.27911317963947185   -0.24845960856423854   -0.04969547903361013
-0.5531211342770952   -0.5183464687881066   0.04360181964475578
-0.5531211342770952   -0.5183464687881066   0.04360181964475578
-0.5531211342770952   -0.5183464687881066   0.04360181964475578
-0.5531211342770952   -0.5183464687881066   0.04360181964475578
-1.225319014543954   -0.19000629392978674   -0.028318156878395357
-1.225319014543954   -0.19000629392978674   -0.028318156878395357
-1.225319014543954   -0.19000629392978674   -0.028318156878395357
-1.225319014543954   -0.19000629392978674   -0.028318156878395357
-1.4024556997973068   -0.7535482578170704   -0.038902363794134504
-1.4024556997973068   -0.7535482578170704   -0.038902363794134504
-1.4024556997973068   -0.7535482578170704   -0.038902363794134504
-1.4024556997973068   -0.7535482578170704   -0.038902363794134504
-0.5149719095919717   -0.042306385164362206   0.017252647521130513
-0.5149719095919717   -0.042306385164362206   0.017252647521130513
-0.5149719095919717   -0.042306385164362206   0.017252647521130513
-0.5149719095919717   -0.042306385164362206   0.017252647521130513
-0.9150938800556732   -0.3613780697221094   -0.03094325787438605
-0.9150938800556732   -0.3613780697221094   -0.03094325787438605
-0.9150938800556732   -0.3613780697221094   -0.03094325787438605
-0.9150938800556732   -0.3613780697221094   -0.03094325787438605
-0.6244550094702457   -0.5872179119997922   0.014748674965194608
-0.6244550094702457   -0.5872179119997922   0.014748674965194608
-0.6244550094702457   -0.5872179119997922   0.014748674965194608
-0.6244550094702457   -0.5872179119997922   0.014748674965194608
-1.290205047944214   -0.20586917900682045   -0.02532818333891859
-1.290205047944214   -0.20586917900682045   -0.02532818333891859
-1.290205047944214   -0.20586917900682045   -0.02532818333891859
-1.290205047944214   -0.20586917900682045   -0.02532818333891859
-1.4440485728329764   -0.7656079769283561   -0.04498650393829254
-1.4440485728329764   -0.7656079769283561   -0.04498650393829254
-1.4440485728329764   -0.7656079769283561   -0.04498650393829254
-1.4440485728329764   -0.7656079769283561   -0.04498650393829254
-0.5472081582375777   -0.05358051850822139   0.025717892041078418
-0.5472081582375777   -0.05358051850822139   0.025717892041078418
-0.5472081582375777   -0.05358051850822139   0.025717892041078418
-0.5472081582375777   -0.05358051850822139   0.025717892041078418
-0.9659394510518867   -0.40046508491472127   -0.043948181557475624
-0.9659394510518867   -0.40046508491472127   -0.043948181557475624
-0.9659394510518867   -0.40046508491472127   -0.043948181557475624
-0.9659394510518867   -0.40046508491472127   -0.043948181557475624
-0.6602189651979631   -0.5986900723895915   0.005773411120517352
-0.6602189651979631   -0.5986900723895915   0.005773411120517352
-0.6602189651979631   -0.5986900723895915   0.005773411120517352
-0.6602189651979631   -0.5986900723895915   0.005773411120517352
-1.331275050077095   -0.22073570725149247   -0.02599115983575958
-1.331275050077095   -0.22073570725149247   -0.02599115983575958
-1.331275050077095   -0.22073570725149247   -0.02599115983575958
-1.331275050077095   -0.22073570725149247   -0.02599115983575958
-1.4795054090234028   -0.7325396394761915   -0.05072706570087629
-1.4795054090234028   -0.7325396394761915   -0.05072706570087629
-1.4795054090234028   -0.7325396394761915   -0.05072706570087629
-1.4795054090234028   -0.7325396394761915   -0.05072706570087629
-0.5879994410037088   -0.06950997402374776   0.023835774247454478
-0.5879994410037088   -0.06950997402374776   0.023835774247454478
-0.5879994410037088   -0.06950997402374776   0.023835774247454478
-0.5879994410037088   -0.06950997402374776   0.023835774247454478
-1.0128069649578844   -0.4137655236211575   -0.05640888364807519
-1.0128069649578844   -0.4137655236211575   -0.05640888364807519
-1.0128069649578844   -0.4137655236211575   -0.05640888364807519
-1.0128069649578844   -0.4137655236211575   -0.05640888364807519
-1.2039772416112537   -0.21926547129265925   0.10764988514795759
-1.2039772416112537   -0.21926547129265925   0.10764988514795759
-1.2039772416112537   -0.21926547129265925   0.10764988514795759
-1.2039772416112537   -0.21926547129265925   0.10764988514795759
-2.1184798002336334   -0.15833463037957013   -0.037448515084221826
-2.1184798002336334   -0.15833463037957013   -0.037448515084221826
-2.1184798002336334   -0.15833463037957013   -0.037448515084221826
-2.1184798002336334   -0.15833463037957013   -0.037448515084221826
-2.247942451571329   -0.4436830614835795   0.029527144153431384
-2.247942451571329   -0.4436830614835795   0.029527144153431384
-2.247942451571329   -0.4436830614835795   0.029527144153431384
-2.247942451571329   -0.4436830614835795   0.029527144153431384
-1.2382208682242917   0.018017337568637937   0.010706198685222046
-1.2382208682242917   0.018017337568637937   0.010706198685222046
-1.2382208682242917   0.018017337568637937   0.010706198685222046
-1.2382208682242917   0.018017337568637937   0.010706198685222046
-1.621096940931912   -0.15584344273157708   0.03254349740313732
-1.621096940931912   -0.15584344273157708   0.03254349740313732
-1.621096940931912   -0.15584344273157708   0.03254349740313732
-1.621096940931912   -0.15584344273157708   0.03254349740313732
-1.2719215266350774   -0.23528354707252486   0.09550379127245312
-1.2719215266350774   -0.23528354707252486   0.09550379127245312
-1.2719215266350774   -0.23528354707252486   0.09550379127245312
-1.2719215266350774   -0.23528354707252486   0.09550379127245312
-2.208608078242353   -0.18474846192422423   -0.03273558876102717
-2.208608078242353   -0.18474846192422423   -0.03273558876102717
-2.208608078242353   -0.18474846192422423   -0.03273558876102717
-2.208608078242353   -0.18474846192422423   -0.03273558876102717
-2.3027755582182095   -0.4625264234753298   -0.009856559158439748
-2.3027755582182095   -0.4625264234753298   -0.009856559158439748
-2.3027755582182095   -0.4625264234753298   -0.009856559158439748
-2.3027755582182095   -0.4625264234753298   -0.009856559158439748
-1.2769457232995571   0.005351874507551979   0.01956789229288647
-1.2769457232995571   0.005351874507551979   0.01956789229288647
-1.2769457232995571   0.005351874507551979   0.01956789229288647
-1.2769457232995571   0.005351874507551979   0.01956789229288647
-1.7178402841154108   -0.20568677798567264   0.013366848568366299
-1.7178402841154108   -0.20568677798567264   0.013366848568366299
-1.7178402841154108   -0.20568677798567264   0.013366848568366299
-1.7178402841154108   -0.20568677798567264   0.013366848568366299
-1.3155657673998713   -0.24729103685016746   0.07911058314903407
-1.3155657673998713   -0.24729103685016746   0.07911058314903407
-1.3155657673998713   -0.24729103685016746   0.07911058314903407
-1.3155657673998713   -0.24729103685016746   0.07911058314903407
-2.2528078346885674   -0.19853583268827657   -0.024008532297245644
-2.2528078346885674   -0.19853583268827657   -0.024008532297245644
-2.2528078346885674   -0.19853583268827657   -0.024008532297245644
-2.2528078346885674   -0.19853583268827657   -0.024008532297245644
-2.3503799561993164   -0.470111246400691   -0.00017627580413848154
-2.3503799561993164   -0.470111246400691   -0.00017627580413848154
-2.3503799561993164   -0.470111246400691   -0.00017627580413848154
-2.3503799561993164   -0.470111246400691   -0.00017627580413848154
-1.3313455938376486   -0.05050791842560509   0.00804028917730791
-1.3313455938376486   -0.05050791842560509   0.00804028917730791
-1.3313455938376486   -0.05050791842560509   0.00804028917730791
-1.3313455938376486   -0.05050791842560509   0.00804028917730791
-1.7385940198893388   -0.24845929763309954   0.021087420456899195
-1.7385940198893388   -0.24845929763309954   0.021087420456899195
-1.7385940198893388   -0.24845929763309954   0.021087420456899195
-1.7385940198893388   -0.24845929763309954   0.021087420456899195
1.432289479021885   0.06599735249556282   -0.030993898569077805
1.432289479021885   0.06599735249556282   -0.030993898569077805
1.432289479021885   0.06599735249556282   -0.030993898569077805
1.432289479021885   0.06599735249556282   -0.030993898569077805
0.7206786609695495   -0.014673222374822353   0.015203697497936021
0.7206786609695495   -0.014673222374822353   0.015203697497936021
0.7206786609695495   -0.014673222374822353   0.015203697497936021
0.7206786609695495   -0.014673222374822353   0.015203697497936021
0.6749474683023283   -0.106011264746046   -0.027427098440848383
0.6749474683023283   -0.106011264746046   -0.027427098440848383
0.6749474683023283   -0.106011264746046   -0.027427098440848383
0.6749474683023283   -0.106011264746046   -0.027427098440848383
1.4157375620875352   0.10333491151707744   0.01778812109212103
1.4157375620875352   0.10333491151707744   0.01778812109212103
1.4157375620875352   0.10333491151707744   0.01778812109212103
1.4157375620875352   0.10333491151707744   0.01778812109212103
1.00530209717256   0.0024692311915638365   -0.03882891691746269
1.00530209717256   0.0024692311915638365   -0.03882891691746269
1.00530209717256   0.0024692311915638365   -0.03882891691746269
1.00530209717256   0.0024692311915638365   -0.03882891691746269
1.39260360788987   0.036746695986507205   -0.03129343436562422
1.39260360788987   0.036746695986507205   -0.03129343436562422
1.39260360788987   0.036746695986507205   -0.03129343436562422
1.39260360788987   0.036746695986507205   -0.03129343436562422
0.6968001329319349   -0.040704338783533495   0.016529298744666472
0.6968001329319349   -0.040704338783533495   0.016529298744666472
0.6968001329319349   -0.040704338783533495   0.016529298744666472
0.6968001329319349   -0.040704338783533495   0.016529298744666472
0.6503190675188314   -0.111915861741585   -0.02266204635379772
0.6503190675188314   -0.111915861741585   -0.02266204635379772
0.6503190675188314   -0.111915861741585   -0.02266204635379772
0.6503190675188314   -0.111915861741585   -0.02266204635379772
1.3815352796043776   0.09496021502600382   0.026030385955600935
1.3815352796043776   0.09496021502600382   0.026030385955600935
1.3815352796043776   0.09496021502600382   0.026030385955600935
1.3815352796043776   0.09496021502600382   0.026030385955600935
0.991908964241625   -0.0100228060864746   -0.046312272181760705
0.991908964241625   -0.0100228060864746   -0.046312272181760705
0.991908964241625   -0.0100228060864746   -0.046312272181760705
0.991908964241625   -0.0100228060864746   -0.046312272181760705
1.3582284535609261   0.029241432408729506   -0.024784961644381667
1.3582284535609261   0.029241432408729506   -0.024784961644381667
1.3582284535609261   0.029241432408729506   -0.024784961644381667
1.3582284535609261   0.029241432408729506   -0.024784961644381667
0.6718441285523308   -0.04797884413425241   0.02102624120636673
0.6718441285523308   -0.04797884413425241   0.02102624120636673
0.6718441285523308   -0.04797884413425241   0.02102624120636673
0.6718441285523308   -0.04797884413425241   0.02102624120636673
0.6264738261534825   -0.11022633816804056   -0.01554586108425371
0.6264738261534825   -0.11022633816804056   -0.01554586108425371
0.6264738261534825   -0.11022633816804056   -0.01554586108425371
0.6264738261534825   -0.11022633816804056   -0.01554586108425371
1.339193807374928   0.08931652431858603   0.033895299074466055
1.339193807374928   0.08931652431858603   0.033895299074466055
1.339193807374928   0.08931652431858603   0.033895299074466055
1.339193807374928   0.08931652431858603   0.033895299074466055
0.9429396121874806   -0.017478106529150494   -0.060804379699045036
0.9429396121874806   -0.017478106529150494   -0.060804379699045036
0.9429396121874806   -0.017478106529150494   -0.060804379699045036
0.9429396121874806   -0.017478106529150494   -0.060804379699045036
0.7247073876755981   0.014122475225279985   0.006551633428070774
0.7247073876755981   0.014122475225279985   0.006551633428070774
0.7247073876755981   0.014122475225279985   0.006551633428070774
0.7247073876755981   0.014122475225279985   0.006551633428070774
0.0692832273414726   -0.04350166776166091   -0.0016955750545938012
0.0692832273414726   -0.04350166776166091   -0.0016955750545938012
0.0692832273414726   -0.04350166776166091   -0.0016955750545938012
0.0692832273414726   -0.04350166776166091   -0.0016955750545938012
0.02618903455314151   -0.14016061205721586   -0.02640699333832347
0.02618903455314151   -0.14016061205721586   -0.02640699333832347
0.02618903455314151   -0.14016061205721586   -0.02640699333832347
0.02618903455314151   -0.14016061205721586   -0.02640699333832347
0.7255487191542052   0.08371294788554336   0.03585494318694028
0.7255487191542052   0.08371294788554336   0.03585494318694028
0.7255487191542052   0.08371294788554336   0.03585494318694028
0.7255487191542052   0.08371294788554336   0.03585494318694028
0.37934139028771124   -0.019624125008036147   -0.01500478905194931
0.37934139028771124   -0.019624125008036147   -0.01500478905194931
0.37934139028771124   -0.019624125008036147   -0.01500478905194931
0.37934139028771124   -0.019624125008036147   -0.01500478905194931
0.70446690443039   0.0030067700638173878   0.011152047389594473
0.70446690443039   0.0030067700638173878   0.011152047389594473
0.70446690443039   0.0030067700638173878   0.011152047389594473
0.70446690443039   0.0030067700638173878   0.011152047389594473
0.048073343389594625   -0.058651940122851284   0.00150587890957753
0.048073343389594625   -0.058651940122851284   0.00150587890957753
0.048073343389594625   -0.058651940122851284   0.00150587890957753
0.048073343389594625   -0.058651940122851284   0.00150587890957753
0.002441975843275858   -0.1468275865303886   -0.018395750031665374
0.002441975843275858   -0.1468275865303886   -0.018395750031665374
0.002441975843275858   -0.1468275865303886   -0.018395750031665374
0.002441975843275858   -0.1468275865303886   -0.018395750031665374
0.6994805802564428   0.07168616635533331   0.03954348923734141
0.6994805802564428   0.07168616635533331   0.03954348923734141
0.6994805802564428   0.07168616635533331   0.03954348923734141
0.6994805802564428   0.07168616635533331   0.03954348923734141
0.35199841538376386   -0.030700378877551948   -0.021244145403892394
0.35199841538376386   -0.030700378877551948   -0.021244145403892394
0.35199841538376386   -0.030700378877551948   -0.021244145403892394
0.35199841538376386   -0.030700378877551948   -0.021244145403892394
0.6795851128271039   -0.004474454531743943   0.01622677297772991
0.6795851128271039   -0.004474454531743943   0.01622677297772991
0.6795851128271039   -0.004474454531743943   0.01622677297772991
0.6795851128271039   -0.004474454531743943   0.01622677297772991
0.02222633799566584   -0.07077807092025933   0.004476545120155259
0.02222633799566584   -0.07077807092025933   0.004476545120155259
0.02222633799566584   -0.07077807092025933   0.004476545120155259
0.02222633799566584   -0.07077807092025933   0.004476545120155259
-0.023046818304765668   -0.1474622441276385   -0.01255960813609968
-0.023046818304765668   -0.1474622441276385   -0.01255960813609968
-0.023046818304765668   -0.1474622441276385   -0.01255960813609968
-0.023046818304765668   -0.1474622441276385   -0.01255960813609968
0.6731791111619636   0.0640543493624746   0.04369987642763909
0.6731791111619636   0.0640543493624746   0.04369987642763909
0.6731791111619636   0.0640543493624746   0.04369987642763909
0.6731791111619636   0.0640543493624746   0.04369987642763909
0.33063131610193364   -0.03509489676378308   -0.026596458336010778
0.33063131610193364   -0.03509489676378308   -0.026596458336010778
0.33063131610193364   -0.03509489676378308   -0.026596458336010778
0.33063131610193364   -0.03509489676378308   -0.026596458336010778
0.07073976494383362   -0.04037485829642311   0.0024603034919735006
0.07073976494383362   -0.04037485829642311   0.0024603034919735006
0.07073976494383362   -0.04037485829642311   0.0024603034919735006
0.07073976494383362   -0.04037485829642311   0.0024603034919735006
-0.560415335863526   -0.0647396996251973   -0.0176246691294438
-0.560415335863526   -0.0647396996251973   -0.0176246691294438
-0.560415335863526   -0.0647396996251973   -0.0176246691294438
-0.560415335863526   -0.0647396996251973   -0.0176246691294438
-0.6083249348234185   -0.18576217205237477   -0.03010911490276096
-0.6083249348234185   -0.18576217205237477   -0.03010911490276096
-0.6083249348234185   -0.18576217205237477   -0.03010911490276096
-0.6083249348234185   -0.18576217205237477   -0.03010911490276096
0.07589379621106672   0.061357775518691204   0.020598427375395443
0.07589379621106672   0.061357775518691204   0.020598427375395443
0.07589379621106672   0.061357775518691204   0.020598427375395443
0.07589379621106672   0.061357775518691204   0.020598427375395443
-0.256277706228129   -0.05463328073477806   -0.014883164512348572
-0.256277706228129   -0.05463328073477806   -0.014883164512348572
-0.256277706228129   -0.05463328073477806   -0.014883164512348572
-0.256277706228129   -0.05463328073477806   -0.014883164512348572
0.052893397924337726   -0.04508820019181918   0.012042411652260884
0.052893397924337726   -0.04508820019181918   0.012042411652260884
0.052893397924337726   -0.04508820019181918   0.012042411652260884
0.052893397924337726   -0.04508820019181918   0.012042411652260884
-0.583561538744115   -0.07755319854928475   -0.014501108009333274
-0.583561538744115   -0.07755319854928475   -0.014501108009333274
-0.583561538744115   -0.07755319854928475   -0.014501108009333274
-0.583561538744115   -0.07755319854928475   -0.014501108009333274
-0.6361700696464874   -0.19306066448727233   -0.019970519436513706
-0.6361700696464874   -0.19306066448727233   -0.019970519436513706
-0.6361700696464874   -0.19306066448727233   -0.019970519436513706
-0.6361700696464874   -0.19306066448727233   -0.019970519436513706
0.049841001070770344   0.048484992587529585   0.023286796987888846
0.049841001070770344   0.048484992587529585   0.023286796987888846
0.049841001070770344   0.048484992587529585   0.023286796987888846
0.049841001070770344   0.048484992587529585   0.023286796987888846
-0.27931688966297524   -0.06229005941586852   -0.017848960908904945
-0.27931688966297524   -0.06229005941586852   -0.017848960908904945
-0.27931688966297524   -0.06229005941586852   -0.017848960908904945
-0.27931688966297524   -0.06229005941586852   -0.017848960908904945
0.02823784175068212   -0.052861483104616865   0.016617476079594205
0.02823784175068212   -0.052861483104616865   0.016617476079594205
0.02823784175068212   -0.052861483104616865   0.016617476079594205
0.02823784175068212   -0.052861483104616865   0.016617476079594205
-0.6141950795667883   -0.09134235803551642   -0.011813875489782483
-0.6141950795667883   -0.09134235803551642   -0.011813875489782483
-0.6141950795667883   -0.09134235803551642   -0.011813875489782483
-0.6141950795667883   -0.09134235803551642   -0.011813875489782483
-0.66706287955119   -0.19838497443562875   -0.017751913544417575
-0.66706287955119   -0.19838497443562875   -0.017751913544417575
-0.66706287955119   -0.19838497443562875   -0.017751913544417575
-0.66706287955119   -0.19838497443562875   -0.017751913544417575
0.021660466151008615   0.03749632089988288   0.02601824911525226
0.021660466151008615   0.03749632089988288   0.02601824911525226
0.021660466151008615   0.03749632089988288   0.02601824911525226
0.021660466151008615   0.03749632089988288   0.02601824911525226
-0.3092445886964014   -0.07145667288526494   -0.024998528042173205
-0.3092445886964014   -0.07145667288526494   -0.024998528042173205
-0.3092445886964014   -0.07145667288526494   -0.024998528042173205
-0.3092445886964014   -0.07145667288526494   -0.024998528042173205
-0.5517612226731397   -0.04787488728374055   0.008781084481021256
-0.5517612226731397   -0.04787488728374055   0.008781084481021256
-0.5517612226731397   -0.04787488728374055   0.008781084481021256
-0.5517612226731397   -0.04787488728374055   0.008781084481021256
-1.175146440203932   -0.07577489366329884   -0.031031792621542396
-1.175146440203932   -0.07577489366329884   -0.031031792621542396
-1.175146440203932   -0.07577489366329884   -0.031031792621542396
-1.175146440203932   -0.07577489366329884   -0.031031792621542396
-1.2295947443589648   -0.19470405253445305   -0.03011285456233073
-1.2295947443589648   -0.19470405253445305   -0.03011285456233073
-1.2295947443589648   -0.19470405253445305   -0.03011285456233073
-1.2295947443589648   -0.19470405253445305   -0.03011285456233073
-0.554597220323893   0.04690032636580185   0.005866959176682222
-0.554597220323893   0.04690032636580185   0.005866959176682222
-0.554597220323893   0.04690032636580185   0.005866959176682222
-0.554597220323893   0.04690032636580185   0.005866959176682222
-0.8705497858190765   -0.0647205632400744   -0.012483946657040928
-0.8705497858190765   -0.0647205632400744   -0.012483946657040928
-0.8705497858190765   -0.0647205632400744   -0.012483946657040928
-0.8705497858190765   -0.0647205632400744   -0.012483946657040928
-0.5715248930804213   -0.05286810584525775   0.020997027605102418
-0.5715248930804213   -0.05286810584525775   0.020997027605102418
-0.5715248930804213   -0.05286810584525775   0.020997027605102418
-0.5715248930804213   -0.05286810584525775   0.020997027605102418
-1.209215802917424   -0.09148435163838267   -0.03143784825070944
-1.209215802917424   -0.09148435163838267   -0.03143784825070944
-1.209215802917424   -0.09148435163838267   -0.03143784825070944
-1.209215802917424   -0.09148435163838267   -0.03143784825070944
-1.268107772642513   -0.2071364565550825   -0.0211621837882308
-1.268107772642513   -0.2071364565550825   -0.0211621837882308
-1.268107772642513   -0.2071364565550825   -0.0211621837882308
-1.268107772642513   -0.2071364565550825   -0.0211621837882308
-0.5855706820280013   0.03279837593740828   0.0071673782312280665
-0.5855706820280013   0.03279837593740828   0.0071673782312280665
-0.5855706820280013   0.03279837593740828   0.0071673782312280665
-0.5855706820280013   0.03279837593740828   0.0071673782312280665
-0.894875511336004   -0.07158924037151443   -0.012510543553696213
-0.894875511336004   -0.07158924037151443   -0.012510543553696213
-0.894875511336004   -0.07158924037151443   -0.012510543553696213
-0.894875511336004   -0.07158924037151443   -0.012510543553696213
-0.6022778165174694   -0.06537667685679681   0.02180675857809295
-0.6022778165174694   -0.06537667685679681   0.02180675857809295
-0.6022778165174694   -0.06537667685679681   0.02180675857809295
-0.6022778165174694   -0.06537667685679681   0.02180675857809295
-1.2490865801523208   -0.10664734576013823   -0.026545332132215563
-1.2490865801523208   -0.10664734576013823   -0.026545332132215563
-1.2490865801523208   -0.10664734576013823   -0.026545332132215563
-1.2490865801523208   -0.10664734576013823   -0.026545332132215563
-1.3116795216101282   -0.22353971618014162   -0.02263285592809533
-1.3116795216101282   -0.22353971618014162   -0.02263285592809533
-1.3116795216101282   -0.22353971618014162   -0.02263285592809533
-1.3116795216101282   -0.22353971618014162   -0.02263285592809533
-0.6190462037417465   0.01538509982069397   0.008561391246467966
-0.6190462037417465   0.01538509982069397   0.008561391246467966
-0.6190462037417465   0.01538509982069397   0.008561391246467966
-0.6190462037417465   0.01538509982069397   0.008561391246467966
-0.9381379741952968   -0.0884276366258765   -0.020365410975133613
-0.9381379741952968   -0.0884276366258765   -0.020365410975133613
-0.9381379741952968   -0.0884276366258765   -0.020365410975133613
-0.9381379741952968   -0.0884276366258765   -0.020365410975133613
-1.1354284650798618   0.053434981279275706   0.03834820805623522
-1.1354284650798618   0.053434981279275706   0.03834820805623522
-1.1354284650798618   0.053434981279275706   0.03834820805623522
-1.1354284650798618   0.053434981279275706   0.03834820805623522
-1.760370821493165   -0.08769490086613146   -0.023571391547141426
-1.760370821493165   -0.08769490086613146   -0.023571391547141426
-1.760370821493165   -0.08769490086613146   -0.023571391547141426
-1.760370821493165   -0.08769490086613146   -0.023571391547141426
-1.8035062608901526   -0.08931078846821744   0.03935096116674487
-1.8035062608901526   -0.08931078846821744   0.03935096116674487
-1.8035062608901526   -0.08931078846821744   0.03935096116674487
-1.8035062608901526   -0.08931078846821744   0.03935096116674487
-1.1791776797074434   0.03662623162532952   -0.009357815464518596
-1.1791776797074434   0.03662623162532952   -0.009357815464518596
-1.1791776797074434   0.03662623162532952   -0.009357815464518596
-1.1791776797074434   0.03662623162532952   -0.009357815464518596
-1.401121395144246   0.0010215486873169088   0.035582864324782984
-1.401121395144246   0.0010215486873169088   0.035582864324782984
-1.401121395144246   0.0010215486873169088   0.035582864324782984
-1.401121395144246   0.0010215486873169088   0.035582864324782984
-1.166977366175188   0.03981566250485863   0.04845432131722194
-1.166977366175188   0.03981566250485863   0.04845432131722194
-1.166977366175188   0.03981566250485863   0.04845432131722194
-1.166977366175188   0.03981566250485863   0.04845432131722194
-1.8148990376762613   -0.09169268260161612   -0.015231028630398297
-1.8148990376762613   -0.09169268260161612   -0.015231028630398297
-1.8148990376762613   -0.09169268260161612   -0.015231028630398297
-1.8148990376762613   -0.09169268260161612   -0.015231028630398297
-1.8579406634704907   -0.10405330694747317   0.053536925188694795
-1.8579406634704907   -0.10405330694747317   0.053536925188694795
-1.8579406634704907   -0.10405330694747317   0.053536925188694795
-1.8579406634704907   -0.10405330694747317   0.053536925188694795
-1.219085425538946   0.02660666468487216   -0.009793569510362893
-1.219085425538946   0.02660666468487216   -0.009793569510362893
-1.219085425538946   0.02660666468487216   -0.009793569510362893
-1.219085425538946   0.02660666468487216   -0.009793569510362893
-1.4714297283962456   -0.01622340972332048   0.01952577213532619
-1.4714297283962456   -0.01622340972332048   0.01952577213532619
-1.4714297283962456   -0.01622340972332048   0.01952577213532619
-1.4714297283962456   -0.01622340972332048   0.01952577213532619
-1.207931596099041   0.024797974969904046   0.04778426740413094
-1.207931596099041   0.024797974969904046   0.04778426740413094
-1.207931596099041   0.024797974969904046   0.04778426740413094
-1.207931596099041   0.024797974969904046   0.04778426740413094
-1.8711952203974718   -0.10434534471958079   -0.012443821674102101
-1.8711952203974718   -0.10434534471958079   -0.012443821674102101
-1.8711952203974718   -0.10434534471958079   -0.012443821674102101
-1.8711952203974718   -0.10434534471958079   -0.012443821674102101
-1.9353480038480222   -0.16362326893899798   0.04646594662071722
-1.9353480038480222   -0.16362326893899798   0.04646594662071722
-1.9353480038480222   -0.16362326893899798   0.04646594662071722
-1.9353480038480222   -0.16362326893899798   0.04646594662071722
-1.2650984215316168   -0.004040700383043883   -0.00922637133265665
-1.2650984215316168   -0.004040700383043883   -0.00922637133265665
-1.2650984215316168   -0.004040700383043883   -0.00922637133265665
-1.2650984215316168   -0.004040700383043883   -0.00922637133265665
-1.5012312789572224   -0.03796093442479026   0.005436647606099937
-1.5012312789572224   -0.03796093442479026   0.005436647606099937
-1.5012312789572224   -0.03796093442479026   0.005436647606099937
-1.5012312789572224   -0.03796093442479026   0.005436647606099937
1.1616062980088249   0.0622193153417   -0.041261250958696934
1.1616062980088249   0.0622193153417   -0.041261250958696934
1.1616062980088249   0.0622193153417   -0.041261250958696934
1.1616062980088249   0.0622193153417   -0.041261250958696934
0.575632968861334   -0.0007504910937538578   0.014908337582199775
0.575632968861334   -0.0007504910937538578   0.014908337582199775
0.575632968861334   -0.0007504910937538578   0.014908337582199775
0.575632968861334   -0.0007504910937538578   0.014908337582199775
0.5262676977635371   -0.08569318302062554   -0.03788248727242669
0.5262676977635371   -0.08569318302062554   -0.03788248727242669
0.5262676977635371   -0.08569318302062554   -0.03788248727242669
0.5262676977635371   -0.08569318302062554   -0.03788248727242669
1.139809901064745   0.0938535430494965   0.018702430617166303
1.139809901064745   0.0938535430494965   0.018702430617166303
1.139809901064745   0.0938535430494965   0.018702430617166303
1.139809901064745   0.0938535430494965   0.018702430617166303
0.8068423215677735   0.007119290119477234   -0.026557842478679955
0.8068423215677735   0.007119290119477234   -0.026557842478679955
0.8068423215677735   0.007119290119477234   -0.026557842478679955
0.8068423215677735   0.007119290119477234   -0.026557842478679955
1.1157099686767555   0.031819192468206886   -0.03976288074148288
1.1157099686767555   0.031819192468206886   -0.03976288074148288
1.1157099686767555   0.031819192468206886   -0.03976288074148288
1.1157099686767555   0.031819192468206886   -0.03976288074148288
0.54933785391592   -0.024688608674942603   0.016463719143795692
0.54933785391592   -0.024688608674942603   0.016463719143795692
0.54933785391592   -0.024688608674942603   0.016463719143795692
0.54933785391592   -0.024688608674942603   0.016463719143795692
0.5015789574361071   -0.09282493783159264   -0.0329390561641109
0.5015789574361071   -0.09282493783159264   -0.0329390561641109
0.5015789574361071   -0.09282493783159264   -0.0329390561641109
0.5015789574361071   -0.09282493783159264   -0.0329390561641109
1.1028865342815495   0.08404312142306508   0.02559509124556516
1.1028865342815495   0.08404312142306508   0.02559509124556516
1.1028865342815495   0.08404312142306508   0.02559509124556516
1.1028865342815495   0.08404312142306508   0.02559509124556516
0.7875873278032732   -0.00575197460639007   -0.03483669140084534
0.7875873278032732   -0.00575197460639007   -0.03483669140084534
0.7875873278032732   -0.00575197460639007   -0.03483669140084534
0.7875873278032732   -0.00575197460639007   -0.03483669140084534
1.0792988560114045   0.023039014483233422   -0.031339193165308754
1.0792988560114045   0.023039014483233422   -0.031339193165308754
1.0792988560114045   0.023039014483233422   -0.031339193165308754
1.0792988560114045   0.023039014483233422   -0.031339193165308754
0.5242399134325777   -0.03274755316542785   0.02028833915207228
0.5242399134325777   -0.03274755316542785   0.02028833915207228
0.5242399134325777   -0.03274755316542785   0.02028833915207228
0.5242399134325777   -0.03274755316542785   0.02028833915207228
0.4790433184092292   -0.09487527467554949   -0.026913206930512613
0.4790433184092292   -0.09487527467554949   -0.026913206930512613
0.4790433184092292   -0.09487527467554949   -0.026913206930512613
0.4790433184092292   -0.09487527467554949   -0.026913206930512613
1.061261533393205   0.07549121231869999   0.031875101757623286
1.061261533393205   0.07549121231869999   0.031875101757623286
1.061261533393205   0.07549121231869999   0.031875101757623286
1.061261533393205   0.07549121231869999   0.031875101757623286
0.7425060916916341   -0.014594984602510075   -0.04728964071500901
0.7425060916916341   -0.014594984602510075   -0.04728964071500901
0.7425060916916341   -0.014594984602510075   -0.04728964071500901
0.7425060916916341   -0.014594984602510075   -0.04728964071500901
0.5856080582818164   0.060757560129586996   0.003275733461271274
0.5856080582818164   0.060757560129586996   0.003275733461271274
0.5856080582818164   0.060757560129586996   0.003275733461271274
0.5856080582818164   0.060757560129586996   0.003275733461271274
0.019695136733331658   -0.019303076502762112   -0.002432317804960339
0.019695136733331658   -0.019303076502762112   -0.002432317804960339
0.019695136733331658   -0.019303076502762112   -0.002432317804960339
0.019695136733331658   -0.019303076502762112   -0.002432317804960339
-0.017516380949148404   -0.07723134729645689   -0.025801432619676816
-0.017516380949148404   -0.07723134729645689   -0.025801432619676816
-0.017516380949148404   -0.07723134729645689   -0.025801432619676816
-0.017516380949148404   -0.07723134729645689   -0.025801432619676816
0.5743487723509695   0.0850234217876851   0.03180628085641467
0.5743487723509695   0.0850234217876851   0.03180628085641467
0.5743487723509695   0.0850234217876851   0.03180628085641467
0.5743487723509695   0.0850234217876851   0.03180628085641467
0.2860056564772369   0.012113521093523712   -0.0032554985891106326
0.2860056564772369   0.012113521093523712   -0.0032554985891106326
0.2860056564772369   0.012113521093523712   -0.0032554985891106326
0.2860056564772369   0.012113521093523712   -0.0032554985891106326
0.5612982451724713   0.045006064835108994   0.0065710019165022455
0.5612982451724713   0.045006064835108994   0.0065710019165022455
0.5612982451724713   0.045006064835108994   0.0065710019165022455
0.5612982451724713   0.045006064835108994   0.0065710019165022455
-0.00423301871894566   -0.036981155292170706   0.00036518652705071555
-0.00423301871894566   -0.036981155292170706   0.00036518652705071555
-0.00423301871894566   -0.036981155292170706   0.00036518652705071555
-0.00423301871894566   -0.036981155292170706   0.00036518652705071555
-0.04090323090884035   -0.08876156594822861   -0.02231136111518493
-0.04090323090884035   -0.08876156594822861   -0.02231136111518493
-0.04090323090884035   -0.08876156594822861   -0.02231136111518493
-0.04090323090884035   -0.08876156594822861   -0.02231136111518493
0.5478549974287287   0.07042611365504425   0.03519009231235478
0.5478549974287287   0.07042611365504425   0.03519009231235478
0.5478549974287287   0.07042611365504425   0.03519009231235478
0.5478549974287287   0.07042611365504425   0.03519009231235478
0.25742402428425354   -0.0022779229293619432   -0.011431010739218555
0.25742402428425354   -0.0022779229293619432   -0.011431010739218555
0.25742402428425354   -0.0022779229293619432   -0.011431010739218555
0.25742402428425354   -0.0022779229293619432   -0.011431010739218555
0.5352948782556443   0.03291954177341799   0.009896068328563504
0.5352948782556443   0.03291954177341799   0.009896068328563504
0.5352948782556443   0.03291954177341799   0.009896068328563504
0.5352948782556443   0.03291954177341799   0.009896068328563504
-0.028320977503509738   -0.05123285983435026   0.0030711997975897964
-0.028320977503509738   -0.05123285983435026   0.0030711997975897964
-0.028320977503509738   -0.05123285983435026   0.0030711997975897964
-0.028320977503509738   -0.05123285983435026   0.0030711997975897964
-0.06405083885745735   -0.09568361577106983   -0.017759999220631477
-0.06405083885745735   -0.09568361577106983   -0.017759999220631477
-0.06405083885745735   -0.09568361577106983   -0.017759999220631477
-0.06405083885745735   -0.09568361577106983   -0.017759999220631477
0.5226563733001214   0.05812970924143786   0.038147083606954166
0.5226563733001214   0.05812970924143786   0.038147083606954166
0.5226563733001214   0.05812970924143786   0.038147083606954166
0.5226563733001214   0.05812970924143786   0.038147083606954166
0.23631432839325284   -0.011462998309122327   -0.017450123375329057
0.23631432839325284   -0.011462998309122327   -0.017450123375329057
0.23631432839325284   -0.011462998309122327   -0.017450123375329057
0.23631432839325284   -0.011462998309122327   -0.017450123375329057
0.038940354661762634   0.06129542614386305   0.013195269190569379
0.038940354661762634   0.06129542614386305   0.013195269190569379
0.038940354661762634   0.06129542614386305   0.013195269190569379
0.038940354661762634   0.06129542614386305   0.013195269190569379
-0.5190419815267017   -0.03368187037090799   -0.017846812448024513
-0.5190419815267017   -0.03368187037090799   -0.017846812448024513
-0.5190419815267017   -0.03368187037090799   -0.017846812448024513
-0.5190419815267017   -0.03368187037090799   -0.017846812448024513
-0.5480727620279157   -0.07083006717878612   -0.0163742278730395
-0.5480727620279157   -0.07083006717878612   -0.0163742278730395
-0.5480727620279157   -0.07083006717878612   -0.0163742278730395
-0.5480727620279157   -0.07083006717878612   -0.0163742278730395
0.020103421735413355   0.06963023250888889   0.0154360009977862
0.020103421735413355   0.06963023250888889   0.0154360009977862
0.020103421735413355   0.06963023250888889   0.0154360009977862
0.020103421735413355   0.06963023250888889   0.0154360009977862
-0.25170081800522776   0.0077740438857353475   0.0009684043374622656
-0.25170081800522776   0.0077740438857353475   0.0009684043374622656
-0.25170081800522776   0.0077740438857353475   0.0009684043374622656
-0.25170081800522776   0.0077740438857353475   0.0009684043374622656
0.016122674776096423   0.04859697124886856   0.016565527461221856
0.016122674776096423   0.04859697124886856   0.016565527461221856
0.016122674776096423   0.04859697124886856   0.016565527461221856
0.016122674776096423   0.04859697124886856   0.016565527461221856
-0.5434534115161429   -0.04915820236631002   -0.014949340126652059
-0.5434534115161429   -0.04915820236631002   -0.014949340126652059
-0.5434534115161429   -0.04915820236631002   -0.014949340126652059
-0.5434534115161429   -0.04915820236631002   -0.014949340126652059
-0.5731693824151732   -0.08349671970205676   -0.013611380974099325
-0.5731693824151732   -0.08349671970205676   -0.013611380974099325
-0.5731693824151732   -0.08349671970205676   -0.013611380974099325
-0.5731693824151732   -0.08349671970205676   -0.013611380974099325
-0.0040202220561083735   0.05461511690182837   0.018727000298417985
-0.0040202220561083735   0.05461511690182837   0.018727000298417985
-0.0040202220561083735   0.05461511690182837   0.018727000298417985
-0.0040202220561083735   0.05461511690182837   0.018727000298417985
-0.2757464067186127   -0.004630572826766308   -0.005172150353294658
-0.2757464067186127   -0.004630572826766308   -0.005172150353294658
-0.2757464067186127   -0.004630572826766308   -0.005172150353294658
-0.2757464067186127   -0.004630572826766308   -0.005172150353294658
-0.007418960362155346   0.03637110503114081   0.01997732063887067
-0.007418960362155346   0.03637110503114081   0.01997732063887067
-0.007418960362155346   0.03637110503114081   0.01997732063887067
-0.007418960362155346   0.03637110503114081   0.01997732063887067
-0.5692232134420285   -0.06470527716427082   -0.01267197864615782
-0.5692232134420285   -0.06470527716427082   -0.01267197864615782
-0.5692232134420285   -0.06470527716427082   -0.01267197864615782
-0.5692232134420285   -0.06470527716427082   -0.01267197864615782
-0.5980941866142397   -0.09346177555692188   -0.009017580403553858
-0.5980941866142397   -0.09346177555692188   -0.009017580403553858
-0.5980941866142397   -0.09346177555692188   -0.009017580403553858
-0.5980941866142397   -0.09346177555692188   -0.009017580403553858
-0.029013334815178572   0.04047050409797178   0.02127340112172082
-0.029013334815178572   0.04047050409797178   0.02127340112172082
-0.029013334815178572   0.04047050409797178   0.02127340112172082
-0.029013334815178572   0.04047050409797178   0.02127340112172082
-0.3016198985773286   -0.017245575718146514   -0.011884474102536392
-0.3016198985773286   -0.017245575718146514   -0.011884474102536392
-0.3016198985773286   -0.017245575718146514   -0.011884474102536392
-0.3016198985773286   -0.017245575718146514   -0.011884474102536392
-0.4894660802726567   0.07236475128127579   0.023986072170024672
-0.4894660802726567   0.07236475128127579   0.023986072170024672
-0.4894660802726567   0.07236475128127579   0.023986072170024672
-0.4894660802726567   0.07236475128127579   0.023986072170024672
-1.0400446348587224   -0.04629462856562136   -0.029227349667861932
-1.0400446348587224   -0.04629462856562136   -0.029227349667861932
-1.0400446348587224   -0.04629462856562136   -0.029227349667861932
-1.0400446348587224   -0.04629462856562136   -0.029227349667861932
-1.0626747556433345   -0.056838612425807705   -0.004750199461924252
-1.0626747556433345   -0.056838612425807705   -0.004750199461924252
-1.0626747556433345   -0.056838612425807705   -0.004750199461924252
-1.0626747556433345   -0.056838612425807705   -0.004750199461924252
-0.5202561079285457   0.052693532582699376   -0.000814557137671465
-0.5202561079285457   0.052693532582699376   -0.000814557137671465
-0.5202561079285457   0.052693532582699376   -0.000814557137671465
-0.5202561079285457   0.052693532582699376   -0.000814557137671465
-0.7724884920649875   0.00785712378481529   0.005638479711879897
-0.7724884920649875   0.00785712378481529   0.005638479711879897
-0.7724884920649875   0.00785712378481529   0.005638479711879897
-0.7724884920649875   0.00785712378481529   0.005638479711879897
-0.5133776094515596   0.059354291892436406   0.02691717593752161
-0.5133776094515596   0.059354291892436406   0.02691717593752161
-0.5133776094515596   0.059354291892436406   0.02691717593752161
-0.5133776094515596   0.059354291892436406   0.02691717593752161
-1.0686888778658534   -0.06263499548107909   -0.029024427519256074
-1.0686888778658534   -0.06263499548107909   -0.029024427519256074
-1.0686888778658534   -0.06263499548107909   -0.029024427519256074
-1.0686888778658534   -0.06263499548107909   -0.029024427519256074
-1.093579441216595   -0.07108290902408682   -0.004230287387684453
-1.093579441216595   -0.07108290902408682   -0.004230287387684453
-1.093579441216595   -0.07108290902408682   -0.004230287387684453
-1.093579441216595   -0.07108290902408682   -0.004230287387684453
-0.5456515939981033   0.03836514796581644   0.00211569344338116
-0.5456515939981033   0.03836514796581644   0.00211569344338116
-0.5456515939981033   0.03836514796581644   0.00211569344338116
-0.5456515939981033   0.03836514796581644   0.00211569344338116
-0.794107501228946   -0.003479242411624367   0.0006032818978378082
-0.794107501228946   -0.003479242411624367   0.0006032818978378082
-0.794107501228946   -0.003479242411624367   0.0006032818978378082
-0.794107501228946   -0.003479242411624367   0.0006032818978378082
-0.5381162223312026   0.04707277681605215   0.031084922927648778
-0.5381162223312026   0.04707277681605215   0.031084922927648778
-0.5381162223312026   0.04707277681605215   0.031084922927648778
-0.5381162223312026   0.04707277681605215   0.031084922927648778
-1.0993548980138306   -0.07803062300466398   -0.02615985739329362
-1.0993548980138306   -0.07803062300466398   -0.02615985739329362
-1.0993548980138306   -0.07803062300466398   -0.02615985739329362
-1.0993548980138306   -0.07803062300466398   -0.02615985739329362
-1.1220305330828755   -0.08633851563550551   0.002927643306599649
-1.1220305330828755   -0.08633851563550551   0.002927643306599649
-1.1220305330828755   -0.08633851563550551   0.002927643306599649
-1.1220305330828755   -0.08633851563550551   0.002927643306599649
-0.5725645357766442   0.02130673825645024   0.0038621599710632545
-0.5725645357766442   0.02130673825645024   0.0038621599710632545
-0.5725645357766442   0.02130673825645024   0.0038621599710632545
-0.5725645357766442   0.02130673825645024   0.0038621599710632545
-0.8279035765889029   -0.019414488102164035   -0.006175135546864989
-0.8279035765889029   -0.019414488102164035   -0.006175135546864989
-0.8279035765889029   -0.019414488102164035   -0.006175135546864989
-0.8279035765889029   -0.019414488102164035   -0.006175135546864989
-1.0031985947095174   0.07516288941877763   0.03354533309375622
-1.0031985947095174   0.07516288941877763   0.03354533309375622
-1.0031985947095174   0.07516288941877763   0.03354533309375622
-1.0031985947095174   0.07516288941877763   0.03354533309375622
-1.5353888015628454   -0.07103985059947615   -0.026899241034459592
-1.5353888015628454   -0.07103985059947615   -0.026899241034459592
-1.5353888015628454   -0.07103985059947615   -0.026899241034459592
-1.5353888015628454   -0.07103985059947615   -0.026899241034459592
-1.5563745683562038   -0.031237724125864286   0.028519294428303504
-1.5563745683562038   -0.031237724125864286   0.028519294428303504
-1.5563745683562038   -0.031237724125864286   0.028519294428303504
-1.5563745683562038   -0.031237724125864286   0.028519294428303504
-1.0470428056822534   0.031615830030930575   -0.015044892113257366
-1.0470428056822534   0.031615830030930575   -0.015044892113257366
-1.0470428056822534   0.031615830030930575   -0.015044892113257366
-1.0470428056822534   0.031615830030930575   -0.015044892113257366
-1.2286793902257218   0.015604679807539934   0.028265246993680257
-1.2286793902257218   0.015604679807539934   0.028265246993680257
-1.2286793902257218   0.015604679807539934   0.028265246993680257
-1.2286793902257218   0.015604679807539934   0.028265246993680257
-1.0273312388174916   0.07657736445376476   0.038551407787705785
-1.0273312388174916   0.07657736445376476   0.038551407787705785
-1.0273312388174916   0.07657736445376476   0.038551407787705785
-1.0273312388174916   0.07657736445376476   0.038551407787705785
-1.5749231011836735   -0.07503622451139819   -0.020424869323481046
-1.5749231011836735   -0.07503622451139819   -0.020424869323481046
-1.5749231011836735   -0.07503622451139819   -0.020424869323481046
-1.5749231011836735   -0.07503622451139819   -0.020424869323481046
-1.5947618888092812   -0.038690548473393926   0.03939682796864177
-1.5947618888092812   -0.038690548473393926   0.03939682796864177
-1.5947618888092812   -0.038690548473393926   0.03939682796864177
-1.5947618888092812   -0.038690548473393926   0.03939682796864177
-1.076517765732563   0.02338198917064166   -0.01338680816225346
-1.076517765732563   0.02338198917064166   -0.01338680816225346
-1.076517765732563   0.02338198917064166   -0.01338680816225346
-1.076517765732563   0.02338198917064166   -0.01338680816225346
-1.281557328193904   0.007705561370059566   0.018203296979677805
-1.281557328193904   0.007705561370059566   0.018203296979677805
-1.281557328193904   0.007705561370059566   0.018203296979677805
-1.281557328193904   0.007705561370059566   0.018203296979677805
-1.0547453586088757   0.07100402941526973   0.047853187211554654
-1.0547453586088757   0.07100402941526973   0.047853187211554654
-1.0547453586088757   0.07100402941526973   0.047853187211554654
-1.0547453586088757   0.07100402941526973   0.047853187211554654
-1.6154090465646125   -0.08518733934966077   -0.01734216993171614
-1.6154090465646125   -0.08518733934966077   -0.01734216993171614
-1.6154090465646125   -0.08518733934966077   -0.01734216993171614
-1.6154090465646125   -0.08518733934966077   -0.01734216993171614
-1.646830818488434   -0.07071070830994985   0.03915598598963087
-1.646830818488434   -0.07071070830994985   0.03915598598963087
-1.646830818488434   -0.07071070830994985   0.03915598598963087
-1.646830818488434   -0.07071070830994985   0.03915598598963087
-1.1081347544128985   -0.0013518957557059064   -0.012580083223315212
-1.1081347544128985   -0.0013518957557059064   -0.012580083223315212
-1.1081347544128985   -0.0013518957557059064   -0.012580083223315212
-1.1081347544128985   -0.0013518957557059064   -0.012580083223315212
-1.29686231211371   -0.003683654381164414   0.014889905908524473
-1.29686231211371   -0.003683654381164414   0.014889905908524473
-1.29686231211371   -0.003683654381164414   0.014889905908524473
-1.29686231211371   -0.003683654381164414   0.014889905908524473
0.8814072558319923   0.04903430976675119   -0.04194194508593332
0.8814072558319923   0.04903430976675119   -0.04194194508593332
0.8814072558319923   0.04903430976675119   -0.04194194508593332
0.8814072558319923   0.04903430976675119   -0.04194194508593332
0.41900432630673656   0.00827622592470001   0.015960726715442432
0.41900432630673656   0.00827622592470001   0.015960726715442432
0.41900432630673656   0.00827622592470001   0.015960726715442432
0.41900432630673656   0.00827622592470001   0.015960726715442432
0.37242168093554484   -0.071334741100644   -0.03985077000433606
0.37242168093554484   -0.071334741100644   -0.03985077000433606
0.37242168093554484   -0.071334741100644   -0.03985077000433606
0.37242168093554484   -0.071334741100644   -0.03985077000433606
0.8623922066574307   0.08094558038148347   0.019740945246514555
0.8623922066574307   0.08094558038148347   0.019740945246514555
0.8623922066574307   0.08094558038148347   0.019740945246514555
0.8623922066574307   0.08094558038148347   0.019740945246514555
0.6010729786301083   0.008123609584661878   -0.017777527025480175
0.6010729786301083   0.008123609584661878   -0.017777527025480175
0.6010729786301083   0.008123609584661878   -0.017777527025480175
0.6010729786301083   0.008123609584661878   -0.017777527025480175
0.8387166230403003   0.02196343569136963   -0.03965482814902339
0.8387166230403003   0.02196343569136963   -0.03965482814902339
0.8387166230403003   0.02196343569136963   -0.03965482814902339
0.8387166230403003   0.02196343569136963   -0.03965482814902339
0.3956317579476176   -0.012818103015588458   0.017682976970967906
0.3956317579476176   -0.012818103015588458   0.017682976970967906
0.3956317579476176   -0.012818103015588458   0.017682976970967906
0.3956317579476176   -0.012818103015588458   0.017682976970967906
0.3506657696718658   -0.07831942181457284   -0.03399686033294081
0.3506657696718658   -0.07831942181457284   -0.03399686033294081
0.3506657696718658   -0.07831942181457284   -0.03399686033294081
0.3506657696718658   -0.07831942181457284   -0.03399686033294081
0.828562319724184   0.07095813135375258   0.025982011970883626
0.828562319724184   0.07095813135375258   0.025982011970883626
0.828562319724184   0.07095813135375258   0.025982011970883626
0.828562319724184   0.07095813135375258   0.025982011970883626
0.5816410535994534   -0.00399916778896417   -0.02492637939544118
0.5816410535994534   -0.00399916778896417   -0.02492637939544118
0.5816410535994534   -0.00399916778896417   -0.02492637939544118
0.5816410535994534   -0.00399916778896417   -0.02492637939544118
0.8054356981027518   0.013079452484740767   -0.0317724172672588
0.8054356981027518   0.013079452484740767   -0.0317724172672588
0.8054356981027518   0.013079452484740767   -0.0317724172672588
0.8054356981027518   0.013079452484740767   -0.0317724172672588
0.3732020570207597   -0.021031077218098673   0.021396231815051726
0.3732020570207597   -0.021031077218098673   0.021396231815051726
0.3732020570207597   -0.021031077218098673   0.021396231815051726
0.3732020570207597   -0.021031077218098673   0.021396231815051726
0.3310642338410905   -0.08258617205196014   -0.028314520543532007
0.3310642338410905   -0.08258617205196014   -0.028314520543532007
0.3310642338410905   -0.08258617205196014   -0.028314520543532007
0.3310642338410905   -0.08258617205196014   -0.028314520543532007
0.7904079997944244   0.06017101292383503   0.030880862098605875
0.7904079997944244   0.06017101292383503   0.030880862098605875
0.7904079997944244   0.06017101292383503   0.030880862098605875
0.7904079997944244   0.06017101292383503   0.030880862098605875
0.5430974375433726   -0.013147180695866442   -0.035527306878604954
0.5430974375433726   -0.013147180695866442   -0.035527306878604954
0.5430974375433726   -0.013147180695866442   -0.035527306878604954
0.5430974375433726   -0.013147180695866442   -0.035527306878604954
0.42605665134863174   0.061962837959345915   -0.0024642601097203017
0.42605665134863174   0.061962837959345915   -0.0024642601097203017
0.42605665134863174   0.061962837959345915   -0.0024642601097203017
0.42605665134863174   0.061962837959345915   -0.0024642601097203017
-0.027971479070928437   -0.006135397751594962   -0.00025424956818265095
-0.027971479070928437   -0.006135397751594962   -0.00025424956818265095
-0.027971479070928437   -0.006135397751594962   -0.00025424956818265095
-0.027971479070928437   -0.006135397751594962   -0.00025424956818265095
-0.060787655942138114   -0.053436221093868315   -0.025355505258275533
-0.060787655942138114   -0.053436221093868315   -0.025355505258275533
-0.060787655942138114   -0.053436221093868315   -0.025355505258275533
-0.060787655942138114   -0.053436221093868315   -0.025355505258275533
0.4150230436986107   0.07359339808455653   0.028227904625788565
0.4150230436986107   0.07359339808455653   0.028227904625788565
0.4150230436986107   0.07359339808455653   0.028227904625788565
0.4150230436986107   0.07359339808455653   0.028227904625788565
0.18517998069062264   0.018143161100063813   0.001330038246345166
0.18517998069062264   0.018143161100063813   0.001330038246345166
0.18517998069062264   0.018143161100063813   0.001330038246345166
0.18517998069062264   0.018143161100063813   0.001330038246345166
0.403878170518881   0.044822860510270665   0.0012740763014309209
0.403878170518881   0.044822860510270665   0.0012740763014309209
0.403878170518881   0.044822860510270665   0.0012740763014309209
0.403878170518881   0.044822860510270665   0.0012740763014309209
-0.04945263872108046   -0.024475539478258777   0.0023588992314032085
-0.04945263872108046   -0.024475539478258777   0.0023588992314032085
-0.04945263872108046   -0.024475539478258777   0.0023588992314032085
-0.04945263872108046   -0.024475539478258777   0.0023588992314032085
-0.08127873225407764   -0.06663353725863554   -0.020974432573268646
-0.08127873225407764   -0.06663353725863554   -0.020974432573268646
-0.08127873225407764   -0.06663353725863554   -0.020974432573268646
-0.08127873225407764   -0.06663353725863554   -0.020974432573268646
0.39086443685936656   0.05781993369462663   0.03085712009536072
0.39086443685936656   0.05781993369462663   0.03085712009536072
0.39086443685936656   0.05781993369462663   0.03085712009536072
0.39086443685936656   0.05781993369462663   0.03085712009536072
0.15991371704709265   0.0025415279789987658   -0.006501281832178454
0.15991371704709265   0.0025415279789987658   -0.006501281832178454
0.15991371704709265   0.0025415279789987658   -0.006501281832178454
0.15991371704709265   0.0025415279789987658   -0.006501281832178454
0.3800897408919289   0.03066313222981134   0.0041404417229899595
0.3800897408919289   0.03066313222981134   0.0041404417229899595
0.3800897408919289   0.03066313222981134   0.0041404417229899595
0.3800897408919289   0.03066313222981134   0.0041404417229899595
-0.07066215939777543   -0.03963485890496045   0.005109753354567341
-0.07066215939777543   -0.03963485890496045   0.005109753354567341
-0.07066215939777543   -0.03963485890496045   0.005109753354567341
-0.07066215939777543   -0.03963485890496045   0.005109753354567341
-0.10150001820296907   -0.07770270109964311   -0.016858576595360258
-0.10150001820296907   -0.07770270109964311   -0.016858576595360258
-0.10150001820296907   -0.07770270109964311   -0.016858576595360258
-0.10150001820296907   -0.07770270109964311   -0.016858576595360258
0.36855900951859377   0.04324945669482044   0.033323729097202354
0.36855900951859377   0.04324945669482044   0.033323729097202354
0.36855900951859377   0.04324945669482044   0.033323729097202354
0.36855900951859377   0.04324945669482044   0.033323729097202354
0.14055440756893456   -0.009265741991818791   -0.013019219322013288
0.14055440756893456   -0.009265741991818791   -0.013019219322013288
0.14055440756893456   -0.009265741991818791   -0.013019219322013288
0.14055440756893456   -0.009265741991818791   -0.013019219322013288
-0.009885844404145139   0.07377202062170178   0.010266505392437082
-0.009885844404145139   0.07377202062170178   0.010266505392437082
-0.009885844404145139   0.07377202062170178   0.010266505392437082
-0.009885844404145139   0.07377202062170178   0.010266505392437082
-0.4654376919599747   -0.02028727500296612   -0.01543673528014506
-0.4654376919599747   -0.02028727500296612   -0.01543673528014506
-0.4654376919599747   -0.02028727500296612   -0.01543673528014506
-0.4654376919599747   -0.02028727500296612   -0.01543673528014506
-0.48658569098829385   -0.03720690238400216   -0.01206056074296179
-0.48658569098829385   -0.03720690238400216   -0.01206056074296179
-0.48658569098829385   -0.03720690238400216   -0.01206056074296179
-0.48658569098829385   -0.03720690238400216   -0.01206056074296179
-0.030679364709395158   0.05943206413094152   0.0123176656806313
-0.030679364709395158   0.05943206413094152   0.0123176656806313
-0.030679364709395158   0.05943206413094152   0.0123176656806313
-0.030679364709395158   0.05943206413094152   0.0123176656806313
-0.24755846935059914   0.019049339484565546   0.004854047114366208
-0.24755846935059914   0.019049339484565546   0.004854047114366208
-0.24755846935059914   0.019049339484565546   0.004854047114366208
-0.24755846935059914   0.019049339484565546   0.004854047114366208
-0.030274131498698873   0.059352250696266706   0.014423645168787556
-0.030274131498698873   0.059352250696266706   0.014423645168787556
-0.030274131498698873   0.059352250696266706   0.014423645168787556
-0.030274131498698873   0.059352250696266706   0.014423645168787556
-0.48659615459625294   -0.03673231934659006   -0.012587461820168937
-0.48659615459625294   -0.03673231934659006   -0.012587461820168937
-0.48659615459625294   -0.03673231934659006   -0.012587461820168937
-0.48659615459625294   -0.03673231934659006   -0.012587461820168937
-0.5075751691472329   -0.051489252929174806   -0.008239901765442644
-0.5075751691472329   -0.051489252929174806   -0.008239901765442644
-0.5075751691472329   -0.051489252929174806   -0.008239901765442644
-0.5075751691472329   -0.051489252929174806   -0.008239901765442644
-0.05204421688575466   0.043190762929658774   0.015373844080051878
-0.05204421688575466   0.043190762929658774   0.015373844080051878
-0.05204421688575466   0.043190762929658774   0.015373844080051878
-0.05204421688575466   0.043190762929658774   0.015373844080051878
-0.2687640858586781   0.0049504090288532004   -0.0014962769934649678
-0.2687640858586781   0.0049504090288532004   -0.0014962769934649678
-0.2687640858586781   0.0049504090288532004   -0.0014962769934649678
-0.2687640858586781   0.0049504090288532004   -0.0014962769934649678
-0.05121467350896243   0.04497774277525183   0.01773458111842006
-0.05121467350896243   0.04497774277525183   0.01773458111842006
-0.05121467350896243   0.04497774277525183   0.01773458111842006
-0.05121467350896243   0.04497774277525183   0.01773458111842006
-0.5082904562731857   -0.053161976523928324   -0.010143613800452653
-0.5082904562731857   -0.053161976523928324   -0.010143613800452653
-0.5082904562731857   -0.053161976523928324   -0.010143613800452653
-0.5082904562731857   -0.053161976523928324   -0.010143613800452653
-0.5283149968492248   -0.06453579636680237   -0.004456439168103751
-0.5283149968492248   -0.06453579636680237   -0.004456439168103751
-0.5283149968492248   -0.06453579636680237   -0.004456439168103751
-0.5283149968492248   -0.06453579636680237   -0.004456439168103751
-0.07349799055556439   0.027482751365015382   0.017966109177004717
-0.07349799055556439   0.027482751365015382   0.017966109177004717
-0.07349799055556439   0.027482751365015382   0.017966109177004717
-0.07349799055556439   0.027482751365015382   0.017966109177004717
-0.29094297496848304   -0.009266193066303142   -0.008569713982946038
-0.29094297496848304   -0.009266193066303142   -0.008569713982946038
-0.29094297496848304   -0.009266193066303142   -0.008569713982946038
-0.29094297496848304   -0.009266193066303142   -0.008569713982946038
-0.4369205092617243   0.08462337260748676   0.022238530600649897
-0.4369205092617243   0.08462337260748676   0.022238530600649897
-0.4369205092617243   0.08462337260748676   0.022238530600649897
-0.4369205092617243   0.08462337260748676   0.022238530600649897
-0.8930078961822264   -0.034751557434161556   -0.027806642580255427
-0.8930078961822264   -0.034751557434161556   -0.027806642580255427
-0.8930078961822264   -0.034751557434161556   -0.027806642580255427
-0.8930078961822264   -0.034751557434161556   -0.027806642580255427
-0.9045604286331591   -0.02351951736730626   0.002424513816913748
-0.9045604286331591   -0.02351951736730626   0.002424513816913748
-0.9045604286331591   -0.02351951736730626   0.002424513816913748
-0.9045604286331591   -0.02351951736730626   0.002424513816913748
-0.46889939007628334   0.04269638444658802   -0.0035323430134959616
-0.46889939007628334   0.04269638444658802   -0.0035323430134959616
-0.46889939007628334   0.04269638444658802   -0.0035323430134959616
-0.46889939007628334   0.04269638444658802   -0.0035323430134959616
-0.671451744350494   0.01811091814370791   0.008223862917595415
-0.671451744350494   0.01811091814370791   0.008223862917595415
-0.671451744350494   0.01811091814370791   0.008223862917595415
-0.671451744350494   0.01811091814370791   0.008223862917595415
-0.4573467070016175   0.07068651296408575   0.02624094384233218
-0.4573467070016175   0.07068651296408575   0.02624094384233218
-0.4573467070016175   0.07068651296408575   0.02624094384233218
-0.4573467070016175   0.07068651296408575   0.02624094384233218
-0.9160089879515201   -0.05140552212849975   -0.026932278013697922
-0.9160089879515201   -0.05140552212849975   -0.026932278013697922
-0.9160089879515201   -0.05140552212849975   -0.026932278013697922
-0.9160089879515201   -0.05140552212849975   -0.026932278013697922
-0.9290036288689648   -0.03795882648100471   0.0038478560801369147
-0.9290036288689648   -0.03795882648100471   0.0038478560801369147
-0.9290036288689648   -0.03795882648100471   0.0038478560801369147
-0.9290036288689648   -0.03795882648100471   0.0038478560801369147
-0.4901842380136235   0.027653429673131655   -0.00042792869969832115
-0.4901842380136235   0.027653429673131655   -0.00042792869969832115
-0.4901842380136235   0.027653429673131655   -0.00042792869969832115
-0.4901842380136235   0.027653429673131655   -0.00042792869969832115
-0.6893645493017366   0.00554537673100744   0.0023156164061541376
-0.6893645493017366   0.00554537673100744   0.0023156164061541376
-0.6893645493017366   0.00554537673100744   0.0023156164061541376
-0.6893645493017366   0.00554537673100744   0.0023156164061541376
-0.478147584800382   0.05743713710384324   0.02997162993579392
-0.478147584800382   0.05743713710384324   0.02997162993579392
-0.478147584800382   0.05743713710384324   0.02997162993579392
-0.478147584800382   0.05743713710384324   0.02997162993579392
-0.9404220160951396   -0.06712426792465029   -0.024078638607091876
-0.9404220160951396   -0.06712426792465029   -0.024078638607091876
-0.9404220160951396   -0.06712426792465029   -0.024078638607091876
-0.9404220160951396   -0.06712426792465029   -0.024078638607091876
-0.9511691501424089   -0.053510347140136   0.008381347353896722
-0.9511691501424089   -0.053510347140136   0.008381347353896722
-0.9511691501424089   -0.053510347140136   0.008381347353896722
-0.9511691501424089   -0.053510347140136   0.008381347353896722
-0.5120662866619441   0.01043141664576644   0.0018198987557346002
-0.5120662866619441   0.01043141664576644   0.0018198987557346002
-0.5120662866619441   0.01043141664576644   0.0018198987557346002
-0.5120662866619441   0.01043141664576644   0.0018198987557346002
-0.7167011744726084   -0.010238150231125204   -0.0051955352437280874
-0.7167011744726084   -0.010238150231125204   -0.0051955352437280874
-0.7167011744726084   -0.010238150231125204   -0.0051955352437280874
-0.7167011744726084   -0.010238150231125204   -0.0051955352437280874
-0.8590352121612169   0.07589313292155639   0.031412087169074315
-0.8590352121612169   0.07589313292155639   0.031412087169074315
-0.8590352121612169   0.07589313292155639   0.031412087169074315
-0.8590352121612169   0.07589313292155639   0.031412087169074315
-1.2998498199900963   -0.060005507771874494   -0.030575627803098006
-1.2998498199900963   -0.060005507771874494   -0.030575627803098006
-1.2998498199900963   -0.060005507771874494   -0.030575627803098006
-1.2998498199900963   -0.060005507771874494   -0.030575627803098006
-1.314232357338759   -0.013026144053827848   0.028934789119486937
-1.314232357338759   -0.013026144053827848   0.028934789119486937
-1.314232357338759   -0.013026144053827848   0.028934789119486937
-1.314232357338759   -0.013026144053827848   0.028934789119486937
-0.8995895901827134   0.021609882162796912   -0.017850693460960743
-0.8995895901827134   0.021609882162796912   -0.017850693460960743
-0.8995895901827134   0.021609882162796912   -0.017850693460960743
-0.8995895901827134   0.021609882162796912   -0.017850693460960743
-1.0448017157342067   0.017018612165429076   0.025620602166847133
-1.0448017157342067   0.017018612165429076   0.025620602166847133
-1.0448017157342067   0.017018612165429076   0.025620602166847133
-1.0448017157342067   0.017018612165429076   0.025620602166847133
-0.8778033319311561   0.07584233266309925   0.036848147296519446
-0.8778033319311561   0.07584233266309925   0.036848147296519446
-0.8778033319311561   0.07584233266309925   0.036848147296519446
-0.8778033319311561   0.07584233266309925   0.036848147296519446
-1.3356538220087837   -0.06689380097259567   -0.024304877311853185
-1.3356538220087837   -0.06689380097259567   -0.024304877311853185
-1.3356538220087837   -0.06689380097259567   -0.024304877311853185
-1.3356538220087837   -0.06689380097259567   -0.024304877311853185
-1.3462379940213556   -0.02064668276292475   0.03619006045867647
-1.3462379940213556   -0.02064668276292475   0.03619006045867647
-1.3462379940213556   -0.02064668276292475   0.03619006045867647
-1.3462379940213556   -0.02064668276292475   0.03619006045867647
-0.9225667953974472   0.01336327669491899   -0.01529007973819961
-0.9225667953974472   0.01336327669491899   -0.01529007973819961
-0.9225667953974472   0.01336327669491899   -0.01529007973819961
-0.9225667953974472   0.01336327669491899   -0.01529007973819961
-1.0895810361105096   0.008519756244232263   0.015621595354110347
-1.0895810361105096   0.008519756244232263   0.015621595354110347
-1.0895810361105096   0.008519756244232263   0.015621595354110347
-1.0895810361105096   0.008519756244232263   0.015621595354110347
-0.8994571078875411   0.07016317439446079   0.043458460111789624
-0.8994571078875411   0.07016317439446079   0.043458460111789624
-0.8994571078875411   0.07016317439446079   0.043458460111789624
-0.8994571078875411   0.07016317439446079   0.043458460111789624
-1.3687423285046438   -0.0768412274358461   -0.02013706728482849
-1.3687423285046438   -0.0768412274358461   -0.02013706728482849
-1.3687423285046438   -0.0768412274358461   -0.02013706728482849
-1.3687423285046438   -0.0768412274358461   -0.02013706728482849
-1.3884814658046396   -0.047801102678488666   0.0355205935545121
-1.3884814658046396   -0.047801102678488666   0.0355205935545121
-1.3884814658046396   -0.047801102678488666   0.0355205935545121
-1.3884814658046396   -0.047801102678488666   0.0355205935545121
-0.9468366937318554   -0.009608330986639435   -0.013858386746832867
-0.9468366937318554   -0.009608330986639435   -0.013858386746832867
-0.9468366937318554   -0.009608330986639435   -0.013858386746832867
-0.9468366937318554   -0.009608330986639435   -0.013858386746832867
-1.1010346960452906   -0.0020699809072858566   0.0123025513847684
-1.1010346960452906   -0.0020699809072858566   0.0123025513847684
-1.1010346960452906   -0.0020699809072858566   0.0123025513847684
-1.1010346960452906   -0.0020699809072858566   0.0123025513847684
0.6062723124667428   0.03437838320835705   -0.040796473026247906
0.6062723124667428   0.03437838320835705   -0.040796473026247906
0.6062723124667428   0.03437838320835705   -0.040796473026247906
0.6062723124667428   0.03437838320835705   -0.040796473026247906
0.2589563347751267   0.016410393876678933   0.01747961655391205
0.2589563347751267   0.016410393876678933   0.01747961655391205
0.2589563347751267   0.016410393876678933   0.01747961655391205
0.2589563347751267   0.016410393876678933   0.01747961655391205
0.216929192277924   -0.059705333957054976   -0.03805061206667108
0.216929192277924   -0.059705333957054976   -0.03805061206667108
0.216929192277924   -0.059705333957054976   -0.03805061206667108
0.216929192277924   -0.059705333957054976   -0.03805061206667108
0.5921255492731241   0.06878259370887892   0.021240966619768636
0.5921255492731241   0.06878259370887892   0.021240966619768636
0.5921255492731241   0.06878259370887892   0.021240966619768636
0.5921255492731241   0.06878259370887892   0.021240966619768636
0.39640687889001186   0.008782484770163926   -0.010828087417593169
0.39640687889001186   0.008782484770163926   -0.010828087417593169
0.39640687889001186   0.008782484770163926   -0.010828087417593169
0.39640687889001186   0.008782484770163926   -0.010828087417593169
0.568633394607102   0.010631821934845923   -0.03806903493631392
0.568633394607102   0.010631821934845923   -0.03806903493631392
0.568633394607102   0.010631821934845923   -0.03806903493631392
0.568633394607102   0.010631821934845923   -0.03806903493631392
0.23997975059698037   -0.001996158529992971   0.019493004101552924
0.23997975059698037   -0.001996158529992971   0.019493004101552924
0.23997975059698037   -0.001996158529992971   0.019493004101552924
0.23997975059698037   -0.001996158529992971   0.019493004101552924
0.19903556782989895   -0.06662307240538828   -0.03239725493053561
0.19903556782989895   -0.06662307240538828   -0.03239725493053561
0.19903556782989895   -0.06662307240538828   -0.03239725493053561
0.19903556782989895   -0.06662307240538828   -0.03239725493053561
0.5626807180419332   0.05896524390538617   0.027392412151018956
0.5626807180419332   0.05896524390538617   0.027392412151018956
0.5626807180419332   0.05896524390538617   0.027392412151018956
0.5626807180419332   0.05896524390538617   0.027392412151018956
0.37794263307559434   -0.0026365279719691437   -0.017599612553439028
0.37794263307559434   -0.0026365279719691437   -0.017599612553439028
0.37794263307559434   -0.0026365279719691437   -0.017599612553439028
0.37794263307559434   -0.0026365279719691437   -0.017599612553439028
0.5395697421923072   0.001769807345712096   -0.030967030537441955
0.5395697421923072   0.001769807345712096   -0.030967030537441955
0.5395697421923072   0.001769807345712096   -0.030967030537441955
0.5395697421923072   0.001769807345712096   -0.030967030537441955
0.22149314090455288   -0.010081038620686864   0.023348576658034127
0.22149314090455288   -0.010081038620686864   0.023348576658034127
0.22149314090455288   -0.010081038620686864   0.023348576658034127
0.22149314090455288   -0.010081038620686864   0.023348576658034127
0.18304584650662986   -0.07287848866903746   -0.02700449257796201
0.18304584650662986   -0.07287848866903746   -0.02700449257796201
0.18304584650662986   -0.07287848866903746   -0.02700449257796201
0.18304584650662986   -0.07287848866903746   -0.02700449257796201
0.528298531469503   0.04607823560588159   0.03127806888690501
0.528298531469503   0.04607823560588159   0.03127806888690501
0.528298531469503   0.04607823560588159   0.03127806888690501
0.528298531469503   0.04607823560588159   0.03127806888690501
0.34660283499053185   -0.011994629588428354   -0.026915317488694298
0.34660283499053185   -0.011994629588428354   -0.026915317488694298
0.34660283499053185   -0.011994629588428354   -0.026915317488694298
0.34660283499053185   -0.011994629588428354   -0.026915317488694298
0.26075769305594837   0.05020053912862478   -0.0073037372939300715
0.26075769305594837   0.05020053912862478   -0.0073037372939300715
0.26075769305594837   0.05020053912862478   -0.0073037372939300715
0.26075769305594837   0.05020053912862478   -0.0073037372939300715
-0.07989554228758709   0.004251784427828833   0.0023408459430766517
-0.07989554228758709   0.004251784427828833   0.0023408459430766517
-0.07989554228758709   0.004251784427828833   0.0023408459430766517
-0.07989554228758709   0.004251784427828833   0.0023408459430766517
-0.10862770475178965   -0.04147293287655046   -0.023453001729345994
-0.10862770475178965   -0.04147293287655046   -0.023453001729345994
-0.10862770475178965   -0.04147293287655046   -0.023453001729345994
-0.10862770475178965   -0.04147293287655046   -0.023453001729345994
0.2535856866144267   0.06033593126029611   0.025190594398495487
0.2535856866144267   0.06033593126029611   0.025190594398495487
0.2535856866144267   0.06033593126029611   0.025190594398495487
0.2535856866144267   0.06033593126029611   0.025190594398495487
0.07966990052007127   0.017436758612663444   0.0030595866089118103
0.07966990052007127   0.017436758612663444   0.0030595866089118103
0.07966990052007127   0.017436758612663444   0.0030595866089118103
0.07966990052007127   0.017436758612663444   0.0030595866089118103
0.2422180500930336   0.03260373920721176   -0.003915396155388851
0.2422180500930336   0.03260373920721176   -0.003915396155388851
0.2422180500930336   0.03260373920721176   -0.003915396155388851
0.2422180500930336   0.03260373920721176   -0.003915396155388851
-0.09742974559704912   -0.013910418190114397   0.004974279357918763
-0.09742974559704912   -0.013910418190114397   0.004974279357918763
-0.09742974559704912   -0.013910418190114397   0.004974279357918763
-0.09742974559704912   -0.013910418190114397   0.004974279357918763
-0.12526852256417786   -0.055374912643195114   -0.018984152170203543
-0.12526852256417786   -0.055374912643195114   -0.018984152170203543
-0.12526852256417786   -0.055374912643195114   -0.018984152170203543
-0.12526852256417786   -0.055374912643195114   -0.018984152170203543
0.23317383782995268   0.044283307841833514   0.02738771482251268
0.23317383782995268   0.044283307841833514   0.02738771482251268
0.23317383782995268   0.044283307841833514   0.02738771482251268
0.23317383782995268   0.044283307841833514   0.02738771482251268
0.059137809086917216   0.0017003482311631485   -0.0044995330139986685
0.059137809086917216   0.0017003482311631485   -0.0044995330139986685
0.059137809086917216   0.0017003482311631485   -0.0044995330139986685
0.059137809086917216   0.0017003482311631485   -0.0044995330139986685
0.22216560870737165   0.017695599546202437   -0.001065722494765291
0.22216560870737165   0.017695599546202437   -0.001065722494765291
0.22216560870737165   0.017695599546202437   -0.001065722494765291
0.22216560870737165   0.017695599546202437   -0.001065722494765291
-0.11468770202538742   -0.029214612931360386   0.00775965081191396
-0.11468770202538742   -0.029214612931360386   0.00775965081191396
-0.11468770202538742   -0.029214612931360386   0.00775965081191396
-0.11468770202538742   -0.029214612931360386   0.00775965081191396
-0.1416867349381667   -0.06843549584424571   -0.01485528914136797
-0.1416867349381667   -0.06843549584424571   -0.01485528914136797
-0.1416867349381667   -0.06843549584424571   -0.01485528914136797
-0.1416867349381667   -0.06843549584424571   -0.01485528914136797
0.2147540611666001   0.02886760301522895   0.029790489037626735
0.2147540611666001   0.02886760301522895   0.029790489037626735
0.2147540611666001   0.02886760301522895   0.029790489037626735
0.2147540611666001   0.02886760301522895   0.029790489037626735
0.042669399252688915   -0.011347446688358239   -0.011172109415570241
0.042669399252688915   -0.011347446688358239   -0.011172109415570241
0.042669399252688915   -0.011347446688358239   -0.011172109415570241
0.042669399252688915   -0.011347446688358239   -0.011172109415570241
-0.06733376033491596   0.06358430533743362   0.005817234796825558
-0.06733376033491596   0.06358430533743362   0.005817234796825558
-0.06733376033491596   0.06358430533743362   0.005817234796825558
-0.06733376033491596   0.06358430533743362   0.005817234796825558
-0.413705271713455   -0.01053351672589145   -0.012588615623366377
-0.413705271713455   -0.01053351672589145   -0.012588615623366377
-0.413705271713455   -0.01053351672589145   -0.012588615623366377
-0.413705271713455   -0.01053351672589145   -0.012588615623366377
-0.4301302215475848   -0.02477624751274725   -0.009273035699622924
-0.4301302215475848   -0.02477624751274725   -0.009273035699622924
-0.4301302215475848   -0.02477624751274725   -0.009273035699622924
-0.4301302215475848   -0.02477624751274725   -0.009273035699622924
-0.08448785115196583   0.046001088423821376   0.00977224496939941
-0.08448785115196583   0.046001088423821376   0.00977224496939941
-0.08448785115196583   0.046001088423821376   0.00977224496939941
-0.08448785115196583   0.046001088423821376   0.00977224496939941
-0.24830654904988816   0.018276007781489474   0.004917562050539087
-0.24830654904988816   0.018276007781489474   0.004917562050539087
-0.24830654904988816   0.018276007781489474   0.004917562050539087
-0.24830654904988816   0.018276007781489474   0.004917562050539087
-0.08397809236513225   0.04831100910762163   0.010011118219768932
-0.08397809236513225   0.04831100910762163   0.010011118219768932
-0.08397809236513225   0.04831100910762163   0.010011118219768932
-0.08397809236513225   0.04831100910762163   0.010011118219768932
-0.43068889258245147   -0.02713508044458028   -0.00970755794212325
-0.43068889258245147   -0.02713508044458028   -0.00970755794212325
-0.43068889258245147   -0.02713508044458028   -0.00970755794212325
-0.43068889258245147   -0.02713508044458028   -0.00970755794212325
-0.44694415135586696   -0.039923033584300834   -0.005295204019633912
-0.44694415135586696   -0.039923033584300834   -0.005295204019633912
-0.44694415135586696   -0.039923033584300834   -0.005295204019633912
-0.44694415135586696   -0.039923033584300834   -0.005295204019633912
-0.10195078273666992   0.02948123229676967   0.012748402027371415
-0.10195078273666992   0.02948123229676967   0.012748402027371415
-0.10195078273666992   0.02948123229676967   0.012748402027371415
-0.10195078273666992   0.02948123229676967   0.012748402027371415
-0.26559271953108127   0.0035234098829651783   -0.0015782336718631225
-0.26559271953108127   0.0035234098829651783   -0.0015782336718631225
-0.26559271953108127   0.0035234098829651783   -0.0015782336718631225
-0.26559271953108127   0.0035234098829651783   -0.0015782336718631225
-0.10108134552780007   0.033019943715781486   0.0135568766527108
-0.10108134552780007   0.033019943715781486   0.0135568766527108
-0.10108134552780007   0.033019943715781486   0.0135568766527108
-0.10108134552780007   0.033019943715781486   0.0135568766527108
-0.44808510364431303   -0.043733260082888546   -0.007189738963276527
-0.44808510364431303   -0.043733260082888546   -0.007189738963276527
-0.44808510364431303   -0.043733260082888546   -0.007189738963276527
-0.44808510364431303   -0.043733260082888546   -0.007189738963276527
-0.4634722896663031   -0.05439046596603265   -0.0014256783674966387
-0.4634722896663031   -0.05439046596603265   -0.0014256783674966387
-0.4634722896663031   -0.05439046596603265   -0.0014256783674966387
-0.4634722896663031   -0.05439046596603265   -0.0014256783674966387
-0.11926810391641583   0.013429897585965578   0.015372472537173288
-0.11926810391641583   0.013429897585965578   0.015372472537173288
-0.11926810391641583   0.013429897585965578   0.015372472537173288
-0.11926810391641583   0.013429897585965578   0.015372472537173288
-0.2835932053607262   -0.011244704359002683   -0.008620680829422082
-0.2835932053607262   -0.011244704359002683   -0.008620680829422082
-0.2835932053607262   -0.011244704359002683   -0.008620680829422082
-0.2835932053607262   -0.011244704359002683   -0.008620680829422082
-0.39033438126211933   0.07507578170616763   0.018656538201252765
-0.39033438126211933   0.07507578170616763   0.018656538201252765
-0.39033438126211933   0.07507578170616763   0.018656538201252765
-0.39033438126211933   0.07507578170616763   0.018656538201252765
-0.7417023378565026   -0.025252882397287846   -0.025592902869848534
-0.7417023378565026   -0.025252882397287846   -0.025592902869848534
-0.7417023378565026   -0.025252882397287846   -0.025592902869848534
-0.7417023378565026   -0.025252882397287846   -0.025592902869848534
-0.7478678011116106   -0.011204678722539718   0.0059307521761925025
-0.7478678011116106   -0.011204678722539718   0.0059307521761925025
-0.7478678011116106   -0.011204678722539718   0.0059307521761925025
-0.7478678011116106   -0.011204678722539718   0.0059307521761925025
-0.41840796404958425   0.029987045852532257   -0.005425041574907488
-0.41840796404958425   0.029987045852532257   -0.005425041574907488
-0.41840796404958425   0.029987045852532257   -0.005425041574907488
-0.41840796404958425   0.029987045852532257   -0.005425041574907488
-0.5711613268645203   0.017316069222781894   0.00713431552763754
-0.5711613268645203   0.017316069222781894   0.00713431552763754
-0.5711613268645203   0.017316069222781894   0.00713431552763754
-0.5711613268645203   0.017316069222781894   0.00713431552763754
-0.4066723598854181   0.06041355342262231   0.022826471675840877
-0.4066723598854181   0.06041355342262231   0.022826471675840877
-0.4066723598854181   0.06041355342262231   0.022826471675840877
-0.4066723598854181   0.06041355342262231   0.022826471675840877
-0.7601193640137599   -0.04214714503062322   -0.024384596026478557
-0.7601193640137599   -0.04214714503062322   -0.024384596026478557
-0.7601193640137599   -0.04214714503062322   -0.024384596026478557
-0.7601193640137599   -0.04214714503062322   -0.024384596026478557
-0.7676919947392011   -0.02620842804286566   0.007770539445892691
-0.7676919947392011   -0.02620842804286566   0.007770539445892691
-0.7676919947392011   -0.02620842804286566   0.007770539445892691
-0.7676919947392011   -0.02620842804286566   0.007770539445892691
-0.4354025730291631   0.014760776643442289   -0.0022711226138612435
-0.4354025730291631   0.014760776643442289   -0.0022711226138612435
-0.4354025730291631   0.014760776643442289   -0.0022711226138612435
-0.4354025730291631   0.014760776643442289   -0.0022711226138612435
-0.5856994948916197   0.003947135268554225   0.0006241694030084677
-0.5856994948916197   0.003947135268554225   0.0006241694030084677
-0.5856994948916197   0.003947135268554225   0.0006241694030084677
-0.5856994948916197   0.003947135268554225   0.0006241694030084677
-0.42324424432376495   0.04648606138529837   0.026795236171276812
-0.42324424432376495   0.04648606138529837   0.026795236171276812
-0.42324424432376495   0.04648606138529837   0.026795236171276812
-0.42324424432376495   0.04648606138529837   0.026795236171276812
-0.7798970506735066   -0.05798044001362969   -0.02148272825487774
-0.7798970506735066   -0.05798044001362969   -0.02148272825487774
-0.7798970506735066   -0.05798044001362969   -0.02148272825487774
-0.7798970506735066   -0.05798044001362969   -0.02148272825487774
-0.785337127360533   -0.04220217989598579   0.01192275674556234
-0.785337127360533   -0.04220217989598579   0.01192275674556234
-0.785337127360533   -0.04220217989598579   0.01192275674556234
-0.785337127360533   -0.04220217989598579   0.01192275674556234
-0.4526954943362985   -0.002139168832014579   0.00020700114850097026
-0.4526954943362985   -0.002139168832014579   0.00020700114850097026
-0.4526954943362985   -0.002139168832014579   0.00020700114850097026
-0.4526954943362985   -0.002139168832014579   0.00020700114850097026
-0.6075624694483119   -0.011590661410887729   -0.006940093856253025
-0.6075624694483119   -0.011590661410887729   -0.006940093856253025
-0.6075624694483119   -0.011590661410887729   -0.006940093856253025
-0.6075624694483119   -0.011590661410887729   -0.006940093856253025
-0.7117521925784763   0.0695917762463901   0.029313164876604923
-0.7117521925784763   0.0695917762463901   0.029313164876604923
-0.7117521925784763   0.0695917762463901   0.029313164876604923
-0.7117521925784763   0.0695917762463901   0.029313164876604923
-1.050472899497885   -0.048406919884541294   -0.03316794613895533
-1.050472899497885   -0.048406919884541294   -0.03316794613895533
-1.050472899497885   -0.048406919884541294   -0.03316794613895533
-1.050472899497885   -0.048406919884541294   -0.03316794613895533
-1.0605582949313879   -0.0012051711897249628   0.02904274452507362
-1.0605582949313879   -0.0012051711897249628   0.02904274452507362
-1.0605582949313879   -0.0012051711897249628   0.02904274452507362
-1.0605582949313879   -0.0012051711897249628   0.02904274452507362
-0.7487283095307234   0.010309210069423702   -0.019885678711350767
-0.7487283095307234   0.010309210069423702   -0.019885678711350767
-0.7487283095307234   0.010309210069423702   -0.019885678711350767
-0.7487283095307234   0.010309210069423702   -0.019885678711350767
-0.8535740119559743   0.016096289076141135   0.021641368155680858
-0.8535740119559743   0.016096289076141135   0.021641368155680858
-0.8535740119559743   0.016096289076141135   0.021641368155680858
-0.8535740119559743   0.016096289076141135   0.021641368155680858
-0.7265565278654215   0.06670260104614367   0.034579838638450475
-0.7265565278654215   0.06670260104614367   0.034579838638450475
-0.7265565278654215   0.06670260104614367   0.034579838638450475
-0.7265565278654215   0.06670260104614367   0.034579838638450475
-1.0831716388066066   -0.05804012437635367   -0.027189021664384957
-1.0831716388066066   -0.05804012437635367   -0.027189021664384957
-1.0831716388066066   -0.05804012437635367   -0.027189021664384957
-1.0831716388066066   -0.05804012437635367   -0.027189021664384957
-1.0885768766626975   -0.00946132210428599   0.03659700753102564
-1.0885768766626975   -0.00946132210428599   0.03659700753102564
-1.0885768766626975   -0.00946132210428599   0.03659700753102564
-1.0885768766626975   -0.00946132210428599   0.03659700753102564
-0.7670001952046632   0.0019603686118628283   -0.016939259536161808
-0.7670001952046632   0.0019603686118628283   -0.016939259536161808
-0.7670001952046632   0.0019603686118628283   -0.016939259536161808
-0.7670001952046632   0.0019603686118628283   -0.016939259536161808
-0.8914215547752402   0.006612282916824641   0.011380246382117959
-0.8914215547752402   0.006612282916824641   0.011380246382117959
-0.8914215547752402   0.006612282916824641   0.011380246382117959
-0.8914215547752402   0.006612282916824641   0.011380246382117959
-0.7437923328223087   0.06032355779590365   0.04073686319158508
-0.7437923328223087   0.06032355779590365   0.04073686319158508
-0.7437923328223087   0.06032355779590365   0.04073686319158508
-0.7437923328223087   0.06032355779590365   0.04073686319158508
-1.1121032079247617   -0.06814298016803388   -0.022352990715546986
-1.1121032079247617   -0.06814298016803388   -0.022352990715546986
-1.1121032079247617   -0.06814298016803388   -0.022352990715546986
-1.1121032079247617   -0.06814298016803388   -0.022352990715546986
-1.1260595169317469   -0.03534132309777829   0.03669947589736445
-1.1260595169317469   -0.03534132309777829   0.03669947589736445
-1.1260595169317469   -0.03534132309777829   0.03669947589736445
-1.1260595169317469   -0.03534132309777829   0.03669947589736445
-0.7861241038517283   -0.019235212265515472   -0.01497909334089944
-0.7861241038517283   -0.019235212265515472   -0.01497909334089944
-0.7861241038517283   -0.019235212265515472   -0.01497909334089944
-0.7861241038517283   -0.019235212265515472   -0.01497909334089944
-0.9020459132295576   -0.004224439711472433   0.006514786182123283
-0.9020459132295576   -0.004224439711472433   0.006514786182123283
-0.9020459132295576   -0.004224439711472433   0.006514786182123283
-0.9020459132295576   -0.004224439711472433   0.006514786182123283
0.3347367455440008   0.020074885568859342   -0.03997833575405995
0.3347367455440008   0.020074885568859342   -0.03997833575405995
0.3347367455440008   0.020074885568859342   -0.03997833575405995
0.3347367455440008   0.020074885568859342   -0.03997833575405995
0.097690437065808   0.023966817457823805   0.019093377615925472
0.097690437065808   0.023966817457823805   0.019093377615925472
0.097690437065808   0.023966817457823805   0.019093377615925472
0.097690437065808   0.023966817457823805   0.019093377615925472
0.060493916691385555   -0.04884470343651766   -0.035263886525475685
0.060493916691385555   -0.04884470343651766   -0.035263886525475685
0.060493916691385555   -0.04884470343651766   -0.035263886525475685
0.060493916691385555   -0.04884470343651766   -0.035263886525475685
0.3255928389757272   0.05685674893007603   0.022971604092492836
0.3255928389757272   0.05685674893007603   0.022971604092492836
0.3255928389757272   0.05685674893007603   0.022971604092492836
0.3255928389757272   0.05685674893007603   0.022971604092492836
0.19269164093670688   0.009489754170881909   -0.004446297505889044
0.19269164093670688   0.009489754170881909   -0.004446297505889044
0.19269164093670688   0.009489754170881909   -0.004446297505889044
0.19269164093670688   0.009489754170881909   -0.004446297505889044
0.3021336621601976   -0.0007979027072304301   -0.036669628347851674
0.3021336621601976   -0.0007979027072304301   -0.036669628347851674
0.3021336621601976   -0.0007979027072304301   -0.036669628347851674
0.3021336621601976   -0.0007979027072304301   -0.036669628347851674
0.08322119313210237   0.008078047825975612   0.02144974441561563
0.08322119313210237   0.008078047825975612   0.02144974441561563
0.08322119313210237   0.008078047825975612   0.02144974441561563
0.08322119313210237   0.008078047825975612   0.02144974441561563
0.04645605197535739   -0.05575070054321609   -0.02996264402541649
0.04645605197535739   -0.05575070054321609   -0.02996264402541649
0.04645605197535739   -0.05575070054321609   -0.02996264402541649
0.04645605197535739   -0.05575070054321609   -0.02996264402541649
0.300358498281428   0.04732880364920701   0.029527786121627705
0.300358498281428   0.04732880364920701   0.029527786121627705
0.300358498281428   0.04732880364920701   0.029527786121627705
0.300358498281428   0.04732880364920701   0.029527786121627705
0.1751092699549338   -0.0013046794042222698   -0.01143907909192811
0.1751092699549338   -0.0013046794042222698   -0.01143907909192811
0.1751092699549338   -0.0013046794042222698   -0.01143907909192811
0.1751092699549338   -0.0013046794042222698   -0.01143907909192811
0.2770283485132411   -0.009668786870480034   -0.030125372199619898
0.2770283485132411   -0.009668786870480034   -0.030125372199619898
0.2770283485132411   -0.009668786870480034   -0.030125372199619898
0.2770283485132411   -0.009668786870480034   -0.030125372199619898
0.06880459884000807   0.00026528707293493187   0.025764102681687287
0.06880459884000807   0.00026528707293493187   0.025764102681687287
0.06880459884000807   0.00026528707293493187   0.025764102681687287
0.06880459884000807   0.00026528707293493187   0.025764102681687287
0.0339078928130238   -0.06404787390627303   -0.024961840017388923
0.0339078928130238   -0.06404787390627303   -0.024961840017388923
0.0339078928130238   -0.06404787390627303   -0.024961840017388923
0.0339078928130238   -0.06404787390627303   -0.024961840017388923
0.2691013221803254   0.03210898545673065   0.03279751482701916
0.2691013221803254   0.03210898545673065   0.03279751482701916
0.2691013221803254   0.03210898545673065   0.03279751482701916
0.2691013221803254   0.03210898545673065   0.03279751482701916
0.15071833569247758   -0.010903757016601436   -0.02000396669325958
0.15071833569247758   -0.010903757016601436   -0.02000396669325958
0.15071833569247758   -0.010903757016601436   -0.02000396669325958
0.15071833569247758   -0.010903757016601436   -0.02000396669325958
0.09402294075680961   0.03625987879487018   -0.011537165266113307
0.09402294075680961   0.03625987879487018   -0.011537165266113307
0.09402294075680961   0.03625987879487018   -0.011537165266113307
0.09402294075680961   0.03625987879487018   -0.011537165266113307
-0.13502797659614804   0.011587376413236074   0.004612069885712736
-0.13502797659614804   0.011587376413236074   0.004612069885712736
-0.13502797659614804   0.011587376413236074   0.004612069885712736
-0.13502797659614804   0.011587376413236074   0.004612069885712736
-0.1589923245350283   -0.03133704513300984   -0.020596276418579324
-0.1589923245350283   -0.03133704513300984   -0.020596276418579324
-0.1589923245350283   -0.03133704513300984   -0.020596276418579324
-0.1589923245350283   -0.03133704513300984   -0.020596276418579324
0.09069346367758614   0.044990437935244244   0.02189870703376586
0.09069346367758614   0.044990437935244244   0.02189870703376586
0.09069346367758614   0.044990437935244244   0.02189870703376586
0.09069346367758614   0.044990437935244244   0.02189870703376586
-0.028129409617070538   0.01472436777893371   0.003759364993313816
-0.028129409617070538   0.01472436777893371   0.003759364993313816
-0.028129409617070538   0.01472436777893371   0.003759364993313816
-0.028129409617070538   0.01472436777893371   0.003759364993313816
0.07937208318916766   0.018759616834107297   -0.008477374307189563
0.07937208318916766   0.018759616834107297   -0.008477374307189563
0.07937208318916766   0.018759616834107297   -0.008477374307189563
0.07937208318916766   0.018759616834107297   -0.008477374307189563
-0.1482967320486734   -0.005732012033936518   0.007276652914121626
-0.1482967320486734   -0.005732012033936518   0.007276652914121626
-0.1482967320486734   -0.005732012033936518   0.007276652914121626
-0.1482967320486734   -0.005732012033936518   0.007276652914121626
-0.1715487656685031   -0.045366920860447926   -0.016140825190438742
-0.1715487656685031   -0.045366920860447926   -0.016140825190438742
-0.1715487656685031   -0.045366920860447926   -0.016140825190438742
-0.1715487656685031   -0.045366920860447926   -0.016140825190438742
0.07421935634943895   0.029224508173240127   0.023878669128536516
0.07421935634943895   0.029224508173240127   0.023878669128536516
0.07421935634943895   0.029224508173240127   0.023878669128536516
0.07421935634943895   0.029224508173240127   0.023878669128536516
-0.0436516730421169   -0.00042372722856100394   -0.003501125096908817
-0.0436516730421169   -0.00042372722856100394   -0.003501125096908817
-0.0436516730421169   -0.00042372722856100394   -0.003501125096908817
-0.0436516730421169   -0.00042372722856100394   -0.003501125096908817
0.06323112140803805   0.0037080184265851687   -0.005546015831814433
0.06323112140803805   0.0037080184265851687   -0.005546015831814433
0.06323112140803805   0.0037080184265851687   -0.005546015831814433
0.06323112140803805   0.0037080184265851687   -0.005546015831814433
-0.16137076467317707   -0.020660665059868046   0.010042923985611657
-0.16137076467317707   -0.020660665059868046   0.010042923985611657
-0.16137076467317707   -0.020660665059868046   0.010042923985611657
-0.16137076467317707   -0.020660665059868046   0.010042923985611657
-0.18400829051306652   -0.0592659104042705   -0.012114726380203878
-0.18400829051306652   -0.0592659104042705   -0.012114726380203878
-0.18400829051306652   -0.0592659104042705   -0.012114726380203878
-0.18400829051306652   -0.0592659104042705   -0.012114726380203878
0.059794970446424296   0.013763795545797715   0.026661878697543762
0.059794970446424296   0.013763795545797715   0.026661878697543762
0.059794970446424296   0.013763795545797715   0.026661878697543762
0.059794970446424296   0.013763795545797715   0.026661878697543762
-0.05706992376359062   -0.013966484777375315   -0.0103517478539018
-0.05706992376359062   -0.013966484777375315   -0.0103517478539018
-0.05706992376359062   -0.013966484777375315   -0.0103517478539018
-0.05706992376359062   -0.013966484777375315   -0.0103517478539018
-0.128021279213125   0.049472992951383826   0.0017599402626800667
-0.128021279213125   0.049472992951383826   0.0017599402626800667
-0.128021279213125   0.049472992951383826   0.0017599402626800667
-0.128021279213125   0.049472992951383826   0.0017599402626800667
-0.3646067140359743   -0.004445499019801416   -0.01004516261326744
-0.3646067140359743   -0.004445499019801416   -0.01004516261326744
-0.3646067140359743   -0.004445499019801416   -0.01004516261326744
-0.3646067140359743   -0.004445499019801416   -0.01004516261326744
-0.3759230302249113   -0.015443217896601344   -0.006014107559799437
-0.3759230302249113   -0.015443217896601344   -0.006014107559799437
-0.3759230302249113   -0.015443217896601344   -0.006014107559799437
-0.3759230302249113   -0.015443217896601344   -0.006014107559799437
-0.14128767680611412   0.02962271877658796   0.006967198316389898
-0.14128767680611412   0.02962271877658796   0.006967198316389898
-0.14128767680611412   0.02962271877658796   0.006967198316389898
-0.14128767680611412   0.02962271877658796   0.006967198316389898
-0.251858275831251   0.014485136568033602   0.0038899691455666907
-0.251858275831251   0.014485136568033602   0.0038899691455666907
-0.251858275831251   0.014485136568033602   0.0038899691455666907
-0.251858275831251   0.014485136568033602   0.0038899691455666907
-0.14062114420087488   0.034003747370001176   0.0059188327491767265
-0.14062114420087488   0.034003747370001176   0.0059188327491767265
-0.14062114420087488   0.034003747370001176   0.0059188327491767265
-0.14062114420087488   0.034003747370001176   0.0059188327491767265
-0.37713827439222297   -0.020372958052086942   -0.007160588240875749
-0.37713827439222297   -0.020372958052086942   -0.007160588240875749
-0.37713827439222297   -0.020372958052086942   -0.007160588240875749
-0.37713827439222297   -0.020372958052086942   -0.007160588240875749
-0.3884262503431739   -0.03075952532403723   -0.0019799184701591293
-0.3884262503431739   -0.03075952532403723   -0.0019799184701591293
-0.3884262503431739   -0.03075952532403723   -0.0019799184701591293
-0.3884262503431739   -0.03075952532403723   -0.0019799184701591293
-0.15454045179807993   0.013632926608499484   0.009900896692727717
-0.15454045179807993   0.013632926608499484   0.009900896692727717
-0.15454045179807993   0.013632926608499484   0.009900896692727717
-0.15454045179807993   0.013632926608499484   0.009900896692727717
-0.26490170611654396   -6.580285274508657e-05   -0.0026165856073779095
-0.26490170611654396   -6.580285274508657e-05   -0.0026165856073779095
-0.26490170611654396   -6.580285274508657e-05   -0.0026165856073779095
-0.26490170611654396   -6.580285274508657e-05   -0.0026165856073779095
-0.15364640099761395   0.018494369749848673   0.009509707553710467
-0.15364640099761395   0.018494369749848673   0.009509707553710467
-0.15364640099761395   0.018494369749848673   0.009509707553710467
-0.15364640099761395   0.018494369749848673   0.009509707553710467
-0.3901000598033937   -0.03640072712514055   -0.004707763970158726
-0.3901000598033937   -0.03640072712514055   -0.004707763970158726
-0.3901000598033937   -0.03640072712514055   -0.004707763970158726
-0.3901000598033937   -0.03640072712514055   -0.004707763970158726
-0.40068703968365466   -0.0455427905269065   0.00192796774005175
-0.40068703968365466   -0.0455427905269065   0.00192796774005175
-0.40068703968365466   -0.0455427905269065   0.00192796774005175
-0.40068703968365466   -0.0455427905269065   0.00192796774005175
-0.16756931276486822   -0.001767579518943005   0.012581831475458247
-0.16756931276486822   -0.001767579518943005   0.012581831475458247
-0.16756931276486822   -0.001767579518943005   0.012581831475458247
-0.16756931276486822   -0.001767579518943005   0.012581831475458247
-0.2786276995003653   -0.014650118386879192   -0.009682212978526528
-0.2786276995003653   -0.014650118386879192   -0.009682212978526528
-0.2786276995003653   -0.014650118386879192   -0.009682212978526528
-0.2786276995003653   -0.014650118386879192   -0.009682212978526528
-0.3462136163958213   0.06204867315196444   0.015426153415731537
-0.3462136163958213   0.06204867315196444   0.015426153415731537
-0.3462136163958213   0.06204867315196444   0.015426153415731537
-0.3462136163958213   0.06204867315196444   0.015426153415731537
-0.5892621490410981   -0.01763453483829408   -0.022883512906086194
-0.5892621490410981   -0.01763453483829408   -0.022883512906086194
-0.5892621490410981   -0.01763453483829408   -0.022883512906086194
-0.5892621490410981   -0.01763453483829408   -0.022883512906086194
-0.5903785939282267   -0.0014349868012102918   0.009435425035022177
-0.5903785939282267   -0.0014349868012102918   0.009435425035022177
-0.5903785939282267   -0.0014349868012102918   0.009435425035022177
-0.5903785939282267   -0.0014349868012102918   0.009435425035022177
-0.370021401090191   0.015241517031119756   -0.007190696813926558
-0.370021401090191   0.015241517031119756   -0.007190696813926558
-0.370021401090191   0.015241517031119756   -0.007190696813926558
-0.370021401090191   0.015241517031119756   -0.007190696813926558
-0.4715422258203774   0.014522414765143363   0.005107769146397004
-0.4715422258203774   0.014522414765143363   0.005107769146397004
-0.4715422258203774   0.014522414765143363   0.005107769146397004
-0.4715422258203774   0.014522414765143363   0.005107769146397004
-0.3583098269149475   0.047011183177603985   0.019597507915814397
-0.3583098269149475   0.047011183177603985   0.019597507915814397
-0.3583098269149475   0.047011183177603985   0.019597507915814397
-0.3583098269149475   0.047011183177603985   0.019597507915814397
-0.6031424469655279   -0.034256931809752214   -0.02156189514294955
-0.6031424469655279   -0.034256931809752214   -0.02156189514294955
-0.6031424469655279   -0.034256931809752214   -0.02156189514294955
-0.6031424469655279   -0.034256931809752214   -0.02156189514294955
-0.6057739954236333   -0.01653802288869287   0.011606302119933212
-0.6057739954236333   -0.01653802288869287   0.011606302119933212
-0.6057739954236333   -0.01653802288869287   0.011606302119933212
-0.6057739954236333   -0.01653802288869287   0.011606302119933212
-0.38259033420367   0.0005137879133859657   -0.004073651010070577
-0.38259033420367   0.0005137879133859657   -0.004073651010070577
-0.38259033420367   0.0005137879133859657   -0.004073651010070577
-0.38259033420367   0.0005137879133859657   -0.004073651010070577
-0.4826152992855381   0.000968295890475368   -0.001711771273272572
-0.4826152992855381   0.000968295890475368   -0.001711771273272572
-0.4826152992855381   0.000968295890475368   -0.001711771273272572
-0.4826152992855381   0.000968295890475368   -0.001711771273272572
-0.3705677768842012   0.03291045424611626   0.023642469254546796
-0.3705677768842012   0.03291045424611626   0.023642469254546796
-0.3705677768842012   0.03291045424611626   0.023642469254546796
-0.3705677768842012   0.03291045424611626   0.023642469254546796
-0.6184529807952505   -0.04959111727357211   -0.018735530353280527
-0.6184529807952505   -0.04959111727357211   -0.018735530353280527
-0.6184529807952505   -0.04959111727357211   -0.018735530353280527
-0.6184529807952505   -0.04959111727357211   -0.018735530353280527
-0.6190667136178026   -0.032290549464810095   0.015821317266027365
-0.6190667136178026   -0.032290549464810095   0.015821317266027365
-0.6190667136178026   -0.032290549464810095   0.015821317266027365
-0.6190667136178026   -0.032290549464810095   0.015821317266027365
-0.39531804913188845   -0.015248878014334985   -0.0015209920136965635
-0.39531804913188845   -0.015248878014334985   -0.0015209920136965635
-0.39531804913188845   -0.015248878014334985   -0.0015209920136965635
-0.39531804913188845   -0.015248878014334985   -0.0015209920136965635
-0.49911960005472084   -0.0138201415355593   -0.009151889406184437
-0.49911960005472084   -0.0138201415355593   -0.009151889406184437
-0.49911960005472084   -0.0138201415355593   -0.009151889406184437
-0.49911960005472084   -0.0138201415355593   -0.009151889406184437
-0.5634763243180994   0.0610901662944425   0.027320909576178186
-0.5634763243180994   0.0610901662944425   0.027320909576178186
-0.5634763243180994   0.0610901662944425   0.027320909576178186
-0.5634763243180994   0.0610901662944425   0.027320909576178186
-0.793582269940333   -0.03658009968618983   -0.03465270270828061
-0.793582269940333   -0.03658009968618983   -0.03465270270828061
-0.793582269940333   -0.03658009968618983   -0.03465270270828061
-0.793582269940333   -0.03658009968618983   -0.03465270270828061
-0.7993617833570759   0.009902899228804662   0.028716240911875676
-0.7993617833570759   0.009902899228804662   0.028716240911875676
-0.7993617833570759   0.009902899228804662   0.028716240911875676
-0.7993617833570759   0.009902899228804662   0.028716240911875676
-0.5965477365388787   -0.0016929594845604135   -0.02115231533489559
-0.5965477365388787   -0.0016929594845604135   -0.02115231533489559
-0.5965477365388787   -0.0016929594845604135   -0.02115231533489559
-0.5965477365388787   -0.0016929594845604135   -0.02115231533489559
-0.658640956433914   0.014590278312299726   0.015995678484595953
-0.658640956433914   0.014590278312299726   0.015995678484595953
-0.658640956433914   0.014590278312299726   0.015995678484595953
-0.658640956433914   0.014590278312299726   0.015995678484595953
-0.574392781333252   0.0556161264107749   0.03231337479790304
-0.574392781333252   0.0556161264107749   0.03231337479790304
-0.574392781333252   0.0556161264107749   0.03231337479790304
-0.574392781333252   0.0556161264107749   0.03231337479790304
-0.8226377341482513   -0.04852718225207936   -0.029233431563117723
-0.8226377341482513   -0.04852718225207936   -0.029233431563117723
-0.8226377341482513   -0.04852718225207936   -0.029233431563117723
-0.8226377341482513   -0.04852718225207936   -0.029233431563117723
-0.8233506099272804   0.0014112285124185941   0.0366654546892342
-0.8233506099272804   0.0014112285124185941   0.0366654546892342
-0.8233506099272804   0.0014112285124185941   0.0366654546892342
-0.8233506099272804   0.0014112285124185941   0.0366654546892342
-0.6103985684408119   -0.009910710648836363   -0.01814387520582316
-0.6103985684408119   -0.009910710648836363   -0.01814387520582316
-0.6103985684408119   -0.009910710648836363   -0.01814387520582316
-0.6103985684408119   -0.009910710648836363   -0.01814387520582316
-0.6893505963401246   0.004554518748711628   0.005828806536648454
-0.6893505963401246   0.004554518748711628   0.005828806536648454
-0.6893505963401246   0.004554518748711628   0.005828806536648454
-0.6893505963401246   0.004554518748711628   0.005828806536648454
-0.5873082154547096   0.04897171023687641   0.038425468838983096
-0.5873082154547096   0.04897171023687641   0.038425468838983096
-0.5873082154547096   0.04897171023687641   0.038425468838983096
-0.5873082154547096   0.04897171023687641   0.038425468838983096
-0.8474997714756444   -0.05853000093555963   -0.024139123604607023
-0.8474997714756444   -0.05853000093555963   -0.024139123604607023
-0.8474997714756444   -0.05853000093555963   -0.024139123604607023
-0.8474997714756444   -0.05853000093555963   -0.024139123604607023
-0.8565146730300429   -0.022748796847497754   0.03784355292750397
-0.8565146730300429   -0.022748796847497754   0.03784355292750397
-0.8565146730300429   -0.022748796847497754   0.03784355292750397
-0.8565146730300429   -0.022748796847497754   0.03784355292750397
-0.6246948257809745   -0.028786764265788647   -0.01582302874886864
-0.6246948257809745   -0.028786764265788647   -0.01582302874886864
-0.6246948257809745   -0.028786764265788647   -0.01582302874886864
-0.6246948257809745   -0.028786764265788647   -0.01582302874886864
-0.6992893526252414   -0.006134249193328667   -0.00020255372084791723
-0.6992893526252414   -0.006134249193328667   -0.00020255372084791723
-0.6992893526252414   -0.006134249193328667   -0.00020255372084791723
-0.6992893526252414   -0.006134249193328667   -0.00020255372084791723
0.06264656963833859   0.005147467225984173   -0.03995950611580327
0.06264656963833859   0.005147467225984173   -0.03995950611580327
0.06264656963833859   0.005147467225984173   -0.03995950611580327
0.06264656963833859   0.005147467225984173   -0.03995950611580327
-0.06369689104043781   0.02990534338951222   0.02040147650477577
-0.06369689104043781   0.02990534338951222   0.02040147650477577
-0.06369689104043781   0.02990534338951222   0.02040147650477577
-0.06369689104043781   0.02990534338951222   0.02040147650477577
-0.0962655367038454   -0.03854946161485111   -0.03220107295253952
-0.0962655367038454   -0.03854946161485111   -0.03220107295253952
-0.0962655367038454   -0.03854946161485111   -0.03220107295253952
-0.0962655367038454   -0.03854946161485111   -0.03220107295253952
0.05771238457446767   0.04254895724408907   0.025030548766550118
0.05771238457446767   0.04254895724408907   0.025030548766550118
0.05771238457446767   0.04254895724408907   0.025030548766550118
0.05771238457446767   0.04254895724408907   0.025030548766550118
-0.011363162523714783   0.00934134680989407   0.0034581395438334052
-0.011363162523714783   0.00934134680989407   0.0034581395438334052
-0.011363162523714783   0.00934134680989407   0.0034581395438334052
-0.011363162523714783   0.00934134680989407   0.0034581395438334052
0.03442225542813495   -0.01312159711846002   -0.03574954260256442
0.03442225542813495   -0.01312159711846002   -0.03574954260256442
0.03442225542813495   -0.01312159711846002   -0.03574954260256442
0.03442225542813495   -0.01312159711846002   -0.03574954260256442
-0.07434674294860667   0.01574975735660398   0.023093676852199013
-0.07434674294860667   0.01574975735660398   0.023093676852199013
-0.07434674294860667   0.01574975735660398   0.023093676852199013
-0.07434674294860667   0.01574975735660398   0.023093676852199013
-0.107009204230859   -0.04551321146042725   -0.027314586914256547
-0.107009204230859   -0.04551321146042725   -0.027314586914256547
-0.107009204230859   -0.04551321146042725   -0.027314586914256547
-0.107009204230859   -0.04551321146042725   -0.027314586914256547
0.03562375548985953   0.033099019074746244   0.03435305006920896
0.03562375548985953   0.033099019074746244   0.03435305006920896
0.03562375548985953   0.033099019074746244   0.03435305006920896
0.03562375548985953   0.033099019074746244   0.03435305006920896
-0.0287509794757452   -0.0010949735420464147   -0.004575091620929941
-0.0287509794757452   -0.0010949735420464147   -0.004575091620929941
-0.0287509794757452   -0.0010949735420464147   -0.004575091620929941
-0.0287509794757452   -0.0010949735420464147   -0.004575091620929941
0.011788990753465994   -0.02219583832359453   -0.029525916214417948
0.011788990753465994   -0.02219583832359453   -0.029525916214417948
0.011788990753465994   -0.02219583832359453   -0.029525916214417948
0.011788990753465994   -0.02219583832359453   -0.029525916214417948
-0.0850798753528413   0.007876210079537614   0.028942635935866642
-0.0850798753528413   0.007876210079537614   0.028942635935866642
-0.0850798753528413   0.007876210079537614   0.028942635935866642
-0.0850798753528413   0.007876210079537614   0.028942635935866642
-0.11684801927298966   -0.05617112653170407   -0.022653703661839386
-0.11684801927298966   -0.05617112653170407   -0.022653703661839386
-0.11684801927298966   -0.05617112653170407   -0.022653703661839386
-0.11684801927298966   -0.05617112653170407   -0.022653703661839386
0.004946304807667405   0.013321469658625356   0.03918732221384769
0.004946304807667405   0.013321469658625356   0.03918732221384769
0.004946304807667405   0.013321469658625356   0.03918732221384769
0.004946304807667405   0.013321469658625356   0.03918732221384769
-0.04752236036923826   -0.011583258264553586   -0.013856809289206623
-0.04752236036923826   -0.011583258264553586   -0.013856809289206623
-0.04752236036923826   -0.011583258264553586   -0.013856809289206623
-0.04752236036923826   -0.011583258264553586   -0.013856809289206623
-0.07294459322518299   0.019912750753665807   -0.015844441783103652
-0.07294459322518299   0.019912750753665807   -0.015844441783103652
-0.07294459322518299   0.019912750753665807   -0.015844441783103652
-0.07294459322518299   0.019912750753665807   -0.015844441783103652
-0.19105018431504958   0.008046427344323141   0.005303534464634713
-0.19105018431504958   0.008046427344323141   0.005303534464634713
-0.19105018431504958   0.008046427344323141   0.005303534464634713
-0.19105018431504958   0.008046427344323141   0.005303534464634713
-0.20787669340868062   -0.022456629834010877   -0.016766474726242986
-0.20787669340868062   -0.022456629834010877   -0.016766474726242986
-0.20787669340868062   -0.022456629834010877   -0.016766474726242986
-0.20787669340868062   -0.022456629834010877   -0.016766474726242986
-0.07503515799842597   0.01937383710369234   0.016027521856014165
-0.07503515799842597   0.01937383710369234   0.016027521856014165
-0.07503515799842597   0.01937383710369234   0.016027521856014165
-0.07503515799842597   0.01937383710369234   0.016027521856014165
-0.1364565121951276   0.005823799043615251   0.003119661697776121
-0.1364565121951276   0.005823799043615251   0.003119661697776121
-0.1364565121951276   0.005823799043615251   0.003119661697776121
-0.1364565121951276   0.005823799043615251   0.003119661697776121
-0.08411106087347081   0.003045133779313529   -0.013023289194830753
-0.08411106087347081   0.003045133779313529   -0.013023289194830753
-0.08411106087347081   0.003045133779313529   -0.013023289194830753
-0.08411106087347081   0.003045133779313529   -0.013023289194830753
-0.1999304049699023   -0.007257540945898512   0.007765878579536242
-0.1999304049699023   -0.007257540945898512   0.007765878579536242
-0.1999304049699023   -0.007257540945898512   0.007765878579536242
-0.1999304049699023   -0.007257540945898512   0.007765878579536242
-0.2162466020519631   -0.036122709446559736   -0.012391460569060764
-0.2162466020519631   -0.036122709446559736   -0.012391460569060764
-0.2162466020519631   -0.036122709446559736   -0.012391460569060764
-0.2162466020519631   -0.036122709446559736   -0.012391460569060764
-0.08797531815368961   0.004269684726084227   0.018071947285078476
-0.08797531815368961   0.004269684726084227   0.018071947285078476
-0.08797531815368961   0.004269684726084227   0.018071947285078476
-0.08797531815368961   0.004269684726084227   0.018071947285078476
-0.14702860156139144   -0.007905022244510323   -0.0037738264183812134
-0.14702860156139144   -0.007905022244510323   -0.0037738264183812134
-0.14702860156139144   -0.007905022244510323   -0.0037738264183812134
-0.14702860156139144   -0.007905022244510323   -0.0037738264183812134
-0.09672765267970683   -0.011687196318400761   -0.00973284430052216
-0.09672765267970683   -0.011687196318400761   -0.00973284430052216
-0.09672765267970683   -0.011687196318400761   -0.00973284430052216
-0.09672765267970683   -0.011687196318400761   -0.00973284430052216
-0.20870767767994192   -0.02137923855607068   0.010559690400556244
-0.20870767767994192   -0.02137923855607068   0.010559690400556244
-0.20870767767994192   -0.02137923855607068   0.010559690400556244
-0.20870767767994192   -0.02137923855607068   0.010559690400556244
-0.22467165537643474   -0.05016555165301677   -0.008518231473669622
-0.22467165537643474   -0.05016555165301677   -0.008518231473669622
-0.22467165537643474   -0.05016555165301677   -0.008518231473669622
-0.22467165537643474   -0.05016555165301677   -0.008518231473669622
-0.09880084362895893   -0.011010126865104488   0.022421174891714694
-0.09880084362895893   -0.011010126865104488   0.022421174891714694
-0.09880084362895893   -0.011010126865104488   0.022421174891714694
-0.09880084362895893   -0.011010126865104488   0.022421174891714694
-0.15757421698294452   -0.02145892440078216   -0.010777868211138698
-0.15757421698294452   -0.02145892440078216   -0.010777868211138698
-0.15757421698294452   -0.02145892440078216   -0.010777868211138698
-0.15757421698294452   -0.02145892440078216   -0.010777868211138698
-0.18752656679861693   0.03264431069045613   -0.0016762612993370327
-0.18752656679861693   0.03264431069045613   -0.0016762612993370327
-0.18752656679861693   0.03264431069045613   -0.0016762612993370327
-0.18752656679861693   0.03264431069045613   -0.0016762612993370327
-0.31715804493083954   -0.010918725985874497   -0.008994716486143826
-0.31715804493083954   -0.010918725985874497   -0.008994716486143826
-0.31715804493083954   -0.010918725985874497   -0.008994716486143826
-0.31715804493083954   -0.010918725985874497   -0.008994716486143826
-0.32051168559426463   -0.008003056321361501   -0.0019376683852375329
-0.32051168559426463   -0.008003056321361501   -0.0019376683852375329
-0.32051168559426463   -0.008003056321361501   -0.0019376683852375329
-0.32051168559426463   -0.008003056321361501   -0.0019376683852375329
-0.19913646485833023   0.002000871086986801   0.002477167104511317
-0.19913646485833023   0.002000871086986801   0.002477167104511317
-0.19913646485833023   0.002000871086986801   0.002477167104511317
-0.19913646485833023   0.002000871086986801   0.002477167104511317
-0.25554443938627247   0.003675666226325182   0.001092310201457409
-0.25554443938627247   0.003675666226325182   0.001092310201457409
-0.25554443938627247   0.003675666226325182   0.001092310201457409
-0.25554443938627247   0.003675666226325182   0.001092310201457409
-0.19598863160592683   0.017777107536713806   0.0024400969168012
-0.19598863160592683   0.017777107536713806   0.0024400969168012
-0.19598863160592683   0.017777107536713806   0.0024400969168012
-0.19598863160592683   0.017777107536713806   0.0024400969168012
-0.3247474747258601   -0.024867248650280553   -0.006252421714295605
-0.3247474747258601   -0.024867248650280553   -0.006252421714295605
-0.3247474747258601   -0.024867248650280553   -0.006252421714295605
-0.3247474747258601   -0.024867248650280553   -0.006252421714295605
-0.3283627526840664   -0.02268530350521742   0.002132047010129654
-0.3283627526840664   -0.02268530350521742   0.002132047010129654
-0.3283627526840664   -0.02268530350521742   0.002132047010129654
-0.3283627526840664   -0.02268530350521742   0.002132047010129654
-0.20800798028574494   -0.012435777408397485   0.0051147162238679225
-0.20800798028574494   -0.012435777408397485   0.0051147162238679225
-0.20800798028574494   -0.012435777408397485   0.0051147162238679225
-0.20800798028574494   -0.012435777408397485   0.0051147162238679225
-0.2640510498446751   -0.00967763388203182   -0.005237992494440201
-0.2640510498446751   -0.00967763388203182   -0.005237992494440201
-0.2640510498446751   -0.00967763388203182   -0.005237992494440201
-0.2640510498446751   -0.00967763388203182   -0.005237992494440201
-0.20476806239821263   0.002819109000461492   0.006059419252670452
-0.20476806239821263   0.002819109000461492   0.006059419252670452
-0.20476806239821263   0.002819109000461492   0.006059419252670452
-0.20476806239821263   0.002819109000461492   0.006059419252670452
-0.33291471750886703   -0.039252236851344754   -0.0040608437677463055
-0.33291471750886703   -0.039252236851344754   -0.0040608437677463055
-0.33291471750886703   -0.039252236851344754   -0.0040608437677463055
-0.33291471750886703   -0.039252236851344754   -0.0040608437677463055
-0.33600772113735944   -0.03676401838637251   0.006038045510801931
-0.33600772113735944   -0.03676401838637251   0.006038045510801931
-0.33600772113735944   -0.03676401838637251   0.006038045510801931
-0.33600772113735944   -0.03676401838637251   0.006038045510801931
-0.21653245970143292   -0.026048655382626063   0.008060850630946966
-0.21653245970143292   -0.026048655382626063   0.008060850630946966
-0.21653245970143292   -0.026048655382626063   0.008060850630946966
-0.21653245970143292   -0.026048655382626063   0.008060850630946966
-0.2732047390350905   -0.023111013599489486   -0.012117090763097879
-0.2732047390350905   -0.023111013599489486   -0.012117090763097879
-0.2732047390350905   -0.023111013599489486   -0.012117090763097879
-0.2732047390350905   -0.023111013599489486   -0.012117090763097879
-0.3011504300546432   0.04715786493500622   0.01296676697396048
-0.3011504300546432   0.04715786493500622   0.01296676697396048
-0.3011504300546432   0.04715786493500622   0.01296676697396048
-0.3011504300546432   0.04715786493500622   0.01296676697396048
-0.43838281213253305   -0.018210381112979415   -0.020157583548595755
-0.43838281213253305   -0.018210381112979415   -0.020157583548595755
-0.43838281213253305   -0.018210381112979415   -0.020157583548595755
-0.43838281213253305   -0.018210381112979415   -0.020157583548595755
-0.4325475976547057   0.006845497863304614   0.013355403911512399
-0.4325475976547057   0.006845497863304614   0.013355403911512399
-0.4325475976547057   0.006845497863304614   0.013355403911512399
-0.4325475976547057   0.006845497863304614   0.013355403911512399
-0.32156368871501245   -0.006257200220445389   -0.008943540089892593
-0.32156368871501245   -0.006257200220445389   -0.008943540089892593
-0.32156368871501245   -0.006257200220445389   -0.008943540089892593
-0.32156368871501245   -0.006257200220445389   -0.008943540089892593
-0.37210358180173214   0.007430560478195167   0.0018254180772007446
-0.37210358180173214   0.007430560478195167   0.0018254180772007446
-0.37210358180173214   0.007430560478195167   0.0018254180772007446
-0.37210358180173214   0.007430560478195167   0.0018254180772007446
-0.3086301577088471   0.0323760733452263   0.01709084137526225
-0.3086301577088471   0.0323760733452263   0.01709084137526225
-0.3086301577088471   0.0323760733452263   0.01709084137526225
-0.3086301577088471   0.0323760733452263   0.01709084137526225
-0.4470703144071088   -0.03337696144860619   -0.019035720538600226
-0.4470703144071088   -0.03337696144860619   -0.019035720538600226
-0.4470703144071088   -0.03337696144860619   -0.019035720538600226
-0.4470703144071088   -0.03337696144860619   -0.019035720538600226
-0.4430641820799733   -0.007609606896498103   0.01578322281681237
-0.4430641820799733   -0.007609606896498103   0.01578322281681237
-0.4430641820799733   -0.007609606896498103   0.01578322281681237
-0.4430641820799733   -0.007609606896498103   0.01578322281681237
-0.3293463101335303   -0.01939358723052806   -0.006077456511879149
-0.3293463101335303   -0.01939358723052806   -0.006077456511879149
-0.3293463101335303   -0.01939358723052806   -0.006077456511879149
-0.3293463101335303   -0.01939358723052806   -0.006077456511879149
-0.37924355348477007   -0.005435013988779491   -0.005036225496032699
-0.37924355348477007   -0.005435013988779491   -0.005036225496032699
-0.37924355348477007   -0.005435013988779491   -0.005036225496032699
-0.37924355348477007   -0.005435013988779491   -0.005036225496032699
-0.316269285324587   0.018812953293065454   0.021101127009243815
-0.316269285324587   0.018812953293065454   0.021101127009243815
-0.316269285324587   0.018812953293065454   0.021101127009243815
-0.316269285324587   0.018812953293065454   0.021101127009243815
-0.457396145273765   -0.04707108580494125   -0.016415114243710397
-0.457396145273765   -0.04707108580494125   -0.016415114243710397
-0.457396145273765   -0.04707108580494125   -0.016415114243710397
-0.457396145273765   -0.04707108580494125   -0.016415114243710397
-0.4516114936526614   -0.02218038584349985   0.020114913361252103
-0.4516114936526614   -0.02218038584349985   0.020114913361252103
-0.4516114936526614   -0.02218038584349985   0.020114913361252103
-0.4516114936526614   -0.02218038584349985   0.020114913361252103
-0.33715937415365455   -0.03285409185884584   -0.0036301460982040203
-0.33715937415365455   -0.03285409185884584   -0.0036301460982040203
-0.33715937415365455   -0.03285409185884584   -0.0036301460982040203
-0.33715937415365455   -0.03285409185884584   -0.0036301460982040203
-0.3900043249964492   -0.018573711828580322   -0.012075008459058682
-0.3900043249964492   -0.018573711828580322   -0.012075008459058682
-0.3900043249964492   -0.018573711828580322   -0.012075008459058682
-0.3900043249964492   -0.018573711828580322   -0.012075008459058682
-0.4153539328020963   0.05112616223436277   0.025650269756245722
-0.4153539328020963   0.05112616223436277   0.025650269756245722
-0.4153539328020963   0.05112616223436277   0.025650269756245722
-0.4153539328020963   0.05112616223436277   0.025650269756245722
-0.535401473733613   -0.026844577958938062   -0.03363513741566986
-0.535401473733613   -0.026844577958938062   -0.03363513741566986
-0.535401473733613   -0.026844577958938062   -0.03363513741566986
-0.535401473733613   -0.026844577958938062   -0.03363513741566986
-0.5358482610909147   0.020332731741437154   0.02827666534712825
-0.5358482610909147   0.020332731741437154   0.02827666534712825
-0.5358482610909147   0.020332731741437154   0.02827666534712825
-0.5358482610909147   0.020332731741437154   0.02827666534712825
-0.4436974416846893   -0.014974904282224838   -0.02057341409287609
-0.4436974416846893   -0.014974904282224838   -0.02057341409287609
-0.4436974416846893   -0.014974904282224838   -0.02057341409287609
-0.4436974416846893   -0.014974904282224838   -0.02057341409287609
-0.4630235399583228   0.012067367452858024   0.009018093403042375
-0.4630235399583228   0.012067367452858024   0.009018093403042375
-0.4630235399583228   0.012067367452858024   0.009018093403042375
-0.4630235399583228   0.012067367452858024   0.009018093403042375
-0.42182946681565814   0.043532890600893465   0.030258665369153337
-0.42182946681565814   0.043532890600893465   0.030258665369153337
-0.42182946681565814   0.043532890600893465   0.030258665369153337
-0.42182946681565814   0.043532890600893465   0.030258665369153337
-0.559369356992003   -0.039828184173735695   -0.029167898243132182
-0.559369356992003   -0.039828184173735695   -0.029167898243132182
-0.559369356992003   -0.039828184173735695   -0.029167898243132182
-0.559369356992003   -0.039828184173735695   -0.029167898243132182
-0.5549736521427208   0.012087512405861756   0.0364223237695764
-0.5549736521427208   0.012087512405861756   0.0364223237695764
-0.5549736521427208   0.012087512405861756   0.0364223237695764
-0.5549736521427208   0.012087512405861756   0.0364223237695764
-0.4528072816438361   -0.022528466835652156   -0.018013415063354764
-0.4528072816438361   -0.022528466835652156   -0.018013415063354764
-0.4528072816438361   -0.022528466835652156   -0.018013415063354764
-0.4528072816438361   -0.022528466835652156   -0.018013415063354764
-0.48581631020835775   0.0020497039753267915   -0.0005196112001751886
-0.48581631020835775   0.0020497039753267915   -0.0005196112001751886
-0.48581631020835775   0.0020497039753267915   -0.0005196112001751886
-0.48581631020835775   0.0020497039753267915   -0.0005196112001751886
-0.4300345982542122   0.03704597119955888   0.03627556384955349
-0.4300345982542122   0.03704597119955888   0.03627556384955349
-0.4300345982542122   0.03704597119955888   0.03627556384955349
-0.4300345982542122   0.03704597119955888   0.03627556384955349
-0.5794278954675608   -0.04916848556456421   -0.024592894884190274
-0.5794278954675608   -0.04916848556456421   -0.024592894884190274
-0.5794278954675608   -0.04916848556456421   -0.024592894884190274
-0.5794278954675608   -0.04916848556456421   -0.024592894884190274
-0.5832067805901242   -0.009624431797843017   0.038500588400040114
-0.5832067805901242   -0.009624431797843017   0.038500588400040114
-0.5832067805901242   -0.009624431797843017   0.038500588400040114
-0.5832067805901242   -0.009624431797843017   0.038500588400040114
-0.4619563591535887   -0.03823071677349793   -0.015559083213386476
-0.4619563591535887   -0.03823071677349793   -0.015559083213386476
-0.4619563591535887   -0.03823071677349793   -0.015559083213386476
-0.4619563591535887   -0.03823071677349793   -0.015559083213386476
-0.49452585868567117   -0.007888170891565974   -0.007275903752402429
-0.49452585868567117   -0.007888170891565974   -0.007275903752402429
-0.49452585868567117   -0.007888170891565974   -0.007275903752402429
-0.49452585868567117   -0.007888170891565974   -0.007275903752402429
-0.22287800901105526   -0.014511083109834254   -0.042499538021339135
-0.22287800901105526   -0.014511083109834254   -0.042499538021339135
-0.22287800901105526   -0.014511083109834254   -0.042499538021339135
-0.22287800901105526   -0.014511083109834254   -0.042499538021339135
-0.22216223412704128   0.0324447313094435   0.019093606785970788
-0.22216223412704128   0.0324447313094435   0.019093606785970788
-0.22216223412704128   0.0324447313094435   0.019093606785970788
-0.22216223412704128   0.0324447313094435   0.019093606785970788
-0.250243350184826   -0.029818829439042252   -0.02885264988981277
-0.250243350184826   -0.029818829439042252   -0.02885264988981277
-0.250243350184826   -0.029818829439042252   -0.02885264988981277
-0.250243350184826   -0.029818829439042252   -0.02885264988981277
-0.22760010667400424   0.01723883395457966   0.028621509612444255
-0.22760010667400424   0.01723883395457966   0.028621509612444255
-0.22760010667400424   0.01723883395457966   0.028621509612444255
-0.22760010667400424   0.01723883395457966   0.028621509612444255
-0.2191316200589156   0.005533855241732812   0.019481262078290755
-0.2191316200589156   0.005533855241732812   0.019481262078290755
-0.2191316200589156   0.005533855241732812   0.019481262078290755
-0.2191316200589156   0.005533855241732812   0.019481262078290755
-0.250133287727073   -0.03115616609099421   -0.03564939560732559
-0.250133287727073   -0.03115616609099421   -0.03564939560732559
-0.250133287727073   -0.03115616609099421   -0.03564939560732559
-0.250133287727073   -0.03115616609099421   -0.03564939560732559
-0.23049226533793868   0.015794074400350223   0.02428987050523149
-0.23049226533793868   0.015794074400350223   0.02428987050523149
-0.23049226533793868   0.015794074400350223   0.02428987050523149
-0.23049226533793868   0.015794074400350223   0.02428987050523149
-0.2587397428151676   -0.03753256824852892   -0.02444138824213975
-0.2587397428151676   -0.03753256824852892   -0.02444138824213975
-0.2587397428151676   -0.03753256824852892   -0.02444138824213975
-0.2587397428151676   -0.03753256824852892   -0.02444138824213975
-0.2493813969789735   0.006754979785844016   0.05328365460618747
-0.2493813969789735   0.006754979785844016   0.05328365460618747
-0.2493813969789735   0.006754979785844016   0.05328365460618747
-0.2493813969789735   0.006754979785844016   0.05328365460618747
-0.23916313709389597   -0.007711392306408785   0.007818135990539944
-0.23916313709389597   -0.007711392306408785   0.007818135990539944
-0.23916313709389597   -0.007711392306408785   0.007818135990539944
-0.23916313709389597   -0.007711392306408785   0.007818135990539944
-0.27525529726277764   -0.04151131241251693   -0.027819554614469718
-0.27525529726277764   -0.04151131241251693   -0.027819554614469718
-0.27525529726277764   -0.04151131241251693   -0.027819554614469718
-0.27525529726277764   -0.04151131241251693   -0.027819554614469718
-0.23947511789786496   0.004124448583330907   0.030224719512513452
-0.23947511789786496   0.004124448583330907   0.030224719512513452
-0.23947511789786496   0.004124448583330907   0.030224719512513452
-0.23947511789786496   0.004124448583330907   0.030224719512513452
-0.26570514348618424   -0.05249772540026709   -0.01925720478676289
-0.26570514348618424   -0.05249772540026709   -0.01925720478676289
-0.26570514348618424   -0.05249772540026709   -0.01925720478676289
-0.26570514348618424   -0.05249772540026709   -0.01925720478676289
-0.2832160854463597   -0.027891781713974936   0.049852482489272744
-0.2832160854463597   -0.027891781713974936   0.049852482489272744
-0.2832160854463597   -0.027891781713974936   0.049852482489272744
-0.2832160854463597   -0.027891781713974936   0.049852482489272744
-0.2566183574855254   -0.023360224908723325   -0.010699370267950734
-0.2566183574855254   -0.023360224908723325   -0.010699370267950734
-0.2566183574855254   -0.023360224908723325   -0.010699370267950734
-0.2566183574855254   -0.023360224908723325   -0.010699370267950734
-0.23820112878753552   -0.006813079570427337   -0.021843055636631692
-0.23820112878753552   -0.006813079570427337   -0.021843055636631692
-0.23820112878753552   -0.006813079570427337   -0.021843055636631692
-0.23820112878753552   -0.006813079570427337   -0.021843055636631692
-0.24260215174635164   -0.029854481865423128   -0.0012782414653038964
-0.24260215174635164   -0.029854481865423128   -0.0012782414653038964
-0.24260215174635164   -0.029854481865423128   -0.0012782414653038964
-0.24260215174635164   -0.029854481865423128   -0.0012782414653038964
-0.24444996835592833   -0.019908094689051074   -0.010967326750215877
-0.24444996835592833   -0.019908094689051074   -0.010967326750215877
-0.24444996835592833   -0.019908094689051074   -0.010967326750215877
-0.24444996835592833   -0.019908094689051074   -0.010967326750215877
-0.24665667456015347   -0.040369894702459955   -0.00036820650303234347
-0.24665667456015347   -0.040369894702459955   -0.00036820650303234347
-0.24665667456015347   -0.040369894702459955   -0.00036820650303234347
-0.24665667456015347   -0.040369894702459955   -0.00036820650303234347
-0.24091599353256596   -0.02529122137400246   -0.0007897762043204354
-0.24091599353256596   -0.02529122137400246   -0.0007897762043204354
-0.24091599353256596   -0.02529122137400246   -0.0007897762043204354
-0.24091599353256596   -0.02529122137400246   -0.0007897762043204354
-0.24667993860373386   -0.021942923061040044   -0.01891149836235518
-0.24667993860373386   -0.021942923061040044   -0.01891149836235518
-0.24667993860373386   -0.021942923061040044   -0.01891149836235518
-0.24667993860373386   -0.021942923061040044   -0.01891149836235518
-0.24598463768643655   -0.03989299970456012   0.001344231612749912
-0.24598463768643655   -0.03989299970456012   0.001344231612749912
-0.24598463768643655   -0.03989299970456012   0.001344231612749912
-0.24598463768643655   -0.03989299970456012   0.001344231612749912
-0.24862042228634063   -0.032893592600388474   -0.00709933521464932
-0.24862042228634063   -0.032893592600388474   -0.00709933521464932
-0.24862042228634063   -0.032893592600388474   -0.00709933521464932
-0.24862042228634063   -0.032893592600388474   -0.00709933521464932
-0.25570707679235566   -0.05241559975907245   0.005604973382463564
-0.25570707679235566   -0.05241559975907245   0.005604973382463564
-0.25570707679235566   -0.05241559975907245   0.005604973382463564
-0.25570707679235566   -0.05241559975907245   0.005604973382463564
-0.24654324825400048   -0.035794070170150544   -0.00682007698119782
-0.24654324825400048   -0.035794070170150544   -0.00682007698119782
-0.24654324825400048   -0.035794070170150544   -0.00682007698119782
-0.24654324825400048   -0.035794070170150544   -0.00682007698119782
-0.2563183550493893   -0.03582226303535574   -0.014044754626421636
-0.2563183550493893   -0.03582226303535574   -0.014044754626421636
-0.2563183550493893   -0.03582226303535574   -0.014044754626421636
-0.2563183550493893   -0.03582226303535574   -0.014044754626421636
-0.25000050173939864   -0.05147828703420038   0.004584961953866891
-0.25000050173939864   -0.05147828703420038   0.004584961953866891
-0.25000050173939864   -0.05147828703420038   0.004584961953866891
-0.25000050173939864   -0.05147828703420038   0.004584961953866891
-0.25237432872220383   -0.04686314300149569   -0.0032704206969810428
-0.25237432872220383   -0.04686314300149569   -0.0032704206969810428
-0.25237432872220383   -0.04686314300149569   -0.0032704206969810428
-0.25237432872220383   -0.04686314300149569   -0.0032704206969810428
-0.26264345731195815   -0.06767721769077409   0.011230718374873817
-0.26264345731195815   -0.06767721769077409   0.011230718374873817
-0.26264345731195815   -0.06767721769077409   0.011230718374873817
-0.26264345731195815   -0.06767721769077409   0.011230718374873817
-0.25424429293521933   -0.04844740922555118   -0.014475397606687316
-0.25424429293521933   -0.04844740922555118   -0.014475397606687316
-0.25424429293521933   -0.04844740922555118   -0.014475397606687316
-0.25424429293521933   -0.04844740922555118   -0.014475397606687316
-0.23591286560125638   0.0063266622135205244   -0.004012954818767166
-0.23591286560125638   0.0063266622135205244   -0.004012954818767166
-0.23591286560125638   0.0063266622135205244   -0.004012954818767166
-0.23591286560125638   0.0063266622135205244   -0.004012954818767166
-0.26789814464234385   -0.05087260334157031   -0.012866521887542266
-0.26789814464234385   -0.05087260334157031   -0.012866521887542266
-0.26789814464234385   -0.05087260334157031   -0.012866521887542266
-0.26789814464234385   -0.05087260334157031   -0.012866521887542266
-0.2570345224514411   -0.00940773667828692   0.003332185871253569
-0.2570345224514411   -0.00940773667828692   0.003332185871253569
-0.2570345224514411   -0.00940773667828692   0.003332185871253569
-0.2570345224514411   -0.00940773667828692   0.003332185871253569
-0.2508156543624192   -0.054794838213575475   -0.007909013258147878
-0.2508156543624192   -0.054794838213575475   -0.007909013258147878
-0.2508156543624192   -0.054794838213575475   -0.007909013258147878
-0.2508156543624192   -0.054794838213575475   -0.007909013258147878
-0.25273788470424696   -0.02805101577651127   -0.005679258292642358
-0.25273788470424696   -0.02805101577651127   -0.005679258292642358
-0.25273788470424696   -0.02805101577651127   -0.005679258292642358
-0.25273788470424696   -0.02805101577651127   -0.005679258292642358
-0.2396009271866257   -0.006594581598437774   -3.5633994316096665e-05
-0.2396009271866257   -0.006594581598437774   -3.5633994316096665e-05
-0.2396009271866257   -0.006594581598437774   -3.5633994316096665e-05
-0.2396009271866257   -0.006594581598437774   -3.5633994316096665e-05
-0.2696652959440332   -0.059024039610223525   -0.010205378659774132
-0.2696652959440332   -0.059024039610223525   -0.010205378659774132
-0.2696652959440332   -0.059024039610223525   -0.010205378659774132
-0.2696652959440332   -0.059024039610223525   -0.010205378659774132
-0.2600518355384736   -0.02243277138861694   0.007173601575514605
-0.2600518355384736   -0.02243277138861694   0.007173601575514605
-0.2600518355384736   -0.02243277138861694   0.007173601575514605
-0.2600518355384736   -0.02243277138861694   0.007173601575514605
-0.25471975145196474   -0.06505448536976352   -0.0054350882733964255
-0.25471975145196474   -0.06505448536976352   -0.0054350882733964255
-0.25471975145196474   -0.06505448536976352   -0.0054350882733964255
-0.25471975145196474   -0.06505448536976352   -0.0054350882733964255
-0.25593520345836446   -0.03796670819263159   -0.01085074389692815
-0.25593520345836446   -0.03796670819263159   -0.01085074389692815
-0.25593520345836446   -0.03796670819263159   -0.01085074389692815
-0.25593520345836446   -0.03796670819263159   -0.01085074389692815
-0.24382427717822094   -0.019853683738795133   0.0038414814643557282
-0.24382427717822094   -0.019853683738795133   0.0038414814643557282
-0.24382427717822094   -0.019853683738795133   0.0038414814643557282
-0.24382427717822094   -0.019853683738795133   0.0038414814643557282
-0.2725292291979486   -0.06921549240531435   -0.008430645705166748
-0.2725292291979486   -0.06921549240531435   -0.008430645705166748
-0.2725292291979486   -0.06921549240531435   -0.008430645705166748
-0.2725292291979486   -0.06921549240531435   -0.008430645705166748
-0.2625208221160173   -0.03467168901616022   0.010934044877860646
-0.2625208221160173   -0.03467168901616022   0.010934044877860646
-0.2625208221160173   -0.03467168901616022   0.010934044877860646
-0.2625208221160173   -0.03467168901616022   0.010934044877860646
-0.257648657755808   -0.07488016418660381   -0.0016250446798956111
-0.257648657755808   -0.07488016418660381   -0.0016250446798956111
-0.257648657755808   -0.07488016418660381   -0.0016250446798956111
-0.257648657755808   -0.07488016418660381   -0.0016250446798956111
-0.2597362800083239   -0.04833367673098419   -0.0165318078089091
-0.2597362800083239   -0.04833367673098419   -0.0165318078089091
-0.2597362800083239   -0.04833367673098419   -0.0165318078089091
-0.2597362800083239   -0.04833367673098419   -0.0165318078089091
-0.24735637296267785   0.026516975053795272   0.012452758115422461
-0.24735637296267785   0.026516975053795272   0.012452758115422461
-0.24735637296267785   0.026516975053795272   0.012452758115422461
-0.24735637296267785   0.026516975053795272   0.012452758115422461
-0.29322398028071656   -0.03806745889182189   -0.017968554130583132
-0.29322398028071656   -0.03806745889182189   -0.017968554130583132
-0.29322398028071656   -0.03806745889182189   -0.017968554130583132
-0.29322398028071656   -0.03806745889182189   -0.017968554130583132
-0.2775280228137746   0.007780969880553185   0.01721164451386245
-0.2775280228137746   0.007780969880553185   0.01721164451386245
-0.2775280228137746   0.007780969880553185   0.01721164451386245
-0.2775280228137746   0.007780969880553185   0.01721164451386245
-0.2664447246974041   -0.04227103733884   -0.010855524698008339
-0.2664447246974041   -0.04227103733884   -0.010855524698008339
-0.2664447246974041   -0.04227103733884   -0.010855524698008339
-0.2664447246974041   -0.04227103733884   -0.010855524698008339
-0.27110079663284625   -0.01122907327089099   -0.003390758739246944
-0.27110079663284625   -0.01122907327089099   -0.003390758739246944
-0.27110079663284625   -0.01122907327089099   -0.003390758739246944
-0.27110079663284625   -0.01122907327089099   -0.003390758739246944
-0.24993413351629792   0.013118914675841184   0.016307479192841166
-0.24993413351629792   0.013118914675841184   0.016307479192841166
-0.24993413351629792   0.013118914675841184   0.016307479192841166
-0.24993413351629792   0.013118914675841184   0.016307479192841166
-0.2959210506697714   -0.049491418809021255   -0.017481106076547275
-0.2959210506697714   -0.049491418809021255   -0.017481106076547275
-0.2959210506697714   -0.049491418809021255   -0.017481106076547275
-0.2959210506697714   -0.049491418809021255   -0.017481106076547275
-0.2827129747402862   -0.004947084283964856   0.019521722827692763
-0.2827129747402862   -0.004947084283964856   0.019521722827692763
-0.2827129747402862   -0.004947084283964856   0.019521722827692763
-0.2827129747402862   -0.004947084283964856   0.019521722827692763
-0.2690794693977039   -0.051761611400658776   -0.008635727708595274
-0.2690794693977039   -0.051761611400658776   -0.008635727708595274
-0.2690794693977039   -0.051761611400658776   -0.008635727708595274
-0.2690794693977039   -0.051761611400658776   -0.008635727708595274
-0.2737412308643031   -0.021983017562870466   -0.009458020458735927
-0.2737412308643031   -0.021983017562870466   -0.009458020458735927
-0.2737412308643031   -0.021983017562870466   -0.009458020458735927
-0.2737412308643031   -0.021983017562870466   -0.009458020458735927
-0.2527600814168221   0.0011492249785163972   0.020050375816634918
-0.2527600814168221   0.0011492249785163972   0.020050375816634918
-0.2527600814168221   0.0011492249785163972   0.020050375816634918
-0.2527600814168221   0.0011492249785163972   0.020050375816634918
-0.3006631506329513   -0.05948870857492391   -0.015687532344673558
-0.3006631506329513   -0.05948870857492391   -0.015687532344673558
-0.3006631506329513   -0.05948870857492391   -0.015687532344673558
-0.3006631506329513   -0.05948870857492391   -0.015687532344673558
-0.2861600156647897   -0.017165547055851514   0.0238132194279028
-0.2861600156647897   -0.017165547055851514   0.0238132194279028
-0.2861600156647897   -0.017165547055851514   0.0238132194279028
-0.2861600156647897   -0.017165547055851514   0.0238132194279028
-0.2713553985805696   -0.061298121133694   -0.006612405327366883
-0.2713553985805696   -0.061298121133694   -0.006612405327366883
-0.2713553985805696   -0.061298121133694   -0.006612405327366883
-0.2713553985805696   -0.061298121133694   -0.006612405327366883
-0.2783336064848438   -0.032132931413504526   -0.015341896594182104
-0.2783336064848438   -0.032132931413504526   -0.015341896594182104
-0.2783336064848438   -0.032132931413504526   -0.015341896594182104
-0.2783336064848438   -0.032132931413504526   -0.015341896594182104
-0.26942869759264193   0.03805423736331856   0.024886163054642065
-0.26942869759264193   0.03805423736331856   0.024886163054642065
-0.26942869759264193   0.03805423736331856   0.024886163054642065
-0.26942869759264193   0.03805423736331856   0.024886163054642065
-0.2890096106074678   -0.023085325659351327   -0.026005163031549868
-0.2890096106074678   -0.023085325659351327   -0.026005163031549868
-0.2890096106074678   -0.023085325659351327   -0.026005163031549868
-0.2890096106074678   -0.023085325659351327   -0.026005163031549868
-0.2826423153304112   0.02688325601933407   0.027662261060624953
-0.2826423153304112   0.02688325601933407   0.027662261060624953
-0.2826423153304112   0.02688325601933407   0.027662261060624953
-0.2826423153304112   0.02688325601933407   0.027662261060624953
-0.2915780098669545   -0.029359543835020582   -0.015897777036470537
-0.2915780098669545   -0.029359543835020582   -0.015897777036470537
-0.2915780098669545   -0.029359543835020582   -0.015897777036470537
-0.2915780098669545   -0.029359543835020582   -0.015897777036470537
-0.27350123914000585   0.006739465820805257   0.0011447185123783232
-0.27350123914000585   0.006739465820805257   0.0011447185123783232
-0.27350123914000585   0.006739465820805257   0.0011447185123783232
-0.27350123914000585   0.006739465820805257   0.0011447185123783232
-0.2708814392402197   0.02945673789806995   0.028768794364112834
-0.2708814392402197   0.02945673789806995   0.028768794364112834
-0.2708814392402197   0.02945673789806995   0.028768794364112834
-0.2708814392402197   0.02945673789806995   0.028768794364112834
-0.30487753239519594   -0.033471672151805215   -0.02315889609215223
-0.30487753239519594   -0.033471672151805215   -0.02315889609215223
-0.30487753239519594   -0.033471672151805215   -0.02315889609215223
-0.30487753239519594   -0.033471672151805215   -0.02315889609215223
-0.2950875551855055   0.019738522145070582   0.03560180338192837
-0.2950875551855055   0.019738522145070582   0.03560180338192837
-0.2950875551855055   0.019738522145070582   0.03560180338192837
-0.2950875551855055   0.019738522145070582   0.03560180338192837
-0.295516819932049   -0.03495217603990618   -0.01449241137517977
-0.295516819932049   -0.03495217603990618   -0.01449241137517977
-0.295516819932049   -0.03495217603990618   -0.01449241137517977
-0.295516819932049   -0.03495217603990618   -0.01449241137517977
-0.28691856498829604   -0.0019101476561371733   -0.006038232941155231
-0.28691856498829604   -0.0019101476561371733   -0.006038232941155231
-0.28691856498829604   -0.0019101476561371733   -0.006038232941155231
-0.28691856498829604   -0.0019101476561371733   -0.006038232941155231
-0.27399933481064004   0.02372031098504017   0.03442252720691088
-0.27399933481064004   0.02372031098504017   0.03442252720691088
-0.27399933481064004   0.02372031098504017   0.03442252720691088
-0.27399933481064004   0.02372031098504017   0.03442252720691088
-0.318603856352005   -0.04093278092496637   -0.021308399380524656
-0.318603856352005   -0.04093278092496637   -0.021308399380524656
-0.318603856352005   -0.04093278092496637   -0.021308399380524656
-0.318603856352005   -0.04093278092496637   -0.021308399380524656
-0.31695250007762654   0.001488591610115185   0.03803359962873227
-0.31695250007762654   0.001488591610115185   0.03803359962873227
-0.31695250007762654   0.001488591610115185   0.03803359962873227
-0.31695250007762654   0.001488591610115185   0.03803359962873227
-0.2991178537761006   -0.045550655771826605   -0.01259086241268396
-0.2991178537761006   -0.045550655771826605   -0.01259086241268396
-0.2991178537761006   -0.045550655771826605   -0.01259086241268396
-0.2991178537761006   -0.045550655771826605   -0.01259086241268396
-0.2932753471443496   -0.00988252717836971   -0.012501934157975614
-0.2932753471443496   -0.00988252717836971   -0.012501934157975614
-0.2932753471443496   -0.00988252717836971   -0.012501934157975614
-0.2932753471443496   -0.00988252717836971   -0.012501934157975614
-0.5729878954860895   -0.0524165471955573   -0.054387124380000255
-0.5729878954860895   -0.0524165471955573   -0.054387124380000255
-0.5729878954860895   -0.0524165471955573   -0.054387124380000255
-0.5729878954860895   -0.0524165471955573   -0.054387124380000255
-0.3641780391493991   0.030826884524132694   0.012799503109668937
-0.3641780391493991   0.030826884524132694   0.012799503109668937
-0.3641780391493991   0.030826884524132694   0.012799503109668937
-0.3641780391493991   0.030826884524132694   0.012799503109668937
-0.38248960079179267   -0.024328676409625535   -0.02432654809079329
-0.38248960079179267   -0.024328676409625535   -0.02432654809079329
-0.38248960079179267   -0.024328676409625535   -0.02432654809079329
-0.38248960079179267   -0.024328676409625535   -0.02432654809079329
-0.6095346649156919   -0.06902275306252342   0.06079662142672861
-0.6095346649156919   -0.06902275306252342   0.06079662142672861
-0.6095346649156919   -0.06902275306252342   0.06079662142672861
-0.6095346649156919   -0.06902275306252342   0.06079662142672861
-0.44329701603960714   -0.016993423613235553   0.059040660852689726
-0.44329701603960714   -0.016993423613235553   0.059040660852689726
-0.44329701603960714   -0.016993423613235553   0.059040660852689726
-0.44329701603960714   -0.016993423613235553   0.059040660852689726
-0.6313095174840075   -0.07720619085448374   -0.03989420362288484
-0.6313095174840075   -0.07720619085448374   -0.03989420362288484
-0.6313095174840075   -0.07720619085448374   -0.03989420362288484
-0.6313095174840075   -0.07720619085448374   -0.03989420362288484
-0.37603869195987055   -0.03146918235405544   0.015068502013247309
-0.37603869195987055   -0.03146918235405544   0.015068502013247309
-0.37603869195987055   -0.03146918235405544   0.015068502013247309
-0.37603869195987055   -0.03146918235405544   0.015068502013247309
-0.38847489079874997   -0.03522244145078012   -0.017509957757156712
-0.38847489079874997   -0.03522244145078012   -0.017509957757156712
-0.38847489079874997   -0.03522244145078012   -0.017509957757156712
-0.38847489079874997   -0.03522244145078012   -0.017509957757156712
-0.6291037466733634   -0.0963981550355982   0.001408978404340469
-0.6291037466733634   -0.0963981550355982   0.001408978404340469
-0.6291037466733634   -0.0963981550355982   0.001408978404340469
-0.6291037466733634   -0.0963981550355982   0.001408978404340469
-0.4910420444022849   -0.05816321300996099   0.013674598575300836
-0.4910420444022849   -0.05816321300996099   0.013674598575300836
-0.4910420444022849   -0.05816321300996099   0.013674598575300836
-0.4910420444022849   -0.05816321300996099   0.013674598575300836
-0.6339930725574198   -0.0872593728844912   -0.03217643316704242
-0.6339930725574198   -0.0872593728844912   -0.03217643316704242
-0.6339930725574198   -0.0872593728844912   -0.03217643316704242
-0.6339930725574198   -0.0872593728844912   -0.03217643316704242
-0.3882161817911307   -0.04899184047832386   -0.00244701369152045
-0.3882161817911307   -0.04899184047832386   -0.00244701369152045
-0.3882161817911307   -0.04899184047832386   -0.00244701369152045
-0.3882161817911307   -0.04899184047832386   -0.00244701369152045
-0.3888431763640055   -0.06154422164045292   -0.012782626225471279
-0.3888431763640055   -0.06154422164045292   -0.012782626225471279
-0.3888431763640055   -0.06154422164045292   -0.012782626225471279
-0.3888431763640055   -0.06154422164045292   -0.012782626225471279
-0.6443650437848226   -0.14713910253539797   0.009522598246355495
-0.6443650437848226   -0.14713910253539797   0.009522598246355495
-0.6443650437848226   -0.14713910253539797   0.009522598246355495
-0.6443650437848226   -0.14713910253539797   0.009522598246355495
-0.49064351529764444   -0.07992572359100221   0.0010666919024346728
-0.49064351529764444   -0.07992572359100221   0.0010666919024346728
-0.49064351529764444   -0.07992572359100221   0.0010666919024346728
-0.49064351529764444   -0.07992572359100221   0.0010666919024346728
-0.3932373784939561   -0.06671661728306603   -0.034953691805913976
-0.3932373784939561   -0.06671661728306603   -0.034953691805913976
-0.3932373784939561   -0.06671661728306603   -0.034953691805913976
-0.3932373784939561   -0.06671661728306603   -0.034953691805913976
-0.27075488267517805   -0.1756452003649998   -0.032898884273290095
-0.27075488267517805   -0.1756452003649998   -0.032898884273290095
-0.27075488267517805   -0.1756452003649998   -0.032898884273290095
-0.27075488267517805   -0.1756452003649998   -0.032898884273290095
-0.23778189107172165   -0.03894787009961019   -0.0021328669772153154
-0.23778189107172165   -0.03894787009961019   -0.0021328669772153154
-0.23778189107172165   -0.03894787009961019   -0.0021328669772153154
-0.23778189107172165   -0.03894787009961019   -0.0021328669772153154
-0.41826476765639053   -0.1861231994390435   -0.04140785938436459
-0.41826476765639053   -0.1861231994390435   -0.04140785938436459
-0.41826476765639053   -0.1861231994390435   -0.04140785938436459
-0.41826476765639053   -0.1861231994390435   -0.04140785938436459
-0.32619482692611684   -0.12398838548345223   -0.009525781729489018
-0.32619482692611684   -0.12398838548345223   -0.009525781729489018
-0.32619482692611684   -0.12398838548345223   -0.009525781729489018
-0.32619482692611684   -0.12398838548345223   -0.009525781729489018
-0.3929915648233083   -0.07483020032173639   -0.026334844336259638
-0.3929915648233083   -0.07483020032173639   -0.026334844336259638
-0.3929915648233083   -0.07483020032173639   -0.026334844336259638
-0.3929915648233083   -0.07483020032173639   -0.026334844336259638
-0.2646452568585836   -0.15183103217069716   -0.023566533840439677
-0.2646452568585836   -0.15183103217069716   -0.023566533840439677
-0.2646452568585836   -0.15183103217069716   -0.023566533840439677
-0.2646452568585836   -0.15183103217069716   -0.023566533840439677
-0.2405734167107098   -0.05044671590570265   0.00031573256766673663
-0.2405734167107098   -0.05044671590570265   0.00031573256766673663
-0.2405734167107098   -0.05044671590570265   0.00031573256766673663
-0.2405734167107098   -0.05044671590570265   0.00031573256766673663
-0.4198435394718716   -0.18514750962933896   -0.024428132944209598
-0.4198435394718716   -0.18514750962933896   -0.024428132944209598
-0.4198435394718716   -0.18514750962933896   -0.024428132944209598
-0.4198435394718716   -0.18514750962933896   -0.024428132944209598
-0.3226315142136341   -0.11621907555679262   -0.010121550518464341
-0.3226315142136341   -0.11621907555679262   -0.010121550518464341
-0.3226315142136341   -0.11621907555679262   -0.010121550518464341
-0.3226315142136341   -0.11621907555679262   -0.010121550518464341
-0.3991149915362011   -0.086170631636144   -0.01976227125904861
-0.3991149915362011   -0.086170631636144   -0.01976227125904861
-0.3991149915362011   -0.086170631636144   -0.01976227125904861
-0.3991149915362011   -0.086170631636144   -0.01976227125904861
-0.2646041957380601   -0.15272582499057685   -0.01755905348421053
-0.2646041957380601   -0.15272582499057685   -0.01755905348421053
-0.2646041957380601   -0.15272582499057685   -0.01755905348421053
-0.2646041957380601   -0.15272582499057685   -0.01755905348421053
-0.2405788407281712   -0.06474734139208432   0.003815483284535644
-0.2405788407281712   -0.06474734139208432   0.003815483284535644
-0.2405788407281712   -0.06474734139208432   0.003815483284535644
-0.2405788407281712   -0.06474734139208432   0.003815483284535644
-0.4188877668818154   -0.18813903153415465   -0.03641076892082354
-0.4188877668818154   -0.18813903153415465   -0.03641076892082354
-0.4188877668818154   -0.18813903153415465   -0.03641076892082354
-0.4188877668818154   -0.18813903153415465   -0.03641076892082354
-0.3275923961036267   -0.12498931682905731   -0.018811791115938052
-0.3275923961036267   -0.12498931682905731   -0.018811791115938052
-0.3275923961036267   -0.12498931682905731   -0.018811791115938052
-0.3275923961036267   -0.12498931682905731   -0.018811791115938052
-0.2382474577135053   -0.04297546128689692   -0.0030314985430292944
-0.2382474577135053   -0.04297546128689692   -0.0030314985430292944
-0.2382474577135053   -0.04297546128689692   -0.0030314985430292944
-0.2382474577135053   -0.04297546128689692   -0.0030314985430292944
-0.20039177409210895   -0.1345027933599187   -0.023217495492607224
-0.20039177409210895   -0.1345027933599187   -0.023217495492607224
-0.20039177409210895   -0.1345027933599187   -0.023217495492607224
-0.20039177409210895   -0.1345027933599187   -0.023217495492607224
-0.17272022084648617   -0.03575545015705274   0.009192493508532788
-0.17272022084648617   -0.03575545015705274   0.009192493508532788
-0.17272022084648617   -0.03575545015705274   0.009192493508532788
-0.17272022084648617   -0.03575545015705274   0.009192493508532788
-0.2639048996124545   -0.14607994349395476   -0.025615836286536516
-0.2639048996124545   -0.14607994349395476   -0.025615836286536516
-0.2639048996124545   -0.14607994349395476   -0.025615836286536516
-0.2639048996124545   -0.14607994349395476   -0.025615836286536516
-0.21785938531766913   -0.09106458407131085   -0.010701964065689587
-0.21785938531766913   -0.09106458407131085   -0.010701964065689587
-0.21785938531766913   -0.09106458407131085   -0.010701964065689587
-0.21785938531766913   -0.09106458407131085   -0.010701964065689587
-0.2396647556177605   -0.05090155647868202   0.00040649667166069896
-0.2396647556177605   -0.05090155647868202   0.00040649667166069896
-0.2396647556177605   -0.05090155647868202   0.00040649667166069896
-0.2396647556177605   -0.05090155647868202   0.00040649667166069896
-0.19837364888439132   -0.1323471212155373   -0.022482975622512263
-0.19837364888439132   -0.1323471212155373   -0.022482975622512263
-0.19837364888439132   -0.1323471212155373   -0.022482975622512263
-0.19837364888439132   -0.1323471212155373   -0.022482975622512263
-0.1728535612710229   -0.04521028587450136   0.011919719021972561
-0.1728535612710229   -0.04521028587450136   0.011919719021972561
-0.1728535612710229   -0.04521028587450136   0.011919719021972561
-0.1728535612710229   -0.04521028587450136   0.011919719021972561
-0.2648083591824379   -0.14839395652133763   -0.022911739175338678
-0.2648083591824379   -0.14839395652133763   -0.022911739175338678
-0.2648083591824379   -0.14839395652133763   -0.022911739175338678
-0.2648083591824379   -0.14839395652133763   -0.022911739175338678
-0.21753174320569393   -0.094610720300522   -0.01388957416691841
-0.21753174320569393   -0.094610720300522   -0.01388957416691841
-0.21753174320569393   -0.094610720300522   -0.01388957416691841
-0.21753174320569393   -0.094610720300522   -0.01388957416691841
-0.2417587994134764   -0.06048904723146695   0.0044311503795980796
-0.2417587994134764   -0.06048904723146695   0.0044311503795980796
-0.2417587994134764   -0.06048904723146695   0.0044311503795980796
-0.2417587994134764   -0.06048904723146695   0.0044311503795980796
-0.1966814881088324   -0.13389356223322008   -0.018536638808356393
-0.1966814881088324   -0.13389356223322008   -0.018536638808356393
-0.1966814881088324   -0.13389356223322008   -0.018536638808356393
-0.1966814881088324   -0.13389356223322008   -0.018536638808356393
-0.17089972147391028   -0.05422676784386194   0.014893000751931397
-0.17089972147391028   -0.05422676784386194   0.014893000751931397
-0.17089972147391028   -0.05422676784386194   0.014893000751931397
-0.17089972147391028   -0.05422676784386194   0.014893000751931397
-0.2617420404524228   -0.15025533274986563   -0.016492523978940885
-0.2617420404524228   -0.15025533274986563   -0.016492523978940885
-0.2617420404524228   -0.15025533274986563   -0.016492523978940885
-0.2617420404524228   -0.15025533274986563   -0.016492523978940885
-0.21696126143779446   -0.09929547571618488   -0.016113489620397586
-0.21696126143779446   -0.09929547571618488   -0.016113489620397586
-0.21696126143779446   -0.09929547571618488   -0.016113489620397586
-0.21696126143779446   -0.09929547571618488   -0.016113489620397586
-0.16675894155187124   -0.005909971291836392   0.01635384514049905
-0.16675894155187124   -0.005909971291836392   0.01635384514049905
-0.16675894155187124   -0.005909971291836392   0.01635384514049905
-0.16675894155187124   -0.005909971291836392   0.01635384514049905
-0.1582269881477412   -0.07130964610870666   -0.013949120478103339
-0.1582269881477412   -0.07130964610870666   -0.013949120478103339
-0.1582269881477412   -0.07130964610870666   -0.013949120478103339
-0.1582269881477412   -0.07130964610870666   -0.013949120478103339
-0.13650238786403884   -0.010326681048272857   0.01892391992146213
-0.13650238786403884   -0.010326681048272857   0.01892391992146213
-0.13650238786403884   -0.010326681048272857   0.01892391992146213
-0.13650238786403884   -0.010326681048272857   0.01892391992146213
-0.18583390340998038   -0.08227167231816086   -0.00985969714783009
-0.18583390340998038   -0.08227167231816086   -0.00985969714783009
-0.18583390340998038   -0.08227167231816086   -0.00985969714783009
-0.18583390340998038   -0.08227167231816086   -0.00985969714783009
-0.16236629820186463   -0.042053242375762606   -0.005810692494433332
-0.16236629820186463   -0.042053242375762606   -0.005810692494433332
-0.16236629820186463   -0.042053242375762606   -0.005810692494433332
-0.16236629820186463   -0.042053242375762606   -0.005810692494433332
-0.16691917140994697   -0.016421969695759736   0.018864260229935873
-0.16691917140994697   -0.016421969695759736   0.018864260229935873
-0.16691917140994697   -0.016421969695759736   0.018864260229935873
-0.16691917140994697   -0.016421969695759736   0.018864260229935873
-0.1569264304028336   -0.07768569420943534   -0.01583727961134926
-0.1569264304028336   -0.07768569420943534   -0.01583727961134926
-0.1569264304028336   -0.07768569420943534   -0.01583727961134926
-0.1569264304028336   -0.07768569420943534   -0.01583727961134926
-0.13676856127390657   -0.01950286366801486   0.020347102830826976
-0.13676856127390657   -0.01950286366801486   0.020347102830826976
-0.13676856127390657   -0.01950286366801486   0.020347102830826976
-0.13676856127390657   -0.01950286366801486   0.020347102830826976
-0.185847123817218   -0.08729177768128157   -0.010966601902226526
-0.185847123817218   -0.08729177768128157   -0.010966601902226526
-0.185847123817218   -0.08729177768128157   -0.010966601902226526
-0.185847123817218   -0.08729177768128157   -0.010966601902226526
-0.16171928584812245   -0.04941473669628965   -0.009870347857560836
-0.16171928584812245   -0.04941473669628965   -0.009870347857560836
-0.16171928584812245   -0.04941473669628965   -0.009870347857560836
-0.16171928584812245   -0.04941473669628965   -0.009870347857560836
-0.1669672402683274   -0.025319843667396195   0.02146088182834112
-0.1669672402683274   -0.025319843667396195   0.02146088182834112
-0.1669672402683274   -0.025319843667396195   0.02146088182834112
-0.1669672402683274   -0.025319843667396195   0.02146088182834112
-0.15656280582575843   -0.08238915868486149   -0.015737824911585718
-0.15656280582575843   -0.08238915868486149   -0.015737824911585718
-0.15656280582575843   -0.08238915868486149   -0.015737824911585718
-0.15656280582575843   -0.08238915868486149   -0.015737824911585718
-0.13567346630509103   -0.028122525381196098   0.02358364115964406
-0.13567346630509103   -0.028122525381196098   0.02358364115964406
-0.13567346630509103   -0.028122525381196098   0.02358364115964406
-0.13567346630509103   -0.028122525381196098   0.02358364115964406
-0.1829901701709382   -0.09230528983578042   -0.007480720741289812
-0.1829901701709382   -0.09230528983578042   -0.007480720741289812
-0.1829901701709382   -0.09230528983578042   -0.007480720741289812
-0.1829901701709382   -0.09230528983578042   -0.007480720741289812
-0.16131153527259448   -0.05576076473178416   -0.012703853154884507
-0.16131153527259448   -0.05576076473178416   -0.012703853154884507
-0.16131153527259448   -0.05576076473178416   -0.012703853154884507
-0.16131153527259448   -0.05576076473178416   -0.012703853154884507
-0.13235932681920645   0.018551393096483834   0.02552814695937995
-0.13235932681920645   0.018551393096483834   0.02552814695937995
-0.13235932681920645   0.018551393096483834   0.02552814695937995
-0.13235932681920645   0.018551393096483834   0.02552814695937995
-0.08869497469566638   -0.023533668721734475   -0.008616205821125439
-0.08869497469566638   -0.023533668721734475   -0.008616205821125439
-0.08869497469566638   -0.023533668721734475   -0.008616205821125439
-0.08869497469566638   -0.023533668721734475   -0.008616205821125439
-0.07762462893120257   0.021654653590144367   0.025219829153602324
-0.07762462893120257   0.021654653590144367   0.025219829153602324
-0.07762462893120257   0.021654653590144367   0.025219829153602324
-0.07762462893120257   0.021654653590144367   0.025219829153602324
-0.1462857504614265   -0.035850525328874984   -0.004469048784874161
-0.1462857504614265   -0.035850525328874984   -0.004469048784874161
-0.1462857504614265   -0.035850525328874984   -0.004469048784874161
-0.1462857504614265   -0.035850525328874984   -0.004469048784874161
-0.10968338844042844   -0.002316454806760248   -0.004568352991200832
-0.10968338844042844   -0.002316454806760248   -0.004568352991200832
-0.10968338844042844   -0.002316454806760248   -0.004568352991200832
-0.10968338844042844   -0.002316454806760248   -0.004568352991200832
-0.13031953921939754   0.011645001767553398   0.02786648032884244
-0.13031953921939754   0.011645001767553398   0.02786648032884244
-0.13031953921939754   0.011645001767553398   0.02786648032884244
-0.13031953921939754   0.011645001767553398   0.02786648032884244
-0.09375084708024214   -0.026000880413293324   -0.00775572758815025
-0.09375084708024214   -0.026000880413293324   -0.00775572758815025
-0.09375084708024214   -0.026000880413293324   -0.00775572758815025
-0.09375084708024214   -0.026000880413293324   -0.00775572758815025
-0.08111732340284974   0.017170522466984618   0.031721584630074975
-0.08111732340284974   0.017170522466984618   0.031721584630074975
-0.08111732340284974   0.017170522466984618   0.031721584630074975
-0.08111732340284974   0.017170522466984618   0.031721584630074975
-0.14571124664283067   -0.038176736386955575   -0.005692451294852812
-0.14571124664283067   -0.038176736386955575   -0.005692451294852812
-0.14571124664283067   -0.038176736386955575   -0.005692451294852812
-0.14571124664283067   -0.038176736386955575   -0.005692451294852812
-0.11304158618604776   -0.007210937008916077   -0.006506901413371908
-0.11304158618604776   -0.007210937008916077   -0.006506901413371908
-0.11304158618604776   -0.007210937008916077   -0.006506901413371908
-0.11304158618604776   -0.007210937008916077   -0.006506901413371908
-0.1289880907520644   0.007667808687945289   0.03207878308407766
-0.1289880907520644   0.007667808687945289   0.03207878308407766
-0.1289880907520644   0.007667808687945289   0.03207878308407766
-0.1289880907520644   0.007667808687945289   0.03207878308407766
-0.09898550310571906   -0.029819046420014175   -0.010629744997265116
-0.09898550310571906   -0.029819046420014175   -0.010629744997265116
-0.09898550310571906   -0.029819046420014175   -0.010629744997265116
-0.09898550310571906   -0.029819046420014175   -0.010629744997265116
-0.09277850377910091   0.0048375335145000135   0.03301073402194944
-0.09277850377910091   0.0048375335145000135   0.03301073402194944
-0.09277850377910091   0.0048375335145000135   0.03301073402194944
-0.09277850377910091   0.0048375335145000135   0.03301073402194944
-0.14377706184672398   -0.040295014625758324   -0.004761847303958382
-0.14377706184672398   -0.040295014625758324   -0.004761847303958382
-0.14377706184672398   -0.040295014625758324   -0.004761847303958382
-0.14377706184672398   -0.040295014625758324   -0.004761847303958382
-0.11469492304404894   -0.010770772235818613   -0.00961057869213734
-0.11469492304404894   -0.010770772235818613   -0.00961057869213734
-0.11469492304404894   -0.010770772235818613   -0.00961057869213734
-0.11469492304404894   -0.010770772235818613   -0.00961057869213734
-1.3560641876247068   -0.19276165863893224   -0.11325706423035546
-1.3560641876247068   -0.19276165863893224   -0.11325706423035546
-1.3560641876247068   -0.19276165863893224   -0.11325706423035546
-1.3560641876247068   -0.19276165863893224   -0.11325706423035546
-0.4714458540603098   -0.7483885614937344   -0.08852096491574302
-0.4714458540603098   -0.7483885614937344   -0.08852096491574302
-0.4714458540603098   -0.7483885614937344   -0.08852096491574302
-0.4714458540603098   -0.7483885614937344   -0.08852096491574302
-0.36342229937251225   -0.03187765563248882   0.00040974303372208996
-0.36342229937251225   -0.03187765563248882   0.00040974303372208996
-0.36342229937251225   -0.03187765563248882   0.00040974303372208996
-0.36342229937251225   -0.03187765563248882   0.00040974303372208996
-1.4497223779668051   -0.8782537206691723   -0.46559521972719553
-1.4497223779668051   -0.8782537206691723   -0.46559521972719553
-1.4497223779668051   -0.8782537206691723   -0.46559521972719553
-1.4497223779668051   -0.8782537206691723   -0.46559521972719553
-0.8873797789924704   -0.4367140048592389   -0.06366156106834375
-0.8873797789924704   -0.4367140048592389   -0.06366156106834375
-0.8873797789924704   -0.4367140048592389   -0.06366156106834375
-0.8873797789924704   -0.4367140048592389   -0.06366156106834375
-1.2601600403246436   -0.24209550238897773   -0.15394174979659125
-1.2601600403246436   -0.24209550238897773   -0.15394174979659125
-1.2601600403246436   -0.24209550238897773   -0.15394174979659125
-1.2601600403246436   -0.24209550238897773   -0.15394174979659125
-0.5093865911385742   -0.6244378280365848   -0.13685154339248887
-0.5093865911385742   -0.6244378280365848   -0.13685154339248887
-0.5093865911385742   -0.6244378280365848   -0.13685154339248887
-0.5093865911385742   -0.6244378280365848   -0.13685154339248887
-0.37099332265963486   -0.042274566088436966   0.013916499126418194
-0.37099332265963486   -0.042274566088436966   0.013916499126418194
-0.37099332265963486   -0.042274566088436966   0.013916499126418194
-0.37099332265963486   -0.042274566088436966   0.013916499126418194
-1.356770303888675   -0.784217073105306   -0.42819747539879616
-1.356770303888675   -0.784217073105306   -0.42819747539879616
-1.356770303888675   -0.784217073105306   -0.42819747539879616
-1.356770303888675   -0.784217073105306   -0.42819747539879616
-0.8359335360942597   -0.3940570534706762   0.03363556036598772
-0.8359335360942597   -0.3940570534706762   0.03363556036598772
-0.8359335360942597   -0.3940570534706762   0.03363556036598772
-0.8359335360942597   -0.3940570534706762   0.03363556036598772
-1.1833848196174455   -0.23052799227906307   -0.11495913486890179
-1.1833848196174455   -0.23052799227906307   -0.11495913486890179
-1.1833848196174455   -0.23052799227906307   -0.11495913486890179
-1.1833848196174455   -0.23052799227906307   -0.11495913486890179
-0.49590833770624954   -0.5474931776900663   -0.10543996450502321
-0.49590833770624954   -0.5474931776900663   -0.10543996450502321
-0.49590833770624954   -0.5474931776900663   -0.10543996450502321
-0.49590833770624954   -0.5474931776900663   -0.10543996450502321
-0.42689254392160675   -0.11002698522543337   -0.022389315067037455
-0.42689254392160675   -0.11002698522543337   -0.022389315067037455
-0.42689254392160675   -0.11002698522543337   -0.022389315067037455
-0.42689254392160675   -0.11002698522543337   -0.022389315067037455
-1.2366924698050386   -0.6601282689333048   -0.37936414774766863
-1.2366924698050386   -0.6601282689333048   -0.37936414774766863
-1.2366924698050386   -0.6601282689333048   -0.37936414774766863
-1.2366924698050386   -0.6601282689333048   -0.37936414774766863
-0.7744769202330782   -0.3418290706545265   0.1436193247057575
-0.7744769202330782   -0.3418290706545265   0.1436193247057575
-0.7744769202330782   -0.3418290706545265   0.1436193247057575
-0.7744769202330782   -0.3418290706545265   0.1436193247057575
-0.34769458557062166   -0.19007000073469887   -0.028083183226341797
-0.34769458557062166   -0.19007000073469887   -0.028083183226341797
-0.34769458557062166   -0.19007000073469887   -0.028083183226341797
-0.34769458557062166   -0.19007000073469887   -0.028083183226341797
-0.1615237404238676   -0.23858562617885384   -0.039945934557016644
-0.1615237404238676   -0.23858562617885384   -0.039945934557016644
-0.1615237404238676   -0.23858562617885384   -0.039945934557016644
-0.1615237404238676   -0.23858562617885384   -0.039945934557016644
-0.14199904264093247   -0.12186689353934084   0.0036079450986907236
-0.14199904264093247   -0.12186689353934084   0.0036079450986907236
-0.14199904264093247   -0.12186689353934084   0.0036079450986907236
-0.14199904264093247   -0.12186689353934084   0.0036079450986907236
-0.42654093929766185   -0.34766570213337117   0.0006045899088591988
-0.42654093929766185   -0.34766570213337117   0.0006045899088591988
-0.42654093929766185   -0.34766570213337117   0.0006045899088591988
-0.42654093929766185   -0.34766570213337117   0.0006045899088591988
-0.22876307181050204   -0.1684061733949902   0.07356723199008866
-0.22876307181050204   -0.1684061733949902   0.07356723199008866
-0.22876307181050204   -0.1684061733949902   0.07356723199008866
-0.22876307181050204   -0.1684061733949902   0.07356723199008866
-0.3961481846016374   -0.17703148225008225   -0.018065856494311375
-0.3961481846016374   -0.17703148225008225   -0.018065856494311375
-0.3961481846016374   -0.17703148225008225   -0.018065856494311375
-0.3961481846016374   -0.17703148225008225   -0.018065856494311375
-0.18451505636112858   -0.3046243724468014   -0.026214644594825413
-0.18451505636112858   -0.3046243724468014   -0.026214644594825413
-0.18451505636112858   -0.3046243724468014   -0.026214644594825413
-0.18451505636112858   -0.3046243724468014   -0.026214644594825413
-0.15359325295319765   -0.12626021985604882   0.0037580294035671757
-0.15359325295319765   -0.12626021985604882   0.0037580294035671757
-0.15359325295319765   -0.12626021985604882   0.0037580294035671757
-0.15359325295319765   -0.12626021985604882   0.0037580294035671757
-0.4476842093445732   -0.34349083246694684   -0.06832166791976098
-0.4476842093445732   -0.34349083246694684   -0.06832166791976098
-0.4476842093445732   -0.34349083246694684   -0.06832166791976098
-0.4476842093445732   -0.34349083246694684   -0.06832166791976098
-0.27320583833387785   -0.21577654253543815   0.03338273861381511
-0.27320583833387785   -0.21577654253543815   0.03338273861381511
-0.27320583833387785   -0.21577654253543815   0.03338273861381511
-0.27320583833387785   -0.21577654253543815   0.03338273861381511
-0.40905150595907686   -0.18486106085815318   -0.03378792260107543
-0.40905150595907686   -0.18486106085815318   -0.03378792260107543
-0.40905150595907686   -0.18486106085815318   -0.03378792260107543
-0.40905150595907686   -0.18486106085815318   -0.03378792260107543
-0.19110649502052335   -0.2837705301466716   -0.02629787064243462
-0.19110649502052335   -0.2837705301466716   -0.02629787064243462
-0.19110649502052335   -0.2837705301466716   -0.02629787064243462
-0.19110649502052335   -0.2837705301466716   -0.02629787064243462
-0.17154282645648006   -0.13027938811549863   0.0055425077471212385
-0.17154282645648006   -0.13027938811549863   0.0055425077471212385
-0.17154282645648006   -0.13027938811549863   0.0055425077471212385
-0.17154282645648006   -0.13027938811549863   0.0055425077471212385
-0.4790740063477274   -0.33395762477313895   -0.059365987649933116
-0.4790740063477274   -0.33395762477313895   -0.059365987649933116
-0.4790740063477274   -0.33395762477313895   -0.059365987649933116
-0.4790740063477274   -0.33395762477313895   -0.059365987649933116
-0.28615572369486575   -0.20341709523527146   0.035279681374358704
-0.28615572369486575   -0.20341709523527146   0.035279681374358704
-0.28615572369486575   -0.20341709523527146   0.035279681374358704
-0.28615572369486575   -0.20341709523527146   0.035279681374358704
-0.12685264450416778   -0.11348890380940274   0.008312822672031366
-0.12685264450416778   -0.11348890380940274   0.008312822672031366
-0.12685264450416778   -0.11348890380940274   0.008312822672031366
-0.12685264450416778   -0.11348890380940274   0.008312822672031366
-0.07811249161805855   -0.07550421406608497   -0.019556013376671608
-0.07811249161805855   -0.07550421406608497   -0.019556013376671608
-0.07811249161805855   -0.07550421406608497   -0.019556013376671608
-0.07811249161805855   -0.07550421406608497   -0.019556013376671608
-0.07553733324359152   -0.10161715905526966   0.008330519538026025
-0.07553733324359152   -0.10161715905526966   0.008330519538026025
-0.07553733324359152   -0.10161715905526966   0.008330519538026025
-0.07553733324359152   -0.10161715905526966   0.008330519538026025
-0.14066347422286737   -0.10293695855772919   -0.008644147792591598
-0.14066347422286737   -0.10293695855772919   -0.008644147792591598
-0.14066347422286737   -0.10293695855772919   -0.008644147792591598
-0.14066347422286737   -0.10293695855772919   -0.008644147792591598
-0.08884751735596452   -0.08293663995031639   0.03693936571902888
-0.08884751735596452   -0.08293663995031639   0.03693936571902888
-0.08884751735596452   -0.08293663995031639   0.03693936571902888
-0.08884751735596452   -0.08293663995031639   0.03693936571902888
-0.13939891226665235   -0.11425603173444616   0.008997735165196655
-0.13939891226665235   -0.11425603173444616   0.008997735165196655
-0.13939891226665235   -0.11425603173444616   0.008997735165196655
-0.13939891226665235   -0.11425603173444616   0.008997735165196655
-0.07806535525939687   -0.09156154593814236   -0.014365203658127972
-0.07806535525939687   -0.09156154593814236   -0.014365203658127972
-0.07806535525939687   -0.09156154593814236   -0.014365203658127972
-0.07806535525939687   -0.09156154593814236   -0.014365203658127972
-0.07650672096466057   -0.10466595229354807   0.007426643745831778
-0.07650672096466057   -0.10466595229354807   0.007426643745831778
-0.07650672096466057   -0.10466595229354807   0.007426643745831778
-0.07650672096466057   -0.10466595229354807   0.007426643745831778
-0.14954961458891922   -0.1199894307333854   0.017705432102299776
-0.14954961458891922   -0.1199894307333854   0.017705432102299776
-0.14954961458891922   -0.1199894307333854   0.017705432102299776
-0.14954961458891922   -0.1199894307333854   0.017705432102299776
-0.09681433545487214   -0.0924535008960751   0.031168401802830835
-0.09681433545487214   -0.0924535008960751   0.031168401802830835
-0.09681433545487214   -0.0924535008960751   0.031168401802830835
-0.09681433545487214   -0.0924535008960751   0.031168401802830835
-0.15036506823307563   -0.11849600322231106   0.012134736370439516
-0.15036506823307563   -0.11849600322231106   0.012134736370439516
-0.15036506823307563   -0.11849600322231106   0.012134736370439516
-0.15036506823307563   -0.11849600322231106   0.012134736370439516
-0.08221523300724613   -0.1126833454913663   -0.013098523269277806
-0.08221523300724613   -0.1126833454913663   -0.013098523269277806
-0.08221523300724613   -0.1126833454913663   -0.013098523269277806
-0.08221523300724613   -0.1126833454913663   -0.013098523269277806
-0.0775929028411316   -0.10803650238901263   0.010452490214025202
-0.0775929028411316   -0.10803650238901263   0.010452490214025202
-0.0775929028411316   -0.10803650238901263   0.010452490214025202
-0.0775929028411316   -0.10803650238901263   0.010452490214025202
-0.17523273122382407   -0.14734782695944762   0.004161422754350157
-0.17523273122382407   -0.14734782695944762   0.004161422754350157
-0.17523273122382407   -0.14734782695944762   0.004161422754350157
-0.17523273122382407   -0.14734782695944762   0.004161422754350157
-0.10831949619536825   -0.10530214589009981   0.014554502419790456
-0.10831949619536825   -0.10530214589009981   0.014554502419790456
-0.10831949619536825   -0.10530214589009981   0.014554502419790456
-0.10831949619536825   -0.10530214589009981   0.014554502419790456
-0.06375410858438055   -0.04523242379607392   0.021964111521707363
-0.06375410858438055   -0.04523242379607392   0.021964111521707363
-0.06375410858438055   -0.04523242379607392   0.021964111521707363
-0.06375410858438055   -0.04523242379607392   0.021964111521707363
-0.04511270345307805   -0.0009272557984571911   -0.004416852421450929
-0.04511270345307805   -0.0009272557984571911   -0.004416852421450929
-0.04511270345307805   -0.0009272557984571911   -0.004416852421450929
-0.04511270345307805   -0.0009272557984571911   -0.004416852421450929
-0.04278340111646946   -0.04896804916657728   0.013607916316576886
-0.04278340111646946   -0.04896804916657728   0.013607916316576886
-0.04278340111646946   -0.04896804916657728   0.013607916316576886
-0.04278340111646946   -0.04896804916657728   0.013607916316576886
-0.05932127531486905   -0.009591185475678806   -0.002615164397952472
-0.05932127531486905   -0.009591185475678806   -0.002615164397952472
-0.05932127531486905   -0.009591185475678806   -0.002615164397952472
-0.05932127531486905   -0.009591185475678806   -0.002615164397952472
-0.048747876061430814   -0.025092064810076285   0.010892631464091355
-0.048747876061430814   -0.025092064810076285   0.010892631464091355
-0.048747876061430814   -0.025092064810076285   0.010892631464091355
-0.048747876061430814   -0.025092064810076285   0.010892631464091355
-0.0630532764360268   -0.05159739882474011   0.020731043345320083
-0.0630532764360268   -0.05159739882474011   0.020731043345320083
-0.0630532764360268   -0.05159739882474011   0.020731043345320083
-0.0630532764360268   -0.05159739882474011   0.020731043345320083
-0.037961246714733374   -0.0058716825369376485   -0.005377678304382359
-0.037961246714733374   -0.0058716825369376485   -0.005377678304382359
-0.037961246714733374   -0.0058716825369376485   -0.005377678304382359
-0.037961246714733374   -0.0058716825369376485   -0.005377678304382359
-0.03931329078825406   -0.0532783263170341   0.012566821890046851
-0.03931329078825406   -0.0532783263170341   0.012566821890046851
-0.03931329078825406   -0.0532783263170341   0.012566821890046851
-0.03931329078825406   -0.0532783263170341   0.012566821890046851
-0.05989304469510827   -0.018127079035260826   0.0039561518353060775
-0.05989304469510827   -0.018127079035260826   0.0039561518353060775
-0.05989304469510827   -0.018127079035260826   0.0039561518353060775
-0.05989304469510827   -0.018127079035260826   0.0039561518353060775
-0.04485876628110786   -0.02879112478873625   0.01289291732946498
-0.04485876628110786   -0.02879112478873625   0.01289291732946498
-0.04485876628110786   -0.02879112478873625   0.01289291732946498
-0.04485876628110786   -0.02879112478873625   0.01289291732946498
-0.06349613841605692   -0.055887949484620336   0.023701553679918556
-0.06349613841605692   -0.055887949484620336   0.023701553679918556
-0.06349613841605692   -0.055887949484620336   0.023701553679918556
-0.06349613841605692   -0.055887949484620336   0.023701553679918556
-0.03607902607798387   -0.01588628487835369   -0.008653895997282635
-0.03607902607798387   -0.01588628487835369   -0.008653895997282635
-0.03607902607798387   -0.01588628487835369   -0.008653895997282635
-0.03607902607798387   -0.01588628487835369   -0.008653895997282635
-0.03305646365675693   -0.05805640555505249   0.013829994148176242
-0.03305646365675693   -0.05805640555505249   0.013829994148176242
-0.03305646365675693   -0.05805640555505249   0.013829994148176242
-0.03305646365675693   -0.05805640555505249   0.013829994148176242
-0.06479929555971865   -0.03878109090535302   0.005165115137430361
-0.06479929555971865   -0.03878109090535302   0.005165115137430361
-0.06479929555971865   -0.03878109090535302   0.005165115137430361
-0.06479929555971865   -0.03878109090535302   0.005165115137430361
-0.04331695948837319   -0.036281826434029996   0.011039246139730422
-0.04331695948837319   -0.036281826434029996   0.011039246139730422
-0.04331695948837319   -0.036281826434029996   0.011039246139730422
-0.04331695948837319   -0.036281826434029996   0.011039246139730422
-0.04119132041154834   -0.007880946085946807   0.0221437530736872
-0.04119132041154834   -0.007880946085946807   0.0221437530736872
-0.04119132041154834   -0.007880946085946807   0.0221437530736872
-0.04119132041154834   -0.007880946085946807   0.0221437530736872
-0.007517501158853565   0.004647274301349334   -0.000447410667884933
-0.007517501158853565   0.004647274301349334   -0.000447410667884933
-0.007517501158853565   0.004647274301349334   -0.000447410667884933
-0.007517501158853565   0.004647274301349334   -0.000447410667884933
0.0020569605400579246   -0.0025416566432588166   0.013732583641714554
0.0020569605400579246   -0.0025416566432588166   0.013732583641714554
0.0020569605400579246   -0.0025416566432588166   0.013732583641714554
0.0020569605400579246   -0.0025416566432588166   0.013732583641714554
-0.03535685999752368   0.003377337762814259   -0.0016047650180857635
-0.03535685999752368   0.003377337762814259   -0.0016047650180857635
-0.03535685999752368   0.003377337762814259   -0.0016047650180857635
-0.03535685999752368   0.003377337762814259   -0.0016047650180857635
-0.020832142614221994   -0.001598134197086746   -0.001684766362449594
-0.020832142614221994   -0.001598134197086746   -0.001684766362449594
-0.020832142614221994   -0.001598134197086746   -0.001684766362449594
-0.020832142614221994   -0.001598134197086746   -0.001684766362449594
-0.032627755098441076   -0.007617914209395634   0.02303601144953714
-0.032627755098441076   -0.007617914209395634   0.02303601144953714
-0.032627755098441076   -0.007617914209395634   0.02303601144953714
-0.032627755098441076   -0.007617914209395634   0.02303601144953714
0.0005511400808751198   0.009676879768850873   -0.006015055066301489
0.0005511400808751198   0.009676879768850873   -0.006015055066301489
0.0005511400808751198   0.009676879768850873   -0.006015055066301489
0.0005511400808751198   0.009676879768850873   -0.006015055066301489
0.006825374050168134   -0.003144774422153305   0.016930737836159712
0.006825374050168134   -0.003144774422153305   0.016930737836159712
0.006825374050168134   -0.003144774422153305   0.016930737836159712
0.006825374050168134   -0.003144774422153305   0.016930737836159712
-0.031152814125509746   0.0024437784715703233   -0.002352899584836039
-0.031152814125509746   0.0024437784715703233   -0.002352899584836039
-0.031152814125509746   0.0024437784715703233   -0.002352899584836039
-0.031152814125509746   0.0024437784715703233   -0.002352899584836039
-0.013808389526731395   -0.00043977644190629304   0.002153567797908088
-0.013808389526731395   -0.00043977644190629304   0.002153567797908088
-0.013808389526731395   -0.00043977644190629304   0.002153567797908088
-0.013808389526731395   -0.00043977644190629304   0.002153567797908088
-0.02792427456119642   -0.008528446974998313   0.02476202368329923
-0.02792427456119642   -0.008528446974998313   0.02476202368329923
-0.02792427456119642   -0.008528446974998313   0.02476202368329923
-0.02792427456119642   -0.008528446974998313   0.02476202368329923
0.0046853241072109565   0.008915940645772759   -0.0058302269465445675
0.0046853241072109565   0.008915940645772759   -0.0058302269465445675
0.0046853241072109565   0.008915940645772759   -0.0058302269465445675
0.0046853241072109565   0.008915940645772759   -0.0058302269465445675
0.011633269663540207   -0.0049677240570790634   0.016464274029173758
0.011633269663540207   -0.0049677240570790634   0.016464274029173758
0.011633269663540207   -0.0049677240570790634   0.016464274029173758
0.011633269663540207   -0.0049677240570790634   0.016464274029173758
-0.02428034791426695   0.0023092255787017825   -0.0026550582731281564
-0.02428034791426695   0.0023092255787017825   -0.0026550582731281564
-0.02428034791426695   0.0023092255787017825   -0.0026550582731281564
-0.02428034791426695   0.0023092255787017825   -0.0026550582731281564
-0.007559456589648111   0.00023698352385258226   0.005497987696920583
-0.007559456589648111   0.00023698352385258226   0.005497987696920583
-0.007559456589648111   0.00023698352385258226   0.005497987696920583
-0.007559456589648111   0.00023698352385258226   0.005497987696920583
              </DataArray>   
             <DataArray type="Float64" NumberOfComponents="3" Name="Displacements" format="ascii">   
0.0   0.0   0.0
-0.003779875897298737   -0.002483362510002578   -0.0012664316147622502
0.0   0.0   0.0
0.0   0.0   0.0
-0.003779875897298737   -0.002483362510002578   -0.0012664316147622502
-0.0024049487773936565   -0.0022323286991455284   -0.0009304939640054908
0.0   0.0   0.0
-0.002357214046336643   -0.002344149785590511   -0.0007796162269431972
0.0   0.0   0.0
0.0   0.0   0.0
-0.002357214046336643   -0.002344149785590511   -0.0007796162269431972
0.0   0.0   0.0
0.0   0.0   0.0
-0.002357214046336643   -0.002344149785590511   -0.0007796162269431972
-0.0039556055431959605   -0.0026455027896770482   -0.0010168600443786295
-0.003779875897298737   -0.002483362510002578   -0.0012664316147622502
0.0   0.0   0.0
-0.002357214046336643   -0.002344149785590511   -0.0007796162269431972
-0.003779875897298737   -0.002483362510002578   -0.0012664316147622502
0.0   0.0   0.0
0.0   0.0   0.0
-0.0039556055431959605   -0.0026455027896770482   -0.0010168600443786295
0.0   0.0   0.0
0.0   0.0   0.0
-0.0039556055431959605   -0.0026455027896770482   -0.0010168600443786295
-0.002357214046336643   -0.002344149785590511   -0.0007796162269431972
0.0   0.0   0.0
-0.002363675140608144   -0.0024014760923829663   -0.0006289771087945969
0.0   0.0   0.0
0.0   0.0   0.0
-0.002363675140608144   -0.0024014760923829663   -0.0006289771087945969
0.0   0.0   0.0
0.0   0.0   0.0
-0.002363675140608144   -0.0024014760923829663   -0.0006289771087945969
-0.004078933056799144   -0.0027243575465412608   -0.0007777720709804633
-0.0039556055431959605   -0.0026455027896770482   -0.0010168600443786295
0.0   0.0   0.0
-0.002363675140608144   -0.0024014760923829663   -0.0006289771087945969
-0.0039556055431959605   -0.0026455027896770482   -0.0010168600443786295
0.0   0.0   0.0
0.0   0.0   0.0
-0.004078933056799144   -0.0027243575465412608   -0.0007777720709804633
0.0   0.0   0.0
0.0   0.0   0.0
-0.004078933056799144   -0.0027243575465412608   -0.0007777720709804633
-0.002363675140608144   -0.0024014760923829663   -0.0006289771087945969
0.0   0.0   0.0
-0.002362222315512378   -0.002416236102244592   -0.00047324080520832476
0.0   0.0   0.0
0.0   0.0   0.0
-0.002362222315512378   -0.002416236102244592   -0.00047324080520832476
0.0   0.0   0.0
0.0   0.0   0.0
-0.002362222315512378   -0.002416236102244592   -0.00047324080520832476
-0.004344799742996179   -0.002784148971448584   -0.0005004222911997965
-0.004078933056799144   -0.0027243575465412608   -0.0007777720709804633
0.0   0.0   0.0
-0.002362222315512378   -0.002416236102244592   -0.00047324080520832476
-0.004078933056799144   -0.0027243575465412608   -0.0007777720709804633
0.0   0.0   0.0
0.0   0.0   0.0
-0.0024049487773936565   -0.0022323286991455284   -0.0009304939640054908
0.0   0.0   0.0
0.0   0.0   0.0
-0.0024049487773936565   -0.0022323286991455284   -0.0009304939640054908
-0.0010954425443421088   -0.0021402996641439746   -0.0007078329525139211
0.0   0.0   0.0
-0.0010533992093594987   -0.002213060147117665   -0.0006365825703825513
0.0   0.0   0.0
0.0   0.0   0.0
-0.0010533992093594987   -0.002213060147117665   -0.0006365825703825513
0.0   0.0   0.0
0.0   0.0   0.0
-0.0010533992093594987   -0.002213060147117665   -0.0006365825703825513
-0.002357214046336643   -0.002344149785590511   -0.0007796162269431972
-0.0024049487773936565   -0.0022323286991455284   -0.0009304939640054908
0.0   0.0   0.0
-0.0010533992093594987   -0.002213060147117665   -0.0006365825703825513
-0.0024049487773936565   -0.0022323286991455284   -0.0009304939640054908
0.0   0.0   0.0
0.0   0.0   0.0
-0.002357214046336643   -0.002344149785590511   -0.0007796162269431972
0.0   0.0   0.0
0.0   0.0   0.0
-0.002357214046336643   -0.002344149785590511   -0.0007796162269431972
-0.0010533992093594987   -0.002213060147117665   -0.0006365825703825513
0.0   0.0   0.0
-0.0010297100733796286   -0.002240801419563397   -0.0005672138194892458
0.0   0.0   0.0
0.0   0.0   0.0
-0.0010297100733796286   -0.002240801419563397   -0.0005672138194892458
0.0   0.0   0.0
0.0   0.0   0.0
-0.0010297100733796286   -0.002240801419563397   -0.0005672138194892458
-0.002363675140608144   -0.0024014760923829663   -0.0006289771087945969
-0.002357214046336643   -0.002344149785590511   -0.0007796162269431972
0.0   0.0   0.0
-0.0010297100733796286   -0.002240801419563397   -0.0005672138194892458
-0.002357214046336643   -0.002344149785590511   -0.0007796162269431972
0.0   0.0   0.0
0.0   0.0   0.0
-0.002363675140608144   -0.0024014760923829663   -0.0006289771087945969
0.0   0.0   0.0
0.0   0.0   0.0
-0.002363675140608144   -0.0024014760923829663   -0.0006289771087945969
-0.0010297100733796286   -0.002240801419563397   -0.0005672138194892458
0.0   0.0   0.0
-0.0010081084232930568   -0.0022292458017756245   -0.0004955209859682382
0.0   0.0   0.0
0.0   0.0   0.0
-0.0010081084232930568   -0.0022292458017756245   -0.0004955209859682382
0.0   0.0   0.0
0.0   0.0   0.0
-0.0010081084232930568   -0.0022292458017756245   -0.0004955209859682382
-0.002362222315512378   -0.002416236102244592   -0.00047324080520832476
-0.002363675140608144   -0.0024014760923829663   -0.0006289771087945969
0.0   0.0   0.0
-0.0010081084232930568   -0.0022292458017756245   -0.0004955209859682382
-0.002363675140608144   -0.0024014760923829663   -0.0006289771087945969
0.0   0.0   0.0
0.0   0.0   0.0
-0.0010954425443421088   -0.0021402996641439746   -0.0007078329525139211
0.0   0.0   0.0
0.0   0.0   0.0
-0.0010954425443421088   -0.0021402996641439746   -0.0007078329525139211
0.0001416353163642144   -0.002152120264388442   -0.0005660089706789327
0.0   0.0   0.0
0.00016855803809405994   -0.002189806510957068   -0.0005758139847743128
0.0   0.0   0.0
0.0   0.0   0.0
0.00016855803809405994   -0.002189806510957068   -0.0005758139847743128
0.0   0.0   0.0
0.0   0.0   0.0
0.00016855803809405994   -0.002189806510957068   -0.0005758139847743128
-0.0010533992093594987   -0.002213060147117665   -0.0006365825703825513
-0.0010954425443421088   -0.0021402996641439746   -0.0007078329525139211
0.0   0.0   0.0
0.00016855803809405994   -0.002189806510957068   -0.0005758139847743128
-0.0010954425443421088   -0.0021402996641439746   -0.0007078329525139211
0.0   0.0   0.0
0.0   0.0   0.0
-0.0010533992093594987   -0.002213060147117665   -0.0006365825703825513
0.0   0.0   0.0
0.0   0.0   0.0
-0.0010533992093594987   -0.002213060147117665   -0.0006365825703825513
0.00016855803809405994   -0.002189806510957068   -0.0005758139847743128
0.0   0.0   0.0
0.0001898318291795526   -0.002186659327717241   -0.000584688865115713
0.0   0.0   0.0
0.0   0.0   0.0
0.0001898318291795526   -0.002186659327717241   -0.000584688865115713
0.0   0.0   0.0
0.0   0.0   0.0
0.0001898318291795526   -0.002186659327717241   -0.000584688865115713
-0.0010297100733796286   -0.002240801419563397   -0.0005672138194892458
-0.0010533992093594987   -0.002213060147117665   -0.0006365825703825513
0.0   0.0   0.0
0.0001898318291795526   -0.002186659327717241   -0.000584688865115713
-0.0010533992093594987   -0.002213060147117665   -0.0006365825703825513
0.0   0.0   0.0
0.0   0.0   0.0
-0.0010297100733796286   -0.002240801419563397   -0.0005672138194892458
0.0   0.0   0.0
0.0   0.0   0.0
-0.0010297100733796286   -0.002240801419563397   -0.0005672138194892458
0.0001898318291795526   -0.002186659327717241   -0.000584688865115713
0.0   0.0   0.0
0.00021839385165472238   -0.0021393336651017764   -0.0005938321020110457
0.0   0.0   0.0
0.0   0.0   0.0
0.00021839385165472238   -0.0021393336651017764   -0.0005938321020110457
0.0   0.0   0.0
0.0   0.0   0.0
0.00021839385165472238   -0.0021393336651017764   -0.0005938321020110457
-0.0010081084232930568   -0.0022292458017756245   -0.0004955209859682382
-0.0010297100733796286   -0.002240801419563397   -0.0005672138194892458
0.0   0.0   0.0
0.00021839385165472238   -0.0021393336651017764   -0.0005938321020110457
-0.0010297100733796286   -0.002240801419563397   -0.0005672138194892458
0.0   0.0   0.0
0.0   0.0   0.0
0.0001416353163642144   -0.002152120264388442   -0.0005660089706789327
0.0   0.0   0.0
0.0   0.0   0.0
0.0001416353163642144   -0.002152120264388442   -0.0005660089706789327
0.0014846234274069907   -0.002256599552897174   -0.000495954592471363
0.0   0.0   0.0
0.0014874751376259732   -0.002268538498999606   -0.000591049733455405
0.0   0.0   0.0
0.0   0.0   0.0
0.0014874751376259732   -0.002268538498999606   -0.000591049733455405
0.0   0.0   0.0
0.0   0.0   0.0
0.0014874751376259732   -0.002268538498999606   -0.000591049733455405
0.00016855803809405994   -0.002189806510957068   -0.0005758139847743128
0.0001416353163642144   -0.002152120264388442   -0.0005660089706789327
0.0   0.0   0.0
0.0014874751376259732   -0.002268538498999606   -0.000591049733455405
0.0001416353163642144   -0.002152120264388442   -0.0005660089706789327
0.0   0.0   0.0
0.0   0.0   0.0
0.00016855803809405994   -0.002189806510957068   -0.0005758139847743128
0.0   0.0   0.0
0.0   0.0   0.0
0.00016855803809405994   -0.002189806510957068   -0.0005758139847743128
0.0014874751376259732   -0.002268538498999606   -0.000591049733455405
0.0   0.0   0.0
0.0014812870225404291   -0.0022361461431226726   -0.0006823059015555094
0.0   0.0   0.0
0.0   0.0   0.0
0.0014812870225404291   -0.0022361461431226726   -0.0006823059015555094
0.0   0.0   0.0
0.0   0.0   0.0
0.0014812870225404291   -0.0022361461431226726   -0.0006823059015555094
0.0001898318291795526   -0.002186659327717241   -0.000584688865115713
0.00016855803809405994   -0.002189806510957068   -0.0005758139847743128
0.0   0.0   0.0
0.0014812870225404291   -0.0022361461431226726   -0.0006823059015555094
0.00016855803809405994   -0.002189806510957068   -0.0005758139847743128
0.0   0.0   0.0
0.0   0.0   0.0
0.0001898318291795526   -0.002186659327717241   -0.000584688865115713
0.0   0.0   0.0
0.0   0.0   0.0
0.0001898318291795526   -0.002186659327717241   -0.000584688865115713
0.0014812870225404291   -0.0022361461431226726   -0.0006823059015555094
0.0   0.0   0.0
0.0015101504773996648   -0.0021495281720598346   -0.0007718477824496769
0.0   0.0   0.0
0.0   0.0   0.0
0.0015101504773996648   -0.0021495281720598346   -0.0007718477824496769
0.0   0.0   0.0
0.0   0.0   0.0
0.0015101504773996648   -0.0021495281720598346   -0.0007718477824496769
0.00021839385165472238   -0.0021393336651017764   -0.0005938321020110457
0.0001898318291795526   -0.002186659327717241   -0.000584688865115713
0.0   0.0   0.0
0.0015101504773996648   -0.0021495281720598346   -0.0007718477824496769
0.0001898318291795526   -0.002186659327717241   -0.000584688865115713
0.0   0.0   0.0
0.0   0.0   0.0
0.0014846234274069907   -0.002256599552897174   -0.000495954592471363
0.0   0.0   0.0
0.0   0.0   0.0
0.0014846234274069907   -0.002256599552897174   -0.000495954592471363
0.0033528692568299593   -0.0025215395585806454   -0.00046817651210437784
0.0   0.0   0.0
0.0031491604261578206   -0.0024938931644135514   -0.0006838576372668045
0.0   0.0   0.0
0.0   0.0   0.0
0.0031491604261578206   -0.0024938931644135514   -0.0006838576372668045
0.0   0.0   0.0
0.0   0.0   0.0
0.0031491604261578206   -0.0024938931644135514   -0.0006838576372668045
0.0014874751376259732   -0.002268538498999606   -0.000591049733455405
0.0014846234274069907   -0.002256599552897174   -0.000495954592471363
0.0   0.0   0.0
0.0031491604261578206   -0.0024938931644135514   -0.0006838576372668045
0.0014846234274069907   -0.002256599552897174   -0.000495954592471363
0.0   0.0   0.0
0.0   0.0   0.0
0.0014874751376259732   -0.002268538498999606   -0.000591049733455405
0.0   0.0   0.0
0.0   0.0   0.0
0.0014874751376259732   -0.002268538498999606   -0.000591049733455405
0.0031491604261578206   -0.0024938931644135514   -0.0006838576372668045
0.0   0.0   0.0
0.0030553045839221225   -0.00244204576155905   -0.0008662671540808569
0.0   0.0   0.0
0.0   0.0   0.0
0.0030553045839221225   -0.00244204576155905   -0.0008662671540808569
0.0   0.0   0.0
0.0   0.0   0.0
0.0030553045839221225   -0.00244204576155905   -0.0008662671540808569
0.0014812870225404291   -0.0022361461431226726   -0.0006823059015555094
0.0014874751376259732   -0.002268538498999606   -0.000591049733455405
0.0   0.0   0.0
0.0030553045839221225   -0.00244204576155905   -0.0008662671540808569
0.0014874751376259732   -0.002268538498999606   -0.000591049733455405
0.0   0.0   0.0
0.0   0.0   0.0
0.0014812870225404291   -0.0022361461431226726   -0.0006823059015555094
0.0   0.0   0.0
0.0   0.0   0.0
0.0014812870225404291   -0.0022361461431226726   -0.0006823059015555094
0.0030553045839221225   -0.00244204576155905   -0.0008662671540808569
0.0   0.0   0.0
0.002915452059821427   -0.0023094794243232264   -0.0010593480205538773
0.0   0.0   0.0
0.0   0.0   0.0
0.002915452059821427   -0.0023094794243232264   -0.0010593480205538773
0.0   0.0   0.0
0.0   0.0   0.0
0.002915452059821427   -0.0023094794243232264   -0.0010593480205538773
0.0015101504773996648   -0.0021495281720598346   -0.0007718477824496769
0.0014812870225404291   -0.0022361461431226726   -0.0006823059015555094
0.0   0.0   0.0
0.002915452059821427   -0.0023094794243232264   -0.0010593480205538773
0.0014812870225404291   -0.0022361461431226726   -0.0006823059015555094
0.0   0.0   0.0
-0.003779875897298737   -0.002483362510002578   -0.0012664316147622502
-0.007057513419005094   -0.006927205920461946   -0.0017063377310405064
-0.0024049487773936565   -0.0022323286991455284   -0.0009304939640054908
-0.0039556055431959605   -0.0026455027896770482   -0.0010168600443786295
-0.007057513419005094   -0.006927205920461946   -0.0017063377310405064
-0.004504423487143345   -0.006701526067467537   -0.001404771850863276
-0.0024049487773936565   -0.0022323286991455284   -0.0009304939640054908
-0.004509419244714917   -0.006815885990483281   -0.0012652915283548598
-0.0039556055431959605   -0.0026455027896770482   -0.0010168600443786295
-0.002357214046336643   -0.002344149785590511   -0.0007796162269431972
-0.004509419244714917   -0.006815885990483281   -0.0012652915283548598
-0.0024049487773936565   -0.0022323286991455284   -0.0009304939640054908
-0.0039556055431959605   -0.0026455027896770482   -0.0010168600443786295
-0.004509419244714917   -0.006815885990483281   -0.0012652915283548598
-0.007268528681967539   -0.007086817308507999   -0.0014798931605890767
-0.007057513419005094   -0.006927205920461946   -0.0017063377310405064
-0.0039556055431959605   -0.0026455027896770482   -0.0010168600443786295
-0.004509419244714917   -0.006815885990483281   -0.0012652915283548598
-0.007057513419005094   -0.006927205920461946   -0.0017063377310405064
-0.0024049487773936565   -0.0022323286991455284   -0.0009304939640054908
-0.0039556055431959605   -0.0026455027896770482   -0.0010168600443786295
-0.007268528681967539   -0.007086817308507999   -0.0014798931605890767
-0.002357214046336643   -0.002344149785590511   -0.0007796162269431972
-0.004078933056799144   -0.0027243575465412608   -0.0007777720709804633
-0.007268528681967539   -0.007086817308507999   -0.0014798931605890767
-0.004509419244714917   -0.006815885990483281   -0.0012652915283548598
-0.002357214046336643   -0.002344149785590511   -0.0007796162269431972
-0.004526828929084495   -0.006885630939354292   -0.0011312779806449003
-0.004078933056799144   -0.0027243575465412608   -0.0007777720709804633
-0.002363675140608144   -0.0024014760923829663   -0.0006289771087945969
-0.004526828929084495   -0.006885630939354292   -0.0011312779806449003
-0.002357214046336643   -0.002344149785590511   -0.0007796162269431972
-0.004078933056799144   -0.0027243575465412608   -0.0007777720709804633
-0.004526828929084495   -0.006885630939354292   -0.0011312779806449003
-0.007415002937055394   -0.00717698796850967   -0.0012581947075004495
-0.007268528681967539   -0.007086817308507999   -0.0014798931605890767
-0.004078933056799144   -0.0027243575465412608   -0.0007777720709804633
-0.004526828929084495   -0.006885630939354292   -0.0011312779806449003
-0.007268528681967539   -0.007086817308507999   -0.0014798931605890767
-0.002357214046336643   -0.002344149785590511   -0.0007796162269431972
-0.004078933056799144   -0.0027243575465412608   -0.0007777720709804633
-0.007415002937055394   -0.00717698796850967   -0.0012581947075004495
-0.002363675140608144   -0.0024014760923829663   -0.0006289771087945969
-0.004344799742996179   -0.002784148971448584   -0.0005004222911997965
-0.007415002937055394   -0.00717698796850967   -0.0012581947075004495
-0.004526828929084495   -0.006885630939354292   -0.0011312779806449003
-0.002363675140608144   -0.0024014760923829663   -0.0006289771087945969
-0.004512978966128546   -0.006921874148593545   -0.0010058580351809043
-0.004344799742996179   -0.002784148971448584   -0.0005004222911997965
-0.002362222315512378   -0.002416236102244592   -0.00047324080520832476
-0.004512978966128546   -0.006921874148593545   -0.0010058580351809043
-0.002363675140608144   -0.0024014760923829663   -0.0006289771087945969
-0.004344799742996179   -0.002784148971448584   -0.0005004222911997965
-0.004512978966128546   -0.006921874148593545   -0.0010058580351809043
-0.007588114742744265   -0.007229507562461871   -0.0010565376633148856
-0.007415002937055394   -0.00717698796850967   -0.0012581947075004495
-0.004344799742996179   -0.002784148971448584   -0.0005004222911997965
-0.004512978966128546   -0.006921874148593545   -0.0010058580351809043
-0.007415002937055394   -0.00717698796850967   -0.0012581947075004495
-0.002363675140608144   -0.0024014760923829663   -0.0006289771087945969
-0.0024049487773936565   -0.0022323286991455284   -0.0009304939640054908
-0.004504423487143345   -0.006701526067467537   -0.001404771850863276
-0.0010954425443421088   -0.0021402996641439746   -0.0007078329525139211
-0.002357214046336643   -0.002344149785590511   -0.0007796162269431972
-0.004504423487143345   -0.006701526067467537   -0.001404771850863276
-0.0020906043215513626   -0.006596511541946464   -0.0011989452964635766
-0.0010954425443421088   -0.0021402996641439746   -0.0007078329525139211
-0.0020722380401008325   -0.006669261314133608   -0.0011274383035490272
-0.002357214046336643   -0.002344149785590511   -0.0007796162269431972
-0.0010533992093594987   -0.002213060147117665   -0.0006365825703825513
-0.0020722380401008325   -0.006669261314133608   -0.0011274383035490272
-0.0010954425443421088   -0.0021402996641439746   -0.0007078329525139211
-0.002357214046336643   -0.002344149785590511   -0.0007796162269431972
-0.0020722380401008325   -0.006669261314133608   -0.0011274383035490272
-0.004509419244714917   -0.006815885990483281   -0.0012652915283548598
-0.004504423487143345   -0.006701526067467537   -0.001404771850863276
-0.002357214046336643   -0.002344149785590511   -0.0007796162269431972
-0.0020722380401008325   -0.006669261314133608   -0.0011274383035490272
-0.004504423487143345   -0.006701526067467537   -0.001404771850863276
-0.0010954425443421088   -0.0021402996641439746   -0.0007078329525139211
-0.002357214046336643   -0.002344149785590511   -0.0007796162269431972
-0.004509419244714917   -0.006815885990483281   -0.0012652915283548598
-0.0010533992093594987   -0.002213060147117665   -0.0006365825703825513
-0.002363675140608144   -0.0024014760923829663   -0.0006289771087945969
-0.004509419244714917   -0.006815885990483281   -0.0012652915283548598
-0.0020722380401008325   -0.006669261314133608   -0.0011274383035490272
-0.0010533992093594987   -0.002213060147117665   -0.0006365825703825513
-0.0020559253856182293   -0.0067045565591012735   -0.0010626301851213585
-0.002363675140608144   -0.0024014760923829663   -0.0006289771087945969
-0.0010297100733796286   -0.002240801419563397   -0.0005672138194892458
-0.0020559253856182293   -0.0067045565591012735   -0.0010626301851213585
-0.0010533992093594987   -0.002213060147117665   -0.0006365825703825513
-0.002363675140608144   -0.0024014760923829663   -0.0006289771087945969
-0.0020559253856182293   -0.0067045565591012735   -0.0010626301851213585
-0.004526828929084495   -0.006885630939354292   -0.0011312779806449003
-0.004509419244714917   -0.006815885990483281   -0.0012652915283548598
-0.002363675140608144   -0.0024014760923829663   -0.0006289771087945969
-0.0020559253856182293   -0.0067045565591012735   -0.0010626301851213585
-0.004509419244714917   -0.006815885990483281   -0.0012652915283548598
-0.0010533992093594987   -0.002213060147117665   -0.0006365825703825513
-0.002363675140608144   -0.0024014760923829663   -0.0006289771087945969
-0.004526828929084495   -0.006885630939354292   -0.0011312779806449003
-0.0010297100733796286   -0.002240801419563397   -0.0005672138194892458
-0.002362222315512378   -0.002416236102244592   -0.00047324080520832476
-0.004526828929084495   -0.006885630939354292   -0.0011312779806449003
-0.0020559253856182293   -0.0067045565591012735   -0.0010626301851213585
-0.0010297100733796286   -0.002240801419563397   -0.0005672138194892458
-0.00203173594840992   -0.006703726873099602   -0.001006224118208256
-0.002362222315512378   -0.002416236102244592   -0.00047324080520832476
-0.0010081084232930568   -0.0022292458017756245   -0.0004955209859682382
-0.00203173594840992   -0.006703726873099602   -0.001006224118208256
-0.0010297100733796286   -0.002240801419563397   -0.0005672138194892458
-0.002362222315512378   -0.002416236102244592   -0.00047324080520832476
-0.00203173594840992   -0.006703726873099602   -0.001006224118208256
-0.004512978966128546   -0.006921874148593545   -0.0010058580351809043
-0.004526828929084495   -0.006885630939354292   -0.0011312779806449003
-0.002362222315512378   -0.002416236102244592   -0.00047324080520832476
-0.00203173594840992   -0.006703726873099602   -0.001006224118208256
-0.004526828929084495   -0.006885630939354292   -0.0011312779806449003
-0.0010297100733796286   -0.002240801419563397   -0.0005672138194892458
-0.0010954425443421088   -0.0021402996641439746   -0.0007078329525139211
-0.0020906043215513626   -0.006596511541946464   -0.0011989452964635766
0.0001416353163642144   -0.002152120264388442   -0.0005660089706789327
-0.0010533992093594987   -0.002213060147117665   -0.0006365825703825513
-0.0020906043215513626   -0.006596511541946464   -0.0011989452964635766
0.00023683933462370044   -0.006599658018145103   -0.0010689022541217333
0.0001416353163642144   -0.002152120264388442   -0.0005660089706789327
0.0002593566933319137   -0.006634066501641966   -0.0010641064102931978
-0.0010533992093594987   -0.002213060147117665   -0.0006365825703825513
0.00016855803809405994   -0.002189806510957068   -0.0005758139847743128
0.0002593566933319137   -0.006634066501641966   -0.0010641064102931978
0.0001416353163642144   -0.002152120264388442   -0.0005660089706789327
-0.0010533992093594987   -0.002213060147117665   -0.0006365825703825513
0.0002593566933319137   -0.006634066501641966   -0.0010641064102931978
-0.0020722380401008325   -0.006669261314133608   -0.0011274383035490272
-0.0020906043215513626   -0.006596511541946464   -0.0011989452964635766
-0.0010533992093594987   -0.002213060147117665   -0.0006365825703825513
0.0002593566933319137   -0.006634066501641966   -0.0010641064102931978
-0.0020906043215513626   -0.006596511541946464   -0.0011989452964635766
0.0001416353163642144   -0.002152120264388442   -0.0005660089706789327
-0.0010533992093594987   -0.002213060147117665   -0.0006365825703825513
-0.0020722380401008325   -0.006669261314133608   -0.0011274383035490272
0.00016855803809405994   -0.002189806510957068   -0.0005758139847743128
-0.0010297100733796286   -0.002240801419563397   -0.0005672138194892458
-0.0020722380401008325   -0.006669261314133608   -0.0011274383035490272
0.0002593566933319137   -0.006634066501641966   -0.0010641064102931978
0.00016855803809405994   -0.002189806510957068   -0.0005758139847743128
0.0002746123339152539   -0.006631897309045251   -0.0010669124251547822
-0.0010297100733796286   -0.002240801419563397   -0.0005672138194892458
0.0001898318291795526   -0.002186659327717241   -0.000584688865115713
0.0002746123339152539   -0.006631897309045251   -0.0010669124251547822
0.00016855803809405994   -0.002189806510957068   -0.0005758139847743128
-0.0010297100733796286   -0.002240801419563397   -0.0005672138194892458
0.0002746123339152539   -0.006631897309045251   -0.0010669124251547822
-0.0020559253856182293   -0.0067045565591012735   -0.0010626301851213585
-0.0020722380401008325   -0.006669261314133608   -0.0011274383035490272
-0.0010297100733796286   -0.002240801419563397   -0.0005672138194892458
0.0002746123339152539   -0.006631897309045251   -0.0010669124251547822
-0.0020722380401008325   -0.006669261314133608   -0.0011274383035490272
0.00016855803809405994   -0.002189806510957068   -0.0005758139847743128
-0.0010297100733796286   -0.002240801419563397   -0.0005672138194892458
-0.0020559253856182293   -0.0067045565591012735   -0.0010626301851213585
0.0001898318291795526   -0.002186659327717241   -0.000584688865115713
-0.0010081084232930568   -0.0022292458017756245   -0.0004955209859682382
-0.0020559253856182293   -0.0067045565591012735   -0.0010626301851213585
0.0002746123339152539   -0.006631897309045251   -0.0010669124251547822
0.0001898318291795526   -0.002186659327717241   -0.000584688865115713
0.0002909547776460797   -0.006592035871228036   -0.0010774400849742672
-0.0010081084232930568   -0.0022292458017756245   -0.0004955209859682382
0.00021839385165472238   -0.0021393336651017764   -0.0005938321020110457
0.0002909547776460797   -0.006592035871228036   -0.0010774400849742672
0.0001898318291795526   -0.002186659327717241   -0.000584688865115713
-0.0010081084232930568   -0.0022292458017756245   -0.0004955209859682382
0.0002909547776460797   -0.006592035871228036   -0.0010774400849742672
-0.00203173594840992   -0.006703726873099602   -0.001006224118208256
-0.0020559253856182293   -0.0067045565591012735   -0.0010626301851213585
-0.0010081084232930568   -0.0022292458017756245   -0.0004955209859682382
0.0002909547776460797   -0.006592035871228036   -0.0010774400849742672
-0.0020559253856182293   -0.0067045565591012735   -0.0010626301851213585
0.0001898318291795526   -0.002186659327717241   -0.000584688865115713
0.0001416353163642144   -0.002152120264388442   -0.0005660089706789327
0.00023683933462370044   -0.006599658018145103   -0.0010689022541217333
0.0014846234274069907   -0.002256599552897174   -0.000495954592471363
0.00016855803809405994   -0.002189806510957068   -0.0005758139847743128
0.00023683933462370044   -0.006599658018145103   -0.0010689022541217333
0.0027034613445133934   -0.006707067783947692   -0.0010083798778218586
0.0014846234274069907   -0.002256599552897174   -0.000495954592471363
0.0027164015643057872   -0.006706625905492602   -0.0010724562170414422
0.00016855803809405994   -0.002189806510957068   -0.0005758139847743128
0.0014874751376259732   -0.002268538498999606   -0.000591049733455405
0.0027164015643057872   -0.006706625905492602   -0.0010724562170414422
0.0014846234274069907   -0.002256599552897174   -0.000495954592471363
0.00016855803809405994   -0.002189806510957068   -0.0005758139847743128
0.0027164015643057872   -0.006706625905492602   -0.0010724562170414422
0.0002593566933319137   -0.006634066501641966   -0.0010641064102931978
0.00023683933462370044   -0.006599658018145103   -0.0010689022541217333
0.00016855803809405994   -0.002189806510957068   -0.0005758139847743128
0.0027164015643057872   -0.006706625905492602   -0.0010724562170414422
0.00023683933462370044   -0.006599658018145103   -0.0010689022541217333
0.0014846234274069907   -0.002256599552897174   -0.000495954592471363
0.00016855803809405994   -0.002189806510957068   -0.0005758139847743128
0.0002593566933319137   -0.006634066501641966   -0.0010641064102931978
0.0014874751376259732   -0.002268538498999606   -0.000591049733455405
0.0001898318291795526   -0.002186659327717241   -0.000584688865115713
0.0002593566933319137   -0.006634066501641966   -0.0010641064102931978
0.0027164015643057872   -0.006706625905492602   -0.0010724562170414422
0.0014874751376259732   -0.002268538498999606   -0.000591049733455405
0.002704241041242705   -0.006670327507941314   -0.0011451329389529658
0.0001898318291795526   -0.002186659327717241   -0.000584688865115713
0.0014812870225404291   -0.0022361461431226726   -0.0006823059015555094
0.002704241041242705   -0.006670327507941314   -0.0011451329389529658
0.0014874751376259732   -0.002268538498999606   -0.000591049733455405
0.0001898318291795526   -0.002186659327717241   -0.000584688865115713
0.002704241041242705   -0.006670327507941314   -0.0011451329389529658
0.0002746123339152539   -0.006631897309045251   -0.0010669124251547822
0.0002593566933319137   -0.006634066501641966   -0.0010641064102931978
0.0001898318291795526   -0.002186659327717241   -0.000584688865115713
0.002704241041242705   -0.006670327507941314   -0.0011451329389529658
0.0002593566933319137   -0.006634066501641966   -0.0010641064102931978
0.0014874751376259732   -0.002268538498999606   -0.000591049733455405
0.0001898318291795526   -0.002186659327717241   -0.000584688865115713
0.0002746123339152539   -0.006631897309045251   -0.0010669124251547822
0.0014812870225404291   -0.0022361461431226726   -0.0006823059015555094
0.00021839385165472238   -0.0021393336651017764   -0.0005938321020110457
0.0002746123339152539   -0.006631897309045251   -0.0010669124251547822
0.002704241041242705   -0.006670327507941314   -0.0011451329389529658
0.0014812870225404291   -0.0022361461431226726   -0.0006823059015555094
0.0026974144642763417   -0.006588262992074649   -0.001223719782557119
0.00021839385165472238   -0.0021393336651017764   -0.0005938321020110457
0.0015101504773996648   -0.0021495281720598346   -0.0007718477824496769
0.0026974144642763417   -0.006588262992074649   -0.001223719782557119
0.0014812870225404291   -0.0022361461431226726   -0.0006823059015555094
0.00021839385165472238   -0.0021393336651017764   -0.0005938321020110457
0.0026974144642763417   -0.006588262992074649   -0.001223719782557119
0.0002909547776460797   -0.006592035871228036   -0.0010774400849742672
0.0002746123339152539   -0.006631897309045251   -0.0010669124251547822
0.00021839385165472238   -0.0021393336651017764   -0.0005938321020110457
0.0026974144642763417   -0.006588262992074649   -0.001223719782557119
0.0002746123339152539   -0.006631897309045251   -0.0010669124251547822
0.0014812870225404291   -0.0022361461431226726   -0.0006823059015555094
0.0014846234274069907   -0.002256599552897174   -0.000495954592471363
0.0027034613445133934   -0.006707067783947692   -0.0010083798778218586
0.0033528692568299593   -0.0025215395585806454   -0.00046817651210437784
0.0014874751376259732   -0.002268538498999606   -0.000591049733455405
0.0027034613445133934   -0.006707067783947692   -0.0010083798778218586
0.0056804798076172565   -0.006906646417442634   -0.0009923927261947971
0.0033528692568299593   -0.0025215395585806454   -0.00046817651210437784
0.0055655022207199345   -0.006887624191709716   -0.0011366016069921953
0.0014874751376259732   -0.002268538498999606   -0.000591049733455405
0.0031491604261578206   -0.0024938931644135514   -0.0006838576372668045
0.0055655022207199345   -0.006887624191709716   -0.0011366016069921953
0.0033528692568299593   -0.0025215395585806454   -0.00046817651210437784
0.0014874751376259732   -0.002268538498999606   -0.000591049733455405
0.0055655022207199345   -0.006887624191709716   -0.0011366016069921953
0.0027164015643057872   -0.006706625905492602   -0.0010724562170414422
0.0027034613445133934   -0.006707067783947692   -0.0010083798778218586
0.0014874751376259732   -0.002268538498999606   -0.000591049733455405
0.0055655022207199345   -0.006887624191709716   -0.0011366016069921953
0.0027034613445133934   -0.006707067783947692   -0.0010083798778218586
0.0033528692568299593   -0.0025215395585806454   -0.00046817651210437784
0.0014874751376259732   -0.002268538498999606   -0.000591049733455405
0.0027164015643057872   -0.006706625905492602   -0.0010724562170414422
0.0031491604261578206   -0.0024938931644135514   -0.0006838576372668045
0.0014812870225404291   -0.0022361461431226726   -0.0006823059015555094
0.0027164015643057872   -0.006706625905492602   -0.0010724562170414422
0.0055655022207199345   -0.006887624191709716   -0.0011366016069921953
0.0031491604261578206   -0.0024938931644135514   -0.0006838576372668045
0.005462698434641937   -0.006831686931587896   -0.001298901518390768
0.0014812870225404291   -0.0022361461431226726   -0.0006823059015555094
0.0030553045839221225   -0.00244204576155905   -0.0008662671540808569
0.005462698434641937   -0.006831686931587896   -0.001298901518390768
0.0031491604261578206   -0.0024938931644135514   -0.0006838576372668045
0.0014812870225404291   -0.0022361461431226726   -0.0006823059015555094
0.005462698434641937   -0.006831686931587896   -0.001298901518390768
0.002704241041242705   -0.006670327507941314   -0.0011451329389529658
0.0027164015643057872   -0.006706625905492602   -0.0010724562170414422
0.0014812870225404291   -0.0022361461431226726   -0.0006823059015555094
0.005462698434641937   -0.006831686931587896   -0.001298901518390768
0.0027164015643057872   -0.006706625905492602   -0.0010724562170414422
0.0031491604261578206   -0.0024938931644135514   -0.0006838576372668045
0.0014812870225404291   -0.0022361461431226726   -0.0006823059015555094
0.002704241041242705   -0.006670327507941314   -0.0011451329389529658
0.0030553045839221225   -0.00244204576155905   -0.0008662671540808569
0.0015101504773996648   -0.0021495281720598346   -0.0007718477824496769
0.002704241041242705   -0.006670327507941314   -0.0011451329389529658
0.005462698434641937   -0.006831686931587896   -0.001298901518390768
0.0030553045839221225   -0.00244204576155905   -0.0008662671540808569
0.005308399741785958   -0.00670736571940938   -0.0014678911324073124
0.0015101504773996648   -0.0021495281720598346   -0.0007718477824496769
0.002915452059821427   -0.0023094794243232264   -0.0010593480205538773
0.005308399741785958   -0.00670736571940938   -0.0014678911324073124
0.0030553045839221225   -0.00244204576155905   -0.0008662671540808569
0.0015101504773996648   -0.0021495281720598346   -0.0007718477824496769
0.005308399741785958   -0.00670736571940938   -0.0014678911324073124
0.0026974144642763417   -0.006588262992074649   -0.001223719782557119
0.002704241041242705   -0.006670327507941314   -0.0011451329389529658
0.0015101504773996648   -0.0021495281720598346   -0.0007718477824496769
0.005308399741785958   -0.00670736571940938   -0.0014678911324073124
0.002704241041242705   -0.006670327507941314   -0.0011451329389529658
0.0030553045839221225   -0.00244204576155905   -0.0008662671540808569
-0.007057513419005094   -0.006927205920461946   -0.0017063377310405064
-0.009666851153792875   -0.012984610765050631   -0.0019438876430780177
-0.004504423487143345   -0.006701526067467537   -0.001404771850863276
-0.007268528681967539   -0.007086817308507999   -0.0014798931605890767
-0.009666851153792875   -0.012984610765050631   -0.0019438876430780177
-0.006215468590833839   -0.012812251993396608   -0.0016994962745167862
-0.004504423487143345   -0.006701526067467537   -0.001404771850863276
-0.00622868763709774   -0.012910890293042617   -0.0015913455511361119
-0.007268528681967539   -0.007086817308507999   -0.0014798931605890767
-0.004509419244714917   -0.006815885990483281   -0.0012652915283548598
-0.00622868763709774   -0.012910890293042617   -0.0015913455511361119
-0.004504423487143345   -0.006701526067467537   -0.001404771850863276
-0.007268528681967539   -0.007086817308507999   -0.0014798931605890767
-0.00622868763709774   -0.012910890293042617   -0.0015913455511361119
-0.00983818594456032   -0.013119440185643014   -0.0017751577972801218
-0.009666851153792875   -0.012984610765050631   -0.0019438876430780177
-0.007268528681967539   -0.007086817308507999   -0.0014798931605890767
-0.00622868763709774   -0.012910890293042617   -0.0015913455511361119
-0.009666851153792875   -0.012984610765050631   -0.0019438876430780177
-0.004504423487143345   -0.006701526067467537   -0.001404771850863276
-0.007268528681967539   -0.007086817308507999   -0.0014798931605890767
-0.00983818594456032   -0.013119440185643014   -0.0017751577972801218
-0.004509419244714917   -0.006815885990483281   -0.0012652915283548598
-0.007415002937055394   -0.00717698796850967   -0.0012581947075004495
-0.00983818594456032   -0.013119440185643014   -0.0017751577972801218
-0.00622868763709774   -0.012910890293042617   -0.0015913455511361119
-0.004509419244714917   -0.006815885990483281   -0.0012652915283548598
-0.006244303961185441   -0.012979571326757134   -0.0014910367682300584
-0.007415002937055394   -0.00717698796850967   -0.0012581947075004495
-0.004526828929084495   -0.006885630939354292   -0.0011312779806449003
-0.006244303961185441   -0.012979571326757134   -0.0014910367682300584
-0.004509419244714917   -0.006815885990483281   -0.0012652915283548598
-0.007415002937055394   -0.00717698796850967   -0.0012581947075004495
-0.006244303961185441   -0.012979571326757134   -0.0014910367682300584
-0.009946009922521927   -0.01320403004410631   -0.0016179216575974863
-0.00983818594456032   -0.013119440185643014   -0.0017751577972801218
-0.007415002937055394   -0.00717698796850967   -0.0012581947075004495
-0.006244303961185441   -0.012979571326757134   -0.0014910367682300584
-0.00983818594456032   -0.013119440185643014   -0.0017751577972801218
-0.004509419244714917   -0.006815885990483281   -0.0012652915283548598
-0.007415002937055394   -0.00717698796850967   -0.0012581947075004495
-0.009946009922521927   -0.01320403004410631   -0.0016179216575974863
-0.004526828929084495   -0.006885630939354292   -0.0011312779806449003
-0.007588114742744265   -0.007229507562461871   -0.0010565376633148856
-0.009946009922521927   -0.01320403004410631   -0.0016179216575974863
-0.006244303961185441   -0.012979571326757134   -0.0014910367682300584
-0.004526828929084495   -0.006885630939354292   -0.0011312779806449003
-0.006232166278527227   -0.013024814522644632   -0.0013968982112960604
-0.007588114742744265   -0.007229507562461871   -0.0010565376633148856
-0.004512978966128546   -0.006921874148593545   -0.0010058580351809043
-0.006232166278527227   -0.013024814522644632   -0.0013968982112960604
-0.004526828929084495   -0.006885630939354292   -0.0011312779806449003
-0.007588114742744265   -0.007229507562461871   -0.0010565376633148856
-0.006232166278527227   -0.013024814522644632   -0.0013968982112960604
-0.010068691429450327   -0.013264958564427227   -0.0014732544609058636
-0.009946009922521927   -0.01320403004410631   -0.0016179216575974863
-0.007588114742744265   -0.007229507562461871   -0.0010565376633148856
-0.006232166278527227   -0.013024814522644632   -0.0013968982112960604
-0.009946009922521927   -0.01320403004410631   -0.0016179216575974863
-0.004526828929084495   -0.006885630939354292   -0.0011312779806449003
-0.004504423487143345   -0.006701526067467537   -0.001404771850863276
-0.006215468590833839   -0.012812251993396608   -0.0016994962745167862
-0.0020906043215513626   -0.006596511541946464   -0.0011989452964635766
-0.004509419244714917   -0.006815885990483281   -0.0012652915283548598
-0.006215468590833839   -0.012812251993396608   -0.0016994962745167862
-0.002961884227328875   -0.012726277011739085   -0.0015297238130580464
-0.0020906043215513626   -0.006596511541946464   -0.0011989452964635766
-0.002954062383056537   -0.012789314898438514   -0.0014685603988061386
-0.004509419244714917   -0.006815885990483281   -0.0012652915283548598
-0.0020722380401008325   -0.006669261314133608   -0.0011274383035490272
-0.002954062383056537   -0.012789314898438514   -0.0014685603988061386
-0.0020906043215513626   -0.006596511541946464   -0.0011989452964635766
-0.004509419244714917   -0.006815885990483281   -0.0012652915283548598
-0.002954062383056537   -0.012789314898438514   -0.0014685603988061386
-0.00622868763709774   -0.012910890293042617   -0.0015913455511361119
-0.006215468590833839   -0.012812251993396608   -0.0016994962745167862
-0.004509419244714917   -0.006815885990483281   -0.0012652915283548598
-0.002954062383056537   -0.012789314898438514   -0.0014685603988061386
-0.006215468590833839   -0.012812251993396608   -0.0016994962745167862
-0.0020906043215513626   -0.006596511541946464   -0.0011989452964635766
-0.004509419244714917   -0.006815885990483281   -0.0012652915283548598
-0.00622868763709774   -0.012910890293042617   -0.0015913455511361119
-0.0020722380401008325   -0.006669261314133608   -0.0011274383035490272
-0.004526828929084495   -0.006885630939354292   -0.0011312779806449003
-0.00622868763709774   -0.012910890293042617   -0.0015913455511361119
-0.002954062383056537   -0.012789314898438514   -0.0014685603988061386
-0.0020722380401008325   -0.006669261314133608   -0.0011274383035490272
-0.002944574513578767   -0.012826357775239165   -0.0014148617063445708
-0.004526828929084495   -0.006885630939354292   -0.0011312779806449003
-0.0020559253856182293   -0.0067045565591012735   -0.0010626301851213585
-0.002944574513578767   -0.012826357775239165   -0.0014148617063445708
-0.0020722380401008325   -0.006669261314133608   -0.0011274383035490272
-0.004526828929084495   -0.006885630939354292   -0.0011312779806449003
-0.002944574513578767   -0.012826357775239165   -0.0014148617063445708
-0.006244303961185441   -0.012979571326757134   -0.0014910367682300584
-0.00622868763709774   -0.012910890293042617   -0.0015913455511361119
-0.004526828929084495   -0.006885630939354292   -0.0011312779806449003
-0.002944574513578767   -0.012826357775239165   -0.0014148617063445708
-0.00622868763709774   -0.012910890293042617   -0.0015913455511361119
-0.0020722380401008325   -0.006669261314133608   -0.0011274383035490272
-0.004526828929084495   -0.006885630939354292   -0.0011312779806449003
-0.006244303961185441   -0.012979571326757134   -0.0014910367682300584
-0.0020559253856182293   -0.0067045565591012735   -0.0010626301851213585
-0.004512978966128546   -0.006921874148593545   -0.0010058580351809043
-0.006244303961185441   -0.012979571326757134   -0.0014910367682300584
-0.002944574513578767   -0.012826357775239165   -0.0014148617063445708
-0.0020559253856182293   -0.0067045565591012735   -0.0010626301851213585
-0.002929230330838958   -0.012837935115905058   -0.0013686067183545847
-0.004512978966128546   -0.006921874148593545   -0.0010058580351809043
-0.00203173594840992   -0.006703726873099602   -0.001006224118208256
-0.002929230330838958   -0.012837935115905058   -0.0013686067183545847
-0.0020559253856182293   -0.0067045565591012735   -0.0010626301851213585
-0.004512978966128546   -0.006921874148593545   -0.0010058580351809043
-0.002929230330838958   -0.012837935115905058   -0.0013686067183545847
-0.006232166278527227   -0.013024814522644632   -0.0013968982112960604
-0.006244303961185441   -0.012979571326757134   -0.0014910367682300584
-0.004512978966128546   -0.006921874148593545   -0.0010058580351809043
-0.002929230330838958   -0.012837935115905058   -0.0013686067183545847
-0.006244303961185441   -0.012979571326757134   -0.0014910367682300584
-0.0020559253856182293   -0.0067045565591012735   -0.0010626301851213585
-0.0020906043215513626   -0.006596511541946464   -0.0011989452964635766
-0.002961884227328875   -0.012726277011739085   -0.0015297238130580464
0.00023683933462370044   -0.006599658018145103   -0.0010689022541217333
-0.0020722380401008325   -0.006669261314133608   -0.0011274383035490272
-0.002961884227328875   -0.012726277011739085   -0.0015297238130580464
0.00019597098150231105   -0.012721693497565436   -0.0014245572322607405
0.00023683933462370044   -0.006599658018145103   -0.0010689022541217333
0.00021003262318953318   -0.012749678602808052   -0.0014101320741279184
-0.0020722380401008325   -0.006669261314133608   -0.0011274383035490272
0.0002593566933319137   -0.006634066501641966   -0.0010641064102931978
0.00021003262318953318   -0.012749678602808052   -0.0014101320741279184
0.00023683933462370044   -0.006599658018145103   -0.0010689022541217333
-0.0020722380401008325   -0.006669261314133608   -0.0011274383035490272
0.00021003262318953318   -0.012749678602808052   -0.0014101320741279184
-0.002954062383056537   -0.012789314898438514   -0.0014685603988061386
-0.002961884227328875   -0.012726277011739085   -0.0015297238130580464
-0.0020722380401008325   -0.006669261314133608   -0.0011274383035490272
0.00021003262318953318   -0.012749678602808052   -0.0014101320741279184
-0.002961884227328875   -0.012726277011739085   -0.0015297238130580464
0.00023683933462370044   -0.006599658018145103   -0.0010689022541217333
-0.0020722380401008325   -0.006669261314133608   -0.0011274383035490272
-0.002954062383056537   -0.012789314898438514   -0.0014685603988061386
0.0002593566933319137   -0.006634066501641966   -0.0010641064102931978
-0.0020559253856182293   -0.0067045565591012735   -0.0010626301851213585
-0.002954062383056537   -0.012789314898438514   -0.0014685603988061386
0.00021003262318953318   -0.012749678602808052   -0.0014101320741279184
0.0002593566933319137   -0.006634066501641966   -0.0010641064102931978
0.00021919147739344648   -0.012751772203806905   -0.0014029780619385698
-0.0020559253856182293   -0.0067045565591012735   -0.0010626301851213585
0.0002746123339152539   -0.006631897309045251   -0.0010669124251547822
0.00021919147739344648   -0.012751772203806905   -0.0014029780619385698
0.0002593566933319137   -0.006634066501641966   -0.0010641064102931978
-0.0020559253856182293   -0.0067045565591012735   -0.0010626301851213585
0.00021919147739344648   -0.012751772203806905   -0.0014029780619385698
-0.002944574513578767   -0.012826357775239165   -0.0014148617063445708
-0.002954062383056537   -0.012789314898438514   -0.0014685603988061386
-0.0020559253856182293   -0.0067045565591012735   -0.0010626301851213585
0.00021919147739344648   -0.012751772203806905   -0.0014029780619385698
-0.002954062383056537   -0.012789314898438514   -0.0014685603988061386
0.0002593566933319137   -0.006634066501641966   -0.0010641064102931978
-0.0020559253856182293   -0.0067045565591012735   -0.0010626301851213585
-0.002944574513578767   -0.012826357775239165   -0.0014148617063445708
0.0002746123339152539   -0.006631897309045251   -0.0010669124251547822
-0.00203173594840992   -0.006703726873099602   -0.001006224118208256
-0.002944574513578767   -0.012826357775239165   -0.0014148617063445708
0.00021919147739344648   -0.012751772203806905   -0.0014029780619385698
0.0002746123339152539   -0.006631897309045251   -0.0010669124251547822
0.00022593304171409333   -0.012727588849158105   -0.0014035354886407663
-0.00203173594840992   -0.006703726873099602   -0.001006224118208256
0.0002909547776460797   -0.006592035871228036   -0.0010774400849742672
0.00022593304171409333   -0.012727588849158105   -0.0014035354886407663
0.0002746123339152539   -0.006631897309045251   -0.0010669124251547822
-0.00203173594840992   -0.006703726873099602   -0.001006224118208256
0.00022593304171409333   -0.012727588849158105   -0.0014035354886407663
-0.002929230330838958   -0.012837935115905058   -0.0013686067183545847
-0.002944574513578767   -0.012826357775239165   -0.0014148617063445708
-0.00203173594840992   -0.006703726873099602   -0.001006224118208256
0.00022593304171409333   -0.012727588849158105   -0.0014035354886407663
-0.002944574513578767   -0.012826357775239165   -0.0014148617063445708
0.0002746123339152539   -0.006631897309045251   -0.0010669124251547822
0.00023683933462370044   -0.006599658018145103   -0.0010689022541217333
0.00019597098150231105   -0.012721693497565436   -0.0014245572322607405
0.0027034613445133934   -0.006707067783947692   -0.0010083798778218586
0.0002593566933319137   -0.006634066501641966   -0.0010641064102931978
0.00019597098150231105   -0.012721693497565436   -0.0014245572322607405
0.003488721683164374   -0.01279365964368397   -0.0013822119516393868
0.0027034613445133934   -0.006707067783947692   -0.0010083798778218586
0.0035010970590961432   -0.012789500894575805   -0.0014154922837470133
0.0002593566933319137   -0.006634066501641966   -0.0010641064102931978
0.0027164015643057872   -0.006706625905492602   -0.0010724562170414422
0.0035010970590961432   -0.012789500894575805   -0.0014154922837470133
0.0027034613445133934   -0.006707067783947692   -0.0010083798778218586
0.0002593566933319137   -0.006634066501641966   -0.0010641064102931978
0.0035010970590961432   -0.012789500894575805   -0.0014154922837470133
0.00021003262318953318   -0.012749678602808052   -0.0014101320741279184
0.00019597098150231105   -0.012721693497565436   -0.0014245572322607405
0.0002593566933319137   -0.006634066501641966   -0.0010641064102931978
0.0035010970590961432   -0.012789500894575805   -0.0014154922837470133
0.00019597098150231105   -0.012721693497565436   -0.0014245572322607405
0.0027034613445133934   -0.006707067783947692   -0.0010083798778218586
0.0002593566933319137   -0.006634066501641966   -0.0010641064102931978
0.00021003262318953318   -0.012749678602808052   -0.0014101320741279184
0.0027164015643057872   -0.006706625905492602   -0.0010724562170414422
0.0002746123339152539   -0.006631897309045251   -0.0010669124251547822
0.00021003262318953318   -0.012749678602808052   -0.0014101320741279184
0.0035010970590961432   -0.012789500894575805   -0.0014154922837470133
0.0027164015643057872   -0.006706625905492602   -0.0010724562170414422
0.0034927055785131398   -0.012760020651108152   -0.001455509487983894
0.0002746123339152539   -0.006631897309045251   -0.0010669124251547822
0.002704241041242705   -0.006670327507941314   -0.0011451329389529658
0.0034927055785131398   -0.012760020651108152   -0.001455509487983894
0.0027164015643057872   -0.006706625905492602   -0.0010724562170414422
0.0002746123339152539   -0.006631897309045251   -0.0010669124251547822
0.0034927055785131398   -0.012760020651108152   -0.001455509487983894
0.00021919147739344648   -0.012751772203806905   -0.0014029780619385698
0.00021003262318953318   -0.012749678602808052   -0.0014101320741279184
0.0002746123339152539   -0.006631897309045251   -0.0010669124251547822
0.0034927055785131398   -0.012760020651108152   -0.001455509487983894
0.00021003262318953318   -0.012749678602808052   -0.0014101320741279184
0.0027164015643057872   -0.006706625905492602   -0.0010724562170414422
0.0002746123339152539   -0.006631897309045251   -0.0010669124251547822
0.00021919147739344648   -0.012751772203806905   -0.0014029780619385698
0.002704241041242705   -0.006670327507941314   -0.0011451329389529658
0.0002909547776460797   -0.006592035871228036   -0.0010774400849742672
0.00021919147739344648   -0.012751772203806905   -0.0014029780619385698
0.0034927055785131398   -0.012760020651108152   -0.001455509487983894
0.002704241041242705   -0.006670327507941314   -0.0011451329389529658
0.0034798689235590948   -0.012698932480048076   -0.0015030630123216988
0.0002909547776460797   -0.006592035871228036   -0.0010774400849742672
0.0026974144642763417   -0.006588262992074649   -0.001223719782557119
0.0034798689235590948   -0.012698932480048076   -0.0015030630123216988
0.002704241041242705   -0.006670327507941314   -0.0011451329389529658
0.0002909547776460797   -0.006592035871228036   -0.0010774400849742672
0.0034798689235590948   -0.012698932480048076   -0.0015030630123216988
0.00022593304171409333   -0.012727588849158105   -0.0014035354886407663
0.00021919147739344648   -0.012751772203806905   -0.0014029780619385698
0.0002909547776460797   -0.006592035871228036   -0.0010774400849742672
0.0034798689235590948   -0.012698932480048076   -0.0015030630123216988
0.00021919147739344648   -0.012751772203806905   -0.0014029780619385698
0.002704241041242705   -0.006670327507941314   -0.0011451329389529658
0.0027034613445133934   -0.006707067783947692   -0.0010083798778218586
0.003488721683164374   -0.01279365964368397   -0.0013822119516393868
0.0056804798076172565   -0.006906646417442634   -0.0009923927261947971
0.0027164015643057872   -0.006706625905492602   -0.0010724562170414422
0.003488721683164374   -0.01279365964368397   -0.0013822119516393868
0.007238918687594507   -0.012924095042329822   -0.0013834282402446047
0.0056804798076172565   -0.006906646417442634   -0.0009923927261947971
0.007176663365238323   -0.01290139153266884   -0.0014705059827042433
0.0027164015643057872   -0.006706625905492602   -0.0010724562170414422
0.0055655022207199345   -0.006887624191709716   -0.0011366016069921953
0.007176663365238323   -0.01290139153266884   -0.0014705059827042433
0.0056804798076172565   -0.006906646417442634   -0.0009923927261947971
0.0027164015643057872   -0.006706625905492602   -0.0010724562170414422
0.007176663365238323   -0.01290139153266884   -0.0014705059827042433
0.0035010970590961432   -0.012789500894575805   -0.0014154922837470133
0.003488721683164374   -0.01279365964368397   -0.0013822119516393868
0.0027164015643057872   -0.006706625905492602   -0.0010724562170414422
0.007176663365238323   -0.01290139153266884   -0.0014705059827042433
0.003488721683164374   -0.01279365964368397   -0.0013822119516393868
0.0056804798076172565   -0.006906646417442634   -0.0009923927261947971
0.0027164015643057872   -0.006706625905492602   -0.0010724562170414422
0.0035010970590961432   -0.012789500894575805   -0.0014154922837470133
0.0055655022207199345   -0.006887624191709716   -0.0011366016069921953
0.002704241041242705   -0.006670327507941314   -0.0011451329389529658
0.0035010970590961432   -0.012789500894575805   -0.0014154922837470133
0.007176663365238323   -0.01290139153266884   -0.0014705059827042433
0.0055655022207199345   -0.006887624191709716   -0.0011366016069921953
0.007114418597406637   -0.012856031589736288   -0.0015697323718259705
0.002704241041242705   -0.006670327507941314   -0.0011451329389529658
0.005462698434641937   -0.006831686931587896   -0.001298901518390768
0.007114418597406637   -0.012856031589736288   -0.0015697323718259705
0.0055655022207199345   -0.006887624191709716   -0.0011366016069921953
0.002704241041242705   -0.006670327507941314   -0.0011451329389529658
0.007114418597406637   -0.012856031589736288   -0.0015697323718259705
0.0034927055785131398   -0.012760020651108152   -0.001455509487983894
0.0035010970590961432   -0.012789500894575805   -0.0014154922837470133
0.002704241041242705   -0.006670327507941314   -0.0011451329389529658
0.007114418597406637   -0.012856031589736288   -0.0015697323718259705
0.0035010970590961432   -0.012789500894575805   -0.0014154922837470133
0.0055655022207199345   -0.006887624191709716   -0.0011366016069921953
0.002704241041242705   -0.006670327507941314   -0.0011451329389529658
0.0034927055785131398   -0.012760020651108152   -0.001455509487983894
0.005462698434641937   -0.006831686931587896   -0.001298901518390768
0.0026974144642763417   -0.006588262992074649   -0.001223719782557119
0.0034927055785131398   -0.012760020651108152   -0.001455509487983894
0.007114418597406637   -0.012856031589736288   -0.0015697323718259705
0.005462698434641937   -0.006831686931587896   -0.001298901518390768
0.007003371753306848   -0.01276104232450334   -0.0016811205064505418
0.0026974144642763417   -0.006588262992074649   -0.001223719782557119
0.005308399741785958   -0.00670736571940938   -0.0014678911324073124
0.007003371753306848   -0.01276104232450334   -0.0016811205064505418
0.005462698434641937   -0.006831686931587896   -0.001298901518390768
0.0026974144642763417   -0.006588262992074649   -0.001223719782557119
0.007003371753306848   -0.01276104232450334   -0.0016811205064505418
0.0034798689235590948   -0.012698932480048076   -0.0015030630123216988
0.0034927055785131398   -0.012760020651108152   -0.001455509487983894
0.0026974144642763417   -0.006588262992074649   -0.001223719782557119
0.007003371753306848   -0.01276104232450334   -0.0016811205064505418
0.0034927055785131398   -0.012760020651108152   -0.001455509487983894
0.005462698434641937   -0.006831686931587896   -0.001298901518390768
-0.009666851153792875   -0.012984610765050631   -0.0019438876430780177
-0.011540543188696822   -0.020163332964276044   -0.0020736286659840467
-0.006215468590833839   -0.012812251993396608   -0.0016994962745167862
-0.00983818594456032   -0.013119440185643014   -0.0017751577972801218
-0.011540543188696822   -0.020163332964276044   -0.0020736286659840467
-0.00749182170308964   -0.020053770693175394   -0.0018745478799543913
-0.006215468590833839   -0.012812251993396608   -0.0016994962745167862
-0.007500383697796893   -0.020138548631299935   -0.0017971877588946036
-0.00983818594456032   -0.013119440185643014   -0.0017751577972801218
-0.00622868763709774   -0.012910890293042617   -0.0015913455511361119
-0.007500383697796893   -0.020138548631299935   -0.0017971877588946036
-0.006215468590833839   -0.012812251993396608   -0.0016994962745167862
-0.00983818594456032   -0.013119440185643014   -0.0017751577972801218
-0.007500383697796893   -0.020138548631299935   -0.0017971877588946036
-0.011655702113305123   -0.020278049038783004   -0.0019617113902668086
-0.011540543188696822   -0.020163332964276044   -0.0020736286659840467
-0.00983818594456032   -0.013119440185643014   -0.0017751577972801218
-0.007500383697796893   -0.020138548631299935   -0.0017971877588946036
-0.011540543188696822   -0.020163332964276044   -0.0020736286659840467
-0.006215468590833839   -0.012812251993396608   -0.0016994962745167862
-0.00983818594456032   -0.013119440185643014   -0.0017751577972801218
-0.011655702113305123   -0.020278049038783004   -0.0019617113902668086
-0.00622868763709774   -0.012910890293042617   -0.0015913455511361119
-0.009946009922521927   -0.01320403004410631   -0.0016179216575974863
-0.011655702113305123   -0.020278049038783004   -0.0019617113902668086
-0.007500383697796893   -0.020138548631299935   -0.0017971877588946036
-0.00622868763709774   -0.012910890293042617   -0.0015913455511361119
-0.007506348303972927   -0.020205800429298978   -0.001727544565873714
-0.009946009922521927   -0.01320403004410631   -0.0016179216575974863
-0.006244303961185441   -0.012979571326757134   -0.0014910367682300584
-0.007506348303972927   -0.020205800429298978   -0.001727544565873714
-0.00622868763709774   -0.012910890293042617   -0.0015913455511361119
-0.009946009922521927   -0.01320403004410631   -0.0016179216575974863
-0.007506348303972927   -0.020205800429298978   -0.001727544565873714
-0.011721557072821822   -0.020359262020510187   -0.0018605527952580358
-0.011655702113305123   -0.020278049038783004   -0.0019617113902668086
-0.009946009922521927   -0.01320403004410631   -0.0016179216575974863
-0.007506348303972927   -0.020205800429298978   -0.001727544565873714
-0.011655702113305123   -0.020278049038783004   -0.0019617113902668086
-0.00622868763709774   -0.012910890293042617   -0.0015913455511361119
-0.009946009922521927   -0.01320403004410631   -0.0016179216575974863
-0.011721557072821822   -0.020359262020510187   -0.0018605527952580358
-0.006244303961185441   -0.012979571326757134   -0.0014910367682300584
-0.010068691429450327   -0.013264958564427227   -0.0014732544609058636
-0.011721557072821822   -0.020359262020510187   -0.0018605527952580358
-0.007506348303972927   -0.020205800429298978   -0.001727544565873714
-0.006244303961185441   -0.012979571326757134   -0.0014910367682300584
-0.0074903626500902355   -0.02026110769987577   -0.0016645896139325872
-0.010068691429450327   -0.013264958564427227   -0.0014732544609058636
-0.006232166278527227   -0.013024814522644632   -0.0013968982112960604
-0.0074903626500902355   -0.02026110769987577   -0.0016645896139325872
-0.006244303961185441   -0.012979571326757134   -0.0014910367682300584
-0.010068691429450327   -0.013264958564427227   -0.0014732544609058636
-0.0074903626500902355   -0.02026110769987577   -0.0016645896139325872
-0.01178935344475041   -0.02043214404058612   -0.001771434361386154
-0.011721557072821822   -0.020359262020510187   -0.0018605527952580358
-0.010068691429450327   -0.013264958564427227   -0.0014732544609058636
-0.0074903626500902355   -0.02026110769987577   -0.0016645896139325872
-0.011721557072821822   -0.020359262020510187   -0.0018605527952580358
-0.006244303961185441   -0.012979571326757134   -0.0014910367682300584
-0.006215468590833839   -0.012812251993396608   -0.0016994962745167862
-0.00749182170308964   -0.020053770693175394   -0.0018745478799543913
-0.002961884227328875   -0.012726277011739085   -0.0015297238130580464
-0.00622868763709774   -0.012910890293042617   -0.0015913455511361119
-0.00749182170308964   -0.020053770693175394   -0.0018745478799543913
-0.0036966298662825885   -0.019997070784297934   -0.0017367106407094892
-0.002961884227328875   -0.012726277011739085   -0.0015297238130580464
-0.0036891703609507405   -0.02005023378106885   -0.0016855824475829895
-0.00622868763709774   -0.012910890293042617   -0.0015913455511361119
-0.002954062383056537   -0.012789314898438514   -0.0014685603988061386
-0.0036891703609507405   -0.02005023378106885   -0.0016855824475829895
-0.002961884227328875   -0.012726277011739085   -0.0015297238130580464
-0.00622868763709774   -0.012910890293042617   -0.0015913455511361119
-0.0036891703609507405   -0.02005023378106885   -0.0016855824475829895
-0.007500383697796893   -0.020138548631299935   -0.0017971877588946036
-0.00749182170308964   -0.020053770693175394   -0.0018745478799543913
-0.00622868763709774   -0.012910890293042617   -0.0015913455511361119
-0.0036891703609507405   -0.02005023378106885   -0.0016855824475829895
-0.00749182170308964   -0.020053770693175394   -0.0018745478799543913
-0.002961884227328875   -0.012726277011739085   -0.0015297238130580464
-0.00622868763709774   -0.012910890293042617   -0.0015913455511361119
-0.007500383697796893   -0.020138548631299935   -0.0017971877588946036
-0.002954062383056537   -0.012789314898438514   -0.0014685603988061386
-0.006244303961185441   -0.012979571326757134   -0.0014910367682300584
-0.007500383697796893   -0.020138548631299935   -0.0017971877588946036
-0.0036891703609507405   -0.02005023378106885   -0.0016855824475829895
-0.002954062383056537   -0.012789314898438514   -0.0014685603988061386
-0.0036791462817532534   -0.020088705878081696   -0.0016420528793579653
-0.006244303961185441   -0.012979571326757134   -0.0014910367682300584
-0.002944574513578767   -0.012826357775239165   -0.0014148617063445708
-0.0036791462817532534   -0.020088705878081696   -0.0016420528793579653
-0.002954062383056537   -0.012789314898438514   -0.0014685603988061386
-0.006244303961185441   -0.012979571326757134   -0.0014910367682300584
-0.0036791462817532534   -0.020088705878081696   -0.0016420528793579653
-0.007506348303972927   -0.020205800429298978   -0.001727544565873714
-0.007500383697796893   -0.020138548631299935   -0.0017971877588946036
-0.006244303961185441   -0.012979571326757134   -0.0014910367682300584
-0.0036791462817532534   -0.020088705878081696   -0.0016420528793579653
-0.007500383697796893   -0.020138548631299935   -0.0017971877588946036
-0.002954062383056537   -0.012789314898438514   -0.0014685603988061386
-0.006244303961185441   -0.012979571326757134   -0.0014910367682300584
-0.007506348303972927   -0.020205800429298978   -0.001727544565873714
-0.002944574513578767   -0.012826357775239165   -0.0014148617063445708
-0.006232166278527227   -0.013024814522644632   -0.0013968982112960604
-0.007506348303972927   -0.020205800429298978   -0.001727544565873714
-0.0036791462817532534   -0.020088705878081696   -0.0016420528793579653
-0.002944574513578767   -0.012826357775239165   -0.0014148617063445708
-0.003664400579096615   -0.020112739748420958   -0.0016062495327427576
-0.006232166278527227   -0.013024814522644632   -0.0013968982112960604
-0.002929230330838958   -0.012837935115905058   -0.0013686067183545847
-0.003664400579096615   -0.020112739748420958   -0.0016062495327427576
-0.002944574513578767   -0.012826357775239165   -0.0014148617063445708
-0.006232166278527227   -0.013024814522644632   -0.0013968982112960604
-0.003664400579096615   -0.020112739748420958   -0.0016062495327427576
-0.0074903626500902355   -0.02026110769987577   -0.0016645896139325872
-0.007506348303972927   -0.020205800429298978   -0.001727544565873714
-0.006232166278527227   -0.013024814522644632   -0.0013968982112960604
-0.003664400579096615   -0.020112739748420958   -0.0016062495327427576
-0.007506348303972927   -0.020205800429298978   -0.001727544565873714
-0.002944574513578767   -0.012826357775239165   -0.0014148617063445708
-0.002961884227328875   -0.012726277011739085   -0.0015297238130580464
-0.0036966298662825885   -0.019997070784297934   -0.0017367106407094892
0.00019597098150231105   -0.012721693497565436   -0.0014245572322607405
-0.002954062383056537   -0.012789314898438514   -0.0014685603988061386
-0.0036966298662825885   -0.019997070784297934   -0.0017367106407094892
-4.6071569275513226e-06   -0.019987274229522293   -0.0016565351197608176
0.00019597098150231105   -0.012721693497565436   -0.0014245572322607405
9.06451457674194e-06   -0.02000863795923578   -0.0016318481995545055
-0.002954062383056537   -0.012789314898438514   -0.0014685603988061386
0.00021003262318953318   -0.012749678602808052   -0.0014101320741279184
9.06451457674194e-06   -0.02000863795923578   -0.0016318481995545055
0.00019597098150231105   -0.012721693497565436   -0.0014245572322607405
-0.002954062383056537   -0.012789314898438514   -0.0014685603988061386
9.06451457674194e-06   -0.02000863795923578   -0.0016318481995545055
-0.0036891703609507405   -0.02005023378106885   -0.0016855824475829895
-0.0036966298662825885   -0.019997070784297934   -0.0017367106407094892
-0.002954062383056537   -0.012789314898438514   -0.0014685603988061386
9.06451457674194e-06   -0.02000863795923578   -0.0016318481995545055
-0.0036966298662825885   -0.019997070784297934   -0.0017367106407094892
0.00019597098150231105   -0.012721693497565436   -0.0014245572322607405
-0.002954062383056537   -0.012789314898438514   -0.0014685603988061386
-0.0036891703609507405   -0.02005023378106885   -0.0016855824475829895
0.00021003262318953318   -0.012749678602808052   -0.0014101320741279184
-0.002944574513578767   -0.012826357775239165   -0.0014148617063445708
-0.0036891703609507405   -0.02005023378106885   -0.0016855824475829895
9.06451457674194e-06   -0.02000863795923578   -0.0016318481995545055
0.00021003262318953318   -0.012749678602808052   -0.0014101320741279184
1.8921286720745434e-05   -0.020015208930107088   -0.001614665203817591
-0.002944574513578767   -0.012826357775239165   -0.0014148617063445708
0.00021919147739344648   -0.012751772203806905   -0.0014029780619385698
1.8921286720745434e-05   -0.020015208930107088   -0.001614665203817591
0.00021003262318953318   -0.012749678602808052   -0.0014101320741279184
-0.002944574513578767   -0.012826357775239165   -0.0014148617063445708
1.8921286720745434e-05   -0.020015208930107088   -0.001614665203817591
-0.0036791462817532534   -0.020088705878081696   -0.0016420528793579653
-0.0036891703609507405   -0.02005023378106885   -0.0016855824475829895
-0.002944574513578767   -0.012826357775239165   -0.0014148617063445708
1.8921286720745434e-05   -0.020015208930107088   -0.001614665203817591
-0.0036891703609507405   -0.02005023378106885   -0.0016855824475829895
0.00021003262318953318   -0.012749678602808052   -0.0014101320741279184
-0.002944574513578767   -0.012826357775239165   -0.0014148617063445708
-0.0036791462817532534   -0.020088705878081696   -0.0016420528793579653
0.00021919147739344648   -0.012751772203806905   -0.0014029780619385698
-0.002929230330838958   -0.012837935115905058   -0.0013686067183545847
-0.0036791462817532534   -0.020088705878081696   -0.0016420528793579653
1.8921286720745434e-05   -0.020015208930107088   -0.001614665203817591
0.00021919147739344648   -0.012751772203806905   -0.0014029780619385698
2.5345551771504323e-05   -0.020006783922104854   -0.0016053168413975296
-0.002929230330838958   -0.012837935115905058   -0.0013686067183545847
0.00022593304171409333   -0.012727588849158105   -0.0014035354886407663
2.5345551771504323e-05   -0.020006783922104854   -0.0016053168413975296
0.00021919147739344648   -0.012751772203806905   -0.0014029780619385698
-0.002929230330838958   -0.012837935115905058   -0.0013686067183545847
2.5345551771504323e-05   -0.020006783922104854   -0.0016053168413975296
-0.003664400579096615   -0.020112739748420958   -0.0016062495327427576
-0.0036791462817532534   -0.020088705878081696   -0.0016420528793579653
-0.002929230330838958   -0.012837935115905058   -0.0013686067183545847
2.5345551771504323e-05   -0.020006783922104854   -0.0016053168413975296
-0.0036791462817532534   -0.020088705878081696   -0.0016420528793579653
0.00021919147739344648   -0.012751772203806905   -0.0014029780619385698
0.00019597098150231105   -0.012721693497565436   -0.0014245572322607405
-4.6071569275513226e-06   -0.019987274229522293   -0.0016565351197608176
0.003488721683164374   -0.01279365964368397   -0.0013822119516393868
0.00021003262318953318   -0.012749678602808052   -0.0014101320741279184
-4.6071569275513226e-06   -0.019987274229522293   -0.0016565351197608176
0.0038144026762453012   -0.020020363131355003   -0.001633714579318443
0.003488721683164374   -0.01279365964368397   -0.0013822119516393868
0.003831070097911291   -0.0200117622584962   -0.0016360226987638064
0.00021003262318953318   -0.012749678602808052   -0.0014101320741279184
0.0035010970590961432   -0.012789500894575805   -0.0014154922837470133
0.003831070097911291   -0.0200117622584962   -0.0016360226987638064
0.003488721683164374   -0.01279365964368397   -0.0013822119516393868
0.00021003262318953318   -0.012749678602808052   -0.0014101320741279184
0.003831070097911291   -0.0200117622584962   -0.0016360226987638064
9.06451457674194e-06   -0.02000863795923578   -0.0016318481995545055
-4.6071569275513226e-06   -0.019987274229522293   -0.0016565351197608176
0.00021003262318953318   -0.012749678602808052   -0.0014101320741279184
0.003831070097911291   -0.0200117622584962   -0.0016360226987638064
-4.6071569275513226e-06   -0.019987274229522293   -0.0016565351197608176
0.003488721683164374   -0.01279365964368397   -0.0013822119516393868
0.00021003262318953318   -0.012749678602808052   -0.0014101320741279184
9.06451457674194e-06   -0.02000863795923578   -0.0016318481995545055
0.0035010970590961432   -0.012789500894575805   -0.0014154922837470133
0.00021919147739344648   -0.012751772203806905   -0.0014029780619385698
9.06451457674194e-06   -0.02000863795923578   -0.0016318481995545055
0.003831070097911291   -0.0200117622584962   -0.0016360226987638064
0.0035010970590961432   -0.012789500894575805   -0.0014154922837470133
0.003832828413828527   -0.01998951813692286   -0.0016454295897436457
0.00021919147739344648   -0.012751772203806905   -0.0014029780619385698
0.0034927055785131398   -0.012760020651108152   -0.001455509487983894
0.003832828413828527   -0.01998951813692286   -0.0016454295897436457
0.0035010970590961432   -0.012789500894575805   -0.0014154922837470133
0.00021919147739344648   -0.012751772203806905   -0.0014029780619385698
0.003832828413828527   -0.01998951813692286   -0.0016454295897436457
1.8921286720745434e-05   -0.020015208930107088   -0.001614665203817591
9.06451457674194e-06   -0.02000863795923578   -0.0016318481995545055
0.00021919147739344648   -0.012751772203806905   -0.0014029780619385698
0.003832828413828527   -0.01998951813692286   -0.0016454295897436457
9.06451457674194e-06   -0.02000863795923578   -0.0016318481995545055
0.0035010970590961432   -0.012789500894575805   -0.0014154922837470133
0.00021919147739344648   -0.012751772203806905   -0.0014029780619385698
1.8921286720745434e-05   -0.020015208930107088   -0.001614665203817591
0.0034927055785131398   -0.012760020651108152   -0.001455509487983894
0.00022593304171409333   -0.012727588849158105   -0.0014035354886407663
1.8921286720745434e-05   -0.020015208930107088   -0.001614665203817591
0.003832828413828527   -0.01998951813692286   -0.0016454295897436457
0.0034927055785131398   -0.012760020651108152   -0.001455509487983894
0.0038249679389816185   -0.019948080320317488   -0.001662207181278126
0.00022593304171409333   -0.012727588849158105   -0.0014035354886407663
0.0034798689235590948   -0.012698932480048076   -0.0015030630123216988
0.0038249679389816185   -0.019948080320317488   -0.001662207181278126
0.0034927055785131398   -0.012760020651108152   -0.001455509487983894
0.00022593304171409333   -0.012727588849158105   -0.0014035354886407663
0.0038249679389816185   -0.019948080320317488   -0.001662207181278126
2.5345551771504323e-05   -0.020006783922104854   -0.0016053168413975296
1.8921286720745434e-05   -0.020015208930107088   -0.001614665203817591
0.00022593304171409333   -0.012727588849158105   -0.0014035354886407663
0.0038249679389816185   -0.019948080320317488   -0.001662207181278126
1.8921286720745434e-05   -0.020015208930107088   -0.001614665203817591
0.0034927055785131398   -0.012760020651108152   -0.001455509487983894
0.003488721683164374   -0.01279365964368397   -0.0013822119516393868
0.0038144026762453012   -0.020020363131355003   -0.001633714579318443
0.007238918687594507   -0.012924095042329822   -0.0013834282402446047
0.0035010970590961432   -0.012789500894575805   -0.0014154922837470133
0.0038144026762453012   -0.020020363131355003   -0.001633714579318443
0.008031482590850644   -0.020081092593736156   -0.001655805530506292
0.007238918687594507   -0.012924095042329822   -0.0013834282402446047
0.008024863284341977   -0.020052179416487518   -0.001687189133476168
0.0035010970590961432   -0.012789500894575805   -0.0014154922837470133
0.007176663365238323   -0.01290139153266884   -0.0014705059827042433
0.008024863284341977   -0.020052179416487518   -0.001687189133476168
0.007238918687594507   -0.012924095042329822   -0.0013834282402446047
0.0035010970590961432   -0.012789500894575805   -0.0014154922837470133
0.008024863284341977   -0.020052179416487518   -0.001687189133476168
0.003831070097911291   -0.0200117622584962   -0.0016360226987638064
0.0038144026762453012   -0.020020363131355003   -0.001633714579318443
0.0035010970590961432   -0.012789500894575805   -0.0014154922837470133
0.008024863284341977   -0.020052179416487518   -0.001687189133476168
0.0038144026762453012   -0.020020363131355003   -0.001633714579318443
0.007238918687594507   -0.012924095042329822   -0.0013834282402446047
0.0035010970590961432   -0.012789500894575805   -0.0014154922837470133
0.003831070097911291   -0.0200117622584962   -0.0016360226987638064
0.007176663365238323   -0.01290139153266884   -0.0014705059827042433
0.0034927055785131398   -0.012760020651108152   -0.001455509487983894
0.003831070097911291   -0.0200117622584962   -0.0016360226987638064
0.008024863284341977   -0.020052179416487518   -0.001687189133476168
0.007176663365238323   -0.01290139153266884   -0.0014705059827042433
0.008005465396997754   -0.020015927148785265   -0.001730093257610128
0.0034927055785131398   -0.012760020651108152   -0.001455509487983894
0.007114418597406637   -0.012856031589736288   -0.0015697323718259705
0.008005465396997754   -0.020015927148785265   -0.001730093257610128
0.007176663365238323   -0.01290139153266884   -0.0014705059827042433
0.0034927055785131398   -0.012760020651108152   -0.001455509487983894
0.008005465396997754   -0.020015927148785265   -0.001730093257610128
0.003832828413828527   -0.01998951813692286   -0.0016454295897436457
0.003831070097911291   -0.0200117622584962   -0.0016360226987638064
0.0034927055785131398   -0.012760020651108152   -0.001455509487983894
0.008005465396997754   -0.020015927148785265   -0.001730093257610128
0.003831070097911291   -0.0200117622584962   -0.0016360226987638064
0.007176663365238323   -0.01290139153266884   -0.0014705059827042433
0.0034927055785131398   -0.012760020651108152   -0.001455509487983894
0.003832828413828527   -0.01998951813692286   -0.0016454295897436457
0.007114418597406637   -0.012856031589736288   -0.0015697323718259705
0.0034798689235590948   -0.012698932480048076   -0.0015030630123216988
0.003832828413828527   -0.01998951813692286   -0.0016454295897436457
0.008005465396997754   -0.020015927148785265   -0.001730093257610128
0.007114418597406637   -0.012856031589736288   -0.0015697323718259705
0.007951392285716424   -0.0199469794911062   -0.0017844342972421483
0.0034798689235590948   -0.012698932480048076   -0.0015030630123216988
0.007003371753306848   -0.01276104232450334   -0.0016811205064505418
0.007951392285716424   -0.0199469794911062   -0.0017844342972421483
0.007114418597406637   -0.012856031589736288   -0.0015697323718259705
0.0034798689235590948   -0.012698932480048076   -0.0015030630123216988
0.007951392285716424   -0.0199469794911062   -0.0017844342972421483
0.0038249679389816185   -0.019948080320317488   -0.001662207181278126
0.003832828413828527   -0.01998951813692286   -0.0016454295897436457
0.0034798689235590948   -0.012698932480048076   -0.0015030630123216988
0.007951392285716424   -0.0199469794911062   -0.0017844342972421483
0.003832828413828527   -0.01998951813692286   -0.0016454295897436457
0.007114418597406637   -0.012856031589736288   -0.0015697323718259705
-0.011540543188696822   -0.020163332964276044   -0.0020736286659840467
-0.012673425991987515   -0.027973780679849007   -0.002112179088039784
-0.00749182170308964   -0.020053770693175394   -0.0018745478799543913
-0.011655702113305123   -0.020278049038783004   -0.0019617113902668086
-0.012673425991987515   -0.027973780679849007   -0.002112179088039784
-0.008329142989041763   -0.027929224035640406   -0.001953762679435407
-0.00749182170308964   -0.020053770693175394   -0.0018745478799543913
-0.008325435459768347   -0.028001470995997802   -0.0019063502161143333
-0.011655702113305123   -0.020278049038783004   -0.0019617113902668086
-0.007500383697796893   -0.020138548631299935   -0.0017971877588946036
-0.008325435459768347   -0.028001470995997802   -0.0019063502161143333
-0.00749182170308964   -0.020053770693175394   -0.0018745478799543913
-0.011655702113305123   -0.020278049038783004   -0.0019617113902668086
-0.008325435459768347   -0.028001470995997802   -0.0019063502161143333
-0.012726925621411521   -0.028070921570880713   -0.0020545799112140963
-0.012673425991987515   -0.027973780679849007   -0.002112179088039784
-0.011655702113305123   -0.020278049038783004   -0.0019617113902668086
-0.008325435459768347   -0.028001470995997802   -0.0019063502161143333
-0.012673425991987515   -0.027973780679849007   -0.002112179088039784
-0.00749182170308964   -0.020053770693175394   -0.0018745478799543913
-0.011655702113305123   -0.020278049038783004   -0.0019617113902668086
-0.012726925621411521   -0.028070921570880713   -0.0020545799112140963
-0.007500383697796893   -0.020138548631299935   -0.0017971877588946036
-0.011721557072821822   -0.020359262020510187   -0.0018605527952580358
-0.012726925621411521   -0.028070921570880713   -0.0020545799112140963
-0.008325435459768347   -0.028001470995997802   -0.0019063502161143333
-0.007500383697796893   -0.020138548631299935   -0.0017971877588946036
-0.0083138745120227   -0.028068169011967577   -0.0018668119727760512
-0.011721557072821822   -0.020359262020510187   -0.0018605527952580358
-0.007506348303972927   -0.020205800429298978   -0.001727544565873714
-0.0083138745120227   -0.028068169011967577   -0.0018668119727760512
-0.007500383697796893   -0.020138548631299935   -0.0017971877588946036
-0.011721557072821822   -0.020359262020510187   -0.0018605527952580358
-0.0083138745120227   -0.028068169011967577   -0.0018668119727760512
-0.012743638289537638   -0.028150212939628796   -0.002008312809137433
-0.012726925621411521   -0.028070921570880713   -0.0020545799112140963
-0.011721557072821822   -0.020359262020510187   -0.0018605527952580358
-0.0083138745120227   -0.028068169011967577   -0.0018668119727760512
-0.012726925621411521   -0.028070921570880713   -0.0020545799112140963
-0.007500383697796893   -0.020138548631299935   -0.0017971877588946036
-0.011721557072821822   -0.020359262020510187   -0.0018605527952580358
-0.012743638289537638   -0.028150212939628796   -0.002008312809137433
-0.007506348303972927   -0.020205800429298978   -0.001727544565873714
-0.01178935344475041   -0.02043214404058612   -0.001771434361386154
-0.012743638289537638   -0.028150212939628796   -0.002008312809137433
-0.0083138745120227   -0.028068169011967577   -0.0018668119727760512
-0.007506348303972927   -0.020205800429298978   -0.001727544565873714
-0.008285985883491517   -0.0281344069195142   -0.0018345918980189801
-0.01178935344475041   -0.02043214404058612   -0.001771434361386154
-0.0074903626500902355   -0.02026110769987577   -0.0016645896139325872
-0.008285985883491517   -0.0281344069195142   -0.0018345918980189801
-0.007506348303972927   -0.020205800429298978   -0.001727544565873714
-0.01178935344475041   -0.02043214404058612   -0.001771434361386154
-0.008285985883491517   -0.0281344069195142   -0.0018345918980189801
-0.012748869040733203   -0.028236407006329158   -0.0019743559068061012
-0.012743638289537638   -0.028150212939628796   -0.002008312809137433
-0.01178935344475041   -0.02043214404058612   -0.001771434361386154
-0.008285985883491517   -0.0281344069195142   -0.0018345918980189801
-0.012743638289537638   -0.028150212939628796   -0.002008312809137433
-0.007506348303972927   -0.020205800429298978   -0.001727544565873714
-0.00749182170308964   -0.020053770693175394   -0.0018745478799543913
-0.008329142989041763   -0.027929224035640406   -0.001953762679435407
-0.0036966298662825885   -0.019997070784297934   -0.0017367106407094892
-0.007500383697796893   -0.020138548631299935   -0.0017971877588946036
-0.008329142989041763   -0.027929224035640406   -0.001953762679435407
-0.0042937014445503215   -0.027903558663774447   -0.0018459282202027334
-0.0036966298662825885   -0.019997070784297934   -0.0017367106407094892
-0.0042782400152272   -0.027947252289886412   -0.0018045249624230176
-0.007500383697796893   -0.020138548631299935   -0.0017971877588946036
-0.0036891703609507405   -0.02005023378106885   -0.0016855824475829895
-0.0042782400152272   -0.027947252289886412   -0.0018045249624230176
-0.0036966298662825885   -0.019997070784297934   -0.0017367106407094892
-0.007500383697796893   -0.020138548631299935   -0.0017971877588946036
-0.0042782400152272   -0.027947252289886412   -0.0018045249624230176
-0.008325435459768347   -0.028001470995997802   -0.0019063502161143333
-0.008329142989041763   -0.027929224035640406   -0.001953762679435407
-0.007500383697796893   -0.020138548631299935   -0.0017971877588946036
-0.0042782400152272   -0.027947252289886412   -0.0018045249624230176
-0.008329142989041763   -0.027929224035640406   -0.001953762679435407
-0.0036966298662825885   -0.019997070784297934   -0.0017367106407094892
-0.007500383697796893   -0.020138548631299935   -0.0017971877588946036
-0.008325435459768347   -0.028001470995997802   -0.0019063502161143333
-0.0036891703609507405   -0.02005023378106885   -0.0016855824475829895
-0.007506348303972927   -0.020205800429298978   -0.001727544565873714
-0.008325435459768347   -0.028001470995997802   -0.0019063502161143333
-0.0042782400152272   -0.027947252289886412   -0.0018045249624230176
-0.0036891703609507405   -0.02005023378106885   -0.0016855824475829895
-0.004259374205766595   -0.027987387016895956   -0.0017710001666498844
-0.007506348303972927   -0.020205800429298978   -0.001727544565873714
-0.0036791462817532534   -0.020088705878081696   -0.0016420528793579653
-0.004259374205766595   -0.027987387016895956   -0.0017710001666498844
-0.0036891703609507405   -0.02005023378106885   -0.0016855824475829895
-0.007506348303972927   -0.020205800429298978   -0.001727544565873714
-0.004259374205766595   -0.027987387016895956   -0.0017710001666498844
-0.0083138745120227   -0.028068169011967577   -0.0018668119727760512
-0.008325435459768347   -0.028001470995997802   -0.0019063502161143333
-0.007506348303972927   -0.020205800429298978   -0.001727544565873714
-0.004259374205766595   -0.027987387016895956   -0.0017710001666498844
-0.008325435459768347   -0.028001470995997802   -0.0019063502161143333
-0.0036891703609507405   -0.02005023378106885   -0.0016855824475829895
-0.007506348303972927   -0.020205800429298978   -0.001727544565873714
-0.0083138745120227   -0.028068169011967577   -0.0018668119727760512
-0.0036791462817532534   -0.020088705878081696   -0.0016420528793579653
-0.0074903626500902355   -0.02026110769987577   -0.0016645896139325872
-0.0083138745120227   -0.028068169011967577   -0.0018668119727760512
-0.004259374205766595   -0.027987387016895956   -0.0017710001666498844
-0.0036791462817532534   -0.020088705878081696   -0.0016420528793579653
-0.004236777758515945   -0.028024095650066597   -0.001745545374006788
-0.0074903626500902355   -0.02026110769987577   -0.0016645896139325872
-0.003664400579096615   -0.020112739748420958   -0.0016062495327427576
-0.004236777758515945   -0.028024095650066597   -0.001745545374006788
-0.0036791462817532534   -0.020088705878081696   -0.0016420528793579653
-0.0074903626500902355   -0.02026110769987577   -0.0016645896139325872
-0.004236777758515945   -0.028024095650066597   -0.001745545374006788
-0.008285985883491517   -0.0281344069195142   -0.0018345918980189801
-0.0083138745120227   -0.028068169011967577   -0.0018668119727760512
-0.0074903626500902355   -0.02026110769987577   -0.0016645896139325872
-0.004236777758515945   -0.028024095650066597   -0.001745545374006788
-0.0083138745120227   -0.028068169011967577   -0.0018668119727760512
-0.0036791462817532534   -0.020088705878081696   -0.0016420528793579653
-0.0036966298662825885   -0.019997070784297934   -0.0017367106407094892
-0.0042937014445503215   -0.027903558663774447   -0.0018459282202027334
-4.6071569275513226e-06   -0.019987274229522293   -0.0016565351197608176
-0.0036891703609507405   -0.02005023378106885   -0.0016855824475829895
-0.0042937014445503215   -0.027903558663774447   -0.0018459282202027334
-0.00036747987997926473   -0.027888793186906277   -0.001790264163669131
-4.6071569275513226e-06   -0.019987274229522293   -0.0016565351197608176
-0.00034601736557668693   -0.02790338993531298   -0.0017552888976624802
-0.0036891703609507405   -0.02005023378106885   -0.0016855824475829895
9.06451457674194e-06   -0.02000863795923578   -0.0016318481995545055
-0.00034601736557668693   -0.02790338993531298   -0.0017552888976624802
-4.6071569275513226e-06   -0.019987274229522293   -0.0016565351197608176
-0.0036891703609507405   -0.02005023378106885   -0.0016855824475829895
-0.00034601736557668693   -0.02790338993531298   -0.0017552888976624802
-0.0042782400152272   -0.027947252289886412   -0.0018045249624230176
-0.0042937014445503215   -0.027903558663774447   -0.0018459282202027334
-0.0036891703609507405   -0.02005023378106885   -0.0016855824475829895
-0.00034601736557668693   -0.02790338993531298   -0.0017552888976624802
-0.0042937014445503215   -0.027903558663774447   -0.0018459282202027334
-4.6071569275513226e-06   -0.019987274229522293   -0.0016565351197608176
-0.0036891703609507405   -0.02005023378106885   -0.0016855824475829895
-0.0042782400152272   -0.027947252289886412   -0.0018045249624230176
9.06451457674194e-06   -0.02000863795923578   -0.0016318481995545055
-0.0036791462817532534   -0.020088705878081696   -0.0016420528793579653
-0.0042782400152272   -0.027947252289886412   -0.0018045249624230176
-0.00034601736557668693   -0.02790338993531298   -0.0017552888976624802
9.06451457674194e-06   -0.02000863795923578   -0.0016318481995545055
-0.0003273812730351898   -0.027914173559163015   -0.0017281259700526776
-0.0036791462817532534   -0.020088705878081696   -0.0016420528793579653
1.8921286720745434e-05   -0.020015208930107088   -0.001614665203817591
-0.0003273812730351898   -0.027914173559163015   -0.0017281259700526776
9.06451457674194e-06   -0.02000863795923578   -0.0016318481995545055
-0.0036791462817532534   -0.020088705878081696   -0.0016420528793579653
-0.0003273812730351898   -0.027914173559163015   -0.0017281259700526776
-0.004259374205766595   -0.027987387016895956   -0.0017710001666498844
-0.0042782400152272   -0.027947252289886412   -0.0018045249624230176
-0.0036791462817532534   -0.020088705878081696   -0.0016420528793579653
-0.0003273812730351898   -0.027914173559163015   -0.0017281259700526776
-0.0042782400152272   -0.027947252289886412   -0.0018045249624230176
9.06451457674194e-06   -0.02000863795923578   -0.0016318481995545055
-0.0036791462817532534   -0.020088705878081696   -0.0016420528793579653
-0.004259374205766595   -0.027987387016895956   -0.0017710001666498844
1.8921286720745434e-05   -0.020015208930107088   -0.001614665203817591
-0.003664400579096615   -0.020112739748420958   -0.0016062495327427576
-0.004259374205766595   -0.027987387016895956   -0.0017710001666498844
-0.0003273812730351898   -0.027914173559163015   -0.0017281259700526776
1.8921286720745434e-05   -0.020015208930107088   -0.001614665203817591
-0.00031307350411953716   -0.027921087349498722   -0.0017090590417884295
-0.003664400579096615   -0.020112739748420958   -0.0016062495327427576
2.5345551771504323e-05   -0.020006783922104854   -0.0016053168413975296
-0.00031307350411953716   -0.027921087349498722   -0.0017090590417884295
1.8921286720745434e-05   -0.020015208930107088   -0.001614665203817591
-0.003664400579096615   -0.020112739748420958   -0.0016062495327427576
-0.00031307350411953716   -0.027921087349498722   -0.0017090590417884295
-0.004236777758515945   -0.028024095650066597   -0.001745545374006788
-0.004259374205766595   -0.027987387016895956   -0.0017710001666498844
-0.003664400579096615   -0.020112739748420958   -0.0016062495327427576
-0.00031307350411953716   -0.027921087349498722   -0.0017090590417884295
-0.004259374205766595   -0.027987387016895956   -0.0017710001666498844
1.8921286720745434e-05   -0.020015208930107088   -0.001614665203817591
-4.6071569275513226e-06   -0.019987274229522293   -0.0016565351197608176
-0.00036747987997926473   -0.027888793186906277   -0.001790264163669131
0.0038144026762453012   -0.020020363131355003   -0.001633714579318443
9.06451457674194e-06   -0.02000863795923578   -0.0016318481995545055
-0.00036747987997926473   -0.027888793186906277   -0.001790264163669131
0.003678485921140003   -0.02788238067435597   -0.0017872777730265428
0.0038144026762453012   -0.020020363131355003   -0.001633714579318443
0.0037068276662255884   -0.027868780909392772   -0.0017590507708745808
9.06451457674194e-06   -0.02000863795923578   -0.0016318481995545055
0.003831070097911291   -0.0200117622584962   -0.0016360226987638064
0.0037068276662255884   -0.027868780909392772   -0.0017590507708745808
0.0038144026762453012   -0.020020363131355003   -0.001633714579318443
9.06451457674194e-06   -0.02000863795923578   -0.0016318481995545055
0.0037068276662255884   -0.027868780909392772   -0.0017590507708745808
-0.00034601736557668693   -0.02790338993531298   -0.0017552888976624802
-0.00036747987997926473   -0.027888793186906277   -0.001790264163669131
9.06451457674194e-06   -0.02000863795923578   -0.0016318481995545055
0.0037068276662255884   -0.027868780909392772   -0.0017590507708745808
-0.00036747987997926473   -0.027888793186906277   -0.001790264163669131
0.0038144026762453012   -0.020020363131355003   -0.001633714579318443
9.06451457674194e-06   -0.02000863795923578   -0.0016318481995545055
-0.00034601736557668693   -0.02790338993531298   -0.0017552888976624802
0.003831070097911291   -0.0200117622584962   -0.0016360226987638064
1.8921286720745434e-05   -0.020015208930107088   -0.001614665203817591
-0.00034601736557668693   -0.02790338993531298   -0.0017552888976624802
0.0037068276662255884   -0.027868780909392772   -0.0017590507708745808
0.003831070097911291   -0.0200117622584962   -0.0016360226987638064
0.0037259738106851428   -0.027853004842581165   -0.0017384107606127066
1.8921286720745434e-05   -0.020015208930107088   -0.001614665203817591
0.003832828413828527   -0.01998951813692286   -0.0016454295897436457
0.0037259738106851428   -0.027853004842581165   -0.0017384107606127066
0.003831070097911291   -0.0200117622584962   -0.0016360226987638064
1.8921286720745434e-05   -0.020015208930107088   -0.001614665203817591
0.0037259738106851428   -0.027853004842581165   -0.0017384107606127066
-0.0003273812730351898   -0.027914173559163015   -0.0017281259700526776
-0.00034601736557668693   -0.02790338993531298   -0.0017552888976624802
1.8921286720745434e-05   -0.020015208930107088   -0.001614665203817591
0.0037259738106851428   -0.027853004842581165   -0.0017384107606127066
-0.00034601736557668693   -0.02790338993531298   -0.0017552888976624802
0.003831070097911291   -0.0200117622584962   -0.0016360226987638064
1.8921286720745434e-05   -0.020015208930107088   -0.001614665203817591
-0.0003273812730351898   -0.027914173559163015   -0.0017281259700526776
0.003832828413828527   -0.01998951813692286   -0.0016454295897436457
2.5345551771504323e-05   -0.020006783922104854   -0.0016053168413975296
-0.0003273812730351898   -0.027914173559163015   -0.0017281259700526776
0.0037259738106851428   -0.027853004842581165   -0.0017384107606127066
0.003832828413828527   -0.01998951813692286   -0.0016454295897436457
0.0037302441910235717   -0.027829901069723457   -0.0017252032179394415
2.5345551771504323e-05   -0.020006783922104854   -0.0016053168413975296
0.0038249679389816185   -0.019948080320317488   -0.001662207181278126
0.0037302441910235717   -0.027829901069723457   -0.0017252032179394415
0.003832828413828527   -0.01998951813692286   -0.0016454295897436457
2.5345551771504323e-05   -0.020006783922104854   -0.0016053168413975296
0.0037302441910235717   -0.027829901069723457   -0.0017252032179394415
-0.00031307350411953716   -0.027921087349498722   -0.0017090590417884295
-0.0003273812730351898   -0.027914173559163015   -0.0017281259700526776
2.5345551771504323e-05   -0.020006783922104854   -0.0016053168413975296
0.0037302441910235717   -0.027829901069723457   -0.0017252032179394415
-0.0003273812730351898   -0.027914173559163015   -0.0017281259700526776
0.003832828413828527   -0.01998951813692286   -0.0016454295897436457
0.0038144026762453012   -0.020020363131355003   -0.001633714579318443
0.003678485921140003   -0.02788238067435597   -0.0017872777730265428
0.008031482590850644   -0.020081092593736156   -0.001655805530506292
0.003831070097911291   -0.0200117622584962   -0.0016360226987638064
0.003678485921140003   -0.02788238067435597   -0.0017872777730265428
0.008062737565835976   -0.027873375577928662   -0.0018317582447292906
0.008031482590850644   -0.020081092593736156   -0.001655805530506292
0.00811807323865095   -0.027837475426654826   -0.0018084641231647645
0.003831070097911291   -0.0200117622584962   -0.0016360226987638064
0.008024863284341977   -0.020052179416487518   -0.001687189133476168
0.00811807323865095   -0.027837475426654826   -0.0018084641231647645
0.008031482590850644   -0.020081092593736156   -0.001655805530506292
0.003831070097911291   -0.0200117622584962   -0.0016360226987638064
0.00811807323865095   -0.027837475426654826   -0.0018084641231647645
0.0037068276662255884   -0.027868780909392772   -0.0017590507708745808
0.003678485921140003   -0.02788238067435597   -0.0017872777730265428
0.003831070097911291   -0.0200117622584962   -0.0016360226987638064
0.00811807323865095   -0.027837475426654826   -0.0018084641231647645
0.003678485921140003   -0.02788238067435597   -0.0017872777730265428
0.008031482590850644   -0.020081092593736156   -0.001655805530506292
0.003831070097911291   -0.0200117622584962   -0.0016360226987638064
0.0037068276662255884   -0.027868780909392772   -0.0017590507708745808
0.008024863284341977   -0.020052179416487518   -0.001687189133476168
0.003832828413828527   -0.01998951813692286   -0.0016454295897436457
0.0037068276662255884   -0.027868780909392772   -0.0017590507708745808
0.00811807323865095   -0.027837475426654826   -0.0018084641231647645
0.008024863284341977   -0.020052179416487518   -0.001687189133476168
0.008147603014016359   -0.02780916488145157   -0.0017967029373351438
0.003832828413828527   -0.01998951813692286   -0.0016454295897436457
0.008005465396997754   -0.020015927148785265   -0.001730093257610128
0.008147603014016359   -0.02780916488145157   -0.0017967029373351438
0.008024863284341977   -0.020052179416487518   -0.001687189133476168
0.003832828413828527   -0.01998951813692286   -0.0016454295897436457
0.008147603014016359   -0.02780916488145157   -0.0017967029373351438
0.0037259738106851428   -0.027853004842581165   -0.0017384107606127066
0.0037068276662255884   -0.027868780909392772   -0.0017590507708745808
0.003832828413828527   -0.01998951813692286   -0.0016454295897436457
0.008147603014016359   -0.02780916488145157   -0.0017967029373351438
0.0037068276662255884   -0.027868780909392772   -0.0017590507708745808
0.008024863284341977   -0.020052179416487518   -0.001687189133476168
0.003832828413828527   -0.01998951813692286   -0.0016454295897436457
0.0037259738106851428   -0.027853004842581165   -0.0017384107606127066
0.008005465396997754   -0.020015927148785265   -0.001730093257610128
0.0038249679389816185   -0.019948080320317488   -0.001662207181278126
0.0037259738106851428   -0.027853004842581165   -0.0017384107606127066
0.008147603014016359   -0.02780916488145157   -0.0017967029373351438
0.008005465396997754   -0.020015927148785265   -0.001730093257610128
0.008155316802011165   -0.02776386648322894   -0.0017966714233961574
0.0038249679389816185   -0.019948080320317488   -0.001662207181278126
0.007951392285716424   -0.0199469794911062   -0.0017844342972421483
0.008155316802011165   -0.02776386648322894   -0.0017966714233961574
0.008005465396997754   -0.020015927148785265   -0.001730093257610128
0.0038249679389816185   -0.019948080320317488   -0.001662207181278126
0.008155316802011165   -0.02776386648322894   -0.0017966714233961574
0.0037302441910235717   -0.027829901069723457   -0.0017252032179394415
0.0037259738106851428   -0.027853004842581165   -0.0017384107606127066
0.0038249679389816185   -0.019948080320317488   -0.001662207181278126
0.008155316802011165   -0.02776386648322894   -0.0017966714233961574
0.0037259738106851428   -0.027853004842581165   -0.0017384107606127066
0.008005465396997754   -0.020015927148785265   -0.001730093257610128
-0.012673425991987515   -0.027973780679849007   -0.002112179088039784
-0.013066633919702161   -0.03592139876820718   -0.002077056440794408
-0.008329142989041763   -0.027929224035640406   -0.001953762679435407
-0.012726925621411521   -0.028070921570880713   -0.0020545799112140963
-0.013066633919702161   -0.03592139876820718   -0.002077056440794408
-0.008729048176218597   -0.03594225071958237   -0.00196005855744774
-0.008329142989041763   -0.027929224035640406   -0.001953762679435407
-0.008705392251771676   -0.0360017382085363   -0.001942101641697136
-0.012726925621411521   -0.028070921570880713   -0.0020545799112140963
-0.008325435459768347   -0.028001470995997802   -0.0019063502161143333
-0.008705392251771676   -0.0360017382085363   -0.001942101641697136
-0.008329142989041763   -0.027929224035640406   -0.001953762679435407
-0.012726925621411521   -0.028070921570880713   -0.0020545799112140963
-0.008705392251771676   -0.0360017382085363   -0.001942101641697136
-0.013051192893650875   -0.03600100781290659   -0.002073477166489966
-0.013066633919702161   -0.03592139876820718   -0.002077056440794408
-0.012726925621411521   -0.028070921570880713   -0.0020545799112140963
-0.008705392251771676   -0.0360017382085363   -0.001942101641697136
-0.013066633919702161   -0.03592139876820718   -0.002077056440794408
-0.008329142989041763   -0.027929224035640406   -0.001953762679435407
-0.012726925621411521   -0.028070921570880713   -0.0020545799112140963
-0.013051192893650875   -0.03600100781290659   -0.002073477166489966
-0.008325435459768347   -0.028001470995997802   -0.0019063502161143333
-0.012743638289537638   -0.028150212939628796   -0.002008312809137433
-0.013051192893650875   -0.03600100781290659   -0.002073477166489966
-0.008705392251771676   -0.0360017382085363   -0.001942101641697136
-0.008325435459768347   -0.028001470995997802   -0.0019063502161143333
-0.00866865048274985   -0.0360677104498244   -0.0019322481906068802
-0.012743638289537638   -0.028150212939628796   -0.002008312809137433
-0.0083138745120227   -0.028068169011967577   -0.0018668119727760512
-0.00866865048274985   -0.0360677104498244   -0.0019322481906068802
-0.008325435459768347   -0.028001470995997802   -0.0019063502161143333
-0.012743638289537638   -0.028150212939628796   -0.002008312809137433
-0.00866865048274985   -0.0360677104498244   -0.0019322481906068802
-0.013010943076313787   -0.036078380627295445   -0.0020820060742609225
-0.013051192893650875   -0.03600100781290659   -0.002073477166489966
-0.012743638289537638   -0.028150212939628796   -0.002008312809137433
-0.00866865048274985   -0.0360677104498244   -0.0019322481906068802
-0.013051192893650875   -0.03600100781290659   -0.002073477166489966
-0.008325435459768347   -0.028001470995997802   -0.0019063502161143333
-0.012743638289537638   -0.028150212939628796   -0.002008312809137433
-0.013010943076313787   -0.036078380627295445   -0.0020820060742609225
-0.0083138745120227   -0.028068169011967577   -0.0018668119727760512
-0.012748869040733203   -0.028236407006329158   -0.0019743559068061012
-0.013010943076313787   -0.036078380627295445   -0.0020820060742609225
-0.00866865048274985   -0.0360677104498244   -0.0019322481906068802
-0.0083138745120227   -0.028068169011967577   -0.0018668119727760512
-0.008621161380245358   -0.03614471438330399   -0.0019303622544258442
-0.012748869040733203   -0.028236407006329158   -0.0019743559068061012
-0.008285985883491517   -0.0281344069195142   -0.0018345918980189801
-0.008621161380245358   -0.03614471438330399   -0.0019303622544258442
-0.0083138745120227   -0.028068169011967577   -0.0018668119727760512
-0.012748869040733203   -0.028236407006329158   -0.0019743559068061012
-0.008621161380245358   -0.03614471438330399   -0.0019303622544258442
-0.01294584338833758   -0.03617811598661616   -0.00210326103827703
-0.013010943076313787   -0.036078380627295445   -0.0020820060742609225
-0.012748869040733203   -0.028236407006329158   -0.0019743559068061012
-0.008621161380245358   -0.03614471438330399   -0.0019303622544258442
-0.013010943076313787   -0.036078380627295445   -0.0020820060742609225
-0.0083138745120227   -0.028068169011967577   -0.0018668119727760512
-0.008329142989041763   -0.027929224035640406   -0.001953762679435407
-0.008729048176218597   -0.03594225071958237   -0.00196005855744774
-0.0042937014445503215   -0.027903558663774447   -0.0018459282202027334
-0.008325435459768347   -0.028001470995997802   -0.0019063502161143333
-0.008729048176218597   -0.03594225071958237   -0.00196005855744774
-0.004755567408832799   -0.0359467087409406   -0.001882311086912256
-0.0042937014445503215   -0.027903558663774447   -0.0018459282202027334
-0.004724020049250638   -0.03598079616412977   -0.0018503385501627508
-0.008325435459768347   -0.028001470995997802   -0.0019063502161143333
-0.0042782400152272   -0.027947252289886412   -0.0018045249624230176
-0.004724020049250638   -0.03598079616412977   -0.0018503385501627508
-0.0042937014445503215   -0.027903558663774447   -0.0018459282202027334
-0.008325435459768347   -0.028001470995997802   -0.0019063502161143333
-0.004724020049250638   -0.03598079616412977   -0.0018503385501627508
-0.008705392251771676   -0.0360017382085363   -0.001942101641697136
-0.008729048176218597   -0.03594225071958237   -0.00196005855744774
-0.008325435459768347   -0.028001470995997802   -0.0019063502161143333
-0.004724020049250638   -0.03598079616412977   -0.0018503385501627508
-0.008729048176218597   -0.03594225071958237   -0.00196005855744774
-0.0042937014445503215   -0.027903558663774447   -0.0018459282202027334
-0.008325435459768347   -0.028001470995997802   -0.0019063502161143333
-0.008705392251771676   -0.0360017382085363   -0.001942101641697136
-0.0042782400152272   -0.027947252289886412   -0.0018045249624230176
-0.0083138745120227   -0.028068169011967577   -0.0018668119727760512
-0.008705392251771676   -0.0360017382085363   -0.001942101641697136
-0.004724020049250638   -0.03598079616412977   -0.0018503385501627508
-0.0042782400152272   -0.027947252289886412   -0.0018045249624230176
-0.004688421322927888   -0.036022301893114526   -0.0018264983937078226
-0.0083138745120227   -0.028068169011967577   -0.0018668119727760512
-0.004259374205766595   -0.027987387016895956   -0.0017710001666498844
-0.004688421322927888   -0.036022301893114526   -0.0018264983937078226
-0.0042782400152272   -0.027947252289886412   -0.0018045249624230176
-0.0083138745120227   -0.028068169011967577   -0.0018668119727760512
-0.004688421322927888   -0.036022301893114526   -0.0018264983937078226
-0.00866865048274985   -0.0360677104498244   -0.0019322481906068802
-0.008705392251771676   -0.0360017382085363   -0.001942101641697136
-0.0083138745120227   -0.028068169011967577   -0.0018668119727760512
-0.004688421322927888   -0.036022301893114526   -0.0018264983937078226
-0.008705392251771676   -0.0360017382085363   -0.001942101641697136
-0.0042782400152272   -0.027947252289886412   -0.0018045249624230176
-0.0083138745120227   -0.028068169011967577   -0.0018668119727760512
-0.00866865048274985   -0.0360677104498244   -0.0019322481906068802
-0.004259374205766595   -0.027987387016895956   -0.0017710001666498844
-0.008285985883491517   -0.0281344069195142   -0.0018345918980189801
-0.00866865048274985   -0.0360677104498244   -0.0019322481906068802
-0.004688421322927888   -0.036022301893114526   -0.0018264983937078226
-0.004259374205766595   -0.027987387016895956   -0.0017710001666498844
-0.004650076667585021   -0.03607135545950972   -0.001811056751805506
-0.008285985883491517   -0.0281344069195142   -0.0018345918980189801
-0.004236777758515945   -0.028024095650066597   -0.001745545374006788
-0.004650076667585021   -0.03607135545950972   -0.001811056751805506
-0.004259374205766595   -0.027987387016895956   -0.0017710001666498844
-0.008285985883491517   -0.0281344069195142   -0.0018345918980189801
-0.004650076667585021   -0.03607135545950972   -0.001811056751805506
-0.008621161380245358   -0.03614471438330399   -0.0019303622544258442
-0.00866865048274985   -0.0360677104498244   -0.0019322481906068802
-0.008285985883491517   -0.0281344069195142   -0.0018345918980189801
-0.004650076667585021   -0.03607135545950972   -0.001811056751805506
-0.00866865048274985   -0.0360677104498244   -0.0019322481906068802
-0.004259374205766595   -0.027987387016895956   -0.0017710001666498844
-0.0042937014445503215   -0.027903558663774447   -0.0018459282202027334
-0.004755567408832799   -0.0359467087409406   -0.001882311086912256
-0.00036747987997926473   -0.027888793186906277   -0.001790264163669131
-0.0042782400152272   -0.027947252289886412   -0.0018045249624230176
-0.004755567408832799   -0.0359467087409406   -0.001882311086912256
-0.0008944417919019125   -0.035925562927113124   -0.0018506602060505198
-0.00036747987997926473   -0.027888793186906277   -0.001790264163669131
-0.000857178209322245   -0.03593338190296641   -0.001805370487272313
-0.0042782400152272   -0.027947252289886412   -0.0018045249624230176
-0.00034601736557668693   -0.02790338993531298   -0.0017552888976624802
-0.000857178209322245   -0.03593338190296641   -0.001805370487272313
-0.00036747987997926473   -0.027888793186906277   -0.001790264163669131
-0.0042782400152272   -0.027947252289886412   -0.0018045249624230176
-0.000857178209322245   -0.03593338190296641   -0.001805370487272313
-0.004724020049250638   -0.03598079616412977   -0.0018503385501627508
-0.004755567408832799   -0.0359467087409406   -0.001882311086912256
-0.0042782400152272   -0.027947252289886412   -0.0018045249624230176
-0.000857178209322245   -0.03593338190296641   -0.001805370487272313
-0.004755567408832799   -0.0359467087409406   -0.001882311086912256
-0.00036747987997926473   -0.027888793186906277   -0.001790264163669131
-0.0042782400152272   -0.027947252289886412   -0.0018045249624230176
-0.004724020049250638   -0.03598079616412977   -0.0018503385501627508
-0.00034601736557668693   -0.02790338993531298   -0.0017552888976624802
-0.004259374205766595   -0.027987387016895956   -0.0017710001666498844
-0.004724020049250638   -0.03598079616412977   -0.0018503385501627508
-0.000857178209322245   -0.03593338190296641   -0.001805370487272313
-0.00034601736557668693   -0.02790338993531298   -0.0017552888976624802
-0.0008219114639109726   -0.035948044159456634   -0.0017681576482529986
-0.004259374205766595   -0.027987387016895956   -0.0017710001666498844
-0.0003273812730351898   -0.027914173559163015   -0.0017281259700526776
-0.0008219114639109726   -0.035948044159456634   -0.0017681576482529986
-0.00034601736557668693   -0.02790338993531298   -0.0017552888976624802
-0.004259374205766595   -0.027987387016895956   -0.0017710001666498844
-0.0008219114639109726   -0.035948044159456634   -0.0017681576482529986
-0.004688421322927888   -0.036022301893114526   -0.0018264983937078226
-0.004724020049250638   -0.03598079616412977   -0.0018503385501627508
-0.004259374205766595   -0.027987387016895956   -0.0017710001666498844
-0.0008219114639109726   -0.035948044159456634   -0.0017681576482529986
-0.004724020049250638   -0.03598079616412977   -0.0018503385501627508
-0.00034601736557668693   -0.02790338993531298   -0.0017552888976624802
-0.004259374205766595   -0.027987387016895956   -0.0017710001666498844
-0.004688421322927888   -0.036022301893114526   -0.0018264983937078226
-0.0003273812730351898   -0.027914173559163015   -0.0017281259700526776
-0.004236777758515945   -0.028024095650066597   -0.001745545374006788
-0.004688421322927888   -0.036022301893114526   -0.0018264983937078226
-0.0008219114639109726   -0.035948044159456634   -0.0017681576482529986
-0.0003273812730351898   -0.027914173559163015   -0.0017281259700526776
-0.0007919217345229519   -0.03596988156974438   -0.0017393026831884458
-0.004236777758515945   -0.028024095650066597   -0.001745545374006788
-0.00031307350411953716   -0.027921087349498722   -0.0017090590417884295
-0.0007919217345229519   -0.03596988156974438   -0.0017393026831884458
-0.0003273812730351898   -0.027914173559163015   -0.0017281259700526776
-0.004236777758515945   -0.028024095650066597   -0.001745545374006788
-0.0007919217345229519   -0.03596988156974438   -0.0017393026831884458
-0.004650076667585021   -0.03607135545950972   -0.001811056751805506
-0.004688421322927888   -0.036022301893114526   -0.0018264983937078226
-0.004236777758515945   -0.028024095650066597   -0.001745545374006788
-0.0007919217345229519   -0.03596988156974438   -0.0017393026831884458
-0.004688421322927888   -0.036022301893114526   -0.0018264983937078226
-0.0003273812730351898   -0.027914173559163015   -0.0017281259700526776
-0.00036747987997926473   -0.027888793186906277   -0.001790264163669131
-0.0008944417919019125   -0.035925562927113124   -0.0018506602060505198
0.003678485921140003   -0.02788238067435597   -0.0017872777730265428
-0.00034601736557668693   -0.02790338993531298   -0.0017552888976624802
-0.0008944417919019125   -0.035925562927113124   -0.0018506602060505198
0.0030826805877548556   -0.035878596650266686   -0.00186663848229987
0.003678485921140003   -0.02788238067435597   -0.0017872777730265428
0.003130163888936087   -0.03586005036500277   -0.0018082596953461795
-0.00034601736557668693   -0.02790338993531298   -0.0017552888976624802
0.0037068276662255884   -0.027868780909392772   -0.0017590507708745808
0.003130163888936087   -0.03586005036500277   -0.0018082596953461795
0.003678485921140003   -0.02788238067435597   -0.0017872777730265428
-0.00034601736557668693   -0.02790338993531298   -0.0017552888976624802
0.003130163888936087   -0.03586005036500277   -0.0018082596953461795
-0.000857178209322245   -0.03593338190296641   -0.001805370487272313
-0.0008944417919019125   -0.035925562927113124   -0.0018506602060505198
-0.00034601736557668693   -0.02790338993531298   -0.0017552888976624802
0.003130163888936087   -0.03586005036500277   -0.0018082596953461795
-0.0008944417919019125   -0.035925562927113124   -0.0018506602060505198
0.003678485921140003   -0.02788238067435597   -0.0017872777730265428
-0.00034601736557668693   -0.02790338993531298   -0.0017552888976624802
-0.000857178209322245   -0.03593338190296641   -0.001805370487272313
0.0037068276662255884   -0.027868780909392772   -0.0017590507708745808
-0.0003273812730351898   -0.027914173559163015   -0.0017281259700526776
-0.000857178209322245   -0.03593338190296641   -0.001805370487272313
0.003130163888936087   -0.03586005036500277   -0.0018082596953461795
0.0037068276662255884   -0.027868780909392772   -0.0017590507708745808
0.003174098796895319   -0.03585040007468305   -0.0017579323260223537
-0.0003273812730351898   -0.027914173559163015   -0.0017281259700526776
0.0037259738106851428   -0.027853004842581165   -0.0017384107606127066
0.003174098796895319   -0.03585040007468305   -0.0017579323260223537
0.0037068276662255884   -0.027868780909392772   -0.0017590507708745808
-0.0003273812730351898   -0.027914173559163015   -0.0017281259700526776
0.003174098796895319   -0.03585040007468305   -0.0017579323260223537
-0.0008219114639109726   -0.035948044159456634   -0.0017681576482529986
-0.000857178209322245   -0.03593338190296641   -0.001805370487272313
-0.0003273812730351898   -0.027914173559163015   -0.0017281259700526776
0.003174098796895319   -0.03585040007468305   -0.0017579323260223537
-0.000857178209322245   -0.03593338190296641   -0.001805370487272313
0.0037068276662255884   -0.027868780909392772   -0.0017590507708745808
-0.0003273812730351898   -0.027914173559163015   -0.0017281259700526776
-0.0008219114639109726   -0.035948044159456634   -0.0017681576482529986
0.0037259738106851428   -0.027853004842581165   -0.0017384107606127066
-0.00031307350411953716   -0.027921087349498722   -0.0017090590417884295
-0.0008219114639109726   -0.035948044159456634   -0.0017681576482529986
0.003174098796895319   -0.03585040007468305   -0.0017579323260223537
0.0037259738106851428   -0.027853004842581165   -0.0017384107606127066
0.003197829884943458   -0.03584500602706085   -0.0017151307130721946
-0.00031307350411953716   -0.027921087349498722   -0.0017090590417884295
0.0037302441910235717   -0.027829901069723457   -0.0017252032179394415
0.003197829884943458   -0.03584500602706085   -0.0017151307130721946
0.0037259738106851428   -0.027853004842581165   -0.0017384107606127066
-0.00031307350411953716   -0.027921087349498722   -0.0017090590417884295
0.003197829884943458   -0.03584500602706085   -0.0017151307130721946
-0.0007919217345229519   -0.03596988156974438   -0.0017393026831884458
-0.0008219114639109726   -0.035948044159456634   -0.0017681576482529986
-0.00031307350411953716   -0.027921087349498722   -0.0017090590417884295
0.003197829884943458   -0.03584500602706085   -0.0017151307130721946
-0.0008219114639109726   -0.035948044159456634   -0.0017681576482529986
0.0037259738106851428   -0.027853004842581165   -0.0017384107606127066
0.003678485921140003   -0.02788238067435597   -0.0017872777730265428
0.0030826805877548556   -0.035878596650266686   -0.00186663848229987
0.008062737565835976   -0.027873375577928662   -0.0018317582447292906
0.0037068276662255884   -0.027868780909392772   -0.0017590507708745808
0.0030826805877548556   -0.035878596650266686   -0.00186663848229987
0.007340185363713798   -0.03579961240665925   -0.0019327903599322782
0.008062737565835976   -0.027873375577928662   -0.0018317582447292906
0.007463841089978096   -0.03575714990829465   -0.0018560857652366773
0.0037068276662255884   -0.027868780909392772   -0.0017590507708745808
0.00811807323865095   -0.027837475426654826   -0.0018084641231647645
0.007463841089978096   -0.03575714990829465   -0.0018560857652366773
0.008062737565835976   -0.027873375577928662   -0.0018317582447292906
0.0037068276662255884   -0.027868780909392772   -0.0017590507708745808
0.007463841089978096   -0.03575714990829465   -0.0018560857652366773
0.003130163888936087   -0.03586005036500277   -0.0018082596953461795
0.0030826805877548556   -0.035878596650266686   -0.00186663848229987
0.0037068276662255884   -0.027868780909392772   -0.0017590507708745808
0.007463841089978096   -0.03575714990829465   -0.0018560857652366773
0.0030826805877548556   -0.035878596650266686   -0.00186663848229987
0.008062737565835976   -0.027873375577928662   -0.0018317582447292906
0.0037068276662255884   -0.027868780909392772   -0.0017590507708745808
0.003130163888936087   -0.03586005036500277   -0.0018082596953461795
0.00811807323865095   -0.027837475426654826   -0.0018084641231647645
0.0037259738106851428   -0.027853004842581165   -0.0017384107606127066
0.003130163888936087   -0.03586005036500277   -0.0018082596953461795
0.007463841089978096   -0.03575714990829465   -0.0018560857652366773
0.00811807323865095   -0.027837475426654826   -0.0018084641231647645
0.007548939634509043   -0.0357365503172021   -0.001790852924221448
0.0037259738106851428   -0.027853004842581165   -0.0017384107606127066
0.008147603014016359   -0.02780916488145157   -0.0017967029373351438
0.007548939634509043   -0.0357365503172021   -0.001790852924221448
0.00811807323865095   -0.027837475426654826   -0.0018084641231647645
0.0037259738106851428   -0.027853004842581165   -0.0017384107606127066
0.007548939634509043   -0.0357365503172021   -0.001790852924221448
0.003174098796895319   -0.03585040007468305   -0.0017579323260223537
0.003130163888936087   -0.03586005036500277   -0.0018082596953461795
0.0037259738106851428   -0.027853004842581165   -0.0017384107606127066
0.007548939634509043   -0.0357365503172021   -0.001790852924221448
0.003130163888936087   -0.03586005036500277   -0.0018082596953461795
0.00811807323865095   -0.027837475426654826   -0.0018084641231647645
0.0037259738106851428   -0.027853004842581165   -0.0017384107606127066
0.003174098796895319   -0.03585040007468305   -0.0017579323260223537
0.008147603014016359   -0.02780916488145157   -0.0017967029373351438
0.0037302441910235717   -0.027829901069723457   -0.0017252032179394415
0.003174098796895319   -0.03585040007468305   -0.0017579323260223537
0.007548939634509043   -0.0357365503172021   -0.001790852924221448
0.008147603014016359   -0.02780916488145157   -0.0017967029373351438
0.007624673525516962   -0.035714227826569966   -0.0017375694189124334
0.0037302441910235717   -0.027829901069723457   -0.0017252032179394415
0.008155316802011165   -0.02776386648322894   -0.0017966714233961574
0.007624673525516962   -0.035714227826569966   -0.0017375694189124334
0.008147603014016359   -0.02780916488145157   -0.0017967029373351438
0.0037302441910235717   -0.027829901069723457   -0.0017252032179394415
0.007624673525516962   -0.035714227826569966   -0.0017375694189124334
0.003197829884943458   -0.03584500602706085   -0.0017151307130721946
0.003174098796895319   -0.03585040007468305   -0.0017579323260223537
0.0037302441910235717   -0.027829901069723457   -0.0017252032179394415
0.007624673525516962   -0.035714227826569966   -0.0017375694189124334
0.003174098796895319   -0.03585040007468305   -0.0017579323260223537
0.008147603014016359   -0.02780916488145157   -0.0017967029373351438
-0.013066633919702161   -0.03592139876820718   -0.002077056440794408
-0.012715038740746185   -0.043507437253694   -0.0019863258018585476
-0.008729048176218597   -0.03594225071958237   -0.00196005855744774
-0.013051192893650875   -0.03600100781290659   -0.002073477166489966
-0.012715038740746185   -0.043507437253694   -0.0019863258018585476
-0.00869271272663541   -0.04359478526805909   -0.0019159609594253013
-0.008729048176218597   -0.03594225071958237   -0.00196005855744774
-0.008641727681344212   -0.043639159355281995   -0.0019266462382662747
-0.013051192893650875   -0.03600100781290659   -0.002073477166489966
-0.008705392251771676   -0.0360017382085363   -0.001942101641697136
-0.008641727681344212   -0.043639159355281995   -0.0019266462382662747
-0.008729048176218597   -0.03594225071958237   -0.00196005855744774
-0.013051192893650875   -0.03600100781290659   -0.002073477166489966
-0.008641727681344212   -0.043639159355281995   -0.0019266462382662747
-0.01262298229604342   -0.04356735720836424   -0.0020368123953666962
-0.012715038740746185   -0.043507437253694   -0.0019863258018585476
-0.013051192893650875   -0.03600100781290659   -0.002073477166489966
-0.008641727681344212   -0.043639159355281995   -0.0019266462382662747
-0.012715038740746185   -0.043507437253694   -0.0019863258018585476
-0.008729048176218597   -0.03594225071958237   -0.00196005855744774
-0.013051192893650875   -0.03600100781290659   -0.002073477166489966
-0.01262298229604342   -0.04356735720836424   -0.0020368123953666962
-0.008705392251771676   -0.0360017382085363   -0.001942101641697136
-0.013010943076313787   -0.036078380627295445   -0.0020820060742609225
-0.01262298229604342   -0.04356735720836424   -0.0020368123953666962
-0.008641727681344212   -0.043639159355281995   -0.0019266462382662747
-0.008705392251771676   -0.0360017382085363   -0.001942101641697136
-0.008572754194373446   -0.04370241052835543   -0.0019456287348913396
-0.013010943076313787   -0.036078380627295445   -0.0020820060742609225
-0.00866865048274985   -0.0360677104498244   -0.0019322481906068802
-0.008572754194373446   -0.04370241052835543   -0.0019456287348913396
-0.008705392251771676   -0.0360017382085363   -0.001942101641697136
-0.013010943076313787   -0.036078380627295445   -0.0020820060742609225
-0.008572754194373446   -0.04370241052835543   -0.0019456287348913396
-0.012518023383519246   -0.04364099333199911   -0.0021003462056654793
-0.01262298229604342   -0.04356735720836424   -0.0020368123953666962
-0.013010943076313787   -0.036078380627295445   -0.0020820060742609225
-0.008572754194373446   -0.04370241052835543   -0.0019456287348913396
-0.01262298229604342   -0.04356735720836424   -0.0020368123953666962
-0.008705392251771676   -0.0360017382085363   -0.001942101641697136
-0.013010943076313787   -0.036078380627295445   -0.0020820060742609225
-0.012518023383519246   -0.04364099333199911   -0.0021003462056654793
-0.00866865048274985   -0.0360677104498244   -0.0019322481906068802
-0.01294584338833758   -0.03617811598661616   -0.00210326103827703
-0.012518023383519246   -0.04364099333199911   -0.0021003462056654793
-0.008572754194373446   -0.04370241052835543   -0.0019456287348913396
-0.00866865048274985   -0.0360677104498244   -0.0019322481906068802
-0.008498771313089617   -0.04378840090294202   -0.0019731492751362996
-0.01294584338833758   -0.03617811598661616   -0.00210326103827703
-0.008621161380245358   -0.03614471438330399   -0.0019303622544258442
-0.008498771313089617   -0.04378840090294202   -0.0019731492751362996
-0.00866865048274985   -0.0360677104498244   -0.0019322481906068802
-0.01294584338833758   -0.03617811598661616   -0.00210326103827703
-0.008498771313089617   -0.04378840090294202   -0.0019731492751362996
-0.01237518741119404   -0.043753130891436086   -0.002177173992013437
-0.012518023383519246   -0.04364099333199911   -0.0021003462056654793
-0.01294584338833758   -0.03617811598661616   -0.00210326103827703
-0.008498771313089617   -0.04378840090294202   -0.0019731492751362996
-0.012518023383519246   -0.04364099333199911   -0.0021003462056654793
-0.00866865048274985   -0.0360677104498244   -0.0019322481906068802
-0.008729048176218597   -0.03594225071958237   -0.00196005855744774
-0.00869271272663541   -0.04359478526805909   -0.0019159609594253013
-0.004755567408832799   -0.0359467087409406   -0.001882311086912256
-0.008705392251771676   -0.0360017382085363   -0.001942101641697136
-0.00869271272663541   -0.04359478526805909   -0.0019159609594253013
-0.005086498571921253   -0.04362925024254875   -0.0018709483825936314
-0.004755567408832799   -0.0359467087409406   -0.001882311086912256
-0.005031008451532831   -0.043652287869409494   -0.0018476634031527684
-0.008705392251771676   -0.0360017382085363   -0.001942101641697136
-0.004724020049250638   -0.03598079616412977   -0.0018503385501627508
-0.005031008451532831   -0.043652287869409494   -0.0018476634031527684
-0.004755567408832799   -0.0359467087409406   -0.001882311086912256
-0.008705392251771676   -0.0360017382085363   -0.001942101641697136
-0.005031008451532831   -0.043652287869409494   -0.0018476634031527684
-0.008641727681344212   -0.043639159355281995   -0.0019266462382662747
-0.00869271272663541   -0.04359478526805909   -0.0019159609594253013
-0.008705392251771676   -0.0360017382085363   -0.001942101641697136
-0.005031008451532831   -0.043652287869409494   -0.0018476634031527684
-0.00869271272663541   -0.04359478526805909   -0.0019159609594253013
-0.004755567408832799   -0.0359467087409406   -0.001882311086912256
-0.008705392251771676   -0.0360017382085363   -0.001942101641697136
-0.008641727681344212   -0.043639159355281995   -0.0019266462382662747
-0.004724020049250638   -0.03598079616412977   -0.0018503385501627508
-0.00866865048274985   -0.0360677104498244   -0.0019322481906068802
-0.008641727681344212   -0.043639159355281995   -0.0019266462382662747
-0.005031008451532831   -0.043652287869409494   -0.0018476634031527684
-0.004724020049250638   -0.03598079616412977   -0.0018503385501627508
-0.004971329159915738   -0.04369346936105442   -0.0018325738172711953
-0.00866865048274985   -0.0360677104498244   -0.0019322481906068802
-0.004688421322927888   -0.036022301893114526   -0.0018264983937078226
-0.004971329159915738   -0.04369346936105442   -0.0018325738172711953
-0.004724020049250638   -0.03598079616412977   -0.0018503385501627508
-0.00866865048274985   -0.0360677104498244   -0.0019322481906068802
-0.004971329159915738   -0.04369346936105442   -0.0018325738172711953
-0.008572754194373446   -0.04370241052835543   -0.0019456287348913396
-0.008641727681344212   -0.043639159355281995   -0.0019266462382662747
-0.00866865048274985   -0.0360677104498244   -0.0019322481906068802
-0.004971329159915738   -0.04369346936105442   -0.0018325738172711953
-0.008641727681344212   -0.043639159355281995   -0.0019266462382662747
-0.004724020049250638   -0.03598079616412977   -0.0018503385501627508
-0.00866865048274985   -0.0360677104498244   -0.0019322481906068802
-0.008572754194373446   -0.04370241052835543   -0.0019456287348913396
-0.004688421322927888   -0.036022301893114526   -0.0018264983937078226
-0.008621161380245358   -0.03614471438330399   -0.0019303622544258442
-0.008572754194373446   -0.04370241052835543   -0.0019456287348913396
-0.004971329159915738   -0.04369346936105442   -0.0018325738172711953
-0.004688421322927888   -0.036022301893114526   -0.0018264983937078226
-0.004909986566142902   -0.04375331238520198   -0.0018260829288395592
-0.008621161380245358   -0.03614471438330399   -0.0019303622544258442
-0.004650076667585021   -0.03607135545950972   -0.001811056751805506
-0.004909986566142902   -0.04375331238520198   -0.0018260829288395592
-0.004688421322927888   -0.036022301893114526   -0.0018264983937078226
-0.008621161380245358   -0.03614471438330399   -0.0019303622544258442
-0.004909986566142902   -0.04375331238520198   -0.0018260829288395592
-0.008498771313089617   -0.04378840090294202   -0.0019731492751362996
-0.008572754194373446   -0.04370241052835543   -0.0019456287348913396
-0.008621161380245358   -0.03614471438330399   -0.0019303622544258442
-0.004909986566142902   -0.04375331238520198   -0.0018260829288395592
-0.008572754194373446   -0.04370241052835543   -0.0019456287348913396
-0.004688421322927888   -0.036022301893114526   -0.0018264983937078226
-0.004755567408832799   -0.0359467087409406   -0.001882311086912256
-0.005086498571921253   -0.04362925024254875   -0.0018709483825936314
-0.0008944417919019125   -0.035925562927113124   -0.0018506602060505198
-0.004724020049250638   -0.03598079616412977   -0.0018503385501627508
-0.005086498571921253   -0.04362925024254875   -0.0018709483825936314
-0.00158939573137213   -0.0436025996048942   -0.0018636662761794417
-0.0008944417919019125   -0.035925562927113124   -0.0018506602060505198
-0.001528025975353377   -0.04360304818425668   -0.0018075762424499735
-0.004724020049250638   -0.03598079616412977   -0.0018503385501627508
-0.000857178209322245   -0.03593338190296641   -0.001805370487272313
-0.001528025975353377   -0.04360304818425668   -0.0018075762424499735
-0.0008944417919019125   -0.035925562927113124   -0.0018506602060505198
-0.004724020049250638   -0.03598079616412977   -0.0018503385501627508
-0.001528025975353377   -0.04360304818425668   -0.0018075762424499735
-0.005031008451532831   -0.043652287869409494   -0.0018476634031527684
-0.005086498571921253   -0.04362925024254875   -0.0018709483825936314
-0.004724020049250638   -0.03598079616412977   -0.0018503385501627508
-0.001528025975353377   -0.04360304818425668   -0.0018075762424499735
-0.005086498571921253   -0.04362925024254875   -0.0018709483825936314
-0.0008944417919019125   -0.035925562927113124   -0.0018506602060505198
-0.004724020049250638   -0.03598079616412977   -0.0018503385501627508
-0.005031008451532831   -0.043652287869409494   -0.0018476634031527684
-0.000857178209322245   -0.03593338190296641   -0.001805370487272313
-0.004688421322927888   -0.036022301893114526   -0.0018264983937078226
-0.005031008451532831   -0.043652287869409494   -0.0018476634031527684
-0.001528025975353377   -0.04360304818425668   -0.0018075762424499735
-0.000857178209322245   -0.03593338190296641   -0.001805370487272313
-0.0014682561651843016   -0.04362032077466686   -0.001759703568858655
-0.004688421322927888   -0.036022301893114526   -0.0018264983937078226
-0.0008219114639109726   -0.035948044159456634   -0.0017681576482529986
-0.0014682561651843016   -0.04362032077466686   -0.001759703568858655
-0.000857178209322245   -0.03593338190296641   -0.001805370487272313
-0.004688421322927888   -0.036022301893114526   -0.0018264983937078226
-0.0014682561651843016   -0.04362032077466686   -0.001759703568858655
-0.004971329159915738   -0.04369346936105442   -0.0018325738172711953
-0.005031008451532831   -0.043652287869409494   -0.0018476634031527684
-0.004688421322927888   -0.036022301893114526   -0.0018264983937078226
-0.0014682561651843016   -0.04362032077466686   -0.001759703568858655
-0.005031008451532831   -0.043652287869409494   -0.0018476634031527684
-0.000857178209322245   -0.03593338190296641   -0.001805370487272313
-0.004688421322927888   -0.036022301893114526   -0.0018264983937078226
-0.004971329159915738   -0.04369346936105442   -0.0018325738172711953
-0.0008219114639109726   -0.035948044159456634   -0.0017681576482529986
-0.004650076667585021   -0.03607135545950972   -0.001811056751805506
-0.004971329159915738   -0.04369346936105442   -0.0018325738172711953
-0.0014682561651843016   -0.04362032077466686   -0.001759703568858655
-0.0008219114639109726   -0.035948044159456634   -0.0017681576482529986
-0.001414903128255571   -0.04365584089518034   -0.001720333158987082
-0.004650076667585021   -0.03607135545950972   -0.001811056751805506
-0.0007919217345229519   -0.03596988156974438   -0.0017393026831884458
-0.001414903128255571   -0.04365584089518034   -0.001720333158987082
-0.0008219114639109726   -0.035948044159456634   -0.0017681576482529986
-0.004650076667585021   -0.03607135545950972   -0.001811056751805506
-0.001414903128255571   -0.04365584089518034   -0.001720333158987082
-0.004909986566142902   -0.04375331238520198   -0.0018260829288395592
-0.004971329159915738   -0.04369346936105442   -0.0018325738172711953
-0.004650076667585021   -0.03607135545950972   -0.001811056751805506
-0.001414903128255571   -0.04365584089518034   -0.001720333158987082
-0.004971329159915738   -0.04369346936105442   -0.0018325738172711953
-0.0008219114639109726   -0.035948044159456634   -0.0017681576482529986
-0.0008944417919019125   -0.035925562927113124   -0.0018506602060505198
-0.00158939573137213   -0.0436025996048942   -0.0018636662761794417
0.0030826805877548556   -0.035878596650266686   -0.00186663848229987
-0.000857178209322245   -0.03593338190296641   -0.001805370487272313
-0.00158939573137213   -0.0436025996048942   -0.0018636662761794417
0.0020278223678197095   -0.04351659361402417   -0.0018970732801268913
0.0030826805877548556   -0.035878596650266686   -0.00186663848229987
0.00210286622976957   -0.043492929409616125   -0.0018084787101691462
-0.000857178209322245   -0.03593338190296641   -0.001805370487272313
0.003130163888936087   -0.03586005036500277   -0.0018082596953461795
0.00210286622976957   -0.043492929409616125   -0.0018084787101691462
0.0030826805877548556   -0.035878596650266686   -0.00186663848229987
-0.000857178209322245   -0.03593338190296641   -0.001805370487272313
0.00210286622976957   -0.043492929409616125   -0.0018084787101691462
-0.001528025975353377   -0.04360304818425668   -0.0018075762424499735
-0.00158939573137213   -0.0436025996048942   -0.0018636662761794417
-0.000857178209322245   -0.03593338190296641   -0.001805370487272313
0.00210286622976957   -0.043492929409616125   -0.0018084787101691462
-0.00158939573137213   -0.0436025996048942   -0.0018636662761794417
0.0030826805877548556   -0.035878596650266686   -0.00186663848229987
-0.000857178209322245   -0.03593338190296641   -0.001805370487272313
-0.001528025975353377   -0.04360304818425668   -0.0018075762424499735
0.003130163888936087   -0.03586005036500277   -0.0018082596953461795
-0.0008219114639109726   -0.035948044159456634   -0.0017681576482529986
-0.001528025975353377   -0.04360304818425668   -0.0018075762424499735
0.00210286622976957   -0.043492929409616125   -0.0018084787101691462
0.003130163888936087   -0.03586005036500277   -0.0018082596953461795
0.0021798468573572785   -0.04348849016064195   -0.0017286255664225125
-0.0008219114639109726   -0.035948044159456634   -0.0017681576482529986
0.003174098796895319   -0.03585040007468305   -0.0017579323260223537
0.0021798468573572785   -0.04348849016064195   -0.0017286255664225125
0.003130163888936087   -0.03586005036500277   -0.0018082596953461795
-0.0008219114639109726   -0.035948044159456634   -0.0017681576482529986
0.0021798468573572785   -0.04348849016064195   -0.0017286255664225125
-0.0014682561651843016   -0.04362032077466686   -0.001759703568858655
-0.001528025975353377   -0.04360304818425668   -0.0018075762424499735
-0.0008219114639109726   -0.035948044159456634   -0.0017681576482529986
0.0021798468573572785   -0.04348849016064195   -0.0017286255664225125
-0.001528025975353377   -0.04360304818425668   -0.0018075762424499735
0.003130163888936087   -0.03586005036500277   -0.0018082596953461795
-0.0008219114639109726   -0.035948044159456634   -0.0017681576482529986
-0.0014682561651843016   -0.04362032077466686   -0.001759703568858655
0.003174098796895319   -0.03585040007468305   -0.0017579323260223537
-0.0007919217345229519   -0.03596988156974438   -0.0017393026831884458
-0.0014682561651843016   -0.04362032077466686   -0.001759703568858655
0.0021798468573572785   -0.04348849016064195   -0.0017286255664225125
0.003174098796895319   -0.03585040007468305   -0.0017579323260223537
0.002231097043507311   -0.04349973525718191   -0.001656360402848857
-0.0007919217345229519   -0.03596988156974438   -0.0017393026831884458
0.003197829884943458   -0.03584500602706085   -0.0017151307130721946
0.002231097043507311   -0.04349973525718191   -0.001656360402848857
0.003174098796895319   -0.03585040007468305   -0.0017579323260223537
-0.0007919217345229519   -0.03596988156974438   -0.0017393026831884458
0.002231097043507311   -0.04349973525718191   -0.001656360402848857
-0.001414903128255571   -0.04365584089518034   -0.001720333158987082
-0.0014682561651843016   -0.04362032077466686   -0.001759703568858655
-0.0007919217345229519   -0.03596988156974438   -0.0017393026831884458
0.002231097043507311   -0.04349973525718191   -0.001656360402848857
-0.0014682561651843016   -0.04362032077466686   -0.001759703568858655
0.003174098796895319   -0.03585040007468305   -0.0017579323260223537
0.0030826805877548556   -0.035878596650266686   -0.00186663848229987
0.0020278223678197095   -0.04351659361402417   -0.0018970732801268913
0.007340185363713798   -0.03579961240665925   -0.0019327903599322782
0.003130163888936087   -0.03586005036500277   -0.0018082596953461795
0.0020278223678197095   -0.04351659361402417   -0.0018970732801268913
0.005874911902530533   -0.04336870380753018   -0.0019830048865763644
0.007340185363713798   -0.03579961240665925   -0.0019327903599322782
0.006074603555355268   -0.043319991358963195   -0.0018540442909386252
0.003130163888936087   -0.03586005036500277   -0.0018082596953461795
0.007463841089978096   -0.03575714990829465   -0.0018560857652366773
0.006074603555355268   -0.043319991358963195   -0.0018540442909386252
0.007340185363713798   -0.03579961240665925   -0.0019327903599322782
0.003130163888936087   -0.03586005036500277   -0.0018082596953461795
0.006074603555355268   -0.043319991358963195   -0.0018540442909386252
0.00210286622976957   -0.043492929409616125   -0.0018084787101691462
0.0020278223678197095   -0.04351659361402417   -0.0018970732801268913
0.003130163888936087   -0.03586005036500277   -0.0018082596953461795
0.006074603555355268   -0.043319991358963195   -0.0018540442909386252
0.0020278223678197095   -0.04351659361402417   -0.0018970732801268913
0.007340185363713798   -0.03579961240665925   -0.0019327903599322782
0.003130163888936087   -0.03586005036500277   -0.0018082596953461795
0.00210286622976957   -0.043492929409616125   -0.0018084787101691462
0.007463841089978096   -0.03575714990829465   -0.0018560857652366773
0.003174098796895319   -0.03585040007468305   -0.0017579323260223537
0.00210286622976957   -0.043492929409616125   -0.0018084787101691462
0.006074603555355268   -0.043319991358963195   -0.0018540442909386252
0.007463841089978096   -0.03575714990829465   -0.0018560857652366773
0.006222544494220371   -0.04330657241991358   -0.0017367133995928438
0.003174098796895319   -0.03585040007468305   -0.0017579323260223537
0.007548939634509043   -0.0357365503172021   -0.001790852924221448
0.006222544494220371   -0.04330657241991358   -0.0017367133995928438
0.007463841089978096   -0.03575714990829465   -0.0018560857652366773
0.003174098796895319   -0.03585040007468305   -0.0017579323260223537
0.006222544494220371   -0.04330657241991358   -0.0017367133995928438
0.0021798468573572785   -0.04348849016064195   -0.0017286255664225125
0.00210286622976957   -0.043492929409616125   -0.0018084787101691462
0.003174098796895319   -0.03585040007468305   -0.0017579323260223537
0.006222544494220371   -0.04330657241991358   -0.0017367133995928438
0.00210286622976957   -0.043492929409616125   -0.0018084787101691462
0.007463841089978096   -0.03575714990829465   -0.0018560857652366773
0.003174098796895319   -0.03585040007468305   -0.0017579323260223537
0.0021798468573572785   -0.04348849016064195   -0.0017286255664225125
0.007548939634509043   -0.0357365503172021   -0.001790852924221448
0.003197829884943458   -0.03584500602706085   -0.0017151307130721946
0.0021798468573572785   -0.04348849016064195   -0.0017286255664225125
0.006222544494220371   -0.04330657241991358   -0.0017367133995928438
0.007548939634509043   -0.0357365503172021   -0.001790852924221448
0.006372657156957011   -0.04330647033756672   -0.0016315456649148167
0.003197829884943458   -0.03584500602706085   -0.0017151307130721946
0.007624673525516962   -0.035714227826569966   -0.0017375694189124334
0.006372657156957011   -0.04330647033756672   -0.0016315456649148167
0.007548939634509043   -0.0357365503172021   -0.001790852924221448
0.003197829884943458   -0.03584500602706085   -0.0017151307130721946
0.006372657156957011   -0.04330647033756672   -0.0016315456649148167
0.002231097043507311   -0.04349973525718191   -0.001656360402848857
0.0021798468573572785   -0.04348849016064195   -0.0017286255664225125
0.003197829884943458   -0.03584500602706085   -0.0017151307130721946
0.006372657156957011   -0.04330647033756672   -0.0016315456649148167
0.0021798468573572785   -0.04348849016064195   -0.0017286255664225125
0.007548939634509043   -0.0357365503172021   -0.001790852924221448
-0.012715038740746185   -0.043507437253694   -0.0019863258018585476
-0.011604519579394706   -0.05021749360593004   -0.0018526720344152346
-0.00869271272663541   -0.04359478526805909   -0.0019159609594253013
-0.01262298229604342   -0.04356735720836424   -0.0020368123953666962
-0.011604519579394706   -0.05021749360593004   -0.0018526720344152346
-0.00821981332430713   -0.050374882560940554   -0.001841397996804713
-0.00869271272663541   -0.04359478526805909   -0.0019159609594253013
-0.008135509531356057   -0.050397634441861204   -0.0018786423261907162
-0.01262298229604342   -0.04356735720836424   -0.0020368123953666962
-0.008641727681344212   -0.043639159355281995   -0.0019266462382662747
-0.008135509531356057   -0.050397634441861204   -0.0018786423261907162
-0.00869271272663541   -0.04359478526805909   -0.0019159609594253013
-0.01262298229604342   -0.04356735720836424   -0.0020368123953666962
-0.008135509531356057   -0.050397634441861204   -0.0018786423261907162
-0.011428785105897827   -0.05025124191047954   -0.001957004031500273
-0.011604519579394706   -0.05021749360593004   -0.0018526720344152346
-0.01262298229604342   -0.04356735720836424   -0.0020368123953666962
-0.008135509531356057   -0.050397634441861204   -0.0018786423261907162
-0.011604519579394706   -0.05021749360593004   -0.0018526720344152346
-0.00869271272663541   -0.04359478526805909   -0.0019159609594253013
-0.01262298229604342   -0.04356735720836424   -0.0020368123953666962
-0.011428785105897827   -0.05025124191047954   -0.001957004031500273
-0.008641727681344212   -0.043639159355281995   -0.0019266462382662747
-0.012518023383519246   -0.04364099333199911   -0.0021003462056654793
-0.011428785105897827   -0.05025124191047954   -0.001957004031500273
-0.008135509531356057   -0.050397634441861204   -0.0018786423261907162
-0.008641727681344212   -0.043639159355281995   -0.0019266462382662747
-0.008029615813217952   -0.05045220663684838   -0.0019242962895287213
-0.012518023383519246   -0.04364099333199911   -0.0021003462056654793
-0.008572754194373446   -0.04370241052835543   -0.0019456287348913396
-0.008029615813217952   -0.05045220663684838   -0.0019242962895287213
-0.008641727681344212   -0.043639159355281995   -0.0019266462382662747
-0.012518023383519246   -0.04364099333199911   -0.0021003462056654793
-0.008029615813217952   -0.05045220663684838   -0.0019242962895287213
-0.011253573221389389   -0.0503152889954733   -0.0020750284597887353
-0.011428785105897827   -0.05025124191047954   -0.001957004031500273
-0.012518023383519246   -0.04364099333199911   -0.0021003462056654793
-0.008029615813217952   -0.05045220663684838   -0.0019242962895287213
-0.011428785105897827   -0.05025124191047954   -0.001957004031500273
-0.008641727681344212   -0.043639159355281995   -0.0019266462382662747
-0.012518023383519246   -0.04364099333199911   -0.0021003462056654793
-0.011253573221389389   -0.0503152889954733   -0.0020750284597887353
-0.008572754194373446   -0.04370241052835543   -0.0019456287348913396
-0.01237518741119404   -0.043753130891436086   -0.002177173992013437
-0.011253573221389389   -0.0503152889954733   -0.0020750284597887353
-0.008029615813217952   -0.05045220663684838   -0.0019242962895287213
-0.008572754194373446   -0.04370241052835543   -0.0019456287348913396
-0.00792514695942533   -0.05054170008364509   -0.0019782806988959925
-0.01237518741119404   -0.043753130891436086   -0.002177173992013437
-0.008498771313089617   -0.04378840090294202   -0.0019731492751362996
-0.00792514695942533   -0.05054170008364509   -0.0019782806988959925
-0.008572754194373446   -0.04370241052835543   -0.0019456287348913396
-0.01237518741119404   -0.043753130891436086   -0.002177173992013437
-0.00792514695942533   -0.05054170008364509   -0.0019782806988959925
-0.01102915982536536   -0.0504347184579441   -0.002206499008941396
-0.011253573221389389   -0.0503152889954733   -0.0020750284597887353
-0.01237518741119404   -0.043753130891436086   -0.002177173992013437
-0.00792514695942533   -0.05054170008364509   -0.0019782806988959925
-0.011253573221389389   -0.0503152889954733   -0.0020750284597887353
-0.008572754194373446   -0.04370241052835543   -0.0019456287348913396
-0.00869271272663541   -0.04359478526805909   -0.0019159609594253013
-0.00821981332430713   -0.050374882560940554   -0.001841397996804713
-0.005086498571921253   -0.04362925024254875   -0.0018709483825936314
-0.008641727681344212   -0.043639159355281995   -0.0019266462382662747
-0.00821981332430713   -0.050374882560940554   -0.001841397996804713
-0.005288141833476666   -0.050448462014935025   -0.0018369686774994374
-0.005086498571921253   -0.04362925024254875   -0.0018709483825936314
-0.005201674381941121   -0.05045590064038312   -0.0018202665875398758
-0.008641727681344212   -0.043639159355281995   -0.0019266462382662747
-0.005031008451532831   -0.043652287869409494   -0.0018476634031527684
-0.005201674381941121   -0.05045590064038312   -0.0018202665875398758
-0.005086498571921253   -0.04362925024254875   -0.0018709483825936314
-0.008641727681344212   -0.043639159355281995   -0.0019266462382662747
-0.005201674381941121   -0.05045590064038312   -0.0018202665875398758
-0.008135509531356057   -0.050397634441861204   -0.0018786423261907162
-0.00821981332430713   -0.050374882560940554   -0.001841397996804713
-0.008641727681344212   -0.043639159355281995   -0.0019266462382662747
-0.005201674381941121   -0.05045590064038312   -0.0018202665875398758
-0.00821981332430713   -0.050374882560940554   -0.001841397996804713
-0.005086498571921253   -0.04362925024254875   -0.0018709483825936314
-0.008641727681344212   -0.043639159355281995   -0.0019266462382662747
-0.008135509531356057   -0.050397634441861204   -0.0018786423261907162
-0.005031008451532831   -0.043652287869409494   -0.0018476634031527684
-0.008572754194373446   -0.04370241052835543   -0.0019456287348913396
-0.008135509531356057   -0.050397634441861204   -0.0018786423261907162
-0.005201674381941121   -0.05045590064038312   -0.0018202665875398758
-0.005031008451532831   -0.043652287869409494   -0.0018476634031527684
-0.005112418972517496   -0.050491758179346605   -0.0018117249942250873
-0.008572754194373446   -0.04370241052835543   -0.0019456287348913396
-0.004971329159915738   -0.04369346936105442   -0.0018325738172711953
-0.005112418972517496   -0.050491758179346605   -0.0018117249942250873
-0.005031008451532831   -0.043652287869409494   -0.0018476634031527684
-0.008572754194373446   -0.04370241052835543   -0.0019456287348913396
-0.005112418972517496   -0.050491758179346605   -0.0018117249942250873
-0.008029615813217952   -0.05045220663684838   -0.0019242962895287213
-0.008135509531356057   -0.050397634441861204   -0.0018786423261907162
-0.008572754194373446   -0.04370241052835543   -0.0019456287348913396
-0.005112418972517496   -0.050491758179346605   -0.0018117249942250873
-0.008135509531356057   -0.050397634441861204   -0.0018786423261907162
-0.005031008451532831   -0.043652287869409494   -0.0018476634031527684
-0.008572754194373446   -0.04370241052835543   -0.0019456287348913396
-0.008029615813217952   -0.05045220663684838   -0.0019242962895287213
-0.004971329159915738   -0.04369346936105442   -0.0018325738172711953
-0.008498771313089617   -0.04378840090294202   -0.0019731492751362996
-0.008029615813217952   -0.05045220663684838   -0.0019242962895287213
-0.005112418972517496   -0.050491758179346605   -0.0018117249942250873
-0.004971329159915738   -0.04369346936105442   -0.0018325738172711953
-0.005023303861762526   -0.050557695757231985   -0.0018112436371048887
-0.008498771313089617   -0.04378840090294202   -0.0019731492751362996
-0.004909986566142902   -0.04375331238520198   -0.0018260829288395592
-0.005023303861762526   -0.050557695757231985   -0.0018112436371048887
-0.004971329159915738   -0.04369346936105442   -0.0018325738172711953
-0.008498771313089617   -0.04378840090294202   -0.0019731492751362996
-0.005023303861762526   -0.050557695757231985   -0.0018112436371048887
-0.00792514695942533   -0.05054170008364509   -0.0019782806988959925
-0.008029615813217952   -0.05045220663684838   -0.0019242962895287213
-0.008498771313089617   -0.04378840090294202   -0.0019731492751362996
-0.005023303861762526   -0.050557695757231985   -0.0018112436371048887
-0.008029615813217952   -0.05045220663684838   -0.0019242962895287213
-0.004971329159915738   -0.04369346936105442   -0.0018325738172711953
-0.005086498571921253   -0.04362925024254875   -0.0018709483825936314
-0.005288141833476666   -0.050448462014935025   -0.0018369686774994374
-0.00158939573137213   -0.0436025996048942   -0.0018636662761794417
-0.005031008451532831   -0.043652287869409494   -0.0018476634031527684
-0.005288141833476666   -0.050448462014935025   -0.0018369686774994374
-0.002453698764476455   -0.050434818804319215   -0.0018581134084502922
-0.00158939573137213   -0.0436025996048942   -0.0018636662761794417
-0.002358989595244526   -0.050425048411408935   -0.0017893547612993811
-0.005031008451532831   -0.043652287869409494   -0.0018476634031527684
-0.001528025975353377   -0.04360304818425668   -0.0018075762424499735
-0.002358989595244526   -0.050425048411408935   -0.0017893547612993811
-0.00158939573137213   -0.0436025996048942   -0.0018636662761794417
-0.005031008451532831   -0.043652287869409494   -0.0018476634031527684
-0.002358989595244526   -0.050425048411408935   -0.0017893547612993811
-0.005201674381941121   -0.05045590064038312   -0.0018202665875398758
-0.005288141833476666   -0.050448462014935025   -0.0018369686774994374
-0.005031008451532831   -0.043652287869409494   -0.0018476634031527684
-0.002358989595244526   -0.050425048411408935   -0.0017893547612993811
-0.005288141833476666   -0.050448462014935025   -0.0018369686774994374
-0.00158939573137213   -0.0436025996048942   -0.0018636662761794417
-0.005031008451532831   -0.043652287869409494   -0.0018476634031527684
-0.005201674381941121   -0.05045590064038312   -0.0018202665875398758
-0.001528025975353377   -0.04360304818425668   -0.0018075762424499735
-0.004971329159915738   -0.04369346936105442   -0.0018325738172711953
-0.005201674381941121   -0.05045590064038312   -0.0018202665875398758
-0.002358989595244526   -0.050425048411408935   -0.0017893547612993811
-0.001528025975353377   -0.04360304818425668   -0.0018075762424499735
-0.002267057687742241   -0.05044099205226487   -0.0017292954425721031
-0.004971329159915738   -0.04369346936105442   -0.0018325738172711953
-0.0014682561651843016   -0.04362032077466686   -0.001759703568858655
-0.002267057687742241   -0.05044099205226487   -0.0017292954425721031
-0.001528025975353377   -0.04360304818425668   -0.0018075762424499735
-0.004971329159915738   -0.04369346936105442   -0.0018325738172711953
-0.002267057687742241   -0.05044099205226487   -0.0017292954425721031
-0.005112418972517496   -0.050491758179346605   -0.0018117249942250873
-0.005201674381941121   -0.05045590064038312   -0.0018202665875398758
-0.004971329159915738   -0.04369346936105442   -0.0018325738172711953
-0.002267057687742241   -0.05044099205226487   -0.0017292954425721031
-0.005201674381941121   -0.05045590064038312   -0.0018202665875398758
-0.001528025975353377   -0.04360304818425668   -0.0018075762424499735
-0.004971329159915738   -0.04369346936105442   -0.0018325738172711953
-0.005112418972517496   -0.050491758179346605   -0.0018117249942250873
-0.0014682561651843016   -0.04362032077466686   -0.001759703568858655
-0.004909986566142902   -0.04375331238520198   -0.0018260829288395592
-0.005112418972517496   -0.050491758179346605   -0.0018117249942250873
-0.002267057687742241   -0.05044099205226487   -0.0017292954425721031
-0.0014682561651843016   -0.04362032077466686   -0.001759703568858655
-0.0021839861071007586   -0.050486352020251084   -0.0016771843929819742
-0.004909986566142902   -0.04375331238520198   -0.0018260829288395592
-0.001414903128255571   -0.04365584089518034   -0.001720333158987082
-0.0021839861071007586   -0.050486352020251084   -0.0016771843929819742
-0.0014682561651843016   -0.04362032077466686   -0.001759703568858655
-0.004909986566142902   -0.04375331238520198   -0.0018260829288395592
-0.0021839861071007586   -0.050486352020251084   -0.0016771843929819742
-0.005023303861762526   -0.050557695757231985   -0.0018112436371048887
-0.005112418972517496   -0.050491758179346605   -0.0018117249942250873
-0.004909986566142902   -0.04375331238520198   -0.0018260829288395592
-0.0021839861071007586   -0.050486352020251084   -0.0016771843929819742
-0.005112418972517496   -0.050491758179346605   -0.0018117249942250873
-0.0014682561651843016   -0.04362032077466686   -0.001759703568858655
-0.00158939573137213   -0.0436025996048942   -0.0018636662761794417
-0.002453698764476455   -0.050434818804319215   -0.0018581134084502922
0.0020278223678197095   -0.04351659361402417   -0.0018970732801268913
-0.001528025975353377   -0.04360304818425668   -0.0018075762424499735
-0.002453698764476455   -0.050434818804319215   -0.0018581134084502922
0.0005128910204609269   -0.0503308269333949   -0.001909429690067531
0.0020278223678197095   -0.04351659361402417   -0.0018970732801268913
0.0006281347399321732   -0.050299221156251586   -0.0017887847392071066
-0.001528025975353377   -0.04360304818425668   -0.0018075762424499735
0.00210286622976957   -0.043492929409616125   -0.0018084787101691462
0.0006281347399321732   -0.050299221156251586   -0.0017887847392071066
0.0020278223678197095   -0.04351659361402417   -0.0018970732801268913
-0.001528025975353377   -0.04360304818425668   -0.0018075762424499735
0.0006281347399321732   -0.050299221156251586   -0.0017887847392071066
-0.002358989595244526   -0.050425048411408935   -0.0017893547612993811
-0.002453698764476455   -0.050434818804319215   -0.0018581134084502922
-0.001528025975353377   -0.04360304818425668   -0.0018075762424499735
0.0006281347399321732   -0.050299221156251586   -0.0017887847392071066
-0.002453698764476455   -0.050434818804319215   -0.0018581134084502922
0.0020278223678197095   -0.04351659361402417   -0.0018970732801268913
-0.001528025975353377   -0.04360304818425668   -0.0018075762424499735
-0.002358989595244526   -0.050425048411408935   -0.0017893547612993811
0.00210286622976957   -0.043492929409616125   -0.0018084787101691462
-0.0014682561651843016   -0.04362032077466686   -0.001759703568858655
-0.002358989595244526   -0.050425048411408935   -0.0017893547612993811
0.0006281347399321732   -0.050299221156251586   -0.0017887847392071066
0.00210286622976957   -0.043492929409616125   -0.0018084787101691462
0.0007496324319671665   -0.05029636294365982   -0.0016791632725837845
-0.0014682561651843016   -0.04362032077466686   -0.001759703568858655
0.0021798468573572785   -0.04348849016064195   -0.0017286255664225125
0.0007496324319671665   -0.05029636294365982   -0.0016791632725837845
0.00210286622976957   -0.043492929409616125   -0.0018084787101691462
-0.0014682561651843016   -0.04362032077466686   -0.001759703568858655
0.0007496324319671665   -0.05029636294365982   -0.0016791632725837845
-0.002267057687742241   -0.05044099205226487   -0.0017292954425721031
-0.002358989595244526   -0.050425048411408935   -0.0017893547612993811
-0.0014682561651843016   -0.04362032077466686   -0.001759703568858655
0.0007496324319671665   -0.05029636294365982   -0.0016791632725837845
-0.002358989595244526   -0.050425048411408935   -0.0017893547612993811
0.00210286622976957   -0.043492929409616125   -0.0018084787101691462
-0.0014682561651843016   -0.04362032077466686   -0.001759703568858655
-0.002267057687742241   -0.05044099205226487   -0.0017292954425721031
0.0021798468573572785   -0.04348849016064195   -0.0017286255664225125
-0.001414903128255571   -0.04365584089518034   -0.001720333158987082
-0.002267057687742241   -0.05044099205226487   -0.0017292954425721031
0.0007496324319671665   -0.05029636294365982   -0.0016791632725837845
0.0021798468573572785   -0.04348849016064195   -0.0017286255664225125
0.0008384905067607594   -0.050320937133431436   -0.0015771301913671176
-0.001414903128255571   -0.04365584089518034   -0.001720333158987082
0.002231097043507311   -0.04349973525718191   -0.001656360402848857
0.0008384905067607594   -0.050320937133431436   -0.0015771301913671176
0.0021798468573572785   -0.04348849016064195   -0.0017286255664225125
-0.001414903128255571   -0.04365584089518034   -0.001720333158987082
0.0008384905067607594   -0.050320937133431436   -0.0015771301913671176
-0.0021839861071007586   -0.050486352020251084   -0.0016771843929819742
-0.002267057687742241   -0.05044099205226487   -0.0017292954425721031
-0.001414903128255571   -0.04365584089518034   -0.001720333158987082
0.0008384905067607594   -0.050320937133431436   -0.0015771301913671176
-0.002267057687742241   -0.05044099205226487   -0.0017292954425721031
0.0021798468573572785   -0.04348849016064195   -0.0017286255664225125
0.0020278223678197095   -0.04351659361402417   -0.0018970732801268913
0.0005128910204609269   -0.0503308269333949   -0.001909429690067531
0.005874911902530533   -0.04336870380753018   -0.0019830048865763644
0.00210286622976957   -0.043492929409616125   -0.0018084787101691462
0.0005128910204609269   -0.0503308269333949   -0.001909429690067531
0.003674328767503719   -0.05012664668742124   -0.0020189141869739213
0.005874911902530533   -0.04336870380753018   -0.0019830048865763644
0.003966593042988459   -0.05006602600356373   -0.0018342488973789768
0.00210286622976957   -0.043492929409616125   -0.0018084787101691462
0.006074603555355268   -0.043319991358963195   -0.0018540442909386252
0.003966593042988459   -0.05006602600356373   -0.0018342488973789768
0.005874911902530533   -0.04336870380753018   -0.0019830048865763644
0.00210286622976957   -0.043492929409616125   -0.0018084787101691462
0.003966593042988459   -0.05006602600356373   -0.0018342488973789768
0.0006281347399321732   -0.050299221156251586   -0.0017887847392071066
0.0005128910204609269   -0.0503308269333949   -0.001909429690067531
0.00210286622976957   -0.043492929409616125   -0.0018084787101691462
0.003966593042988459   -0.05006602600356373   -0.0018342488973789768
0.0005128910204609269   -0.0503308269333949   -0.001909429690067531
0.005874911902530533   -0.04336870380753018   -0.0019830048865763644
0.00210286622976957   -0.043492929409616125   -0.0018084787101691462
0.0006281347399321732   -0.050299221156251586   -0.0017887847392071066
0.006074603555355268   -0.043319991358963195   -0.0018540442909386252
0.0021798468573572785   -0.04348849016064195   -0.0017286255664225125
0.0006281347399321732   -0.050299221156251586   -0.0017887847392071066
0.003966593042988459   -0.05006602600356373   -0.0018342488973789768
0.006074603555355268   -0.043319991358963195   -0.0018540442909386252
0.004190706397828338   -0.05005552767148047   -0.001663255324288017
0.0021798468573572785   -0.04348849016064195   -0.0017286255664225125
0.006222544494220371   -0.04330657241991358   -0.0017367133995928438
0.004190706397828338   -0.05005552767148047   -0.001663255324288017
0.006074603555355268   -0.043319991358963195   -0.0018540442909386252
0.0021798468573572785   -0.04348849016064195   -0.0017286255664225125
0.004190706397828338   -0.05005552767148047   -0.001663255324288017
0.0007496324319671665   -0.05029636294365982   -0.0016791632725837845
0.0006281347399321732   -0.050299221156251586   -0.0017887847392071066
0.0021798468573572785   -0.04348849016064195   -0.0017286255664225125
0.004190706397828338   -0.05005552767148047   -0.001663255324288017
0.0006281347399321732   -0.050299221156251586   -0.0017887847392071066
0.006074603555355268   -0.043319991358963195   -0.0018540442909386252
0.0021798468573572785   -0.04348849016064195   -0.0017286255664225125
0.0007496324319671665   -0.05029636294365982   -0.0016791632725837845
0.006222544494220371   -0.04330657241991358   -0.0017367133995928438
0.002231097043507311   -0.04349973525718191   -0.001656360402848857
0.0007496324319671665   -0.05029636294365982   -0.0016791632725837845
0.004190706397828338   -0.05005552767148047   -0.001663255324288017
0.006222544494220371   -0.04330657241991358   -0.0017367133995928438
0.004423056971368059   -0.050073565010978295   -0.001507327656407645
0.002231097043507311   -0.04349973525718191   -0.001656360402848857
0.006372657156957011   -0.04330647033756672   -0.0016315456649148167
0.004423056971368059   -0.050073565010978295   -0.001507327656407645
0.006222544494220371   -0.04330657241991358   -0.0017367133995928438
0.002231097043507311   -0.04349973525718191   -0.001656360402848857
0.004423056971368059   -0.050073565010978295   -0.001507327656407645
0.0008384905067607594   -0.050320937133431436   -0.0015771301913671176
0.0007496324319671665   -0.05029636294365982   -0.0016791632725837845
0.002231097043507311   -0.04349973525718191   -0.001656360402848857
0.004423056971368059   -0.050073565010978295   -0.001507327656407645
0.0007496324319671665   -0.05029636294365982   -0.0016791632725837845
0.006222544494220371   -0.04330657241991358   -0.0017367133995928438
-0.011604519579394706   -0.05021749360593004   -0.0018526720344152346
-0.009722452454935651   -0.05548341508664136   -0.0016811870139869904
-0.00821981332430713   -0.050374882560940554   -0.001841397996804713
-0.011428785105897827   -0.05025124191047954   -0.001957004031500273
-0.009722452454935651   -0.05548341508664136   -0.0016811870139869904
-0.007313292216575512   -0.0557162694854801   -0.0017509866196837739
-0.00821981332430713   -0.050374882560940554   -0.001841397996804713
-0.007192075859853226   -0.05570434571253885   -0.0018082932755648414
-0.011428785105897827   -0.05025124191047954   -0.001957004031500273
-0.008135509531356057   -0.050397634441861204   -0.0018786423261907162
-0.007192075859853226   -0.05570434571253885   -0.0018082932755648414
-0.00821981332430713   -0.050374882560940554   -0.001841397996804713
-0.011428785105897827   -0.05025124191047954   -0.001957004031500273
-0.007192075859853226   -0.05570434571253885   -0.0018082932755648414
-0.009460835835437524   -0.05547690663328479   -0.0018356863840290985
-0.009722452454935651   -0.05548341508664136   -0.0016811870139869904
-0.011428785105897827   -0.05025124191047954   -0.001957004031500273
-0.007192075859853226   -0.05570434571253885   -0.0018082932755648414
-0.009722452454935651   -0.05548341508664136   -0.0016811870139869904
-0.00821981332430713   -0.050374882560940554   -0.001841397996804713
-0.011428785105897827   -0.05025124191047954   -0.001957004031500273
-0.009460835835437524   -0.05547690663328479   -0.0018356863840290985
-0.008135509531356057   -0.050397634441861204   -0.0018786423261907162
-0.011253573221389389   -0.0503152889954733   -0.0020750284597887353
-0.009460835835437524   -0.05547690663328479   -0.0018356863840290985
-0.007192075859853226   -0.05570434571253885   -0.0018082932755648414
-0.008135509531356057   -0.050397634441861204   -0.0018786423261907162
-0.007049457050598066   -0.05573798459824902   -0.0018741826448748623
-0.011253573221389389   -0.0503152889954733   -0.0020750284597887353
-0.008029615813217952   -0.05045220663684838   -0.0019242962895287213
-0.007049457050598066   -0.05573798459824902   -0.0018741826448748623
-0.008135509531356057   -0.050397634441861204   -0.0018786423261907162
-0.011253573221389389   -0.0503152889954733   -0.0020750284597887353
-0.007049457050598066   -0.05573798459824902   -0.0018741826448748623
-0.009219731466623107   -0.055518449185949434   -0.0020022769352630756
-0.009460835835437524   -0.05547690663328479   -0.0018356863840290985
-0.011253573221389389   -0.0503152889954733   -0.0020750284597887353
-0.007049457050598066   -0.05573798459824902   -0.0018741826448748623
-0.009460835835437524   -0.05547690663328479   -0.0018356863840290985
-0.008135509531356057   -0.050397634441861204   -0.0018786423261907162
-0.011253573221389389   -0.0503152889954733   -0.0020750284597887353
-0.009219731466623107   -0.055518449185949434   -0.0020022769352630756
-0.008029615813217952   -0.05045220663684838   -0.0019242962895287213
-0.01102915982536536   -0.0504347184579441   -0.002206499008941396
-0.009219731466623107   -0.055518449185949434   -0.0020022769352630756
-0.007049457050598066   -0.05573798459824902   -0.0018741826448748623
-0.008029615813217952   -0.05045220663684838   -0.0019242962895287213
-0.006920076540274109   -0.05581796007954681   -0.0019481068018159615
-0.01102915982536536   -0.0504347184579441   -0.002206499008941396
-0.00792514695942533   -0.05054170008364509   -0.0019782806988959925
-0.006920076540274109   -0.05581796007954681   -0.0019481068018159615
-0.008029615813217952   -0.05045220663684838   -0.0019242962895287213
-0.01102915982536536   -0.0504347184579441   -0.002206499008941396
-0.006920076540274109   -0.05581796007954681   -0.0019481068018159615
-0.008925630485017867   -0.05562922501777541   -0.002180252042115196
-0.009219731466623107   -0.055518449185949434   -0.0020022769352630756
-0.01102915982536536   -0.0504347184579441   -0.002206499008941396
-0.006920076540274109   -0.05581796007954681   -0.0019481068018159615
-0.009219731466623107   -0.055518449185949434   -0.0020022769352630756
-0.008029615813217952   -0.05045220663684838   -0.0019242962895287213
-0.00821981332430713   -0.050374882560940554   -0.001841397996804713
-0.007313292216575512   -0.0557162694854801   -0.0017509866196837739
-0.005288141833476666   -0.050448462014935025   -0.0018369686774994374
-0.008135509531356057   -0.050397634441861204   -0.0018786423261907162
-0.007313292216575512   -0.0557162694854801   -0.0017509866196837739
-0.005343840687254   -0.055866872241927   -0.0018056228548147472
-0.005288141833476666   -0.050448462014935025   -0.0018369686774994374
-0.005219500876735348   -0.055847697236245206   -0.0017881012679433908
-0.008135509531356057   -0.050397634441861204   -0.0018786423261907162
-0.005201674381941121   -0.05045590064038312   -0.0018202665875398758
-0.005219500876735348   -0.055847697236245206   -0.0017881012679433908
-0.005288141833476666   -0.050448462014935025   -0.0018369686774994374
-0.008135509531356057   -0.050397634441861204   -0.0018786423261907162
-0.005219500876735348   -0.055847697236245206   -0.0017881012679433908
-0.007192075859853226   -0.05570434571253885   -0.0018082932755648414
-0.007313292216575512   -0.0557162694854801   -0.0017509866196837739
-0.008135509531356057   -0.050397634441861204   -0.0018786423261907162
-0.005219500876735348   -0.055847697236245206   -0.0017881012679433908
-0.007313292216575512   -0.0557162694854801   -0.0017509866196837739
-0.005288141833476666   -0.050448462014935025   -0.0018369686774994374
-0.008135509531356057   -0.050397634441861204   -0.0018786423261907162
-0.007192075859853226   -0.05570434571253885   -0.0018082932755648414
-0.005201674381941121   -0.05045590064038312   -0.0018202665875398758
-0.008029615813217952   -0.05045220663684838   -0.0019242962895287213
-0.007192075859853226   -0.05570434571253885   -0.0018082932755648414
-0.005219500876735348   -0.055847697236245206   -0.0017881012679433908
-0.005201674381941121   -0.05045590064038312   -0.0018202665875398758
-0.005096881783839897   -0.05586786619191261   -0.001778919181834883
-0.008029615813217952   -0.05045220663684838   -0.0019242962895287213
-0.005112418972517496   -0.050491758179346605   -0.0018117249942250873
-0.005096881783839897   -0.05586786619191261   -0.001778919181834883
-0.005201674381941121   -0.05045590064038312   -0.0018202665875398758
-0.008029615813217952   -0.05045220663684838   -0.0019242962895287213
-0.005096881783839897   -0.05586786619191261   -0.001778919181834883
-0.007049457050598066   -0.05573798459824902   -0.0018741826448748623
-0.007192075859853226   -0.05570434571253885   -0.0018082932755648414
-0.008029615813217952   -0.05045220663684838   -0.0019242962895287213
-0.005096881783839897   -0.05586786619191261   -0.001778919181834883
-0.007192075859853226   -0.05570434571253885   -0.0018082932755648414
-0.005201674381941121   -0.05045590064038312   -0.0018202665875398758
-0.008029615813217952   -0.05045220663684838   -0.0019242962895287213
-0.007049457050598066   -0.05573798459824902   -0.0018741826448748623
-0.005112418972517496   -0.050491758179346605   -0.0018117249942250873
-0.00792514695942533   -0.05054170008364509   -0.0019782806988959925
-0.007049457050598066   -0.05573798459824902   -0.0018741826448748623
-0.005096881783839897   -0.05586786619191261   -0.001778919181834883
-0.005112418972517496   -0.050491758179346605   -0.0018117249942250873
-0.004984027460967717   -0.05592867465861502   -0.0017798186287460624
-0.00792514695942533   -0.05054170008364509   -0.0019782806988959925
-0.005023303861762526   -0.050557695757231985   -0.0018112436371048887
-0.004984027460967717   -0.05592867465861502   -0.0017798186287460624
-0.005112418972517496   -0.050491758179346605   -0.0018117249942250873
-0.00792514695942533   -0.05054170008364509   -0.0019782806988959925
-0.004984027460967717   -0.05592867465861502   -0.0017798186287460624
-0.006920076540274109   -0.05581796007954681   -0.0019481068018159615
-0.007049457050598066   -0.05573798459824902   -0.0018741826448748623
-0.00792514695942533   -0.05054170008364509   -0.0019782806988959925
-0.004984027460967717   -0.05592867465861502   -0.0017798186287460624
-0.007049457050598066   -0.05573798459824902   -0.0018741826448748623
-0.005112418972517496   -0.050491758179346605   -0.0018117249942250873
-0.005288141833476666   -0.050448462014935025   -0.0018369686774994374
-0.005343840687254   -0.055866872241927   -0.0018056228548147472
-0.002453698764476455   -0.050434818804319215   -0.0018581134084502922
-0.005201674381941121   -0.05045590064038312   -0.0018202665875398758
-0.005343840687254   -0.055866872241927   -0.0018056228548147472
-0.0034574057720623127   -0.05594549537196536   -0.001870296483426373
-0.002453698764476455   -0.050434818804319215   -0.0018581134084502922
-0.0033172501807020517   -0.05591776369224073   -0.001782187604278739
-0.005201674381941121   -0.05045590064038312   -0.0018202665875398758
-0.002358989595244526   -0.050425048411408935   -0.0017893547612993811
-0.0033172501807020517   -0.05591776369224073   -0.001782187604278739
-0.002453698764476455   -0.050434818804319215   -0.0018581134084502922
-0.005201674381941121   -0.05045590064038312   -0.0018202665875398758
-0.0033172501807020517   -0.05591776369224073   -0.001782187604278739
-0.005219500876735348   -0.055847697236245206   -0.0017881012679433908
-0.005343840687254   -0.055866872241927   -0.0018056228548147472
-0.005201674381941121   -0.05045590064038312   -0.0018202665875398758
-0.0033172501807020517   -0.05591776369224073   -0.001782187604278739
-0.005343840687254   -0.055866872241927   -0.0018056228548147472
-0.002453698764476455   -0.050434818804319215   -0.0018581134084502922
-0.005201674381941121   -0.05045590064038312   -0.0018202665875398758
-0.005219500876735348   -0.055847697236245206   -0.0017881012679433908
-0.002358989595244526   -0.050425048411408935   -0.0017893547612993811
-0.005112418972517496   -0.050491758179346605   -0.0018117249942250873
-0.005219500876735348   -0.055847697236245206   -0.0017881012679433908
-0.0033172501807020517   -0.05591776369224073   -0.001782187604278739
-0.002358989595244526   -0.050425048411408935   -0.0017893547612993811
-0.0031836243154880948   -0.05592465551679196   -0.0017014619994364768
-0.005112418972517496   -0.050491758179346605   -0.0018117249942250873
-0.002267057687742241   -0.05044099205226487   -0.0017292954425721031
-0.0031836243154880948   -0.05592465551679196   -0.0017014619994364768
-0.002358989595244526   -0.050425048411408935   -0.0017893547612993811
-0.005112418972517496   -0.050491758179346605   -0.0018117249942250873
-0.0031836243154880948   -0.05592465551679196   -0.0017014619994364768
-0.005096881783839897   -0.05586786619191261   -0.001778919181834883
-0.005219500876735348   -0.055847697236245206   -0.0017881012679433908
-0.005112418972517496   -0.050491758179346605   -0.0018117249942250873
-0.0031836243154880948   -0.05592465551679196   -0.0017014619994364768
-0.005219500876735348   -0.055847697236245206   -0.0017881012679433908
-0.002358989595244526   -0.050425048411408935   -0.0017893547612993811
-0.005112418972517496   -0.050491758179346605   -0.0018117249942250873
-0.005096881783839897   -0.05586786619191261   -0.001778919181834883
-0.002267057687742241   -0.05044099205226487   -0.0017292954425721031
-0.005023303861762526   -0.050557695757231985   -0.0018112436371048887
-0.005096881783839897   -0.05586786619191261   -0.001778919181834883
-0.0031836243154880948   -0.05592465551679196   -0.0017014619994364768
-0.002267057687742241   -0.05044099205226487   -0.0017292954425721031
-0.0030724465305461373   -0.05597286724838578   -0.0016327059913468992
-0.005023303861762526   -0.050557695757231985   -0.0018112436371048887
-0.0021839861071007586   -0.050486352020251084   -0.0016771843929819742
-0.0030724465305461373   -0.05597286724838578   -0.0016327059913468992
-0.002267057687742241   -0.05044099205226487   -0.0017292954425721031
-0.005023303861762526   -0.050557695757231985   -0.0018112436371048887
-0.0030724465305461373   -0.05597286724838578   -0.0016327059913468992
-0.004984027460967717   -0.05592867465861502   -0.0017798186287460624
-0.005096881783839897   -0.05586786619191261   -0.001778919181834883
-0.005023303861762526   -0.050557695757231985   -0.0018112436371048887
-0.0030724465305461373   -0.05597286724838578   -0.0016327059913468992
-0.005096881783839897   -0.05586786619191261   -0.001778919181834883
-0.002267057687742241   -0.05044099205226487   -0.0017292954425721031
-0.002453698764476455   -0.050434818804319215   -0.0018581134084502922
-0.0034574057720623127   -0.05594549537196536   -0.001870296483426373
0.0005128910204609269   -0.0503308269333949   -0.001909429690067531
-0.002358989595244526   -0.050425048411408935   -0.0017893547612993811
-0.0034574057720623127   -0.05594549537196536   -0.001870296483426373
-0.0014521432527183713   -0.055924557165196565   -0.0019465715074377446
0.0005128910204609269   -0.0503308269333949   -0.001909429690067531
-0.00127219331997674   -0.05588106390947313   -0.0017909063099411217
-0.002358989595244526   -0.050425048411408935   -0.0017893547612993811
0.0006281347399321732   -0.050299221156251586   -0.0017887847392071066
-0.00127219331997674   -0.05588106390947313   -0.0017909063099411217
0.0005128910204609269   -0.0503308269333949   -0.001909429690067531
-0.002358989595244526   -0.050425048411408935   -0.0017893547612993811
-0.00127219331997674   -0.05588106390947313   -0.0017909063099411217
-0.0033172501807020517   -0.05591776369224073   -0.001782187604278739
-0.0034574057720623127   -0.05594549537196536   -0.001870296483426373
-0.002358989595244526   -0.050425048411408935   -0.0017893547612993811
-0.00127219331997674   -0.05588106390947313   -0.0017909063099411217
-0.0034574057720623127   -0.05594549537196536   -0.001870296483426373
0.0005128910204609269   -0.0503308269333949   -0.001909429690067531
-0.002358989595244526   -0.050425048411408935   -0.0017893547612993811
-0.0033172501807020517   -0.05591776369224073   -0.001782187604278739
0.0006281347399321732   -0.050299221156251586   -0.0017887847392071066
-0.002267057687742241   -0.05044099205226487   -0.0017292954425721031
-0.0033172501807020517   -0.05591776369224073   -0.001782187604278739
-0.00127219331997674   -0.05588106390947313   -0.0017909063099411217
0.0006281347399321732   -0.050299221156251586   -0.0017887847392071066
-0.0010881103260850576   -0.055873452511340925   -0.001643132558347774
-0.002267057687742241   -0.05044099205226487   -0.0017292954425721031
0.0007496324319671665   -0.05029636294365982   -0.0016791632725837845
-0.0010881103260850576   -0.055873452511340925   -0.001643132558347774
0.0006281347399321732   -0.050299221156251586   -0.0017887847392071066
-0.002267057687742241   -0.05044099205226487   -0.0017292954425721031
-0.0010881103260850576   -0.055873452511340925   -0.001643132558347774
-0.0031836243154880948   -0.05592465551679196   -0.0017014619994364768
-0.0033172501807020517   -0.05591776369224073   -0.001782187604278739
-0.002267057687742241   -0.05044099205226487   -0.0017292954425721031
-0.0010881103260850576   -0.055873452511340925   -0.001643132558347774
-0.0033172501807020517   -0.05591776369224073   -0.001782187604278739
0.0006281347399321732   -0.050299221156251586   -0.0017887847392071066
-0.002267057687742241   -0.05044099205226487   -0.0017292954425721031
-0.0031836243154880948   -0.05592465551679196   -0.0017014619994364768
0.0007496324319671665   -0.05029636294365982   -0.0016791632725837845
-0.0021839861071007586   -0.050486352020251084   -0.0016771843929819742
-0.0031836243154880948   -0.05592465551679196   -0.0017014619994364768
-0.0010881103260850576   -0.055873452511340925   -0.001643132558347774
0.0007496324319671665   -0.05029636294365982   -0.0016791632725837845
-0.0009518266121819824   -0.05590940954951402   -0.0015088689161099557
-0.0021839861071007586   -0.050486352020251084   -0.0016771843929819742
0.0008384905067607594   -0.050320937133431436   -0.0015771301913671176
-0.0009518266121819824   -0.05590940954951402   -0.0015088689161099557
0.0007496324319671665   -0.05029636294365982   -0.0016791632725837845
-0.0021839861071007586   -0.050486352020251084   -0.0016771843929819742
-0.0009518266121819824   -0.05590940954951402   -0.0015088689161099557
-0.0030724465305461373   -0.05597286724838578   -0.0016327059913468992
-0.0031836243154880948   -0.05592465551679196   -0.0017014619994364768
-0.0021839861071007586   -0.050486352020251084   -0.0016771843929819742
-0.0009518266121819824   -0.05590940954951402   -0.0015088689161099557
-0.0031836243154880948   -0.05592465551679196   -0.0017014619994364768
0.0007496324319671665   -0.05029636294365982   -0.0016791632725837845
0.0005128910204609269   -0.0503308269333949   -0.001909429690067531
-0.0014521432527183713   -0.055924557165196565   -0.0019465715074377446
0.003674328767503719   -0.05012664668742124   -0.0020189141869739213
0.0006281347399321732   -0.050299221156251586   -0.0017887847392071066
-0.0014521432527183713   -0.055924557165196565   -0.0019465715074377446
0.0007046168643110456   -0.055731604159570854   -0.0021025589257227355
0.003674328767503719   -0.05012664668742124   -0.0020189141869739213
0.001124804120231776   -0.055637062163462384   -0.0018479783292363642
0.0006281347399321732   -0.050299221156251586   -0.0017887847392071066
0.003966593042988459   -0.05006602600356373   -0.0018342488973789768
0.001124804120231776   -0.055637062163462384   -0.0018479783292363642
0.003674328767503719   -0.05012664668742124   -0.0020189141869739213
0.0006281347399321732   -0.050299221156251586   -0.0017887847392071066
0.001124804120231776   -0.055637062163462384   -0.0018479783292363642
-0.00127219331997674   -0.05588106390947313   -0.0017909063099411217
-0.0014521432527183713   -0.055924557165196565   -0.0019465715074377446
0.0006281347399321732   -0.050299221156251586   -0.0017887847392071066
0.001124804120231776   -0.055637062163462384   -0.0018479783292363642
-0.0014521432527183713   -0.055924557165196565   -0.0019465715074377446
0.003674328767503719   -0.05012664668742124   -0.0020189141869739213
0.0006281347399321732   -0.050299221156251586   -0.0017887847392071066
-0.00127219331997674   -0.05588106390947313   -0.0017909063099411217
0.003966593042988459   -0.05006602600356373   -0.0018342488973789768
0.0007496324319671665   -0.05029636294365982   -0.0016791632725837845
-0.00127219331997674   -0.05588106390947313   -0.0017909063099411217
0.001124804120231776   -0.055637062163462384   -0.0018479783292363642
0.003966593042988459   -0.05006602600356373   -0.0018342488973789768
0.0014549745521975186   -0.05561796616279649   -0.001608876733399298
0.0007496324319671665   -0.05029636294365982   -0.0016791632725837845
0.004190706397828338   -0.05005552767148047   -0.001663255324288017
0.0014549745521975186   -0.05561796616279649   -0.001608876733399298
0.003966593042988459   -0.05006602600356373   -0.0018342488973789768
0.0007496324319671665   -0.05029636294365982   -0.0016791632725837845
0.0014549745521975186   -0.05561796616279649   -0.001608876733399298
-0.0010881103260850576   -0.055873452511340925   -0.001643132558347774
-0.00127219331997674   -0.05588106390947313   -0.0017909063099411217
0.0007496324319671665   -0.05029636294365982   -0.0016791632725837845
0.0014549745521975186   -0.05561796616279649   -0.001608876733399298
-0.00127219331997674   -0.05588106390947313   -0.0017909063099411217
0.003966593042988459   -0.05006602600356373   -0.0018342488973789768
0.0007496324319671665   -0.05029636294365982   -0.0016791632725837845
-0.0010881103260850576   -0.055873452511340925   -0.001643132558347774
0.004190706397828338   -0.05005552767148047   -0.001663255324288017
0.0008384905067607594   -0.050320937133431436   -0.0015771301913671176
-0.0010881103260850576   -0.055873452511340925   -0.001643132558347774
0.0014549745521975186   -0.05561796616279649   -0.001608876733399298
0.004190706397828338   -0.05005552767148047   -0.001663255324288017
0.0017982895786264833   -0.05563427795712502   -0.0013904309311609077
0.0008384905067607594   -0.050320937133431436   -0.0015771301913671176
0.004423056971368059   -0.050073565010978295   -0.001507327656407645
0.0017982895786264833   -0.05563427795712502   -0.0013904309311609077
0.004190706397828338   -0.05005552767148047   -0.001663255324288017
0.0008384905067607594   -0.050320937133431436   -0.0015771301913671176
0.0017982895786264833   -0.05563427795712502   -0.0013904309311609077
-0.0009518266121819824   -0.05590940954951402   -0.0015088689161099557
-0.0010881103260850576   -0.055873452511340925   -0.001643132558347774
0.0008384905067607594   -0.050320937133431436   -0.0015771301913671176
0.0017982895786264833   -0.05563427795712502   -0.0013904309311609077
-0.0010881103260850576   -0.055873452511340925   -0.001643132558347774
0.004190706397828338   -0.05005552767148047   -0.001663255324288017
-0.009722452454935651   -0.05548341508664136   -0.0016811870139869904
-0.007137020239970654   -0.05861498943636579   -0.001479687125029776
-0.007313292216575512   -0.0557162694854801   -0.0017509866196837739
-0.009460835835437524   -0.05547690663328479   -0.0018356863840290985
-0.007137020239970654   -0.05861498943636579   -0.001479687125029776
-0.006014203158081898   -0.058909321432418546   -0.001656334504991354
-0.007313292216575512   -0.0557162694854801   -0.0017509866196837739
-0.005861413629253165   -0.058851326215773485   -0.0017173685837738567
-0.009460835835437524   -0.05547690663328479   -0.0018356863840290985
-0.007192075859853226   -0.05570434571253885   -0.0018082932755648414
-0.005861413629253165   -0.058851326215773485   -0.0017173685837738567
-0.007313292216575512   -0.0557162694854801   -0.0017509866196837739
-0.009460835835437524   -0.05547690663328479   -0.0018356863840290985
-0.005861413629253165   -0.058851326215773485   -0.0017173685837738567
-0.006811194782928691   -0.05854963016160124   -0.001665004113772268
-0.007137020239970654   -0.05861498943636579   -0.001479687125029776
-0.009460835835437524   -0.05547690663328479   -0.0018356863840290985
-0.005861413629253165   -0.058851326215773485   -0.0017173685837738567
-0.007137020239970654   -0.05861498943636579   -0.001479687125029776
-0.007313292216575512   -0.0557162694854801   -0.0017509866196837739
-0.009460835835437524   -0.05547690663328479   -0.0018356863840290985
-0.006811194782928691   -0.05854963016160124   -0.001665004113772268
-0.007192075859853226   -0.05570434571253885   -0.0018082932755648414
-0.009219731466623107   -0.055518449185949434   -0.0020022769352630756
-0.006811194782928691   -0.05854963016160124   -0.001665004113772268
-0.005861413629253165   -0.058851326215773485   -0.0017173685837738567
-0.007192075859853226   -0.05570434571253885   -0.0018082932755648414
-0.005692111632965119   -0.05885441041322494   -0.001779025023432344
-0.009219731466623107   -0.055518449185949434   -0.0020022769352630756
-0.007049457050598066   -0.05573798459824902   -0.0018741826448748623
-0.005692111632965119   -0.05885441041322494   -0.001779025023432344
-0.007192075859853226   -0.05570434571253885   -0.0018082932755648414
-0.009219731466623107   -0.055518449185949434   -0.0020022769352630756
-0.005692111632965119   -0.05885441041322494   -0.001779025023432344
-0.006530091859560635   -0.05855546715000919   -0.0018496266188324088
-0.006811194782928691   -0.05854963016160124   -0.001665004113772268
-0.009219731466623107   -0.055518449185949434   -0.0020022769352630756
-0.005692111632965119   -0.05885441041322494   -0.001779025023432344
-0.006811194782928691   -0.05854963016160124   -0.001665004113772268
-0.007192075859853226   -0.05570434571253885   -0.0018082932755648414
-0.009219731466623107   -0.055518449185949434   -0.0020022769352630756
-0.006530091859560635   -0.05855546715000919   -0.0018496266188324088
-0.007049457050598066   -0.05573798459824902   -0.0018741826448748623
-0.008925630485017867   -0.05562922501777541   -0.002180252042115196
-0.006530091859560635   -0.05855546715000919   -0.0018496266188324088
-0.005692111632965119   -0.05885441041322494   -0.001779025023432344
-0.007049457050598066   -0.05573798459824902   -0.0018741826448748623
-0.005534877938133778   -0.058918867893014024   -0.0018415614641607227
-0.008925630485017867   -0.05562922501777541   -0.002180252042115196
-0.006920076540274109   -0.05581796007954681   -0.0019481068018159615
-0.005534877938133778   -0.058918867893014024   -0.0018415614641607227
-0.007049457050598066   -0.05573798459824902   -0.0018741826448748623
-0.008925630485017867   -0.05562922501777541   -0.002180252042115196
-0.005534877938133778   -0.058918867893014024   -0.0018415614641607227
-0.0061966040610582146   -0.058636612071111156   -0.002038219714434448
-0.006530091859560635   -0.05855546715000919   -0.0018496266188324088
-0.008925630485017867   -0.05562922501777541   -0.002180252042115196
-0.005534877938133778   -0.058918867893014024   -0.0018415614641607227
-0.006530091859560635   -0.05855546715000919   -0.0018496266188324088
-0.007049457050598066   -0.05573798459824902   -0.0018741826448748623
-0.007313292216575512   -0.0557162694854801   -0.0017509866196837739
-0.006014203158081898   -0.058909321432418546   -0.001656334504991354
-0.005343840687254   -0.055866872241927   -0.0018056228548147472
-0.007192075859853226   -0.05570434571253885   -0.0018082932755648414
-0.006014203158081898   -0.058909321432418546   -0.001656334504991354
-0.005191043679051714   -0.05920390561059746   -0.0018123993225225862
-0.005343840687254   -0.055866872241927   -0.0018056228548147472
-0.005029921371647371   -0.059144357466629056   -0.0017698713425374996
-0.007192075859853226   -0.05570434571253885   -0.0018082932755648414
-0.005219500876735348   -0.055847697236245206   -0.0017881012679433908
-0.005029921371647371   -0.059144357466629056   -0.0017698713425374996
-0.005343840687254   -0.055866872241927   -0.0018056228548147472
-0.007192075859853226   -0.05570434571253885   -0.0018082932755648414
-0.005029921371647371   -0.059144357466629056   -0.0017698713425374996
-0.005861413629253165   -0.058851326215773485   -0.0017173685837738567
-0.006014203158081898   -0.058909321432418546   -0.001656334504991354
-0.007192075859853226   -0.05570434571253885   -0.0018082932755648414
-0.005029921371647371   -0.059144357466629056   -0.0017698713425374996
-0.006014203158081898   -0.058909321432418546   -0.001656334504991354
-0.005343840687254   -0.055866872241927   -0.0018056228548147472
-0.007192075859853226   -0.05570434571253885   -0.0018082932755648414
-0.005861413629253165   -0.058851326215773485   -0.0017173685837738567
-0.005219500876735348   -0.055847697236245206   -0.0017881012679433908
-0.007049457050598066   -0.05573798459824902   -0.0018741826448748623
-0.005861413629253165   -0.058851326215773485   -0.0017173685837738567
-0.005029921371647371   -0.059144357466629056   -0.0017698713425374996
-0.005219500876735348   -0.055847697236245206   -0.0017881012679433908
-0.004874102011975672   -0.059143452083123535   -0.0017268202421465244
-0.007049457050598066   -0.05573798459824902   -0.0018741826448748623
-0.005096881783839897   -0.05586786619191261   -0.001778919181834883
-0.004874102011975672   -0.059143452083123535   -0.0017268202421465244
-0.005219500876735348   -0.055847697236245206   -0.0017881012679433908
-0.007049457050598066   -0.05573798459824902   -0.0018741826448748623
-0.004874102011975672   -0.059143452083123535   -0.0017268202421465244
-0.005692111632965119   -0.05885441041322494   -0.001779025023432344
-0.005861413629253165   -0.058851326215773485   -0.0017173685837738567
-0.007049457050598066   -0.05573798459824902   -0.0018741826448748623
-0.004874102011975672   -0.059143452083123535   -0.0017268202421465244
-0.005861413629253165   -0.058851326215773485   -0.0017173685837738567
-0.005219500876735348   -0.055847697236245206   -0.0017881012679433908
-0.007049457050598066   -0.05573798459824902   -0.0018741826448748623
-0.005692111632965119   -0.05885441041322494   -0.001779025023432344
-0.005096881783839897   -0.05586786619191261   -0.001778919181834883
-0.006920076540274109   -0.05581796007954681   -0.0019481068018159615
-0.005692111632965119   -0.05885441041322494   -0.001779025023432344
-0.004874102011975672   -0.059143452083123535   -0.0017268202421465244
-0.005096881783839897   -0.05586786619191261   -0.001778919181834883
-0.004711683689998173   -0.059199975428304   -0.001685483393200467
-0.006920076540274109   -0.05581796007954681   -0.0019481068018159615
-0.004984027460967717   -0.05592867465861502   -0.0017798186287460624
-0.004711683689998173   -0.059199975428304   -0.001685483393200467
-0.005096881783839897   -0.05586786619191261   -0.001778919181834883
-0.006920076540274109   -0.05581796007954681   -0.0019481068018159615
-0.004711683689998173   -0.059199975428304   -0.001685483393200467
-0.005534877938133778   -0.058918867893014024   -0.0018415614641607227
-0.005692111632965119   -0.05885441041322494   -0.001779025023432344
-0.006920076540274109   -0.05581796007954681   -0.0019481068018159615
-0.004711683689998173   -0.059199975428304   -0.001685483393200467
-0.005692111632965119   -0.05885441041322494   -0.001779025023432344
-0.005096881783839897   -0.05586786619191261   -0.001778919181834883
-0.005343840687254   -0.055866872241927   -0.0018056228548147472
-0.005191043679051714   -0.05920390561059746   -0.0018123993225225862
-0.0034574057720623127   -0.05594549537196536   -0.001870296483426373
-0.005219500876735348   -0.055847697236245206   -0.0017881012679433908
-0.005191043679051714   -0.05920390561059746   -0.0018123993225225862
-0.004438992412947645   -0.059558541407213804   -0.0019843781820495206
-0.0034574057720623127   -0.05594549537196536   -0.001870296483426373
-0.004241526421718264   -0.05950677387445358   -0.00183249635622043
-0.005219500876735348   -0.055847697236245206   -0.0017881012679433908
-0.0033172501807020517   -0.05591776369224073   -0.001782187604278739
-0.004241526421718264   -0.05950677387445358   -0.00183249635622043
-0.0034574057720623127   -0.05594549537196536   -0.001870296483426373
-0.005219500876735348   -0.055847697236245206   -0.0017881012679433908
-0.004241526421718264   -0.05950677387445358   -0.00183249635622043
-0.005029921371647371   -0.059144357466629056   -0.0017698713425374996
-0.005191043679051714   -0.05920390561059746   -0.0018123993225225862
-0.005219500876735348   -0.055847697236245206   -0.0017881012679433908
-0.004241526421718264   -0.05950677387445358   -0.00183249635622043
-0.005191043679051714   -0.05920390561059746   -0.0018123993225225862
-0.0034574057720623127   -0.05594549537196536   -0.001870296483426373
-0.005219500876735348   -0.055847697236245206   -0.0017881012679433908
-0.005029921371647371   -0.059144357466629056   -0.0017698713425374996
-0.0033172501807020517   -0.05591776369224073   -0.001782187604278739
-0.005096881783839897   -0.05586786619191261   -0.001778919181834883
-0.005029921371647371   -0.059144357466629056   -0.0017698713425374996
-0.004241526421718264   -0.05950677387445358   -0.00183249635622043
-0.0033172501807020517   -0.05591776369224073   -0.001782187604278739
-0.004058498126204915   -0.05950409792059282   -0.0016810927877521132
-0.005096881783839897   -0.05586786619191261   -0.001778919181834883
-0.0031836243154880948   -0.05592465551679196   -0.0017014619994364768
-0.004058498126204915   -0.05950409792059282   -0.0016810927877521132
-0.0033172501807020517   -0.05591776369224073   -0.001782187604278739
-0.005096881783839897   -0.05586786619191261   -0.001778919181834883
-0.004058498126204915   -0.05950409792059282   -0.0016810927877521132
-0.004874102011975672   -0.059143452083123535   -0.0017268202421465244
-0.005029921371647371   -0.059144357466629056   -0.0017698713425374996
-0.005096881783839897   -0.05586786619191261   -0.001778919181834883
-0.004058498126204915   -0.05950409792059282   -0.0016810927877521132
-0.005029921371647371   -0.059144357466629056   -0.0017698713425374996
-0.0033172501807020517   -0.05591776369224073   -0.001782187604278739
-0.005096881783839897   -0.05586786619191261   -0.001778919181834883
-0.004874102011975672   -0.059143452083123535   -0.0017268202421465244
-0.0031836243154880948   -0.05592465551679196   -0.0017014619994364768
-0.004984027460967717   -0.05592867465861502   -0.0017798186287460624
-0.004874102011975672   -0.059143452083123535   -0.0017268202421465244
-0.004058498126204915   -0.05950409792059282   -0.0016810927877521132
-0.0031836243154880948   -0.05592465551679196   -0.0017014619994364768
-0.0038620725153546273   -0.0595478871259385   -0.0015294112691195876
-0.004984027460967717   -0.05592867465861502   -0.0017798186287460624
-0.0030724465305461373   -0.05597286724838578   -0.0016327059913468992
-0.0038620725153546273   -0.0595478871259385   -0.0015294112691195876
-0.0031836243154880948   -0.05592465551679196   -0.0017014619994364768
-0.004984027460967717   -0.05592867465861502   -0.0017798186287460624
-0.0038620725153546273   -0.0595478871259385   -0.0015294112691195876
-0.004711683689998173   -0.059199975428304   -0.001685483393200467
-0.004874102011975672   -0.059143452083123535   -0.0017268202421465244
-0.004984027460967717   -0.05592867465861502   -0.0017798186287460624
-0.0038620725153546273   -0.0595478871259385   -0.0015294112691195876
-0.004874102011975672   -0.059143452083123535   -0.0017268202421465244
-0.0031836243154880948   -0.05592465551679196   -0.0017014619994364768
-0.0034574057720623127   -0.05594549537196536   -0.001870296483426373
-0.004438992412947645   -0.059558541407213804   -0.0019843781820495206
-0.0014521432527183713   -0.055924557165196565   -0.0019465715074377446
-0.0033172501807020517   -0.05591776369224073   -0.001782187604278739
-0.004438992412947645   -0.059558541407213804   -0.0019843781820495206
-0.003698839823765859   -0.06   -0.002116948315215242
-0.0014521432527183713   -0.055924557165196565   -0.0019465715074377446
-0.003450351657888523   -0.06   -0.0018859127276246996
-0.0033172501807020517   -0.05591776369224073   -0.001782187604278739
-0.00127219331997674   -0.05588106390947313   -0.0017909063099411217
-0.003450351657888523   -0.06   -0.0018859127276246996
-0.0014521432527183713   -0.055924557165196565   -0.0019465715074377446
-0.0033172501807020517   -0.05591776369224073   -0.001782187604278739
-0.003450351657888523   -0.06   -0.0018859127276246996
-0.004241526421718264   -0.05950677387445358   -0.00183249635622043
-0.004438992412947645   -0.059558541407213804   -0.0019843781820495206
-0.0033172501807020517   -0.05591776369224073   -0.001782187604278739
-0.003450351657888523   -0.06   -0.0018859127276246996
-0.004438992412947645   -0.059558541407213804   -0.0019843781820495206
-0.0014521432527183713   -0.055924557165196565   -0.0019465715074377446
-0.0033172501807020517   -0.05591776369224073   -0.001782187604278739
-0.004241526421718264   -0.05950677387445358   -0.00183249635622043
-0.00127219331997674   -0.05588106390947313   -0.0017909063099411217
-0.0031836243154880948   -0.05592465551679196   -0.0017014619994364768
-0.004241526421718264   -0.05950677387445358   -0.00183249635622043
-0.003450351657888523   -0.06   -0.0018859127276246996
-0.00127219331997674   -0.05588106390947313   -0.0017909063099411217
-0.003200579116424511   -0.06   -0.0016521407570628777
-0.0031836243154880948   -0.05592465551679196   -0.0017014619994364768
-0.0010881103260850576   -0.055873452511340925   -0.001643132558347774
-0.003200579116424511   -0.06   -0.0016521407570628777
-0.00127219331997674   -0.05588106390947313   -0.0017909063099411217
-0.0031836243154880948   -0.05592465551679196   -0.0017014619994364768
-0.003200579116424511   -0.06   -0.0016521407570628777
-0.004058498126204915   -0.05950409792059282   -0.0016810927877521132
-0.004241526421718264   -0.05950677387445358   -0.00183249635622043
-0.0031836243154880948   -0.05592465551679196   -0.0017014619994364768
-0.003200579116424511   -0.06   -0.0016521407570628777
-0.004241526421718264   -0.05950677387445358   -0.00183249635622043
-0.00127219331997674   -0.05588106390947313   -0.0017909063099411217
-0.0031836243154880948   -0.05592465551679196   -0.0017014619994364768
-0.004058498126204915   -0.05950409792059282   -0.0016810927877521132
-0.0010881103260850576   -0.055873452511340925   -0.001643132558347774
-0.0030724465305461373   -0.05597286724838578   -0.0016327059913468992
-0.004058498126204915   -0.05950409792059282   -0.0016810927877521132
-0.003200579116424511   -0.06   -0.0016521407570628777
-0.0010881103260850576   -0.055873452511340925   -0.001643132558347774
-0.0029565500887472652   -0.06   -0.001421468234095244
-0.0030724465305461373   -0.05597286724838578   -0.0016327059913468992
-0.0009518266121819824   -0.05590940954951402   -0.0015088689161099557
-0.0029565500887472652   -0.06   -0.001421468234095244
-0.0010881103260850576   -0.055873452511340925   -0.001643132558347774
-0.0030724465305461373   -0.05597286724838578   -0.0016327059913468992
-0.0029565500887472652   -0.06   -0.001421468234095244
-0.0038620725153546273   -0.0595478871259385   -0.0015294112691195876
-0.004058498126204915   -0.05950409792059282   -0.0016810927877521132
-0.0030724465305461373   -0.05597286724838578   -0.0016327059913468992
-0.0029565500887472652   -0.06   -0.001421468234095244
-0.004058498126204915   -0.05950409792059282   -0.0016810927877521132
-0.0010881103260850576   -0.055873452511340925   -0.001643132558347774
-0.0014521432527183713   -0.055924557165196565   -0.0019465715074377446
-0.003698839823765859   -0.06   -0.002116948315215242
0.0007046168643110456   -0.055731604159570854   -0.0021025589257227355
-0.00127219331997674   -0.05588106390947313   -0.0017909063099411217
-0.003698839823765859   -0.06   -0.002116948315215242
-0.0031608176723999185   -0.06   -0.002277500648870643
0.0007046168643110456   -0.055731604159570854   -0.0021025589257227355
-0.0026404364168491367   -0.06   -0.0019430764752755817
-0.00127219331997674   -0.05588106390947313   -0.0017909063099411217
0.001124804120231776   -0.055637062163462384   -0.0018479783292363642
-0.0026404364168491367   -0.06   -0.0019430764752755817
0.0007046168643110456   -0.055731604159570854   -0.0021025589257227355
-0.00127219331997674   -0.05588106390947313   -0.0017909063099411217
-0.0026404364168491367   -0.06   -0.0019430764752755817
-0.003450351657888523   -0.06   -0.0018859127276246996
-0.003698839823765859   -0.06   -0.002116948315215242
-0.00127219331997674   -0.05588106390947313   -0.0017909063099411217
-0.0026404364168491367   -0.06   -0.0019430764752755817
-0.003698839823765859   -0.06   -0.002116948315215242
0.0007046168643110456   -0.055731604159570854   -0.0021025589257227355
-0.00127219331997674   -0.05588106390947313   -0.0017909063099411217
-0.003450351657888523   -0.06   -0.0018859127276246996
0.001124804120231776   -0.055637062163462384   -0.0018479783292363642
-0.0010881103260850576   -0.055873452511340925   -0.001643132558347774
-0.003450351657888523   -0.06   -0.0018859127276246996
-0.0026404364168491367   -0.06   -0.0019430764752755817
0.001124804120231776   -0.055637062163462384   -0.0018479783292363642
-0.0022254484324476303   -0.06   -0.0016231684439562241
-0.0010881103260850576   -0.055873452511340925   -0.001643132558347774
0.0014549745521975186   -0.05561796616279649   -0.001608876733399298
-0.0022254484324476303   -0.06   -0.0016231684439562241
0.001124804120231776   -0.055637062163462384   -0.0018479783292363642
-0.0010881103260850576   -0.055873452511340925   -0.001643132558347774
-0.0022254484324476303   -0.06   -0.0016231684439562241
-0.003200579116424511   -0.06   -0.0016521407570628777
-0.003450351657888523   -0.06   -0.0018859127276246996
-0.0010881103260850576   -0.055873452511340925   -0.001643132558347774
-0.0022254484324476303   -0.06   -0.0016231684439562241
-0.003450351657888523   -0.06   -0.0018859127276246996
0.001124804120231776   -0.055637062163462384   -0.0018479783292363642
-0.0010881103260850576   -0.055873452511340925   -0.001643132558347774
-0.003200579116424511   -0.06   -0.0016521407570628777
0.0014549745521975186   -0.05561796616279649   -0.001608876733399298
-0.0009518266121819824   -0.05590940954951402   -0.0015088689161099557
-0.003200579116424511   -0.06   -0.0016521407570628777
-0.0022254484324476303   -0.06   -0.0016231684439562241
0.0014549745521975186   -0.05561796616279649   -0.001608876733399298
-0.0017128454833749763   -0.06   -0.0012910589241000028
-0.0009518266121819824   -0.05590940954951402   -0.0015088689161099557
0.0017982895786264833   -0.05563427795712502   -0.0013904309311609077
-0.0017128454833749763   -0.06   -0.0012910589241000028
0.0014549745521975186   -0.05561796616279649   -0.001608876733399298
-0.0009518266121819824   -0.05590940954951402   -0.0015088689161099557
-0.0017128454833749763   -0.06   -0.0012910589241000028
-0.0029565500887472652   -0.06   -0.001421468234095244
-0.003200579116424511   -0.06   -0.0016521407570628777
-0.0009518266121819824   -0.05590940954951402   -0.0015088689161099557
-0.0017128454833749763   -0.06   -0.0012910589241000028
-0.003200579116424511   -0.06   -0.0016521407570628777
0.0014549745521975186   -0.05561796616279649   -0.001608876733399298
-0.007137020239970654   -0.05861498943636579   -0.001479687125029776
-0.004276698075416356   -0.05878007316786798   -0.0012666369372580151
-0.006014203158081898   -0.058909321432418546   -0.001656334504991354
-0.006811194782928691   -0.05854963016160124   -0.001665004113772268
-0.004276698075416356   -0.05878007316786798   -0.0012666369372580151
-0.0045308715077358045   -0.05900720577945278   -0.0014941069690195326
-0.006014203158081898   -0.058909321432418546   -0.001656334504991354
-0.004415255957155545   -0.05892796965753928   -0.0015772720686379688
-0.006811194782928691   -0.05854963016160124   -0.001665004113772268
-0.005861413629253165   -0.058851326215773485   -0.0017173685837738567
-0.004415255957155545   -0.05892796965753928   -0.0015772720686379688
-0.006014203158081898   -0.058909321432418546   -0.001656334504991354
-0.006811194782928691   -0.05854963016160124   -0.001665004113772268
-0.004415255957155545   -0.05892796965753928   -0.0015772720686379688
-0.003981266516813451   -0.058678306754304285   -0.0014613667752277249
-0.004276698075416356   -0.05878007316786798   -0.0012666369372580151
-0.006811194782928691   -0.05854963016160124   -0.001665004113772268
-0.004415255957155545   -0.05892796965753928   -0.0015772720686379688
-0.004276698075416356   -0.05878007316786798   -0.0012666369372580151
-0.006014203158081898   -0.058909321432418546   -0.001656334504991354
-0.006811194782928691   -0.05854963016160124   -0.001665004113772268
-0.003981266516813451   -0.058678306754304285   -0.0014613667752277249
-0.005861413629253165   -0.058851326215773485   -0.0017173685837738567
-0.006530091859560635   -0.05855546715000919   -0.0018496266188324088
-0.003981266516813451   -0.058678306754304285   -0.0014613667752277249
-0.004415255957155545   -0.05892796965753928   -0.0015772720686379688
-0.005861413629253165   -0.058851326215773485   -0.0017173685837738567
-0.004279595918354156   -0.05889893929780777   -0.0016540345465586089
-0.006530091859560635   -0.05855546715000919   -0.0018496266188324088
-0.005692111632965119   -0.05885441041322494   -0.001779025023432344
-0.004279595918354156   -0.05889893929780777   -0.0016540345465586089
-0.005861413629253165   -0.058851326215773485   -0.0017173685837738567
-0.006530091859560635   -0.05855546715000919   -0.0018496266188324088
-0.004279595918354156   -0.05889893929780777   -0.0016540345465586089
-0.003735366822688643   -0.058647228415149195   -0.0016481532859114116
-0.003981266516813451   -0.058678306754304285   -0.0014613667752277249
-0.006530091859560635   -0.05855546715000919   -0.0018496266188324088
-0.004279595918354156   -0.05889893929780777   -0.0016540345465586089
-0.003981266516813451   -0.058678306754304285   -0.0014613667752277249
-0.005861413629253165   -0.058851326215773485   -0.0017173685837738567
-0.006530091859560635   -0.05855546715000919   -0.0018496266188324088
-0.003735366822688643   -0.058647228415149195   -0.0016481532859114116
-0.005692111632965119   -0.05885441041322494   -0.001779025023432344
-0.0061966040610582146   -0.058636612071111156   -0.002038219714434448
-0.003735366822688643   -0.058647228415149195   -0.0016481532859114116
-0.004279595918354156   -0.05889893929780777   -0.0016540345465586089
-0.005692111632965119   -0.05885441041322494   -0.001779025023432344
-0.004163413598740377   -0.05892054430802351   -0.0017239964774663488
-0.0061966040610582146   -0.058636612071111156   -0.002038219714434448
-0.005534877938133778   -0.058918867893014024   -0.0018415614641607227
-0.004163413598740377   -0.05892054430802351   -0.0017239964774663488
-0.005692111632965119   -0.05885441041322494   -0.001779025023432344
-0.0061966040610582146   -0.058636612071111156   -0.002038219714434448
-0.004163413598740377   -0.05892054430802351   -0.0017239964774663488
-0.0034570410286123903   -0.05867417123609924   -0.001826173862376849
-0.003735366822688643   -0.058647228415149195   -0.0016481532859114116
-0.0061966040610582146   -0.058636612071111156   -0.002038219714434448
-0.004163413598740377   -0.05892054430802351   -0.0017239964774663488
-0.003735366822688643   -0.058647228415149195   -0.0016481532859114116
-0.005692111632965119   -0.05885441041322494   -0.001779025023432344
-0.006014203158081898   -0.058909321432418546   -0.001656334504991354
-0.0045308715077358045   -0.05900720577945278   -0.0014941069690195326
-0.005191043679051714   -0.05920390561059746   -0.0018123993225225862
-0.005861413629253165   -0.058851326215773485   -0.0017173685837738567
-0.0045308715077358045   -0.05900720577945278   -0.0014941069690195326
-0.004877073590227111   -0.05914727220594972   -0.0016759272230969144
-0.005191043679051714   -0.05920390561059746   -0.0018123993225225862
-0.0047747809643425366   -0.05907650360132039   -0.0016780548307750703
-0.005861413629253165   -0.058851326215773485   -0.0017173685837738567
-0.005029921371647371   -0.059144357466629056   -0.0017698713425374996
-0.0047747809643425366   -0.05907650360132039   -0.0016780548307750703
-0.005191043679051714   -0.05920390561059746   -0.0018123993225225862
-0.005861413629253165   -0.058851326215773485   -0.0017173685837738567
-0.0047747809643425366   -0.05907650360132039   -0.0016780548307750703
-0.004415255957155545   -0.05892796965753928   -0.0015772720686379688
-0.0045308715077358045   -0.05900720577945278   -0.0014941069690195326
-0.005861413629253165   -0.058851326215773485   -0.0017173685837738567
-0.0047747809643425366   -0.05907650360132039   -0.0016780548307750703
-0.0045308715077358045   -0.05900720577945278   -0.0014941069690195326
-0.005191043679051714   -0.05920390561059746   -0.0018123993225225862
-0.005861413629253165   -0.058851326215773485   -0.0017173685837738567
-0.004415255957155545   -0.05892796965753928   -0.0015772720686379688
-0.005029921371647371   -0.059144357466629056   -0.0017698713425374996
-0.005692111632965119   -0.05885441041322494   -0.001779025023432344
-0.004415255957155545   -0.05892796965753928   -0.0015772720686379688
-0.0047747809643425366   -0.05907650360132039   -0.0016780548307750703
-0.005029921371647371   -0.059144357466629056   -0.0017698713425374996
-0.004660935666910922   -0.059051204490414885   -0.0016718820556833403
-0.005692111632965119   -0.05885441041322494   -0.001779025023432344
-0.004874102011975672   -0.059143452083123535   -0.0017268202421465244
-0.004660935666910922   -0.059051204490414885   -0.0016718820556833403
-0.005029921371647371   -0.059144357466629056   -0.0017698713425374996
-0.005692111632965119   -0.05885441041322494   -0.001779025023432344
-0.004660935666910922   -0.059051204490414885   -0.0016718820556833403
-0.004279595918354156   -0.05889893929780777   -0.0016540345465586089
-0.004415255957155545   -0.05892796965753928   -0.0015772720686379688
-0.005692111632965119   -0.05885441041322494   -0.001779025023432344
-0.004660935666910922   -0.059051204490414885   -0.0016718820556833403
-0.004415255957155545   -0.05892796965753928   -0.0015772720686379688
-0.005029921371647371   -0.059144357466629056   -0.0017698713425374996
-0.005692111632965119   -0.05885441041322494   -0.001779025023432344
-0.004279595918354156   -0.05889893929780777   -0.0016540345465586089
-0.004874102011975672   -0.059143452083123535   -0.0017268202421465244
-0.005534877938133778   -0.058918867893014024   -0.0018415614641607227
-0.004279595918354156   -0.05889893929780777   -0.0016540345465586089
-0.004660935666910922   -0.059051204490414885   -0.0016718820556833403
-0.004874102011975672   -0.059143452083123535   -0.0017268202421465244
-0.0045452003915411425   -0.05906931564248231   -0.0016591952451118555
-0.005534877938133778   -0.058918867893014024   -0.0018415614641607227
-0.004711683689998173   -0.059199975428304   -0.001685483393200467
-0.0045452003915411425   -0.05906931564248231   -0.0016591952451118555
-0.004874102011975672   -0.059143452083123535   -0.0017268202421465244
-0.005534877938133778   -0.058918867893014024   -0.0018415614641607227
-0.0045452003915411425   -0.05906931564248231   -0.0016591952451118555
-0.004163413598740377   -0.05892054430802351   -0.0017239964774663488
-0.004279595918354156   -0.05889893929780777   -0.0016540345465586089
-0.005534877938133778   -0.058918867893014024   -0.0018415614641607227
-0.0045452003915411425   -0.05906931564248231   -0.0016591952451118555
-0.004279595918354156   -0.05889893929780777   -0.0016540345465586089
-0.004874102011975672   -0.059143452083123535   -0.0017268202421465244
-0.005191043679051714   -0.05920390561059746   -0.0018123993225225862
-0.004877073590227111   -0.05914727220594972   -0.0016759272230969144
-0.004438992412947645   -0.059558541407213804   -0.0019843781820495206
-0.005029921371647371   -0.059144357466629056   -0.0017698713425374996
-0.004877073590227111   -0.05914727220594972   -0.0016759272230969144
-0.005248483940241681   -0.059205591858229135   -0.0018549375243818137
-0.004438992412947645   -0.059558541407213804   -0.0019843781820495206
-0.005142517874126967   -0.05913806758941983   -0.0017791375794628517
-0.005029921371647371   -0.059144357466629056   -0.0017698713425374996
-0.004241526421718264   -0.05950677387445358   -0.00183249635622043
-0.005142517874126967   -0.05913806758941983   -0.0017791375794628517
-0.004438992412947645   -0.059558541407213804   -0.0019843781820495206
-0.005029921371647371   -0.059144357466629056   -0.0017698713425374996
-0.005142517874126967   -0.05913806758941983   -0.0017791375794628517
-0.0047747809643425366   -0.05907650360132039   -0.0016780548307750703
-0.004877073590227111   -0.05914727220594972   -0.0016759272230969144
-0.005029921371647371   -0.059144357466629056   -0.0017698713425374996
-0.005142517874126967   -0.05913806758941983   -0.0017791375794628517
-0.004877073590227111   -0.05914727220594972   -0.0016759272230969144
-0.004438992412947645   -0.059558541407213804   -0.0019843781820495206
-0.005029921371647371   -0.059144357466629056   -0.0017698713425374996
-0.0047747809643425366   -0.05907650360132039   -0.0016780548307750703
-0.004241526421718264   -0.05950677387445358   -0.00183249635622043
-0.004874102011975672   -0.059143452083123535   -0.0017268202421465244
-0.0047747809643425366   -0.05907650360132039   -0.0016780548307750703
-0.005142517874126967   -0.05913806758941983   -0.0017791375794628517
-0.004241526421718264   -0.05950677387445358   -0.00183249635622043
-0.005015451541300585   -0.05911675135967709   -0.001693227315982146
-0.004874102011975672   -0.059143452083123535   -0.0017268202421465244
-0.004058498126204915   -0.05950409792059282   -0.0016810927877521132
-0.005015451541300585   -0.05911675135967709   -0.001693227315982146
-0.004241526421718264   -0.05950677387445358   -0.00183249635622043
-0.004874102011975672   -0.059143452083123535   -0.0017268202421465244
-0.005015451541300585   -0.05911675135967709   -0.001693227315982146
-0.004660935666910922   -0.059051204490414885   -0.0016718820556833403
-0.0047747809643425366   -0.05907650360132039   -0.0016780548307750703
-0.004874102011975672   -0.059143452083123535   -0.0017268202421465244
-0.005015451541300585   -0.05911675135967709   -0.001693227315982146
-0.0047747809643425366   -0.05907650360132039   -0.0016780548307750703
-0.004241526421718264   -0.05950677387445358   -0.00183249635622043
-0.004874102011975672   -0.059143452083123535   -0.0017268202421465244
-0.004660935666910922   -0.059051204490414885   -0.0016718820556833403
-0.004058498126204915   -0.05950409792059282   -0.0016810927877521132
-0.004711683689998173   -0.059199975428304   -0.001685483393200467
-0.004660935666910922   -0.059051204490414885   -0.0016718820556833403
-0.005015451541300585   -0.05911675135967709   -0.001693227315982146
-0.004058498126204915   -0.05950409792059282   -0.0016810927877521132
-0.004884801492472032   -0.05913442732002631   -0.001601744596751907
-0.004711683689998173   -0.059199975428304   -0.001685483393200467
-0.0038620725153546273   -0.0595478871259385   -0.0015294112691195876
-0.004884801492472032   -0.05913442732002631   -0.001601744596751907
-0.004058498126204915   -0.05950409792059282   -0.0016810927877521132
-0.004711683689998173   -0.059199975428304   -0.001685483393200467
-0.004884801492472032   -0.05913442732002631   -0.001601744596751907
-0.0045452003915411425   -0.05906931564248231   -0.0016591952451118555
-0.004660935666910922   -0.059051204490414885   -0.0016718820556833403
-0.004711683689998173   -0.059199975428304   -0.001685483393200467
-0.004884801492472032   -0.05913442732002631   -0.001601744596751907
-0.004660935666910922   -0.059051204490414885   -0.0016718820556833403
-0.004058498126204915   -0.05950409792059282   -0.0016810927877521132
-0.004438992412947645   -0.059558541407213804   -0.0019843781820495206
-0.005248483940241681   -0.059205591858229135   -0.0018549375243818137
-0.003698839823765859   -0.06   -0.002116948315215242
-0.004241526421718264   -0.05950677387445358   -0.00183249635622043
-0.005248483940241681   -0.059205591858229135   -0.0018549375243818137
-0.005786567958716947   -0.05914122315820651   -0.0020251637122659177
-0.003698839823765859   -0.06   -0.002116948315215242
-0.005648170695830333   -0.05907739182908434   -0.001875136088699161
-0.004241526421718264   -0.05950677387445358   -0.00183249635622043
-0.003450351657888523   -0.06   -0.0018859127276246996
-0.005648170695830333   -0.05907739182908434   -0.001875136088699161
-0.003698839823765859   -0.06   -0.002116948315215242
-0.004241526421718264   -0.05950677387445358   -0.00183249635622043
-0.005648170695830333   -0.05907739182908434   -0.001875136088699161
-0.005142517874126967   -0.05913806758941983   -0.0017791375794628517
-0.005248483940241681   -0.059205591858229135   -0.0018549375243818137
-0.004241526421718264   -0.05950677387445358   -0.00183249635622043
-0.005648170695830333   -0.05907739182908434   -0.001875136088699161
-0.005248483940241681   -0.059205591858229135   -0.0018549375243818137
-0.003698839823765859   -0.06   -0.002116948315215242
-0.004241526421718264   -0.05950677387445358   -0.00183249635622043
-0.005142517874126967   -0.05913806758941983   -0.0017791375794628517
-0.003450351657888523   -0.06   -0.0018859127276246996
-0.004058498126204915   -0.05950409792059282   -0.0016810927877521132
-0.005142517874126967   -0.05913806758941983   -0.0017791375794628517
-0.005648170695830333   -0.05907739182908434   -0.001875136088699161
-0.003450351657888523   -0.06   -0.0018859127276246996
-0.005465472538084661   -0.059062987188584076   -0.0017138365232979313
-0.004058498126204915   -0.05950409792059282   -0.0016810927877521132
-0.003200579116424511   -0.06   -0.0016521407570628777
-0.005465472538084661   -0.059062987188584076   -0.0017138365232979313
-0.003450351657888523   -0.06   -0.0018859127276246996
-0.004058498126204915   -0.05950409792059282   -0.0016810927877521132
-0.005465472538084661   -0.059062987188584076   -0.0017138365232979313
-0.005015451541300585   -0.05911675135967709   -0.001693227315982146
-0.005142517874126967   -0.05913806758941983   -0.0017791375794628517
-0.004058498126204915   -0.05950409792059282   -0.0016810927877521132
-0.005465472538084661   -0.059062987188584076   -0.0017138365232979313
-0.005142517874126967   -0.05913806758941983   -0.0017791375794628517
-0.003450351657888523   -0.06   -0.0018859127276246996
-0.004058498126204915   -0.05950409792059282   -0.0016810927877521132
-0.005015451541300585   -0.05911675135967709   -0.001693227315982146
-0.003200579116424511   -0.06   -0.0016521407570628777
-0.0038620725153546273   -0.0595478871259385   -0.0015294112691195876
-0.005015451541300585   -0.05911675135967709   -0.001693227315982146
-0.005465472538084661   -0.059062987188584076   -0.0017138365232979313
-0.003200579116424511   -0.06   -0.0016521407570628777
-0.005293744555157137   -0.05908850213346005   -0.0015463388839398876
-0.0038620725153546273   -0.0595478871259385   -0.0015294112691195876
-0.0029565500887472652   -0.06   -0.001421468234095244
-0.005293744555157137   -0.05908850213346005   -0.0015463388839398876
-0.003200579116424511   -0.06   -0.0016521407570628777
-0.0038620725153546273   -0.0595478871259385   -0.0015294112691195876
-0.005293744555157137   -0.05908850213346005   -0.0015463388839398876
-0.004884801492472032   -0.05913442732002631   -0.001601744596751907
-0.005015451541300585   -0.05911675135967709   -0.001693227315982146
-0.0038620725153546273   -0.0595478871259385   -0.0015294112691195876
-0.005293744555157137   -0.05908850213346005   -0.0015463388839398876
-0.005015451541300585   -0.05911675135967709   -0.001693227315982146
-0.003200579116424511   -0.06   -0.0016521407570628777
-0.003698839823765859   -0.06   -0.002116948315215242
-0.005786567958716947   -0.05914122315820651   -0.0020251637122659177
-0.0031608176723999185   -0.06   -0.002277500648870643
-0.003450351657888523   -0.06   -0.0018859127276246996
-0.005786567958716947   -0.05914122315820651   -0.0020251637122659177
-0.006834533522472144   -0.058851981780802975   -0.0022059455220670705
-0.0031608176723999185   -0.06   -0.002277500648870643
-0.006465721342830239   -0.05879804171797856   -0.0019598239843530425
-0.003450351657888523   -0.06   -0.0018859127276246996
-0.0026404364168491367   -0.06   -0.0019430764752755817
-0.006465721342830239   -0.05879804171797856   -0.0019598239843530425
-0.0031608176723999185   -0.06   -0.002277500648870643
-0.003450351657888523   -0.06   -0.0018859127276246996
-0.006465721342830239   -0.05879804171797856   -0.0019598239843530425
-0.005648170695830333   -0.05907739182908434   -0.001875136088699161
-0.005786567958716947   -0.05914122315820651   -0.0020251637122659177
-0.003450351657888523   -0.06   -0.0018859127276246996
-0.006465721342830239   -0.05879804171797856   -0.0019598239843530425
-0.005786567958716947   -0.05914122315820651   -0.0020251637122659177
-0.0031608176723999185   -0.06   -0.002277500648870643
-0.003450351657888523   -0.06   -0.0018859127276246996
-0.005648170695830333   -0.05907739182908434   -0.001875136088699161
-0.0026404364168491367   -0.06   -0.0019430764752755817
-0.003200579116424511   -0.06   -0.0016521407570628777
-0.005648170695830333   -0.05907739182908434   -0.001875136088699161
-0.006465721342830239   -0.05879804171797856   -0.0019598239843530425
-0.0026404364168491367   -0.06   -0.0019430764752755817
-0.006127036703987313   -0.05879073195108349   -0.001697199885841683
-0.003200579116424511   -0.06   -0.0016521407570628777
-0.0022254484324476303   -0.06   -0.0016231684439562241
-0.006127036703987313   -0.05879073195108349   -0.001697199885841683
-0.0026404364168491367   -0.06   -0.0019430764752755817
-0.003200579116424511   -0.06   -0.0016521407570628777
-0.006127036703987313   -0.05879073195108349   -0.001697199885841683
-0.005465472538084661   -0.059062987188584076   -0.0017138365232979313
-0.005648170695830333   -0.05907739182908434   -0.001875136088699161
-0.003200579116424511   -0.06   -0.0016521407570628777
-0.006127036703987313   -0.05879073195108349   -0.001697199885841683
-0.005648170695830333   -0.05907739182908434   -0.001875136088699161
-0.0026404364168491367   -0.06   -0.0019430764752755817
-0.003200579116424511   -0.06   -0.0016521407570628777
-0.005465472538084661   -0.059062987188584076   -0.0017138365232979313
-0.0022254484324476303   -0.06   -0.0016231684439562241
-0.0029565500887472652   -0.06   -0.001421468234095244
-0.005465472538084661   -0.059062987188584076   -0.0017138365232979313
-0.006127036703987313   -0.05879073195108349   -0.001697199885841683
-0.0022254484324476303   -0.06   -0.0016231684439562241
-0.0056992809105098794   -0.05886148466790549   -0.0014226061277862517
-0.0029565500887472652   -0.06   -0.001421468234095244
-0.0017128454833749763   -0.06   -0.0012910589241000028
-0.0056992809105098794   -0.05886148466790549   -0.0014226061277862517
-0.0022254484324476303   -0.06   -0.0016231684439562241
-0.0029565500887472652   -0.06   -0.001421468234095244
-0.0056992809105098794   -0.05886148466790549   -0.0014226061277862517
-0.005293744555157137   -0.05908850213346005   -0.0015463388839398876
-0.005465472538084661   -0.059062987188584076   -0.0017138365232979313
-0.0029565500887472652   -0.06   -0.001421468234095244
-0.0056992809105098794   -0.05886148466790549   -0.0014226061277862517
-0.005465472538084661   -0.059062987188584076   -0.0017138365232979313
-0.0022254484324476303   -0.06   -0.0016231684439562241
-0.004276698075416356   -0.05878007316786798   -0.0012666369372580151
-0.001758520004326977   -0.05657073157362768   -0.0010940646748494956
-0.0045308715077358045   -0.05900720577945278   -0.0014941069690195326
-0.003981266516813451   -0.058678306754304285   -0.0014613667752277249
-0.001758520004326977   -0.05657073157362768   -0.0010940646748494956
-0.0032577751014726828   -0.056742303687481024   -0.0013357383050132498
-0.0045308715077358045   -0.05900720577945278   -0.0014941069690195326
-0.00317561789895818   -0.056646409378569906   -0.0014099417150374013
-0.003981266516813451   -0.058678306754304285   -0.0014613667752277249
-0.004415255957155545   -0.05892796965753928   -0.0015772720686379688
-0.00317561789895818   -0.056646409378569906   -0.0014099417150374013
-0.0045308715077358045   -0.05900720577945278   -0.0014941069690195326
-0.003981266516813451   -0.058678306754304285   -0.0014613667752277249
-0.00317561789895818   -0.056646409378569906   -0.0014099417150374013
-0.0015227630617503842   -0.056452023980917414   -0.001262513658140898
-0.001758520004326977   -0.05657073157362768   -0.0010940646748494956
-0.003981266516813451   -0.058678306754304285   -0.0014613667752277249
-0.00317561789895818   -0.056646409378569906   -0.0014099417150374013
-0.001758520004326977   -0.05657073157362768   -0.0010940646748494956
-0.0045308715077358045   -0.05900720577945278   -0.0014941069690195326
-0.003981266516813451   -0.058678306754304285   -0.0014613667752277249
-0.0015227630617503842   -0.056452023980917414   -0.001262513658140898
-0.004415255957155545   -0.05892796965753928   -0.0015772720686379688
-0.003735366822688643   -0.058647228415149195   -0.0016481532859114116
-0.0015227630617503842   -0.056452023980917414   -0.001262513658140898
-0.00317561789895818   -0.056646409378569906   -0.0014099417150374013
-0.004415255957155545   -0.05892796965753928   -0.0015772720686379688
-0.003083068269700609   -0.056593492232163596   -0.0014774858022488346
-0.003735366822688643   -0.058647228415149195   -0.0016481532859114116
-0.004279595918354156   -0.05889893929780777   -0.0016540345465586089
-0.003083068269700609   -0.056593492232163596   -0.0014774858022488346
-0.004415255957155545   -0.05892796965753928   -0.0015772720686379688
-0.003735366822688643   -0.058647228415149195   -0.0016481532859114116
-0.003083068269700609   -0.056593492232163596   -0.0014774858022488346
-0.0013372446329217573   -0.05639573295504064   -0.0014210935833296348
-0.0015227630617503842   -0.056452023980917414   -0.001262513658140898
-0.003735366822688643   -0.058647228415149195   -0.0016481532859114116
-0.003083068269700609   -0.056593492232163596   -0.0014774858022488346
-0.0015227630617503842   -0.056452023980917414   -0.001262513658140898
-0.004415255957155545   -0.05892796965753928   -0.0015772720686379688
-0.003735366822688643   -0.058647228415149195   -0.0016481532859114116
-0.0013372446329217573   -0.05639573295504064   -0.0014210935833296348
-0.004279595918354156   -0.05889893929780777   -0.0016540345465586089
-0.0034570410286123903   -0.05867417123609924   -0.001826173862376849
-0.0013372446329217573   -0.05639573295504064   -0.0014210935833296348
-0.003083068269700609   -0.056593492232163596   -0.0014774858022488346
-0.004279595918354156   -0.05889893929780777   -0.0016540345465586089
-0.003012126909687475   -0.05658207122483781   -0.001538585222553457
-0.0034570410286123903   -0.05867417123609924   -0.001826173862376849
-0.004163413598740377   -0.05892054430802351   -0.0017239964774663488
-0.003012126909687475   -0.05658207122483781   -0.001538585222553457
-0.004279595918354156   -0.05889893929780777   -0.0016540345465586089
-0.0034570410286123903   -0.05867417123609924   -0.001826173862376849
-0.003012126909687475   -0.05658207122483781   -0.001538585222553457
-0.0011345119779121776   -0.05638563875455022   -0.0015693896771248274
-0.0013372446329217573   -0.05639573295504064   -0.0014210935833296348
-0.0034570410286123903   -0.05867417123609924   -0.001826173862376849
-0.003012126909687475   -0.05658207122483781   -0.001538585222553457
-0.0013372446329217573   -0.05639573295504064   -0.0014210935833296348
-0.004279595918354156   -0.05889893929780777   -0.0016540345465586089
-0.0045308715077358045   -0.05900720577945278   -0.0014941069690195326
-0.0032577751014726828   -0.056742303687481024   -0.0013357383050132498
-0.004877073590227111   -0.05914727220594972   -0.0016759272230969144
-0.004415255957155545   -0.05892796965753928   -0.0015772720686379688
-0.0032577751014726828   -0.056742303687481024   -0.0013357383050132498
-0.004738694304176363   -0.056802748067218516   -0.0015327707252232058
-0.004877073590227111   -0.05914727220594972   -0.0016759272230969144
-0.004669652774179552   -0.056719096076007385   -0.0015368059943460302
-0.004415255957155545   -0.05892796965753928   -0.0015772720686379688
-0.0047747809643425366   -0.05907650360132039   -0.0016780548307750703
-0.004669652774179552   -0.056719096076007385   -0.0015368059943460302
-0.004877073590227111   -0.05914727220594972   -0.0016759272230969144
-0.004415255957155545   -0.05892796965753928   -0.0015772720686379688
-0.004669652774179552   -0.056719096076007385   -0.0015368059943460302
-0.00317561789895818   -0.056646409378569906   -0.0014099417150374013
-0.0032577751014726828   -0.056742303687481024   -0.0013357383050132498
-0.004415255957155545   -0.05892796965753928   -0.0015772720686379688
-0.004669652774179552   -0.056719096076007385   -0.0015368059943460302
-0.0032577751014726828   -0.056742303687481024   -0.0013357383050132498
-0.004877073590227111   -0.05914727220594972   -0.0016759272230969144
-0.004415255957155545   -0.05892796965753928   -0.0015772720686379688
-0.00317561789895818   -0.056646409378569906   -0.0014099417150374013
-0.0047747809643425366   -0.05907650360132039   -0.0016780548307750703
-0.004279595918354156   -0.05889893929780777   -0.0016540345465586089
-0.00317561789895818   -0.056646409378569906   -0.0014099417150374013
-0.004669652774179552   -0.056719096076007385   -0.0015368059943460302
-0.0047747809643425366   -0.05907650360132039   -0.0016780548307750703
-0.004598238417519249   -0.056674183377969346   -0.0015346731331821735
-0.004279595918354156   -0.05889893929780777   -0.0016540345465586089
-0.004660935666910922   -0.059051204490414885   -0.0016718820556833403
-0.004598238417519249   -0.056674183377969346   -0.0015346731331821735
-0.0047747809643425366   -0.05907650360132039   -0.0016780548307750703
-0.004279595918354156   -0.05889893929780777   -0.0016540345465586089
-0.004598238417519249   -0.056674183377969346   -0.0015346731331821735
-0.003083068269700609   -0.056593492232163596   -0.0014774858022488346
-0.00317561789895818   -0.056646409378569906   -0.0014099417150374013
-0.004279595918354156   -0.05889893929780777   -0.0016540345465586089
-0.004598238417519249   -0.056674183377969346   -0.0015346731331821735
-0.00317561789895818   -0.056646409378569906   -0.0014099417150374013
-0.0047747809643425366   -0.05907650360132039   -0.0016780548307750703
-0.004279595918354156   -0.05889893929780777   -0.0016540345465586089
-0.003083068269700609   -0.056593492232163596   -0.0014774858022488346
-0.004660935666910922   -0.059051204490414885   -0.0016718820556833403
-0.004163413598740377   -0.05892054430802351   -0.0017239964774663488
-0.003083068269700609   -0.056593492232163596   -0.0014774858022488346
-0.004598238417519249   -0.056674183377969346   -0.0015346731331821735
-0.004660935666910922   -0.059051204490414885   -0.0016718820556833403
-0.00452937432767545   -0.05666615756563864   -0.0015263180732851924
-0.004163413598740377   -0.05892054430802351   -0.0017239964774663488
-0.0045452003915411425   -0.05906931564248231   -0.0016591952451118555
-0.00452937432767545   -0.05666615756563864   -0.0015263180732851924
-0.004660935666910922   -0.059051204490414885   -0.0016718820556833403
-0.004163413598740377   -0.05892054430802351   -0.0017239964774663488
-0.00452937432767545   -0.05666615756563864   -0.0015263180732851924
-0.003012126909687475   -0.05658207122483781   -0.001538585222553457
-0.003083068269700609   -0.056593492232163596   -0.0014774858022488346
-0.004163413598740377   -0.05892054430802351   -0.0017239964774663488
-0.00452937432767545   -0.05666615756563864   -0.0015263180732851924
-0.003083068269700609   -0.056593492232163596   -0.0014774858022488346
-0.004660935666910922   -0.059051204490414885   -0.0016718820556833403
-0.004877073590227111   -0.05914727220594972   -0.0016759272230969144
-0.004738694304176363   -0.056802748067218516   -0.0015327707252232058
-0.005248483940241681   -0.059205591858229135   -0.0018549375243818137
-0.0047747809643425366   -0.05907650360132039   -0.0016780548307750703
-0.004738694304176363   -0.056802748067218516   -0.0015327707252232058
-0.006209513025246269   -0.05674882407282975   -0.0017171965708958137
-0.005248483940241681   -0.059205591858229135   -0.0018549375243818137
-0.00614101730421953   -0.05667451021296703   -0.0016539419548956367
-0.0047747809643425366   -0.05907650360132039   -0.0016780548307750703
-0.005142517874126967   -0.05913806758941983   -0.0017791375794628517
-0.00614101730421953   -0.05667451021296703   -0.0016539419548956367
-0.005248483940241681   -0.059205591858229135   -0.0018549375243818137
-0.0047747809643425366   -0.05907650360132039   -0.0016780548307750703
-0.00614101730421953   -0.05667451021296703   -0.0016539419548956367
-0.004669652774179552   -0.056719096076007385   -0.0015368059943460302
-0.004738694304176363   -0.056802748067218516   -0.0015327707252232058
-0.0047747809643425366   -0.05907650360132039   -0.0016780548307750703
-0.00614101730421953   -0.05667451021296703   -0.0016539419548956367
-0.004738694304176363   -0.056802748067218516   -0.0015327707252232058
-0.005248483940241681   -0.059205591858229135   -0.0018549375243818137
-0.0047747809643425366   -0.05907650360132039   -0.0016780548307750703
-0.004669652774179552   -0.056719096076007385   -0.0015368059943460302
-0.005142517874126967   -0.05913806758941983   -0.0017791375794628517
-0.004660935666910922   -0.059051204490414885   -0.0016718820556833403
-0.004669652774179552   -0.056719096076007385   -0.0015368059943460302
-0.00614101730421953   -0.05667451021296703   -0.0016539419548956367
-0.005142517874126967   -0.05913806758941983   -0.0017791375794628517
-0.006064150892646396   -0.05663828998612221   -0.0015846122496840074
-0.004660935666910922   -0.059051204490414885   -0.0016718820556833403
-0.005015451541300585   -0.05911675135967709   -0.001693227315982146
-0.006064150892646396   -0.05663828998612221   -0.0015846122496840074
-0.005142517874126967   -0.05913806758941983   -0.0017791375794628517
-0.004660935666910922   -0.059051204490414885   -0.0016718820556833403
-0.006064150892646396   -0.05663828998612221   -0.0015846122496840074
-0.004598238417519249   -0.056674183377969346   -0.0015346731331821735
-0.004669652774179552   -0.056719096076007385   -0.0015368059943460302
-0.004660935666910922   -0.059051204490414885   -0.0016718820556833403
-0.006064150892646396   -0.05663828998612221   -0.0015846122496840074
-0.004669652774179552   -0.056719096076007385   -0.0015368059943460302
-0.005142517874126967   -0.05913806758941983   -0.0017791375794628517
-0.004660935666910922   -0.059051204490414885   -0.0016718820556833403
-0.004598238417519249   -0.056674183377969346   -0.0015346731331821735
-0.005015451541300585   -0.05911675135967709   -0.001693227315982146
-0.0045452003915411425   -0.05906931564248231   -0.0016591952451118555
-0.004598238417519249   -0.056674183377969346   -0.0015346731331821735
-0.006064150892646396   -0.05663828998612221   -0.0015846122496840074
-0.005015451541300585   -0.05911675135967709   -0.001693227315982146
-0.005986984358117227   -0.05663651737710864   -0.0015084676018449741
-0.0045452003915411425   -0.05906931564248231   -0.0016591952451118555
-0.004884801492472032   -0.05913442732002631   -0.001601744596751907
-0.005986984358117227   -0.05663651737710864   -0.0015084676018449741
-0.005015451541300585   -0.05911675135967709   -0.001693227315982146
-0.0045452003915411425   -0.05906931564248231   -0.0016591952451118555
-0.005986984358117227   -0.05663651737710864   -0.0015084676018449741
-0.00452937432767545   -0.05666615756563864   -0.0015263180732851924
-0.004598238417519249   -0.056674183377969346   -0.0015346731331821735
-0.0045452003915411425   -0.05906931564248231   -0.0016591952451118555
-0.005986984358117227   -0.05663651737710864   -0.0015084676018449741
-0.004598238417519249   -0.056674183377969346   -0.0015346731331821735
-0.005015451541300585   -0.05911675135967709   -0.001693227315982146
-0.005248483940241681   -0.059205591858229135   -0.0018549375243818137
-0.006209513025246269   -0.05674882407282975   -0.0017171965708958137
-0.005786567958716947   -0.05914122315820651   -0.0020251637122659177
-0.005142517874126967   -0.05913806758941983   -0.0017791375794628517
-0.006209513025246269   -0.05674882407282975   -0.0017171965708958137
-0.007825057539895333   -0.05657342398141442   -0.0018866692454199215
-0.005786567958716947   -0.05914122315820651   -0.0020251637122659177
-0.00774115896957522   -0.056508453981240624   -0.0017576041840819331
-0.005142517874126967   -0.05913806758941983   -0.0017791375794628517
-0.005648170695830333   -0.05907739182908434   -0.001875136088699161
-0.00774115896957522   -0.056508453981240624   -0.0017576041840819331
-0.005786567958716947   -0.05914122315820651   -0.0020251637122659177
-0.005142517874126967   -0.05913806758941983   -0.0017791375794628517
-0.00774115896957522   -0.056508453981240624   -0.0017576041840819331
-0.00614101730421953   -0.05667451021296703   -0.0016539419548956367
-0.006209513025246269   -0.05674882407282975   -0.0017171965708958137
-0.005142517874126967   -0.05913806758941983   -0.0017791375794628517
-0.00774115896957522   -0.056508453981240624   -0.0017576041840819331
-0.006209513025246269   -0.05674882407282975   -0.0017171965708958137
-0.005786567958716947   -0.05914122315820651   -0.0020251637122659177
-0.005142517874126967   -0.05913806758941983   -0.0017791375794628517
-0.00614101730421953   -0.05667451021296703   -0.0016539419548956367
-0.005648170695830333   -0.05907739182908434   -0.001875136088699161
-0.005015451541300585   -0.05911675135967709   -0.001693227315982146
-0.00614101730421953   -0.05667451021296703   -0.0016539419548956367
-0.00774115896957522   -0.056508453981240624   -0.0017576041840819331
-0.005648170695830333   -0.05907739182908434   -0.001875136088699161
-0.007625274736978386   -0.0564808917140055   -0.0016229150305716554
-0.005015451541300585   -0.05911675135967709   -0.001693227315982146
-0.005465472538084661   -0.059062987188584076   -0.0017138365232979313
-0.007625274736978386   -0.0564808917140055   -0.0016229150305716554
-0.005648170695830333   -0.05907739182908434   -0.001875136088699161
-0.005015451541300585   -0.05911675135967709   -0.001693227315982146
-0.007625274736978386   -0.0564808917140055   -0.0016229150305716554
-0.006064150892646396   -0.05663828998612221   -0.0015846122496840074
-0.00614101730421953   -0.05667451021296703   -0.0016539419548956367
-0.005015451541300585   -0.05911675135967709   -0.001693227315982146
-0.007625274736978386   -0.0564808917140055   -0.0016229150305716554
-0.00614101730421953   -0.05667451021296703   -0.0016539419548956367
-0.005648170695830333   -0.05907739182908434   -0.001875136088699161
-0.005015451541300585   -0.05911675135967709   -0.001693227315982146
-0.006064150892646396   -0.05663828998612221   -0.0015846122496840074
-0.005465472538084661   -0.059062987188584076   -0.0017138365232979313
-0.004884801492472032   -0.05913442732002631   -0.001601744596751907
-0.006064150892646396   -0.05663828998612221   -0.0015846122496840074
-0.007625274736978386   -0.0564808917140055   -0.0016229150305716554
-0.005465472538084661   -0.059062987188584076   -0.0017138365232979313
-0.007524212765737489   -0.0564907766750029   -0.0014788623491521762
-0.004884801492472032   -0.05913442732002631   -0.001601744596751907
-0.005293744555157137   -0.05908850213346005   -0.0015463388839398876
-0.007524212765737489   -0.0564907766750029   -0.0014788623491521762
-0.005465472538084661   -0.059062987188584076   -0.0017138365232979313
-0.004884801492472032   -0.05913442732002631   -0.001601744596751907
-0.007524212765737489   -0.0564907766750029   -0.0014788623491521762
-0.005986984358117227   -0.05663651737710864   -0.0015084676018449741
-0.006064150892646396   -0.05663828998612221   -0.0015846122496840074
-0.004884801492472032   -0.05913442732002631   -0.001601744596751907
-0.007524212765737489   -0.0564907766750029   -0.0014788623491521762
-0.006064150892646396   -0.05663828998612221   -0.0015846122496840074
-0.005465472538084661   -0.059062987188584076   -0.0017138365232979313
-0.005786567958716947   -0.05914122315820651   -0.0020251637122659177
-0.007825057539895333   -0.05657342398141442   -0.0018866692454199215
-0.006834533522472144   -0.058851981780802975   -0.0022059455220670705
-0.005648170695830333   -0.05907739182908434   -0.001875136088699161
-0.007825057539895333   -0.05657342398141442   -0.0018866692454199215
-0.009905412609063158   -0.05628816580995655   -0.002049537622069565
-0.006834533522472144   -0.058851981780802975   -0.0022059455220670705
-0.009634474514967803   -0.056217641263226786   -0.0018457438924319217
-0.005648170695830333   -0.05907739182908434   -0.001875136088699161
-0.006465721342830239   -0.05879804171797856   -0.0019598239843530425
-0.009634474514967803   -0.056217641263226786   -0.0018457438924319217
-0.006834533522472144   -0.058851981780802975   -0.0022059455220670705
-0.005648170695830333   -0.05907739182908434   -0.001875136088699161
-0.009634474514967803   -0.056217641263226786   -0.0018457438924319217
-0.00774115896957522   -0.056508453981240624   -0.0017576041840819331
-0.007825057539895333   -0.05657342398141442   -0.0018866692454199215
-0.005648170695830333   -0.05907739182908434   -0.001875136088699161
-0.009634474514967803   -0.056217641263226786   -0.0018457438924319217
-0.007825057539895333   -0.05657342398141442   -0.0018866692454199215
-0.006834533522472144   -0.058851981780802975   -0.0022059455220670705
-0.005648170695830333   -0.05907739182908434   -0.001875136088699161
-0.00774115896957522   -0.056508453981240624   -0.0017576041840819331
-0.006465721342830239   -0.05879804171797856   -0.0019598239843530425
-0.005465472538084661   -0.059062987188584076   -0.0017138365232979313
-0.00774115896957522   -0.056508453981240624   -0.0017576041840819331
-0.009634474514967803   -0.056217641263226786   -0.0018457438924319217
-0.006465721342830239   -0.05879804171797856   -0.0019598239843530425
-0.00939176706992148   -0.056192147052845004   -0.0016301447667398266
-0.005465472538084661   -0.059062987188584076   -0.0017138365232979313
-0.006127036703987313   -0.05879073195108349   -0.001697199885841683
-0.00939176706992148   -0.056192147052845004   -0.0016301447667398266
-0.006465721342830239   -0.05879804171797856   -0.0019598239843530425
-0.005465472538084661   -0.059062987188584076   -0.0017138365232979313
-0.00939176706992148   -0.056192147052845004   -0.0016301447667398266
-0.007625274736978386   -0.0564808917140055   -0.0016229150305716554
-0.00774115896957522   -0.056508453981240624   -0.0017576041840819331
-0.005465472538084661   -0.059062987188584076   -0.0017138365232979313
-0.00939176706992148   -0.056192147052845004   -0.0016301447667398266
-0.00774115896957522   -0.056508453981240624   -0.0017576041840819331
-0.006465721342830239   -0.05879804171797856   -0.0019598239843530425
-0.005465472538084661   -0.059062987188584076   -0.0017138365232979313
-0.007625274736978386   -0.0564808917140055   -0.0016229150305716554
-0.006127036703987313   -0.05879073195108349   -0.001697199885841683
-0.005293744555157137   -0.05908850213346005   -0.0015463388839398876
-0.007625274736978386   -0.0564808917140055   -0.0016229150305716554
-0.00939176706992148   -0.056192147052845004   -0.0016301447667398266
-0.006127036703987313   -0.05879073195108349   -0.001697199885841683
-0.009077225326383324   -0.056224885235225716   -0.0014047829932714471
-0.005293744555157137   -0.05908850213346005   -0.0015463388839398876
-0.0056992809105098794   -0.05886148466790549   -0.0014226061277862517
-0.009077225326383324   -0.056224885235225716   -0.0014047829932714471
-0.006127036703987313   -0.05879073195108349   -0.001697199885841683
-0.005293744555157137   -0.05908850213346005   -0.0015463388839398876
-0.009077225326383324   -0.056224885235225716   -0.0014047829932714471
-0.007524212765737489   -0.0564907766750029   -0.0014788623491521762
-0.007625274736978386   -0.0564808917140055   -0.0016229150305716554
-0.005293744555157137   -0.05908850213346005   -0.0015463388839398876
-0.009077225326383324   -0.056224885235225716   -0.0014047829932714471
-0.007625274736978386   -0.0564808917140055   -0.0016229150305716554
-0.006127036703987313   -0.05879073195108349   -0.001697199885841683
-0.001758520004326977   -0.05657073157362768   -0.0010940646748494956
0.00028638226622465317   -0.052496153121063115   -0.0009046800491795841
-0.0032577751014726828   -0.056742303687481024   -0.0013357383050132498
-0.0015227630617503842   -0.056452023980917414   -0.001262513658140898
0.00028638226622465317   -0.052496153121063115   -0.0009046800491795841
-0.002245758494469778   -0.05262215179850035   -0.0011419990256520218
-0.0032577751014726828   -0.056742303687481024   -0.0013357383050132498
-0.002202149998212334   -0.05252164218983168   -0.0012009319808765895
-0.0015227630617503842   -0.056452023980917414   -0.001262513658140898
-0.00317561789895818   -0.056646409378569906   -0.0014099417150374013
-0.002202149998212334   -0.05252164218983168   -0.0012009319808765895
-0.0032577751014726828   -0.056742303687481024   -0.0013357383050132498
-0.0015227630617503842   -0.056452023980917414   -0.001262513658140898
-0.002202149998212334   -0.05252164218983168   -0.0012009319808765895
0.0004512629211673028   -0.0523755125891742   -0.00103897348746326
0.00028638226622465317   -0.052496153121063115   -0.0009046800491795841
-0.0015227630617503842   -0.056452023980917414   -0.001262513658140898
-0.002202149998212334   -0.05252164218983168   -0.0012009319808765895
0.00028638226622465317   -0.052496153121063115   -0.0009046800491795841
-0.0032577751014726828   -0.056742303687481024   -0.0013357383050132498
-0.0015227630617503842   -0.056452023980917414   -0.001262513658140898
0.0004512629211673028   -0.0523755125891742   -0.00103897348746326
-0.00317561789895818   -0.056646409378569906   -0.0014099417150374013
-0.0013372446329217573   -0.05639573295504064   -0.0014210935833296348
0.0004512629211673028   -0.0523755125891742   -0.00103897348746326
-0.002202149998212334   -0.05252164218983168   -0.0012009319808765895
-0.00317561789895818   -0.056646409378569906   -0.0014099417150374013
-0.0021524467922531742   -0.052456218713815   -0.0012530321751665775
-0.0013372446329217573   -0.05639573295504064   -0.0014210935833296348
-0.003083068269700609   -0.056593492232163596   -0.0014774858022488346
-0.0021524467922531742   -0.052456218713815   -0.0012530321751665775
-0.00317561789895818   -0.056646409378569906   -0.0014099417150374013
-0.0013372446329217573   -0.05639573295504064   -0.0014210935833296348
-0.0021524467922531742   -0.052456218713815   -0.0012530321751665775
0.0005725767305902955   -0.052306056307084584   -0.0011637030751519273
0.0004512629211673028   -0.0523755125891742   -0.00103897348746326
-0.0013372446329217573   -0.05639573295504064   -0.0014210935833296348
-0.0021524467922531742   -0.052456218713815   -0.0012530321751665775
0.0004512629211673028   -0.0523755125891742   -0.00103897348746326
-0.00317561789895818   -0.056646409378569906   -0.0014099417150374013
-0.0013372446329217573   -0.05639573295504064   -0.0014210935833296348
0.0005725767305902955   -0.052306056307084584   -0.0011637030751519273
-0.003083068269700609   -0.056593492232163596   -0.0014774858022488346
-0.0011345119779121776   -0.05638563875455022   -0.0015693896771248274
0.0005725767305902955   -0.052306056307084584   -0.0011637030751519273
-0.0021524467922531742   -0.052456218713815   -0.0012530321751665775
-0.003083068269700609   -0.056593492232163596   -0.0014774858022488346
-0.0021227258235912865   -0.052423937687699894   -0.0012989745384771533
-0.0011345119779121776   -0.05638563875455022   -0.0015693896771248274
-0.003012126909687475   -0.05658207122483781   -0.001538585222553457
-0.0021227258235912865   -0.052423937687699894   -0.0012989745384771533
-0.003083068269700609   -0.056593492232163596   -0.0014774858022488346
-0.0011345119779121776   -0.05638563875455022   -0.0015693896771248274
-0.0021227258235912865   -0.052423937687699894   -0.0012989745384771533
0.0007025697722255234   -0.052272203290479255   -0.0012788240689003121
0.0005725767305902955   -0.052306056307084584   -0.0011637030751519273
-0.0011345119779121776   -0.05638563875455022   -0.0015693896771248274
-0.0021227258235912865   -0.052423937687699894   -0.0012989745384771533
0.0005725767305902955   -0.052306056307084584   -0.0011637030751519273
-0.003083068269700609   -0.056593492232163596   -0.0014774858022488346
-0.0032577751014726828   -0.056742303687481024   -0.0013357383050132498
-0.002245758494469778   -0.05262215179850035   -0.0011419990256520218
-0.004738694304176363   -0.056802748067218516   -0.0015327707252232058
-0.00317561789895818   -0.056646409378569906   -0.0014099417150374013
-0.002245758494469778   -0.05262215179850035   -0.0011419990256520218
-0.0046962168914645675   -0.05264627438537855   -0.001337412216259176
-0.004738694304176363   -0.056802748067218516   -0.0015327707252232058
-0.004664193100974466   -0.052560024792856895   -0.0013388908557474411
-0.00317561789895818   -0.056646409378569906   -0.0014099417150374013
-0.004669652774179552   -0.056719096076007385   -0.0015368059943460302
-0.004664193100974466   -0.052560024792856895   -0.0013388908557474411
-0.004738694304176363   -0.056802748067218516   -0.0015327707252232058
-0.00317561789895818   -0.056646409378569906   -0.0014099417150374013
-0.004664193100974466   -0.052560024792856895   -0.0013388908557474411
-0.002202149998212334   -0.05252164218983168   -0.0012009319808765895
-0.002245758494469778   -0.05262215179850035   -0.0011419990256520218
-0.00317561789895818   -0.056646409378569906   -0.0014099417150374013
-0.004664193100974466   -0.052560024792856895   -0.0013388908557474411
-0.002245758494469778   -0.05262215179850035   -0.0011419990256520218
-0.004738694304176363   -0.056802748067218516   -0.0015327707252232058
-0.00317561789895818   -0.056646409378569906   -0.0014099417150374013
-0.002202149998212334   -0.05252164218983168   -0.0012009319808765895
-0.004669652774179552   -0.056719096076007385   -0.0015368059943460302
-0.003083068269700609   -0.056593492232163596   -0.0014774858022488346
-0.002202149998212334   -0.05252164218983168   -0.0012009319808765895
-0.004664193100974466   -0.052560024792856895   -0.0013388908557474411
-0.004669652774179552   -0.056719096076007385   -0.0015368059943460302
-0.004631257225816348   -0.05250517585617525   -0.001333821349664241
-0.003083068269700609   -0.056593492232163596   -0.0014774858022488346
-0.004598238417519249   -0.056674183377969346   -0.0015346731331821735
-0.004631257225816348   -0.05250517585617525   -0.001333821349664241
-0.004669652774179552   -0.056719096076007385   -0.0015368059943460302
-0.003083068269700609   -0.056593492232163596   -0.0014774858022488346
-0.004631257225816348   -0.05250517585617525   -0.001333821349664241
-0.0021524467922531742   -0.052456218713815   -0.0012530321751665775
-0.002202149998212334   -0.05252164218983168   -0.0012009319808765895
-0.003083068269700609   -0.056593492232163596   -0.0014774858022488346
-0.004631257225816348   -0.05250517585617525   -0.001333821349664241
-0.002202149998212334   -0.05252164218983168   -0.0012009319808765895
-0.004669652774179552   -0.056719096076007385   -0.0015368059943460302
-0.003083068269700609   -0.056593492232163596   -0.0014774858022488346
-0.0021524467922531742   -0.052456218713815   -0.0012530321751665775
-0.004598238417519249   -0.056674183377969346   -0.0015346731331821735
-0.003012126909687475   -0.05658207122483781   -0.001538585222553457
-0.0021524467922531742   -0.052456218713815   -0.0012530321751665775
-0.004631257225816348   -0.05250517585617525   -0.001333821349664241
-0.004598238417519249   -0.056674183377969346   -0.0015346731331821735
-0.0046024522708894375   -0.052481214347212236   -0.0013226423347848758
-0.003012126909687475   -0.05658207122483781   -0.001538585222553457
-0.00452937432767545   -0.05666615756563864   -0.0015263180732851924
-0.0046024522708894375   -0.052481214347212236   -0.0013226423347848758
-0.004598238417519249   -0.056674183377969346   -0.0015346731331821735
-0.003012126909687475   -0.05658207122483781   -0.001538585222553457
-0.0046024522708894375   -0.052481214347212236   -0.0013226423347848758
-0.0021227258235912865   -0.052423937687699894   -0.0012989745384771533
-0.0021524467922531742   -0.052456218713815   -0.0012530321751665775
-0.003012126909687475   -0.05658207122483781   -0.001538585222553457
-0.0046024522708894375   -0.052481214347212236   -0.0013226423347848758
-0.0021524467922531742   -0.052456218713815   -0.0012530321751665775
-0.004598238417519249   -0.056674183377969346   -0.0015346731331821735
-0.004738694304176363   -0.056802748067218516   -0.0015327707252232058
-0.0046962168914645675   -0.05264627438537855   -0.001337412216259176
-0.006209513025246269   -0.05674882407282975   -0.0017171965708958137
-0.004669652774179552   -0.056719096076007385   -0.0015368059943460302
-0.0046962168914645675   -0.05264627438537855   -0.001337412216259176
-0.007108340313166615   -0.05256815153545907   -0.0015137924510002306
-0.006209513025246269   -0.05674882407282975   -0.0017171965708958137
-0.007078529500363612   -0.05249374668547642   -0.0014592000140558857
-0.004669652774179552   -0.056719096076007385   -0.0015368059943460302
-0.00614101730421953   -0.05667451021296703   -0.0016539419548956367
-0.007078529500363612   -0.05249374668547642   -0.0014592000140558857
-0.006209513025246269   -0.05674882407282975   -0.0017171965708958137
-0.004669652774179552   -0.056719096076007385   -0.0015368059943460302
-0.007078529500363612   -0.05249374668547642   -0.0014592000140558857
-0.004664193100974466   -0.052560024792856895   -0.0013388908557474411
-0.0046962168914645675   -0.05264627438537855   -0.001337412216259176
-0.004669652774179552   -0.056719096076007385   -0.0015368059943460302
-0.007078529500363612   -0.05249374668547642   -0.0014592000140558857
-0.0046962168914645675   -0.05264627438537855   -0.001337412216259176
-0.006209513025246269   -0.05674882407282975   -0.0017171965708958137
-0.004669652774179552   -0.056719096076007385   -0.0015368059943460302
-0.004664193100974466   -0.052560024792856895   -0.0013388908557474411
-0.00614101730421953   -0.05667451021296703   -0.0016539419548956367
-0.004598238417519249   -0.056674183377969346   -0.0015346731331821735
-0.004664193100974466   -0.052560024792856895   -0.0013388908557474411
-0.007078529500363612   -0.05249374668547642   -0.0014592000140558857
-0.00614101730421953   -0.05667451021296703   -0.0016539419548956367
-0.007042503829536753   -0.052450398017390765   -0.001398202968914638
-0.004598238417519249   -0.056674183377969346   -0.0015346731331821735
-0.006064150892646396   -0.05663828998612221   -0.0015846122496840074
-0.007042503829536753   -0.052450398017390765   -0.001398202968914638
-0.00614101730421953   -0.05667451021296703   -0.0016539419548956367
-0.004598238417519249   -0.056674183377969346   -0.0015346731331821735
-0.007042503829536753   -0.052450398017390765   -0.001398202968914638
-0.004631257225816348   -0.05250517585617525   -0.001333821349664241
-0.004664193100974466   -0.052560024792856895   -0.0013388908557474411
-0.004598238417519249   -0.056674183377969346   -0.0015346731331821735
-0.007042503829536753   -0.052450398017390765   -0.001398202968914638
-0.004664193100974466   -0.052560024792856895   -0.0013388908557474411
-0.00614101730421953   -0.05667451021296703   -0.0016539419548956367
-0.004598238417519249   -0.056674183377969346   -0.0015346731331821735
-0.004631257225816348   -0.05250517585617525   -0.001333821349664241
-0.006064150892646396   -0.05663828998612221   -0.0015846122496840074
-0.00452937432767545   -0.05666615756563864   -0.0015263180732851924
-0.004631257225816348   -0.05250517585617525   -0.001333821349664241
-0.007042503829536753   -0.052450398017390765   -0.001398202968914638
-0.006064150892646396   -0.05663828998612221   -0.0015846122496840074
-0.007007476081477908   -0.05243667177742072   -0.0013309981871271813
-0.00452937432767545   -0.05666615756563864   -0.0015263180732851924
-0.005986984358117227   -0.05663651737710864   -0.0015084676018449741
-0.007007476081477908   -0.05243667177742072   -0.0013309981871271813
-0.006064150892646396   -0.05663828998612221   -0.0015846122496840074
-0.00452937432767545   -0.05666615756563864   -0.0015263180732851924
-0.007007476081477908   -0.05243667177742072   -0.0013309981871271813
-0.0046024522708894375   -0.052481214347212236   -0.0013226423347848758
-0.004631257225816348   -0.05250517585617525   -0.001333821349664241
-0.00452937432767545   -0.05666615756563864   -0.0015263180732851924
-0.007007476081477908   -0.05243667177742072   -0.0013309981871271813
-0.004631257225816348   -0.05250517585617525   -0.001333821349664241
-0.006064150892646396   -0.05663828998612221   -0.0015846122496840074
-0.006209513025246269   -0.05674882407282975   -0.0017171965708958137
-0.007108340313166615   -0.05256815153545907   -0.0015137924510002306
-0.007825057539895333   -0.05657342398141442   -0.0018866692454199215
-0.00614101730421953   -0.05667451021296703   -0.0016539419548956367
-0.007108340313166615   -0.05256815153545907   -0.0015137924510002306
-0.00963590601906852   -0.05239052633933925   -0.001670495593280218
-0.007825057539895333   -0.05657342398141442   -0.0018866692454199215
-0.009596913374638447   -0.05232741347106376   -0.0015597532475693779
-0.00614101730421953   -0.05667451021296703   -0.0016539419548956367
-0.00774115896957522   -0.056508453981240624   -0.0017576041840819331
-0.009596913374638447   -0.05232741347106376   -0.0015597532475693779
-0.007825057539895333   -0.05657342398141442   -0.0018866692454199215
-0.00614101730421953   -0.05667451021296703   -0.0016539419548956367
-0.009596913374638447   -0.05232741347106376   -0.0015597532475693779
-0.007078529500363612   -0.05249374668547642   -0.0014592000140558857
-0.007108340313166615   -0.05256815153545907   -0.0015137924510002306
-0.00614101730421953   -0.05667451021296703   -0.0016539419548956367
-0.009596913374638447   -0.05232741347106376   -0.0015597532475693779
-0.007108340313166615   -0.05256815153545907   -0.0015137924510002306
-0.007825057539895333   -0.05657342398141442   -0.0018866692454199215
-0.00614101730421953   -0.05667451021296703   -0.0016539419548956367
-0.007078529500363612   -0.05249374668547642   -0.0014592000140558857
-0.00774115896957522   -0.056508453981240624   -0.0017576041840819331
-0.006064150892646396   -0.05663828998612221   -0.0015846122496840074
-0.007078529500363612   -0.05249374668547642   -0.0014592000140558857
-0.009596913374638447   -0.05232741347106376   -0.0015597532475693779
-0.00774115896957522   -0.056508453981240624   -0.0017576041840819331
-0.009530781454176688   -0.05229449095582529   -0.0014435928546658852
-0.006064150892646396   -0.05663828998612221   -0.0015846122496840074
-0.007625274736978386   -0.0564808917140055   -0.0016229150305716554
-0.009530781454176688   -0.05229449095582529   -0.0014435928546658852
-0.00774115896957522   -0.056508453981240624   -0.0017576041840819331
-0.006064150892646396   -0.05663828998612221   -0.0015846122496840074
-0.009530781454176688   -0.05229449095582529   -0.0014435928546658852
-0.007042503829536753   -0.052450398017390765   -0.001398202968914638
-0.007078529500363612   -0.05249374668547642   -0.0014592000140558857
-0.006064150892646396   -0.05663828998612221   -0.0015846122496840074
-0.009530781454176688   -0.05229449095582529   -0.0014435928546658852
-0.007078529500363612   -0.05249374668547642   -0.0014592000140558857
-0.00774115896957522   -0.056508453981240624   -0.0017576041840819331
-0.006064150892646396   -0.05663828998612221   -0.0015846122496840074
-0.007042503829536753   -0.052450398017390765   -0.001398202968914638
-0.007625274736978386   -0.0564808917140055   -0.0016229150305716554
-0.005986984358117227   -0.05663651737710864   -0.0015084676018449741
-0.007042503829536753   -0.052450398017390765   -0.001398202968914638
-0.009530781454176688   -0.05229449095582529   -0.0014435928546658852
-0.007625274736978386   -0.0564808917140055   -0.0016229150305716554
-0.009477125060113977   -0.05229351218722542   -0.001320320035578485
-0.005986984358117227   -0.05663651737710864   -0.0015084676018449741
-0.007524212765737489   -0.0564907766750029   -0.0014788623491521762
-0.009477125060113977   -0.05229351218722542   -0.001320320035578485
-0.007625274736978386   -0.0564808917140055   -0.0016229150305716554
-0.005986984358117227   -0.05663651737710864   -0.0015084676018449741
-0.009477125060113977   -0.05229351218722542   -0.001320320035578485
-0.007007476081477908   -0.05243667177742072   -0.0013309981871271813
-0.007042503829536753   -0.052450398017390765   -0.001398202968914638
-0.005986984358117227   -0.05663651737710864   -0.0015084676018449741
-0.009477125060113977   -0.05229351218722542   -0.001320320035578485
-0.007042503829536753   -0.052450398017390765   -0.001398202968914638
-0.007625274736978386   -0.0564808917140055   -0.0016229150305716554
-0.007825057539895333   -0.05657342398141442   -0.0018866692454199215
-0.00963590601906852   -0.05239052633933925   -0.001670495593280218
-0.009905412609063158   -0.05628816580995655   -0.002049537622069565
-0.00774115896957522   -0.056508453981240624   -0.0017576041840819331
-0.00963590601906852   -0.05239052633933925   -0.001670495593280218
-0.012583506219020858   -0.05213460645461842   -0.001816743584414713
-0.009905412609063158   -0.05628816580995655   -0.002049537622069565
-0.01238329232842486   -0.0520687208531238   -0.0016433710936031671
-0.00774115896957522   -0.056508453981240624   -0.0017576041840819331
-0.009634474514967803   -0.056217641263226786   -0.0018457438924319217
-0.01238329232842486   -0.0520687208531238   -0.0016433710936031671
-0.009905412609063158   -0.05628816580995655   -0.002049537622069565
-0.00774115896957522   -0.056508453981240624   -0.0017576041840819331
-0.01238329232842486   -0.0520687208531238   -0.0016433710936031671
-0.009596913374638447   -0.05232741347106376   -0.0015597532475693779
-0.00963590601906852   -0.05239052633933925   -0.001670495593280218
-0.00774115896957522   -0.056508453981240624   -0.0017576041840819331
-0.01238329232842486   -0.0520687208531238   -0.0016433710936031671
-0.00963590601906852   -0.05239052633933925   -0.001670495593280218
-0.009905412609063158   -0.05628816580995655   -0.002049537622069565
-0.00774115896957522   -0.056508453981240624   -0.0017576041840819331
-0.009596913374638447   -0.05232741347106376   -0.0015597532475693779
-0.009634474514967803   -0.056217641263226786   -0.0018457438924319217
-0.007625274736978386   -0.0564808917140055   -0.0016229150305716554
-0.009596913374638447   -0.05232741347106376   -0.0015597532475693779
-0.01238329232842486   -0.0520687208531238   -0.0016433710936031671
-0.009634474514967803   -0.056217641263226786   -0.0018457438924319217
-0.01220961714891147   -0.05203862922018967   -0.0014610583752194609
-0.007625274736978386   -0.0564808917140055   -0.0016229150305716554
-0.00939176706992148   -0.056192147052845004   -0.0016301447667398266
-0.01220961714891147   -0.05203862922018967   -0.0014610583752194609
-0.009634474514967803   -0.056217641263226786   -0.0018457438924319217
-0.007625274736978386   -0.0564808917140055   -0.0016229150305716554
-0.01220961714891147   -0.05203862922018967   -0.0014610583752194609
-0.009530781454176688   -0.05229449095582529   -0.0014435928546658852
-0.009596913374638447   -0.05232741347106376   -0.0015597532475693779
-0.007625274736978386   -0.0564808917140055   -0.0016229150305716554
-0.01220961714891147   -0.05203862922018967   -0.0014610583752194609
-0.009596913374638447   -0.05232741347106376   -0.0015597532475693779
-0.009634474514967803   -0.056217641263226786   -0.0018457438924319217
-0.007625274736978386   -0.0564808917140055   -0.0016229150305716554
-0.009530781454176688   -0.05229449095582529   -0.0014435928546658852
-0.00939176706992148   -0.056192147052845004   -0.0016301447667398266
-0.007524212765737489   -0.0564907766750029   -0.0014788623491521762
-0.009530781454176688   -0.05229449095582529   -0.0014435928546658852
-0.01220961714891147   -0.05203862922018967   -0.0014610583752194609
-0.00939176706992148   -0.056192147052845004   -0.0016301447667398266
-0.011975670333493525   -0.052057337906195524   -0.0012709658503365763
-0.007524212765737489   -0.0564907766750029   -0.0014788623491521762
-0.009077225326383324   -0.056224885235225716   -0.0014047829932714471
-0.011975670333493525   -0.052057337906195524   -0.0012709658503365763
-0.00939176706992148   -0.056192147052845004   -0.0016301447667398266
-0.007524212765737489   -0.0564907766750029   -0.0014788623491521762
-0.011975670333493525   -0.052057337906195524   -0.0012709658503365763
-0.009477125060113977   -0.05229351218722542   -0.001320320035578485
-0.009530781454176688   -0.05229449095582529   -0.0014435928546658852
-0.007524212765737489   -0.0564907766750029   -0.0014788623491521762
-0.011975670333493525   -0.052057337906195524   -0.0012709658503365763
-0.009530781454176688   -0.05229449095582529   -0.0014435928546658852
-0.00939176706992148   -0.056192147052845004   -0.0016301447667398266
0.00028638226622465317   -0.052496153121063115   -0.0009046800491795841
0.0018411327660406026   -0.04695852283176148   -0.0006892889442012424
-0.002245758494469778   -0.05262215179850035   -0.0011419990256520218
0.0004512629211673028   -0.0523755125891742   -0.00103897348746326
0.0018411327660406026   -0.04695852283176148   -0.0006892889442012424
-0.0015140324595250654   -0.04704196818654566   -0.0009158352748552723
-0.002245758494469778   -0.05262215179850035   -0.0011419990256520218
-0.0015048729961689752   -0.04694199418230021   -0.000956763062682625
0.0004512629211673028   -0.0523755125891742   -0.00103897348746326
-0.002202149998212334   -0.05252164218983168   -0.0012009319808765895
-0.0015048729961689752   -0.04694199418230021   -0.000956763062682625
-0.002245758494469778   -0.05262215179850035   -0.0011419990256520218
0.0004512629211673028   -0.0523755125891742   -0.00103897348746326
-0.0015048729961689752   -0.04694199418230021   -0.000956763062682625
0.0019393457860645289   -0.04684077752152356   -0.0007887745815164769
0.0018411327660406026   -0.04695852283176148   -0.0006892889442012424
0.0004512629211673028   -0.0523755125891742   -0.00103897348746326
-0.0015048729961689752   -0.04694199418230021   -0.000956763062682625
0.0018411327660406026   -0.04695852283176148   -0.0006892889442012424
-0.002245758494469778   -0.05262215179850035   -0.0011419990256520218
0.0004512629211673028   -0.0523755125891742   -0.00103897348746326
0.0019393457860645289   -0.04684077752152356   -0.0007887745815164769
-0.002202149998212334   -0.05252164218983168   -0.0012009319808765895
0.0005725767305902955   -0.052306056307084584   -0.0011637030751519273
0.0019393457860645289   -0.04684077752152356   -0.0007887745815164769
-0.0015048729961689752   -0.04694199418230021   -0.000956763062682625
-0.002202149998212334   -0.05252164218983168   -0.0012009319808765895
-0.0014932082302366219   -0.046869733199122306   -0.0009914390073324706
0.0005725767305902955   -0.052306056307084584   -0.0011637030751519273
-0.0021524467922531742   -0.052456218713815   -0.0012530321751665775
-0.0014932082302366219   -0.046869733199122306   -0.0009914390073324706
-0.002202149998212334   -0.05252164218983168   -0.0012009319808765895
0.0005725767305902955   -0.052306056307084584   -0.0011637030751519273
-0.0014932082302366219   -0.046869733199122306   -0.0009914390073324706
0.0020022132872320898   -0.04676377835638175   -0.0008794236264191292
0.0019393457860645289   -0.04684077752152356   -0.0007887745815164769
0.0005725767305902955   -0.052306056307084584   -0.0011637030751519273
-0.0014932082302366219   -0.046869733199122306   -0.0009914390073324706
0.0019393457860645289   -0.04684077752152356   -0.0007887745815164769
-0.002202149998212334   -0.05252164218983168   -0.0012009319808765895
0.0005725767305902955   -0.052306056307084584   -0.0011637030751519273
0.0020022132872320898   -0.04676377835638175   -0.0008794236264191292
-0.0021524467922531742   -0.052456218713815   -0.0012530321751665775
0.0007025697722255234   -0.052272203290479255   -0.0012788240689003121
0.0020022132872320898   -0.04676377835638175   -0.0008794236264191292
-0.0014932082302366219   -0.046869733199122306   -0.0009914390073324706
-0.0021524467922531742   -0.052456218713815   -0.0012530321751665775
-0.0014986191586439561   -0.046822860898054146   -0.0010203188448739784
0.0007025697722255234   -0.052272203290479255   -0.0012788240689003121
-0.0021227258235912865   -0.052423937687699894   -0.0012989745384771533
-0.0014986191586439561   -0.046822860898054146   -0.0010203188448739784
-0.0021524467922531742   -0.052456218713815   -0.0012530321751665775
0.0007025697722255234   -0.052272203290479255   -0.0012788240689003121
-0.0014986191586439561   -0.046822860898054146   -0.0010203188448739784
0.0020668765298049144   -0.04671252157707736   -0.0009614230024173894
0.0020022132872320898   -0.04676377835638175   -0.0008794236264191292
0.0007025697722255234   -0.052272203290479255   -0.0012788240689003121
-0.0014986191586439561   -0.046822860898054146   -0.0010203188448739784
0.0020022132872320898   -0.04676377835638175   -0.0008794236264191292
-0.0021524467922531742   -0.052456218713815   -0.0012530321751665775
-0.002245758494469778   -0.05262215179850035   -0.0011419990256520218
-0.0015140324595250654   -0.04704196818654566   -0.0009158352748552723
-0.0046962168914645675   -0.05264627438537855   -0.001337412216259176
-0.002202149998212334   -0.05252164218983168   -0.0012009319808765895
-0.0015140324595250654   -0.04704196818654566   -0.0009158352748552723
-0.004743378639886781   -0.04704248788833765   -0.0011025135703202525
-0.0046962168914645675   -0.05264627438537855   -0.001337412216259176
-0.004743750186966886   -0.04695795544545956   -0.0010986460050691794
-0.002202149998212334   -0.05252164218983168   -0.0012009319808765895
-0.004664193100974466   -0.052560024792856895   -0.0013388908557474411
-0.004743750186966886   -0.04695795544545956   -0.0010986460050691794
-0.0046962168914645675   -0.05264627438537855   -0.001337412216259176
-0.002202149998212334   -0.05252164218983168   -0.0012009319808765895
-0.004743750186966886   -0.04695795544545956   -0.0010986460050691794
-0.0015048729961689752   -0.04694199418230021   -0.000956763062682625
-0.0015140324595250654   -0.04704196818654566   -0.0009158352748552723
-0.002202149998212334   -0.05252164218983168   -0.0012009319808765895
-0.004743750186966886   -0.04695795544545956   -0.0010986460050691794
-0.0015140324595250654   -0.04704196818654566   -0.0009158352748552723
-0.0046962168914645675   -0.05264627438537855   -0.001337412216259176
-0.002202149998212334   -0.05252164218983168   -0.0012009319808765895
-0.0015048729961689752   -0.04694199418230021   -0.000956763062682625
-0.004664193100974466   -0.052560024792856895   -0.0013388908557474411
-0.0021524467922531742   -0.052456218713815   -0.0012530321751665775
-0.0015048729961689752   -0.04694199418230021   -0.000956763062682625
-0.004743750186966886   -0.04695795544545956   -0.0010986460050691794
-0.004664193100974466   -0.052560024792856895   -0.0013388908557474411
-0.004743902346465989   -0.04689785091399473   -0.0010885491058517053
-0.0021524467922531742   -0.052456218713815   -0.0012530321751665775
-0.004631257225816348   -0.05250517585617525   -0.001333821349664241
-0.004743902346465989   -0.04689785091399473   -0.0010885491058517053
-0.004664193100974466   -0.052560024792856895   -0.0013388908557474411
-0.0021524467922531742   -0.052456218713815   -0.0012530321751665775
-0.004743902346465989   -0.04689785091399473   -0.0010885491058517053
-0.0014932082302366219   -0.046869733199122306   -0.0009914390073324706
-0.0015048729961689752   -0.04694199418230021   -0.000956763062682625
-0.0021524467922531742   -0.052456218713815   -0.0012530321751665775
-0.004743902346465989   -0.04689785091399473   -0.0010885491058517053
-0.0015048729961689752   -0.04694199418230021   -0.000956763062682625
-0.004664193100974466   -0.052560024792856895   -0.0013388908557474411
-0.0021524467922531742   -0.052456218713815   -0.0012530321751665775
-0.0014932082302366219   -0.046869733199122306   -0.0009914390073324706
-0.004631257225816348   -0.05250517585617525   -0.001333821349664241
-0.0021227258235912865   -0.052423937687699894   -0.0012989745384771533
-0.0014932082302366219   -0.046869733199122306   -0.0009914390073324706
-0.004743902346465989   -0.04689785091399473   -0.0010885491058517053
-0.004631257225816348   -0.05250517585617525   -0.001333821349664241
-0.004748367045914117   -0.04686221823836687   -0.0010725484244529335
-0.0021227258235912865   -0.052423937687699894   -0.0012989745384771533
-0.0046024522708894375   -0.052481214347212236   -0.0013226423347848758
-0.004748367045914117   -0.04686221823836687   -0.0010725484244529335
-0.004631257225816348   -0.05250517585617525   -0.001333821349664241
-0.0021227258235912865   -0.052423937687699894   -0.0012989745384771533
-0.004748367045914117   -0.04686221823836687   -0.0010725484244529335
-0.0014986191586439561   -0.046822860898054146   -0.0010203188448739784
-0.0014932082302366219   -0.046869733199122306   -0.0009914390073324706
-0.0021227258235912865   -0.052423937687699894   -0.0012989745384771533
-0.004748367045914117   -0.04686221823836687   -0.0010725484244529335
-0.0014932082302366219   -0.046869733199122306   -0.0009914390073324706
-0.004631257225816348   -0.05250517585617525   -0.001333821349664241
-0.0046962168914645675   -0.05264627438537855   -0.001337412216259176
-0.004743378639886781   -0.04704248788833765   -0.0011025135703202525
-0.007108340313166615   -0.05256815153545907   -0.0015137924510002306
-0.004664193100974466   -0.052560024792856895   -0.0013388908557474411
-0.004743378639886781   -0.04704248788833765   -0.0011025135703202525
-0.007918045065646036   -0.04696204165818388   -0.0012659879052298749
-0.007108340313166615   -0.05256815153545907   -0.0015137924510002306
-0.00792081253634047   -0.04689106031761148   -0.0012178676118774349
-0.004664193100974466   -0.052560024792856895   -0.0013388908557474411
-0.007078529500363612   -0.05249374668547642   -0.0014592000140558857
-0.00792081253634047   -0.04689106031761148   -0.0012178676118774349
-0.007108340313166615   -0.05256815153545907   -0.0015137924510002306
-0.004664193100974466   -0.052560024792856895   -0.0013388908557474411
-0.00792081253634047   -0.04689106031761148   -0.0012178676118774349
-0.004743750186966886   -0.04695795544545956   -0.0010986460050691794
-0.004743378639886781   -0.04704248788833765   -0.0011025135703202525
-0.004664193100974466   -0.052560024792856895   -0.0013388908557474411
-0.00792081253634047   -0.04689106031761148   -0.0012178676118774349
-0.004743378639886781   -0.04704248788833765   -0.0011025135703202525
-0.007108340313166615   -0.05256815153545907   -0.0015137924510002306
-0.004664193100974466   -0.052560024792856895   -0.0013388908557474411
-0.004743750186966886   -0.04695795544545956   -0.0010986460050691794
-0.007078529500363612   -0.05249374668547642   -0.0014592000140558857
-0.004631257225816348   -0.05250517585617525   -0.001333821349664241
-0.004743750186966886   -0.04695795544545956   -0.0010986460050691794
-0.00792081253634047   -0.04689106031761148   -0.0012178676118774349
-0.007078529500363612   -0.05249374668547642   -0.0014592000140558857
-0.007918174038385356   -0.04684429101559459   -0.0011636401484095905
-0.004631257225816348   -0.05250517585617525   -0.001333821349664241
-0.007042503829536753   -0.052450398017390765   -0.001398202968914638
-0.007918174038385356   -0.04684429101559459   -0.0011636401484095905
-0.007078529500363612   -0.05249374668547642   -0.0014592000140558857
-0.004631257225816348   -0.05250517585617525   -0.001333821349664241
-0.007918174038385356   -0.04684429101559459   -0.0011636401484095905
-0.004743902346465989   -0.04689785091399473   -0.0010885491058517053
-0.004743750186966886   -0.04695795544545956   -0.0010986460050691794
-0.004631257225816348   -0.05250517585617525   -0.001333821349664241
-0.007918174038385356   -0.04684429101559459   -0.0011636401484095905
-0.004743750186966886   -0.04695795544545956   -0.0010986460050691794
-0.007078529500363612   -0.05249374668547642   -0.0014592000140558857
-0.004631257225816348   -0.05250517585617525   -0.001333821349664241
-0.004743902346465989   -0.04689785091399473   -0.0010885491058517053
-0.007042503829536753   -0.052450398017390765   -0.001398202968914638
-0.0046024522708894375   -0.052481214347212236   -0.0013226423347848758
-0.004743902346465989   -0.04689785091399473   -0.0010885491058517053
-0.007918174038385356   -0.04684429101559459   -0.0011636401484095905
-0.007042503829536753   -0.052450398017390765   -0.001398202968914638
-0.007916515922011908   -0.046821311035920875   -0.0011034829795291605
-0.0046024522708894375   -0.052481214347212236   -0.0013226423347848758
-0.007007476081477908   -0.05243667177742072   -0.0013309981871271813
-0.007916515922011908   -0.046821311035920875   -0.0011034829795291605
-0.007042503829536753   -0.052450398017390765   -0.001398202968914638
-0.0046024522708894375   -0.052481214347212236   -0.0013226423347848758
-0.007916515922011908   -0.046821311035920875   -0.0011034829795291605
-0.004748367045914117   -0.04686221823836687   -0.0010725484244529335
-0.004743902346465989   -0.04689785091399473   -0.0010885491058517053
-0.0046024522708894375   -0.052481214347212236   -0.0013226423347848758
-0.007916515922011908   -0.046821311035920875   -0.0011034829795291605
-0.004743902346465989   -0.04689785091399473   -0.0010885491058517053
-0.007042503829536753   -0.052450398017390765   -0.001398202968914638
-0.007108340313166615   -0.05256815153545907   -0.0015137924510002306
-0.007918045065646036   -0.04696204165818388   -0.0012659879052298749
-0.00963590601906852   -0.05239052633933925   -0.001670495593280218
-0.007078529500363612   -0.05249374668547642   -0.0014592000140558857
-0.007918045065646036   -0.04696204165818388   -0.0012659879052298749
-0.011191553114791742   -0.04680365506774041   -0.0014065892511356658
-0.00963590601906852   -0.05239052633933925   -0.001670495593280218
-0.011187622611251662   -0.04674563692779041   -0.001313688633854734
-0.007078529500363612   -0.05249374668547642   -0.0014592000140558857
-0.009596913374638447   -0.05232741347106376   -0.0015597532475693779
-0.011187622611251662   -0.04674563692779041   -0.001313688633854734
-0.00963590601906852   -0.05239052633933925   -0.001670495593280218
-0.007078529500363612   -0.05249374668547642   -0.0014592000140558857
-0.011187622611251662   -0.04674563692779041   -0.001313688633854734
-0.00792081253634047   -0.04689106031761148   -0.0012178676118774349
-0.007918045065646036   -0.04696204165818388   -0.0012659879052298749
-0.007078529500363612   -0.05249374668547642   -0.0014592000140558857
-0.011187622611251662   -0.04674563692779041   -0.001313688633854734
-0.007918045065646036   -0.04696204165818388   -0.0012659879052298749
-0.00963590601906852   -0.05239052633933925   -0.001670495593280218
-0.007078529500363612   -0.05249374668547642   -0.0014592000140558857
-0.00792081253634047   -0.04689106031761148   -0.0012178676118774349
-0.009596913374638447   -0.05232741347106376   -0.0015597532475693779
-0.007042503829536753   -0.052450398017390765   -0.001398202968914638
-0.00792081253634047   -0.04689106031761148   -0.0012178676118774349
-0.011187622611251662   -0.04674563692779041   -0.001313688633854734
-0.009596913374638447   -0.05232741347106376   -0.0015597532475693779
-0.011160077275358296   -0.046710959712044274   -0.0012156022828521981
-0.007042503829536753   -0.052450398017390765   -0.001398202968914638
-0.009530781454176688   -0.05229449095582529   -0.0014435928546658852
-0.011160077275358296   -0.046710959712044274   -0.0012156022828521981
-0.009596913374638447   -0.05232741347106376   -0.0015597532475693779
-0.007042503829536753   -0.052450398017390765   -0.001398202968914638
-0.011160077275358296   -0.046710959712044274   -0.0012156022828521981
-0.007918174038385356   -0.04684429101559459   -0.0011636401484095905
-0.00792081253634047   -0.04689106031761148   -0.0012178676118774349
-0.007042503829536753   -0.052450398017390765   -0.001398202968914638
-0.011160077275358296   -0.046710959712044274   -0.0012156022828521981
-0.00792081253634047   -0.04689106031761148   -0.0012178676118774349
-0.009596913374638447   -0.05232741347106376   -0.0015597532475693779
-0.007042503829536753   -0.052450398017390765   -0.001398202968914638
-0.007918174038385356   -0.04684429101559459   -0.0011636401484095905
-0.009530781454176688   -0.05229449095582529   -0.0014435928546658852
-0.007007476081477908   -0.05243667177742072   -0.0013309981871271813
-0.007918174038385356   -0.04684429101559459   -0.0011636401484095905
-0.011160077275358296   -0.046710959712044274   -0.0012156022828521981
-0.009530781454176688   -0.05229449095582529   -0.0014435928546658852
-0.011141689283055957   -0.04670207355087457   -0.0011111083969883196
-0.007007476081477908   -0.05243667177742072   -0.0013309981871271813
-0.009477125060113977   -0.05229351218722542   -0.001320320035578485
-0.011141689283055957   -0.04670207355087457   -0.0011111083969883196
-0.009530781454176688   -0.05229449095582529   -0.0014435928546658852
-0.007007476081477908   -0.05243667177742072   -0.0013309981871271813
-0.011141689283055957   -0.04670207355087457   -0.0011111083969883196
-0.007916515922011908   -0.046821311035920875   -0.0011034829795291605
-0.007918174038385356   -0.04684429101559459   -0.0011636401484095905
-0.007007476081477908   -0.05243667177742072   -0.0013309981871271813
-0.011141689283055957   -0.04670207355087457   -0.0011111083969883196
-0.007918174038385356   -0.04684429101559459   -0.0011636401484095905
-0.009530781454176688   -0.05229449095582529   -0.0014435928546658852
-0.00963590601906852   -0.05239052633933925   -0.001670495593280218
-0.011191553114791742   -0.04680365506774041   -0.0014065892511356658
-0.012583506219020858   -0.05213460645461842   -0.001816743584414713
-0.009596913374638447   -0.05232741347106376   -0.0015597532475693779
-0.011191553114791742   -0.04680365506774041   -0.0014065892511356658
-0.014848053202899133   -0.046585196147118396   -0.0015334506079975445
-0.012583506219020858   -0.05213460645461842   -0.001816743584414713
-0.014710879053428208   -0.046528218618011395   -0.0013912860392405971
-0.009596913374638447   -0.05232741347106376   -0.0015597532475693779
-0.01238329232842486   -0.0520687208531238   -0.0016433710936031671
-0.014710879053428208   -0.046528218618011395   -0.0013912860392405971
-0.012583506219020858   -0.05213460645461842   -0.001816743584414713
-0.009596913374638447   -0.05232741347106376   -0.0015597532475693779
-0.014710879053428208   -0.046528218618011395   -0.0013912860392405971
-0.011187622611251662   -0.04674563692779041   -0.001313688633854734
-0.011191553114791742   -0.04680365506774041   -0.0014065892511356658
-0.009596913374638447   -0.05232741347106376   -0.0015597532475693779
-0.014710879053428208   -0.046528218618011395   -0.0013912860392405971
-0.011191553114791742   -0.04680365506774041   -0.0014065892511356658
-0.012583506219020858   -0.05213460645461842   -0.001816743584414713
-0.009596913374638447   -0.05232741347106376   -0.0015597532475693779
-0.011187622611251662   -0.04674563692779041   -0.001313688633854734
-0.01238329232842486   -0.0520687208531238   -0.0016433710936031671
-0.009530781454176688   -0.05229449095582529   -0.0014435928546658852
-0.011187622611251662   -0.04674563692779041   -0.001313688633854734
-0.014710879053428208   -0.046528218618011395   -0.0013912860392405971
-0.01238329232842486   -0.0520687208531238   -0.0016433710936031671
-0.014593621865449472   -0.04649795478089016   -0.0012403999100978275
-0.009530781454176688   -0.05229449095582529   -0.0014435928546658852
-0.01220961714891147   -0.05203862922018967   -0.0014610583752194609
-0.014593621865449472   -0.04649795478089016   -0.0012403999100978275
-0.01238329232842486   -0.0520687208531238   -0.0016433710936031671
-0.009530781454176688   -0.05229449095582529   -0.0014435928546658852
-0.014593621865449472   -0.04649795478089016   -0.0012403999100978275
-0.011160077275358296   -0.046710959712044274   -0.0012156022828521981
-0.011187622611251662   -0.04674563692779041   -0.001313688633854734
-0.009530781454176688   -0.05229449095582529   -0.0014435928546658852
-0.014593621865449472   -0.04649795478089016   -0.0012403999100978275
-0.011187622611251662   -0.04674563692779041   -0.001313688633854734
-0.01238329232842486   -0.0520687208531238   -0.0016433710936031671
-0.009530781454176688   -0.05229449095582529   -0.0014435928546658852
-0.011160077275358296   -0.046710959712044274   -0.0012156022828521981
-0.01220961714891147   -0.05203862922018967   -0.0014610583752194609
-0.009477125060113977   -0.05229351218722542   -0.001320320035578485
-0.011160077275358296   -0.046710959712044274   -0.0012156022828521981
-0.014593621865449472   -0.04649795478089016   -0.0012403999100978275
-0.01220961714891147   -0.05203862922018967   -0.0014610583752194609
-0.01442447839706216   -0.04650857812496387   -0.0010819902258202834
-0.009477125060113977   -0.05229351218722542   -0.001320320035578485
-0.011975670333493525   -0.052057337906195524   -0.0012709658503365763
-0.01442447839706216   -0.04650857812496387   -0.0010819902258202834
-0.01220961714891147   -0.05203862922018967   -0.0014610583752194609
-0.009477125060113977   -0.05229351218722542   -0.001320320035578485
-0.01442447839706216   -0.04650857812496387   -0.0010819902258202834
-0.011141689283055957   -0.04670207355087457   -0.0011111083969883196
-0.011160077275358296   -0.046710959712044274   -0.0012156022828521981
-0.009477125060113977   -0.05229351218722542   -0.001320320035578485
-0.01442447839706216   -0.04650857812496387   -0.0010819902258202834
-0.011160077275358296   -0.046710959712044274   -0.0012156022828521981
-0.01220961714891147   -0.05203862922018967   -0.0014610583752194609
0.0018411327660406026   -0.04695852283176148   -0.0006892889442012424
0.002914553137825624   -0.040292591954516184   -0.0004592644485047681
-0.0015140324595250654   -0.04704196818654566   -0.0009158352748552723
0.0019393457860645289   -0.04684077752152356   -0.0007887745815164769
0.002914553137825624   -0.040292591954516184   -0.0004592644485047681
-0.0010684877021239893   -0.04033380410616544   -0.0006723900364977488
-0.0015140324595250654   -0.04704196818654566   -0.0009158352748552723
-0.001087063134892175   -0.04023627748777891   -0.000694530041902018
0.0019393457860645289   -0.04684077752152356   -0.0007887745815164769
-0.0015048729961689752   -0.04694199418230021   -0.000956763062682625
-0.001087063134892175   -0.04023627748777891   -0.000694530041902018
-0.0015140324595250654   -0.04704196818654566   -0.0009158352748552723
0.0019393457860645289   -0.04684077752152356   -0.0007887745815164769
-0.001087063134892175   -0.04023627748777891   -0.000694530041902018
0.0029536935549821894   -0.04017914952721032   -0.0005246005274073783
0.002914553137825624   -0.040292591954516184   -0.0004592644485047681
0.0019393457860645289   -0.04684077752152356   -0.0007887745815164769
-0.001087063134892175   -0.04023627748777891   -0.000694530041902018
0.002914553137825624   -0.040292591954516184   -0.0004592644485047681
-0.0015140324595250654   -0.04704196818654566   -0.0009158352748552723
0.0019393457860645289   -0.04684077752152356   -0.0007887745815164769
0.0029536935549821894   -0.04017914952721032   -0.0005246005274073783
-0.0015048729961689752   -0.04694199418230021   -0.000956763062682625
0.0020022132872320898   -0.04676377835638175   -0.0008794236264191292
0.0029536935549821894   -0.04017914952721032   -0.0005246005274073783
-0.001087063134892175   -0.04023627748777891   -0.000694530041902018
-0.0015048729961689752   -0.04694199418230021   -0.000956763062682625
-0.0011065657685809967   -0.04015931914032315   -0.0007110811104013376
0.0020022132872320898   -0.04676377835638175   -0.0008794236264191292
-0.0014932082302366219   -0.046869733199122306   -0.0009914390073324706
-0.0011065657685809967   -0.04015931914032315   -0.0007110811104013376
-0.0015048729961689752   -0.04694199418230021   -0.000956763062682625
0.0020022132872320898   -0.04676377835638175   -0.0008794236264191292
-0.0011065657685809967   -0.04015931914032315   -0.0007110811104013376
0.0029658337586643394   -0.04009672262216074   -0.0005816893261343778
0.0029536935549821894   -0.04017914952721032   -0.0005246005274073783
0.0020022132872320898   -0.04676377835638175   -0.0008794236264191292
-0.0011065657685809967   -0.04015931914032315   -0.0007110811104013376
0.0029536935549821894   -0.04017914952721032   -0.0005246005274073783
-0.0015048729961689752   -0.04694199418230021   -0.000956763062682625
0.0020022132872320898   -0.04676377835638175   -0.0008794236264191292
0.0029658337586643394   -0.04009672262216074   -0.0005816893261343778
-0.0014932082302366219   -0.046869733199122306   -0.0009914390073324706
0.0020668765298049144   -0.04671252157707736   -0.0009614230024173894
0.0029658337586643394   -0.04009672262216074   -0.0005816893261343778
-0.0011065657685809967   -0.04015931914032315   -0.0007110811104013376
-0.0014932082302366219   -0.046869733199122306   -0.0009914390073324706
-0.0011399222633152821   -0.040100497854721015   -0.0007222317840166138
0.0020668765298049144   -0.04671252157707736   -0.0009614230024173894
-0.0014986191586439561   -0.046822860898054146   -0.0010203188448739784
-0.0011399222633152821   -0.040100497854721015   -0.0007222317840166138
-0.0014932082302366219   -0.046869733199122306   -0.0009914390073324706
0.0020668765298049144   -0.04671252157707736   -0.0009614230024173894
-0.0011399222633152821   -0.040100497854721015   -0.0007222317840166138
0.0029729317781634775   -0.0400307058923902   -0.0006309221203205804
0.0029658337586643394   -0.04009672262216074   -0.0005816893261343778
0.0020668765298049144   -0.04671252157707736   -0.0009614230024173894
-0.0011399222633152821   -0.040100497854721015   -0.0007222317840166138
0.0029658337586643394   -0.04009672262216074   -0.0005816893261343778
-0.0014932082302366219   -0.046869733199122306   -0.0009914390073324706
-0.0015140324595250654   -0.04704196818654566   -0.0009158352748552723
-0.0010684877021239893   -0.04033380410616544   -0.0006723900364977488
-0.004743378639886781   -0.04704248788833765   -0.0011025135703202525
-0.0015048729961689752   -0.04694199418230021   -0.000956763062682625
-0.0010684877021239893   -0.04033380410616544   -0.0006723900364977488
-0.004886866393176124   -0.040312854222387985   -0.0008477006666031626
-0.004743378639886781   -0.04704248788833765   -0.0011025135703202525
-0.004912729900448529   -0.040231421648495115   -0.0008374123288440175
-0.0015048729961689752   -0.04694199418230021   -0.000956763062682625
-0.004743750186966886   -0.04695795544545956   -0.0010986460050691794
-0.004912729900448529   -0.040231421648495115   -0.0008374123288440175
-0.004743378639886781   -0.04704248788833765   -0.0011025135703202525
-0.0015048729961689752   -0.04694199418230021   -0.000956763062682625
-0.004912729900448529   -0.040231421648495115   -0.0008374123288440175
-0.001087063134892175   -0.04023627748777891   -0.000694530041902018
-0.0010684877021239893   -0.04033380410616544   -0.0006723900364977488
-0.0015048729961689752   -0.04694199418230021   -0.000956763062682625
-0.004912729900448529   -0.040231421648495115   -0.0008374123288440175
-0.0010684877021239893   -0.04033380410616544   -0.0006723900364977488
-0.004743378639886781   -0.04704248788833765   -0.0011025135703202525
-0.0015048729961689752   -0.04694199418230021   -0.000956763062682625
-0.001087063134892175   -0.04023627748777891   -0.000694530041902018
-0.004743750186966886   -0.04695795544545956   -0.0010986460050691794
-0.0014932082302366219   -0.046869733199122306   -0.0009914390073324706
-0.001087063134892175   -0.04023627748777891   -0.000694530041902018
-0.004912729900448529   -0.040231421648495115   -0.0008374123288440175
-0.004743750186966886   -0.04695795544545956   -0.0010986460050691794
-0.004938949536574643   -0.04016761843645954   -0.0008213685643473441
-0.0014932082302366219   -0.046869733199122306   -0.0009914390073324706
-0.004743902346465989   -0.04689785091399473   -0.0010885491058517053
-0.004938949536574643   -0.04016761843645954   -0.0008213685643473441
-0.004743750186966886   -0.04695795544545956   -0.0010986460050691794
-0.0014932082302366219   -0.046869733199122306   -0.0009914390073324706
-0.004938949536574643   -0.04016761843645954   -0.0008213685643473441
-0.0011065657685809967   -0.04015931914032315   -0.0007110811104013376
-0.001087063134892175   -0.04023627748777891   -0.000694530041902018
-0.0014932082302366219   -0.046869733199122306   -0.0009914390073324706
-0.004938949536574643   -0.04016761843645954   -0.0008213685643473441
-0.001087063134892175   -0.04023627748777891   -0.000694530041902018
-0.004743750186966886   -0.04695795544545956   -0.0010986460050691794
-0.0014932082302366219   -0.046869733199122306   -0.0009914390073324706
-0.0011065657685809967   -0.04015931914032315   -0.0007110811104013376
-0.004743902346465989   -0.04689785091399473   -0.0010885491058517053
-0.0014986191586439561   -0.046822860898054146   -0.0010203188448739784
-0.0011065657685809967   -0.04015931914032315   -0.0007110811104013376
-0.004938949536574643   -0.04016761843645954   -0.0008213685643473441
-0.004743902346465989   -0.04689785091399473   -0.0010885491058517053
-0.004969265593513134   -0.040121743056514954   -0.0007998490626964233
-0.0014986191586439561   -0.046822860898054146   -0.0010203188448739784
-0.004748367045914117   -0.04686221823836687   -0.0010725484244529335
-0.004969265593513134   -0.040121743056514954   -0.0007998490626964233
-0.004743902346465989   -0.04689785091399473   -0.0010885491058517053
-0.0014986191586439561   -0.046822860898054146   -0.0010203188448739784
-0.004969265593513134   -0.040121743056514954   -0.0007998490626964233
-0.0011399222633152821   -0.040100497854721015   -0.0007222317840166138
-0.0011065657685809967   -0.04015931914032315   -0.0007110811104013376
-0.0014986191586439561   -0.046822860898054146   -0.0010203188448739784
-0.004969265593513134   -0.040121743056514954   -0.0007998490626964233
-0.0011065657685809967   -0.04015931914032315   -0.0007110811104013376
-0.004743902346465989   -0.04689785091399473   -0.0010885491058517053
-0.004743378639886781   -0.04704248788833765   -0.0011025135703202525
-0.004886866393176124   -0.040312854222387985   -0.0008477006666031626
-0.007918045065646036   -0.04696204165818388   -0.0012659879052298749
-0.004743750186966886   -0.04695795544545956   -0.0010986460050691794
-0.004886866393176124   -0.040312854222387985   -0.0008477006666031626
-0.008640802742754876   -0.04023364016506487   -0.0009976172437108938
-0.007918045065646036   -0.04696204165818388   -0.0012659879052298749
-0.008668728375395434   -0.040166816479243875   -0.0009550618007989368
-0.004743750186966886   -0.04695795544545956   -0.0010986460050691794
-0.00792081253634047   -0.04689106031761148   -0.0012178676118774349
-0.008668728375395434   -0.040166816479243875   -0.0009550618007989368
-0.007918045065646036   -0.04696204165818388   -0.0012659879052298749
-0.004743750186966886   -0.04695795544545956   -0.0010986460050691794
-0.008668728375395434   -0.040166816479243875   -0.0009550618007989368
-0.004912729900448529   -0.040231421648495115   -0.0008374123288440175
-0.004886866393176124   -0.040312854222387985   -0.0008477006666031626
-0.004743750186966886   -0.04695795544545956   -0.0010986460050691794
-0.008668728375395434   -0.040166816479243875   -0.0009550618007989368
-0.004886866393176124   -0.040312854222387985   -0.0008477006666031626
-0.007918045065646036   -0.04696204165818388   -0.0012659879052298749
-0.004743750186966886   -0.04695795544545956   -0.0010986460050691794
-0.004912729900448529   -0.040231421648495115   -0.0008374123288440175
-0.00792081253634047   -0.04689106031761148   -0.0012178676118774349
-0.004743902346465989   -0.04689785091399473   -0.0010885491058517053
-0.004912729900448529   -0.040231421648495115   -0.0008374123288440175
-0.008668728375395434   -0.040166816479243875   -0.0009550618007989368
-0.00792081253634047   -0.04689106031761148   -0.0012178676118774349
-0.008691849840214119   -0.04011745408122424   -0.0009068537697840469
-0.004743902346465989   -0.04689785091399473   -0.0010885491058517053
-0.007918174038385356   -0.04684429101559459   -0.0011636401484095905
-0.008691849840214119   -0.04011745408122424   -0.0009068537697840469
-0.00792081253634047   -0.04689106031761148   -0.0012178676118774349
-0.004743902346465989   -0.04689785091399473   -0.0010885491058517053
-0.008691849840214119   -0.04011745408122424   -0.0009068537697840469
-0.004938949536574643   -0.04016761843645954   -0.0008213685643473441
-0.004912729900448529   -0.040231421648495115   -0.0008374123288440175
-0.004743902346465989   -0.04689785091399473   -0.0010885491058517053
-0.008691849840214119   -0.04011745408122424   -0.0009068537697840469
-0.004912729900448529   -0.040231421648495115   -0.0008374123288440175
-0.00792081253634047   -0.04689106031761148   -0.0012178676118774349
-0.004743902346465989   -0.04689785091399473   -0.0010885491058517053
-0.004938949536574643   -0.04016761843645954   -0.0008213685643473441
-0.007918174038385356   -0.04684429101559459   -0.0011636401484095905
-0.004748367045914117   -0.04686221823836687   -0.0010725484244529335
-0.004938949536574643   -0.04016761843645954   -0.0008213685643473441
-0.008691849840214119   -0.04011745408122424   -0.0009068537697840469
-0.007918174038385356   -0.04684429101559459   -0.0011636401484095905
-0.008715648538265612   -0.040085479073622574   -0.0008531588735636913
-0.004748367045914117   -0.04686221823836687   -0.0010725484244529335
-0.007916515922011908   -0.046821311035920875   -0.0011034829795291605
-0.008715648538265612   -0.040085479073622574   -0.0008531588735636913
-0.007918174038385356   -0.04684429101559459   -0.0011636401484095905
-0.004748367045914117   -0.04686221823836687   -0.0010725484244529335
-0.008715648538265612   -0.040085479073622574   -0.0008531588735636913
-0.004969265593513134   -0.040121743056514954   -0.0007998490626964233
-0.004938949536574643   -0.04016761843645954   -0.0008213685643473441
-0.004748367045914117   -0.04686221823836687   -0.0010725484244529335
-0.008715648538265612   -0.040085479073622574   -0.0008531588735636913
-0.004938949536574643   -0.04016761843645954   -0.0008213685643473441
-0.007918174038385356   -0.04684429101559459   -0.0011636401484095905
-0.007918045065646036   -0.04696204165818388   -0.0012659879052298749
-0.008640802742754876   -0.04023364016506487   -0.0009976172437108938
-0.011191553114791742   -0.04680365506774041   -0.0014065892511356658
-0.00792081253634047   -0.04689106031761148   -0.0012178676118774349
-0.008640802742754876   -0.04023364016506487   -0.0009976172437108938
-0.012484014564973854   -0.0400977325688656   -0.00112272958206744
-0.011191553114791742   -0.04680365506774041   -0.0014065892511356658
-0.012507080236344136   -0.040045169503649426   -0.0010474656591104852
-0.00792081253634047   -0.04689106031761148   -0.0012178676118774349
-0.011187622611251662   -0.04674563692779041   -0.001313688633854734
-0.012507080236344136   -0.040045169503649426   -0.0010474656591104852
-0.011191553114791742   -0.04680365506774041   -0.0014065892511356658
-0.00792081253634047   -0.04689106031761148   -0.0012178676118774349
-0.012507080236344136   -0.040045169503649426   -0.0010474656591104852
-0.008668728375395434   -0.040166816479243875   -0.0009550618007989368
-0.008640802742754876   -0.04023364016506487   -0.0009976172437108938
-0.00792081253634047   -0.04689106031761148   -0.0012178676118774349
-0.012507080236344136   -0.040045169503649426   -0.0010474656591104852
-0.008640802742754876   -0.04023364016506487   -0.0009976172437108938
-0.011191553114791742   -0.04680365506774041   -0.0014065892511356658
-0.00792081253634047   -0.04689106031761148   -0.0012178676118774349
-0.008668728375395434   -0.040166816479243875   -0.0009550618007989368
-0.011187622611251662   -0.04674563692779041   -0.001313688633854734
-0.007918174038385356   -0.04684429101559459   -0.0011636401484095905
-0.008668728375395434   -0.040166816479243875   -0.0009550618007989368
-0.012507080236344136   -0.040045169503649426   -0.0010474656591104852
-0.011187622611251662   -0.04674563692779041   -0.001313688633854734
-0.012509908400834983   -0.040009013605140795   -0.0009673309678369879
-0.007918174038385356   -0.04684429101559459   -0.0011636401484095905
-0.011160077275358296   -0.046710959712044274   -0.0012156022828521981
-0.012509908400834983   -0.040009013605140795   -0.0009673309678369879
-0.011187622611251662   -0.04674563692779041   -0.001313688633854734
-0.007918174038385356   -0.04684429101559459   -0.0011636401484095905
-0.012509908400834983   -0.040009013605140795   -0.0009673309678369879
-0.008691849840214119   -0.04011745408122424   -0.0009068537697840469
-0.008668728375395434   -0.040166816479243875   -0.0009550618007989368
-0.007918174038385356   -0.04684429101559459   -0.0011636401484095905
-0.012509908400834983   -0.040009013605140795   -0.0009673309678369879
-0.008668728375395434   -0.040166816479243875   -0.0009550618007989368
-0.011187622611251662   -0.04674563692779041   -0.001313688633854734
-0.007918174038385356   -0.04684429101559459   -0.0011636401484095905
-0.008691849840214119   -0.04011745408122424   -0.0009068537697840469
-0.011160077275358296   -0.046710959712044274   -0.0012156022828521981
-0.007916515922011908   -0.046821311035920875   -0.0011034829795291605
-0.008691849840214119   -0.04011745408122424   -0.0009068537697840469
-0.012509908400834983   -0.040009013605140795   -0.0009673309678369879
-0.011160077275358296   -0.046710959712044274   -0.0012156022828521981
-0.012518511266678654   -0.039991812787609625   -0.0008812928230298326
-0.007916515922011908   -0.046821311035920875   -0.0011034829795291605
-0.011141689283055957   -0.04670207355087457   -0.0011111083969883196
-0.012518511266678654   -0.039991812787609625   -0.0008812928230298326
-0.011160077275358296   -0.046710959712044274   -0.0012156022828521981
-0.007916515922011908   -0.046821311035920875   -0.0011034829795291605
-0.012518511266678654   -0.039991812787609625   -0.0008812928230298326
-0.008715648538265612   -0.040085479073622574   -0.0008531588735636913
-0.008691849840214119   -0.04011745408122424   -0.0009068537697840469
-0.007916515922011908   -0.046821311035920875   -0.0011034829795291605
-0.012518511266678654   -0.039991812787609625   -0.0008812928230298326
-0.008691849840214119   -0.04011745408122424   -0.0009068537697840469
-0.011160077275358296   -0.046710959712044274   -0.0012156022828521981
-0.011191553114791742   -0.04680365506774041   -0.0014065892511356658
-0.012484014564973854   -0.0400977325688656   -0.00112272958206744
-0.014848053202899133   -0.046585196147118396   -0.0015334506079975445
-0.011187622611251662   -0.04674563692779041   -0.001313688633854734
-0.012484014564973854   -0.0400977325688656   -0.00112272958206744
-0.016675187348293458   -0.03991930014917355   -0.0012296141665013205
-0.014848053202899133   -0.046585196147118396   -0.0015334506079975445
-0.016594493558019126   -0.039871283983100476   -0.0011197154516971214
-0.011187622611251662   -0.04674563692779041   -0.001313688633854734
-0.014710879053428208   -0.046528218618011395   -0.0013912860392405971
-0.016594493558019126   -0.039871283983100476   -0.0011197154516971214
-0.014848053202899133   -0.046585196147118396   -0.0015334506079975445
-0.011187622611251662   -0.04674563692779041   -0.001313688633854734
-0.016594493558019126   -0.039871283983100476   -0.0011197154516971214
-0.012507080236344136   -0.040045169503649426   -0.0010474656591104852
-0.012484014564973854   -0.0400977325688656   -0.00112272958206744
-0.011187622611251662   -0.04674563692779041   -0.001313688633854734
-0.016594493558019126   -0.039871283983100476   -0.0011197154516971214
-0.012484014564973854   -0.0400977325688656   -0.00112272958206744
-0.014848053202899133   -0.046585196147118396   -0.0015334506079975445
-0.011187622611251662   -0.04674563692779041   -0.001313688633854734
-0.012507080236344136   -0.040045169503649426   -0.0010474656591104852
-0.014710879053428208   -0.046528218618011395   -0.0013912860392405971
-0.011160077275358296   -0.046710959712044274   -0.0012156022828521981
-0.012507080236344136   -0.040045169503649426   -0.0010474656591104852
-0.016594493558019126   -0.039871283983100476   -0.0011197154516971214
-0.014710879053428208   -0.046528218618011395   -0.0013912860392405971
-0.016526491147689837   -0.039840729231048894   -0.001001309485282394
-0.011160077275358296   -0.046710959712044274   -0.0012156022828521981
-0.014593621865449472   -0.04649795478089016   -0.0012403999100978275
-0.016526491147689837   -0.039840729231048894   -0.001001309485282394
-0.014710879053428208   -0.046528218618011395   -0.0013912860392405971
-0.011160077275358296   -0.046710959712044274   -0.0012156022828521981
-0.016526491147689837   -0.039840729231048894   -0.001001309485282394
-0.012509908400834983   -0.040009013605140795   -0.0009673309678369879
-0.012507080236344136   -0.040045169503649426   -0.0010474656591104852
-0.011160077275358296   -0.046710959712044274   -0.0012156022828521981
-0.016526491147689837   -0.039840729231048894   -0.001001309485282394
-0.012507080236344136   -0.040045169503649426   -0.0010474656591104852
-0.014710879053428208   -0.046528218618011395   -0.0013912860392405971
-0.011160077275358296   -0.046710959712044274   -0.0012156022828521981
-0.012509908400834983   -0.040009013605140795   -0.0009673309678369879
-0.014593621865449472   -0.04649795478089016   -0.0012403999100978275
-0.011141689283055957   -0.04670207355087457   -0.0011111083969883196
-0.012509908400834983   -0.040009013605140795   -0.0009673309678369879
-0.016526491147689837   -0.039840729231048894   -0.001001309485282394
-0.014593621865449472   -0.04649795478089016   -0.0012403999100978275
-0.01641446275658807   -0.03984235827117181   -0.0008754577497682524
-0.011141689283055957   -0.04670207355087457   -0.0011111083969883196
-0.01442447839706216   -0.04650857812496387   -0.0010819902258202834
-0.01641446275658807   -0.03984235827117181   -0.0008754577497682524
-0.014593621865449472   -0.04649795478089016   -0.0012403999100978275
-0.011141689283055957   -0.04670207355087457   -0.0011111083969883196
-0.01641446275658807   -0.03984235827117181   -0.0008754577497682524
-0.012518511266678654   -0.039991812787609625   -0.0008812928230298326
-0.012509908400834983   -0.040009013605140795   -0.0009673309678369879
-0.011141689283055957   -0.04670207355087457   -0.0011111083969883196
-0.01641446275658807   -0.03984235827117181   -0.0008754577497682524
-0.012509908400834983   -0.040009013605140795   -0.0009673309678369879
-0.014593621865449472   -0.04649795478089016   -0.0012403999100978275
0.002914553137825624   -0.040292591954516184   -0.0004592644485047681
0.003512993836732058   -0.03280783824351369   -0.00023421988105220038
-0.0010684877021239893   -0.04033380410616544   -0.0006723900364977488
0.0029536935549821894   -0.04017914952721032   -0.0005246005274073783
0.003512993836732058   -0.03280783824351369   -0.00023421988105220038
-0.0009111053734118722   -0.03280719154260753   -0.00043178976691878604
-0.0010684877021239893   -0.04033380410616544   -0.0006723900364977488
-0.0009504630736134042   -0.03271288539144615   -0.0004348746157343339
0.0029536935549821894   -0.04017914952721032   -0.0005246005274073783
-0.001087063134892175   -0.04023627748777891   -0.000694530041902018
-0.0009504630736134042   -0.03271288539144615   -0.0004348746157343339
-0.0010684877021239893   -0.04033380410616544   -0.0006723900364977488
0.0029536935549821894   -0.04017914952721032   -0.0005246005274073783
-0.0009504630736134042   -0.03271288539144615   -0.0004348746157343339
0.00350073802206914   -0.032699256974820456   -0.0002657383224471756
0.003512993836732058   -0.03280783824351369   -0.00023421988105220038
0.0029536935549821894   -0.04017914952721032   -0.0005246005274073783
-0.0009504630736134042   -0.03271288539144615   -0.0004348746157343339
0.003512993836732058   -0.03280783824351369   -0.00023421988105220038
-0.0010684877021239893   -0.04033380410616544   -0.0006723900364977488
0.0029536935549821894   -0.04017914952721032   -0.0005246005274073783
0.00350073802206914   -0.032699256974820456   -0.0002657383224471756
-0.001087063134892175   -0.04023627748777891   -0.000694530041902018
0.0029658337586643394   -0.04009672262216074   -0.0005816893261343778
0.00350073802206914   -0.032699256974820456   -0.0002657383224471756
-0.0009504630736134042   -0.03271288539144615   -0.0004348746157343339
-0.001087063134892175   -0.04023627748777891   -0.000694530041902018
-0.0009942005373281984   -0.03263186900159132   -0.000432995996049999
0.0029658337586643394   -0.04009672262216074   -0.0005816893261343778
-0.0011065657685809967   -0.04015931914032315   -0.0007110811104013376
-0.0009942005373281984   -0.03263186900159132   -0.000432995996049999
-0.001087063134892175   -0.04023627748777891   -0.000694530041902018
0.0029658337586643394   -0.04009672262216074   -0.0005816893261343778
-0.0009942005373281984   -0.03263186900159132   -0.000432995996049999
0.003469344677970455   -0.03261210032325414   -0.0002893011459245015
0.00350073802206914   -0.032699256974820456   -0.0002657383224471756
0.0029658337586643394   -0.04009672262216074   -0.0005816893261343778
-0.0009942005373281984   -0.03263186900159132   -0.000432995996049999
0.00350073802206914   -0.032699256974820456   -0.0002657383224471756
-0.001087063134892175   -0.04023627748777891   -0.000694530041902018
0.0029658337586643394   -0.04009672262216074   -0.0005816893261343778
0.003469344677970455   -0.03261210032325414   -0.0002893011459245015
-0.0011065657685809967   -0.04015931914032315   -0.0007110811104013376
0.0029729317781634775   -0.0400307058923902   -0.0006309221203205804
0.003469344677970455   -0.03261210032325414   -0.0002893011459245015
-0.0009942005373281984   -0.03263186900159132   -0.000432995996049999
-0.0011065657685809967   -0.04015931914032315   -0.0007110811104013376
-0.0010485621297503418   -0.03256203116892499   -0.00042595823073839745
0.0029729317781634775   -0.0400307058923902   -0.0006309221203205804
-0.0011399222633152821   -0.040100497854721015   -0.0007222317840166138
-0.0010485621297503418   -0.03256203116892499   -0.00042595823073839745
-0.0011065657685809967   -0.04015931914032315   -0.0007110811104013376
0.0029729317781634775   -0.0400307058923902   -0.0006309221203205804
-0.0010485621297503418   -0.03256203116892499   -0.00042595823073839745
0.003425440651173329   -0.03253206214212845   -0.00030546401206136376
0.003469344677970455   -0.03261210032325414   -0.0002893011459245015
0.0029729317781634775   -0.0400307058923902   -0.0006309221203205804
-0.0010485621297503418   -0.03256203116892499   -0.00042595823073839745
0.003469344677970455   -0.03261210032325414   -0.0002893011459245015
-0.0011065657685809967   -0.04015931914032315   -0.0007110811104013376
-0.0010684877021239893   -0.04033380410616544   -0.0006723900364977488
-0.0009111053734118722   -0.03280719154260753   -0.00043178976691878604
-0.004886866393176124   -0.040312854222387985   -0.0008477006666031626
-0.001087063134892175   -0.04023627748777891   -0.000694530041902018
-0.0009111053734118722   -0.03280719154260753   -0.00043178976691878604
-0.005131155908822657   -0.032767258089156655   -0.0005946302639405507
-0.004886866393176124   -0.040312854222387985   -0.0008477006666031626
-0.005175284070456851   -0.03268906347929812   -0.0005773745572725323
-0.001087063134892175   -0.04023627748777891   -0.000694530041902018
-0.004912729900448529   -0.040231421648495115   -0.0008374123288440175
-0.005175284070456851   -0.03268906347929812   -0.0005773745572725323
-0.004886866393176124   -0.040312854222387985   -0.0008477006666031626
-0.001087063134892175   -0.04023627748777891   -0.000694530041902018
-0.005175284070456851   -0.03268906347929812   -0.0005773745572725323
-0.0009504630736134042   -0.03271288539144615   -0.0004348746157343339
-0.0009111053734118722   -0.03280719154260753   -0.00043178976691878604
-0.001087063134892175   -0.04023627748777891   -0.000694530041902018
-0.005175284070456851   -0.03268906347929812   -0.0005773745572725323
-0.0009111053734118722   -0.03280719154260753   -0.00043178976691878604
-0.004886866393176124   -0.040312854222387985   -0.0008477006666031626
-0.001087063134892175   -0.04023627748777891   -0.000694530041902018
-0.0009504630736134042   -0.03271288539144615   -0.0004348746157343339
-0.004912729900448529   -0.040231421648495115   -0.0008374123288440175
-0.0011065657685809967   -0.04015931914032315   -0.0007110811104013376
-0.0009504630736134042   -0.03271288539144615   -0.0004348746157343339
-0.005175284070456851   -0.03268906347929812   -0.0005773745572725323
-0.004912729900448529   -0.040231421648495115   -0.0008374123288440175
-0.005220305042684759   -0.03262168712553728   -0.0005549467588445914
-0.0011065657685809967   -0.04015931914032315   -0.0007110811104013376
-0.004938949536574643   -0.04016761843645954   -0.0008213685643473441
-0.005220305042684759   -0.03262168712553728   -0.0005549467588445914
-0.004912729900448529   -0.040231421648495115   -0.0008374123288440175
-0.0011065657685809967   -0.04015931914032315   -0.0007110811104013376
-0.005220305042684759   -0.03262168712553728   -0.0005549467588445914
-0.0009942005373281984   -0.03263186900159132   -0.000432995996049999
-0.0009504630736134042   -0.03271288539144615   -0.0004348746157343339
-0.0011065657685809967   -0.04015931914032315   -0.0007110811104013376
-0.005220305042684759   -0.03262168712553728   -0.0005549467588445914
-0.0009504630736134042   -0.03271288539144615   -0.0004348746157343339
-0.004912729900448529   -0.040231421648495115   -0.0008374123288440175
-0.0011065657685809967   -0.04015931914032315   -0.0007110811104013376
-0.0009942005373281984   -0.03263186900159132   -0.000432995996049999
-0.004938949536574643   -0.04016761843645954   -0.0008213685643473441
-0.0011399222633152821   -0.040100497854721015   -0.0007222317840166138
-0.0009942005373281984   -0.03263186900159132   -0.000432995996049999
-0.005220305042684759   -0.03262168712553728   -0.0005549467588445914
-0.004938949536574643   -0.04016761843645954   -0.0008213685643473441
-0.0052691457404321655   -0.032565770646963504   -0.0005275915115346853
-0.0011399222633152821   -0.040100497854721015   -0.0007222317840166138
-0.004969265593513134   -0.040121743056514954   -0.0007998490626964233
-0.0052691457404321655   -0.032565770646963504   -0.0005275915115346853
-0.004938949536574643   -0.04016761843645954   -0.0008213685643473441
-0.0011399222633152821   -0.040100497854721015   -0.0007222317840166138
-0.0052691457404321655   -0.032565770646963504   -0.0005275915115346853
-0.0010485621297503418   -0.03256203116892499   -0.00042595823073839745
-0.0009942005373281984   -0.03263186900159132   -0.000432995996049999
-0.0011399222633152821   -0.040100497854721015   -0.0007222317840166138
-0.0052691457404321655   -0.032565770646963504   -0.0005275915115346853
-0.0009942005373281984   -0.03263186900159132   -0.000432995996049999
-0.004938949536574643   -0.04016761843645954   -0.0008213685643473441
-0.004886866393176124   -0.040312854222387985   -0.0008477006666031626
-0.005131155908822657   -0.032767258089156655   -0.0005946302639405507
-0.008640802742754876   -0.04023364016506487   -0.0009976172437108938
-0.004912729900448529   -0.040231421648495115   -0.0008374123288440175
-0.005131155908822657   -0.032767258089156655   -0.0005946302639405507
-0.009279863841181308   -0.03269253913900466   -0.0007318882329896818
-0.008640802742754876   -0.04023364016506487   -0.0009976172437108938
-0.009325321246656266   -0.03262918346395409   -0.0006943350645574746
-0.004912729900448529   -0.040231421648495115   -0.0008374123288440175
-0.008668728375395434   -0.040166816479243875   -0.0009550618007989368
-0.009325321246656266   -0.03262918346395409   -0.0006943350645574746
-0.008640802742754876   -0.04023364016506487   -0.0009976172437108938
-0.004912729900448529   -0.040231421648495115   -0.0008374123288440175
-0.009325321246656266   -0.03262918346395409   -0.0006943350645574746
-0.005175284070456851   -0.03268906347929812   -0.0005773745572725323
-0.005131155908822657   -0.032767258089156655   -0.0005946302639405507
-0.004912729900448529   -0.040231421648495115   -0.0008374123288440175
-0.009325321246656266   -0.03262918346395409   -0.0006943350645574746
-0.005131155908822657   -0.032767258089156655   -0.0005946302639405507
-0.008640802742754876   -0.04023364016506487   -0.0009976172437108938
-0.004912729900448529   -0.040231421648495115   -0.0008374123288440175
-0.005175284070456851   -0.03268906347929812   -0.0005773745572725323
-0.008668728375395434   -0.040166816479243875   -0.0009550618007989368
-0.004938949536574643   -0.04016761843645954   -0.0008213685643473441
-0.005175284070456851   -0.03268906347929812   -0.0005773745572725323
-0.009325321246656266   -0.03262918346395409   -0.0006943350645574746
-0.008668728375395434   -0.040166816479243875   -0.0009550618007989368
-0.009366546592129902   -0.032576569629816886   -0.0006517310255421705
-0.004938949536574643   -0.04016761843645954   -0.0008213685643473441
-0.008691849840214119   -0.04011745408122424   -0.0009068537697840469
-0.009366546592129902   -0.032576569629816886   -0.0006517310255421705
-0.008668728375395434   -0.040166816479243875   -0.0009550618007989368
-0.004938949536574643   -0.04016761843645954   -0.0008213685643473441
-0.009366546592129902   -0.032576569629816886   -0.0006517310255421705
-0.005220305042684759   -0.03262168712553728   -0.0005549467588445914
-0.005175284070456851   -0.03268906347929812   -0.0005773745572725323
-0.004938949536574643   -0.04016761843645954   -0.0008213685643473441
-0.009366546592129902   -0.032576569629816886   -0.0006517310255421705
-0.005175284070456851   -0.03268906347929812   -0.0005773745572725323
-0.008668728375395434   -0.040166816479243875   -0.0009550618007989368
-0.004938949536574643   -0.04016761843645954   -0.0008213685643473441
-0.005220305042684759   -0.03262168712553728   -0.0005549467588445914
-0.008691849840214119   -0.04011745408122424   -0.0009068537697840469
-0.004969265593513134   -0.040121743056514954   -0.0007998490626964233
-0.005220305042684759   -0.03262168712553728   -0.0005549467588445914
-0.009366546592129902   -0.032576569629816886   -0.0006517310255421705
-0.008691849840214119   -0.04011745408122424   -0.0009068537697840469
-0.009408164572057632   -0.03253478486950173   -0.0006042678963221774
-0.004969265593513134   -0.040121743056514954   -0.0007998490626964233
-0.008715648538265612   -0.040085479073622574   -0.0008531588735636913
-0.009408164572057632   -0.03253478486950173   -0.0006042678963221774
-0.008691849840214119   -0.04011745408122424   -0.0009068537697840469
-0.004969265593513134   -0.040121743056514954   -0.0007998490626964233
-0.009408164572057632   -0.03253478486950173   -0.0006042678963221774
-0.0052691457404321655   -0.032565770646963504   -0.0005275915115346853
-0.005220305042684759   -0.03262168712553728   -0.0005549467588445914
-0.004969265593513134   -0.040121743056514954   -0.0007998490626964233
-0.009408164572057632   -0.03253478486950173   -0.0006042678963221774
-0.005220305042684759   -0.03262168712553728   -0.0005549467588445914
-0.008691849840214119   -0.04011745408122424   -0.0009068537697840469
-0.008640802742754876   -0.04023364016506487   -0.0009976172437108938
-0.009279863841181308   -0.03269253913900466   -0.0007318882329896818
-0.012484014564973854   -0.0400977325688656   -0.00112272958206744
-0.008668728375395434   -0.040166816479243875   -0.0009550618007989368
-0.009279863841181308   -0.03269253913900466   -0.0007318882329896818
-0.013510796436868241   -0.032581449459621825   -0.000843886026716904
-0.012484014564973854   -0.0400977325688656   -0.00112272958206744
-0.013552978967041994   -0.03253305208238666   -0.0007858790633071323
-0.008668728375395434   -0.040166816479243875   -0.0009550618007989368
-0.012507080236344136   -0.040045169503649426   -0.0010474656591104852
-0.013552978967041994   -0.03253305208238666   -0.0007858790633071323
-0.012484014564973854   -0.0400977325688656   -0.00112272958206744
-0.008668728375395434   -0.040166816479243875   -0.0009550618007989368
-0.013552978967041994   -0.03253305208238666   -0.0007858790633071323
-0.009325321246656266   -0.03262918346395409   -0.0006943350645574746
-0.009279863841181308   -0.03269253913900466   -0.0007318882329896818
-0.008668728375395434   -0.040166816479243875   -0.0009550618007989368
-0.013552978967041994   -0.03253305208238666   -0.0007858790633071323
-0.009279863841181308   -0.03269253913900466   -0.0007318882329896818
-0.012484014564973854   -0.0400977325688656   -0.00112272958206744
-0.008668728375395434   -0.040166816479243875   -0.0009550618007989368
-0.009325321246656266   -0.03262918346395409   -0.0006943350645574746
-0.012507080236344136   -0.040045169503649426   -0.0010474656591104852
-0.008691849840214119   -0.04011745408122424   -0.0009068537697840469
-0.009325321246656266   -0.03262918346395409   -0.0006943350645574746
-0.013552978967041994   -0.03253305208238666   -0.0007858790633071323
-0.012507080236344136   -0.040045169503649426   -0.0010474656591104852
-0.01357843782003972   -0.03249404674823794   -0.000723500982852417
-0.008691849840214119   -0.04011745408122424   -0.0009068537697840469
-0.012509908400834983   -0.040009013605140795   -0.0009673309678369879
-0.01357843782003972   -0.03249404674823794   -0.000723500982852417
-0.012507080236344136   -0.040045169503649426   -0.0010474656591104852
-0.008691849840214119   -0.04011745408122424   -0.0009068537697840469
-0.01357843782003972   -0.03249404674823794   -0.000723500982852417
-0.009366546592129902   -0.032576569629816886   -0.0006517310255421705
-0.009325321246656266   -0.03262918346395409   -0.0006943350645574746
-0.008691849840214119   -0.04011745408122424   -0.0009068537697840469
-0.01357843782003972   -0.03249404674823794   -0.000723500982852417
-0.009325321246656266   -0.03262918346395409   -0.0006943350645574746
-0.012507080236344136   -0.040045169503649426   -0.0010474656591104852
-0.008691849840214119   -0.04011745408122424   -0.0009068537697840469
-0.009366546592129902   -0.032576569629816886   -0.0006517310255421705
-0.012509908400834983   -0.040009013605140795   -0.0009673309678369879
-0.008715648538265612   -0.040085479073622574   -0.0008531588735636913
-0.009366546592129902   -0.032576569629816886   -0.0006517310255421705
-0.01357843782003972   -0.03249404674823794   -0.000723500982852417
-0.012509908400834983   -0.040009013605140795   -0.0009673309678369879
-0.01360644919455506   -0.0324668142721009   -0.0006558488690358774
-0.008715648538265612   -0.040085479073622574   -0.0008531588735636913
-0.012518511266678654   -0.039991812787609625   -0.0008812928230298326
-0.01360644919455506   -0.0324668142721009   -0.0006558488690358774
-0.012509908400834983   -0.040009013605140795   -0.0009673309678369879
-0.008715648538265612   -0.040085479073622574   -0.0008531588735636913
-0.01360644919455506   -0.0324668142721009   -0.0006558488690358774
-0.009408164572057632   -0.03253478486950173   -0.0006042678963221774
-0.009366546592129902   -0.032576569629816886   -0.0006517310255421705
-0.008715648538265612   -0.040085479073622574   -0.0008531588735636913
-0.01360644919455506   -0.0324668142721009   -0.0006558488690358774
-0.009366546592129902   -0.032576569629816886   -0.0006517310255421705
-0.012509908400834983   -0.040009013605140795   -0.0009673309678369879
-0.012484014564973854   -0.0400977325688656   -0.00112272958206744
-0.013510796436868241   -0.032581449459621825   -0.000843886026716904
-0.016675187348293458   -0.03991930014917355   -0.0012296141665013205
-0.012507080236344136   -0.040045169503649426   -0.0010474656591104852
-0.013510796436868241   -0.032581449459621825   -0.000843886026716904
-0.01805210556288964   -0.032444629429752354   -0.0009328473391720421
-0.016675187348293458   -0.03991930014917355   -0.0012296141665013205
-0.018020439867886994   -0.03240388559734405   -0.0008554740934611918
-0.012507080236344136   -0.040045169503649426   -0.0010474656591104852
-0.016594493558019126   -0.039871283983100476   -0.0011197154516971214
-0.018020439867886994   -0.03240388559734405   -0.0008554740934611918
-0.016675187348293458   -0.03991930014917355   -0.0012296141665013205
-0.012507080236344136   -0.040045169503649426   -0.0010474656591104852
-0.018020439867886994   -0.03240388559734405   -0.0008554740934611918
-0.013552978967041994   -0.03253305208238666   -0.0007858790633071323
-0.013510796436868241   -0.032581449459621825   -0.000843886026716904
-0.012507080236344136   -0.040045169503649426   -0.0010474656591104852
-0.018020439867886994   -0.03240388559734405   -0.0008554740934611918
-0.013510796436868241   -0.032581449459621825   -0.000843886026716904
-0.016675187348293458   -0.03991930014917355   -0.0012296141665013205
-0.012507080236344136   -0.040045169503649426   -0.0010474656591104852
-0.013552978967041994   -0.03253305208238666   -0.0007858790633071323
-0.016594493558019126   -0.039871283983100476   -0.0011197154516971214
-0.012509908400834983   -0.040009013605140795   -0.0009673309678369879
-0.013552978967041994   -0.03253305208238666   -0.0007858790633071323
-0.018020439867886994   -0.03240388559734405   -0.0008554740934611918
-0.016594493558019126   -0.039871283983100476   -0.0011197154516971214
-0.017994628862473605   -0.03237129291988407   -0.0007700797756066874
-0.012509908400834983   -0.040009013605140795   -0.0009673309678369879
-0.016526491147689837   -0.039840729231048894   -0.001001309485282394
-0.017994628862473605   -0.03237129291988407   -0.0007700797756066874
-0.016594493558019126   -0.039871283983100476   -0.0011197154516971214
-0.012509908400834983   -0.040009013605140795   -0.0009673309678369879
-0.017994628862473605   -0.03237129291988407   -0.0007700797756066874
-0.01357843782003972   -0.03249404674823794   -0.000723500982852417
-0.013552978967041994   -0.03253305208238666   -0.0007858790633071323
-0.012509908400834983   -0.040009013605140795   -0.0009673309678369879
-0.017994628862473605   -0.03237129291988407   -0.0007700797756066874
-0.013552978967041994   -0.03253305208238666   -0.0007858790633071323
-0.016594493558019126   -0.039871283983100476   -0.0011197154516971214
-0.012509908400834983   -0.040009013605140795   -0.0009673309678369879
-0.01357843782003972   -0.03249404674823794   -0.000723500982852417
-0.016526491147689837   -0.039840729231048894   -0.001001309485282394
-0.012518511266678654   -0.039991812787609625   -0.0008812928230298326
-0.01357843782003972   -0.03249404674823794   -0.000723500982852417
-0.017994628862473605   -0.03237129291988407   -0.0007700797756066874
-0.016526491147689837   -0.039840729231048894   -0.001001309485282394
-0.017933073400132324   -0.03236153143820672   -0.0006775786973513082
-0.012518511266678654   -0.039991812787609625   -0.0008812928230298326
-0.01641446275658807   -0.03984235827117181   -0.0008754577497682524
-0.017933073400132324   -0.03236153143820672   -0.0006775786973513082
-0.016526491147689837   -0.039840729231048894   -0.001001309485282394
-0.012518511266678654   -0.039991812787609625   -0.0008812928230298326
-0.017933073400132324   -0.03236153143820672   -0.0006775786973513082
-0.01360644919455506   -0.0324668142721009   -0.0006558488690358774
-0.01357843782003972   -0.03249404674823794   -0.000723500982852417
-0.012518511266678654   -0.039991812787609625   -0.0008812928230298326
-0.017933073400132324   -0.03236153143820672   -0.0006775786973513082
-0.01357843782003972   -0.03249404674823794   -0.000723500982852417
-0.016526491147689837   -0.039840729231048894   -0.001001309485282394
0.003512993836732058   -0.03280783824351369   -0.00023421988105220038
0.0036359778957714617   -0.024801632363989457   -3.718573023638651e-05
-0.0009111053734118722   -0.03280719154260753   -0.00043178976691878604
0.00350073802206914   -0.032699256974820456   -0.0002657383224471756
0.0036359778957714617   -0.024801632363989457   -3.718573023638651e-05
-0.0010414203116085072   -0.024760751346713863   -0.0002146828641436659
-0.0009111053734118722   -0.03280719154260753   -0.00043178976691878604
-0.0010955433382606964   -0.02467054086742669   -0.0001986877015789068
0.00350073802206914   -0.032699256974820456   -0.0002657383224471756
-0.0009504630736134042   -0.03271288539144615   -0.0004348746157343339
-0.0010955433382606964   -0.02467054086742669   -0.0001986877015789068
-0.0009111053734118722   -0.03280719154260753   -0.00043178976691878604
0.00350073802206914   -0.032699256974820456   -0.0002657383224471756
-0.0010955433382606964   -0.02467054086742669   -0.0001986877015789068
0.003578823681737585   -0.024698103097719148   -3.425388076475001e-05
0.0036359778957714617   -0.024801632363989457   -3.718573023638651e-05
0.00350073802206914   -0.032699256974820456   -0.0002657383224471756
-0.0010955433382606964   -0.02467054086742669   -0.0001986877015789068
0.0036359778957714617   -0.024801632363989457   -3.718573023638651e-05
-0.0009111053734118722   -0.03280719154260753   -0.00043178976691878604
0.00350073802206914   -0.032699256974820456   -0.0002657383224471756
0.003578823681737585   -0.024698103097719148   -3.425388076475001e-05
-0.0009504630736134042   -0.03271288539144615   -0.0004348746157343339
0.003469344677970455   -0.03261210032325414   -0.0002893011459245015
0.003578823681737585   -0.024698103097719148   -3.425388076475001e-05
-0.0010955433382606964   -0.02467054086742669   -0.0001986877015789068
-0.0009504630736134042   -0.03271288539144615   -0.0004348746157343339
-0.0011575285312432552   -0.024585508331978104   -0.00017818530230293532
0.003469344677970455   -0.03261210032325414   -0.0002893011459245015
-0.0009942005373281984   -0.03263186900159132   -0.000432995996049999
-0.0011575285312432552   -0.024585508331978104   -0.00017818530230293532
-0.0009504630736134042   -0.03271288539144615   -0.0004348746157343339
0.003469344677970455   -0.03261210032325414   -0.0002893011459245015
-0.0011575285312432552   -0.024585508331978104   -0.00017818530230293532
0.003508449521894604   -0.02460575955950065   -2.2116957822295456e-05
0.003578823681737585   -0.024698103097719148   -3.425388076475001e-05
0.003469344677970455   -0.03261210032325414   -0.0002893011459245015
-0.0011575285312432552   -0.024585508331978104   -0.00017818530230293532
0.003578823681737585   -0.024698103097719148   -3.425388076475001e-05
-0.0009504630736134042   -0.03271288539144615   -0.0004348746157343339
0.003469344677970455   -0.03261210032325414   -0.0002893011459245015
0.003508449521894604   -0.02460575955950065   -2.2116957822295456e-05
-0.0009942005373281984   -0.03263186900159132   -0.000432995996049999
0.003425440651173329   -0.03253206214212845   -0.00030546401206136376
0.003508449521894604   -0.02460575955950065   -2.2116957822295456e-05
-0.0011575285312432552   -0.024585508331978104   -0.00017818530230293532
-0.0009942005373281984   -0.03263186900159132   -0.000432995996049999
-0.0012271540965953613   -0.024504484341732895   -0.00015204668687859646
0.003425440651173329   -0.03253206214212845   -0.00030546401206136376
-0.0010485621297503418   -0.03256203116892499   -0.00042595823073839745
-0.0012271540965953613   -0.024504484341732895   -0.00015204668687859646
-0.0009942005373281984   -0.03263186900159132   -0.000432995996049999
0.003425440651173329   -0.03253206214212845   -0.00030546401206136376
-0.0012271540965953613   -0.024504484341732895   -0.00015204668687859646
0.003415625362186002   -0.02450924908829225   -1.1901219444455313e-06
0.003508449521894604   -0.02460575955950065   -2.2116957822295456e-05
0.003425440651173329   -0.03253206214212845   -0.00030546401206136376
-0.0012271540965953613   -0.024504484341732895   -0.00015204668687859646
0.003508449521894604   -0.02460575955950065   -2.2116957822295456e-05
-0.0009942005373281984   -0.03263186900159132   -0.000432995996049999
-0.0009111053734118722   -0.03280719154260753   -0.00043178976691878604
-0.0010414203116085072   -0.024760751346713863   -0.0002146828641436659
-0.005131155908822657   -0.032767258089156655   -0.0005946302639405507
-0.0009504630736134042   -0.03271288539144615   -0.0004348746157343339
-0.0010414203116085072   -0.024760751346713863   -0.0002146828641436659
-0.005473417705071493   -0.02471284064991414   -0.00036466929986615055
-0.005131155908822657   -0.032767258089156655   -0.0005946302639405507
-0.0055286976261046065   -0.024637492778028625   -0.0003399906862861859
-0.0009504630736134042   -0.03271288539144615   -0.0004348746157343339
-0.005175284070456851   -0.03268906347929812   -0.0005773745572725323
-0.0055286976261046065   -0.024637492778028625   -0.0003399906862861859
-0.005131155908822657   -0.032767258089156655   -0.0005946302639405507
-0.0009504630736134042   -0.03271288539144615   -0.0004348746157343339
-0.0055286976261046065   -0.024637492778028625   -0.0003399906862861859
-0.0010955433382606964   -0.02467054086742669   -0.0001986877015789068
-0.0010414203116085072   -0.024760751346713863   -0.0002146828641436659
-0.0009504630736134042   -0.03271288539144615   -0.0004348746157343339
-0.0055286976261046065   -0.024637492778028625   -0.0003399906862861859
-0.0010414203116085072   -0.024760751346713863   -0.0002146828641436659
-0.005131155908822657   -0.032767258089156655   -0.0005946302639405507
-0.0009504630736134042   -0.03271288539144615   -0.0004348746157343339
-0.0010955433382606964   -0.02467054086742669   -0.0001986877015789068
-0.005175284070456851   -0.03268906347929812   -0.0005773745572725323
-0.0009942005373281984   -0.03263186900159132   -0.000432995996049999
-0.0010955433382606964   -0.02467054086742669   -0.0001986877015789068
-0.0055286976261046065   -0.024637492778028625   -0.0003399906862861859
-0.005175284070456851   -0.03268906347929812   -0.0005773745572725323
-0.005585223360792249   -0.024566161661766294   -0.0003110133790054459
-0.0009942005373281984   -0.03263186900159132   -0.000432995996049999
-0.005220305042684759   -0.03262168712553728   -0.0005549467588445914
-0.005585223360792249   -0.024566161661766294   -0.0003110133790054459
-0.005175284070456851   -0.03268906347929812   -0.0005773745572725323
-0.0009942005373281984   -0.03263186900159132   -0.000432995996049999
-0.005585223360792249   -0.024566161661766294   -0.0003110133790054459
-0.0011575285312432552   -0.024585508331978104   -0.00017818530230293532
-0.0010955433382606964   -0.02467054086742669   -0.0001986877015789068
-0.0009942005373281984   -0.03263186900159132   -0.000432995996049999
-0.005585223360792249   -0.024566161661766294   -0.0003110133790054459
-0.0010955433382606964   -0.02467054086742669   -0.0001986877015789068
-0.005175284070456851   -0.03268906347929812   -0.0005773745572725323
-0.0009942005373281984   -0.03263186900159132   -0.000432995996049999
-0.0011575285312432552   -0.024585508331978104   -0.00017818530230293532
-0.005220305042684759   -0.03262168712553728   -0.0005549467588445914
-0.0010485621297503418   -0.03256203116892499   -0.00042595823073839745
-0.0011575285312432552   -0.024585508331978104   -0.00017818530230293532
-0.005585223360792249   -0.024566161661766294   -0.0003110133790054459
-0.005220305042684759   -0.03262168712553728   -0.0005549467588445914
-0.005645355808897002   -0.02449996228496716   -0.00027769354764634177
-0.0010485621297503418   -0.03256203116892499   -0.00042595823073839745
-0.0052691457404321655   -0.032565770646963504   -0.0005275915115346853
-0.005645355808897002   -0.02449996228496716   -0.00027769354764634177
-0.005220305042684759   -0.03262168712553728   -0.0005549467588445914
-0.0010485621297503418   -0.03256203116892499   -0.00042595823073839745
-0.005645355808897002   -0.02449996228496716   -0.00027769354764634177
-0.0012271540965953613   -0.024504484341732895   -0.00015204668687859646
-0.0011575285312432552   -0.024585508331978104   -0.00017818530230293532
-0.0010485621297503418   -0.03256203116892499   -0.00042595823073839745
-0.005645355808897002   -0.02449996228496716   -0.00027769354764634177
-0.0011575285312432552   -0.024585508331978104   -0.00017818530230293532
-0.005220305042684759   -0.03262168712553728   -0.0005549467588445914
-0.005131155908822657   -0.032767258089156655   -0.0005946302639405507
-0.005473417705071493   -0.02471284064991414   -0.00036466929986615055
-0.009279863841181308   -0.03269253913900466   -0.0007318882329896818
-0.005175284070456851   -0.03268906347929812   -0.0005773745572725323
-0.005473417705071493   -0.02471284064991414   -0.00036466929986615055
-0.009833177191775719   -0.024655266275747153   -0.0004919088342583913
-0.009279863841181308   -0.03269253913900466   -0.0007318882329896818
-0.009888083685972422   -0.024593677162511575   -0.00045856334680421045
-0.005175284070456851   -0.03268906347929812   -0.0005773745572725323
-0.009325321246656266   -0.03262918346395409   -0.0006943350645574746
-0.009888083685972422   -0.024593677162511575   -0.00045856334680421045
-0.009279863841181308   -0.03269253913900466   -0.0007318882329896818
-0.005175284070456851   -0.03268906347929812   -0.0005773745572725323
-0.009888083685972422   -0.024593677162511575   -0.00045856334680421045
-0.0055286976261046065   -0.024637492778028625   -0.0003399906862861859
-0.005473417705071493   -0.02471284064991414   -0.00036466929986615055
-0.005175284070456851   -0.03268906347929812   -0.0005773745572725323
-0.009888083685972422   -0.024593677162511575   -0.00045856334680421045
-0.005473417705071493   -0.02471284064991414   -0.00036466929986615055
-0.009279863841181308   -0.03269253913900466   -0.0007318882329896818
-0.005175284070456851   -0.03268906347929812   -0.0005773745572725323
-0.0055286976261046065   -0.024637492778028625   -0.0003399906862861859
-0.009325321246656266   -0.03262918346395409   -0.0006943350645574746
-0.005220305042684759   -0.03262168712553728   -0.0005549467588445914
-0.0055286976261046065   -0.024637492778028625   -0.0003399906862861859
-0.009888083685972422   -0.024593677162511575   -0.00045856334680421045
-0.009325321246656266   -0.03262918346395409   -0.0006943350645574746
-0.00993943016348158   -0.02453632822494229   -0.00042106598345854933
-0.005220305042684759   -0.03262168712553728   -0.0005549467588445914
-0.009366546592129902   -0.032576569629816886   -0.0006517310255421705
-0.00993943016348158   -0.02453632822494229   -0.00042106598345854933
-0.009325321246656266   -0.03262918346395409   -0.0006943350645574746
-0.005220305042684759   -0.03262168712553728   -0.0005549467588445914
-0.00993943016348158   -0.02453632822494229   -0.00042106598345854933
-0.005585223360792249   -0.024566161661766294   -0.0003110133790054459
-0.0055286976261046065   -0.024637492778028625   -0.0003399906862861859
-0.005220305042684759   -0.03262168712553728   -0.0005549467588445914
-0.00993943016348158   -0.02453632822494229   -0.00042106598345854933
-0.0055286976261046065   -0.024637492778028625   -0.0003399906862861859
-0.009325321246656266   -0.03262918346395409   -0.0006943350645574746
-0.005220305042684759   -0.03262168712553728   -0.0005549467588445914
-0.005585223360792249   -0.024566161661766294   -0.0003110133790054459
-0.009366546592129902   -0.032576569629816886   -0.0006517310255421705
-0.0052691457404321655   -0.032565770646963504   -0.0005275915115346853
-0.005585223360792249   -0.024566161661766294   -0.0003110133790054459
-0.00993943016348158   -0.02453632822494229   -0.00042106598345854933
-0.009366546592129902   -0.032576569629816886   -0.0006517310255421705
-0.009990960555383153   -0.024483376772848994   -0.0003796216094277507
-0.0052691457404321655   -0.032565770646963504   -0.0005275915115346853
-0.009408164572057632   -0.03253478486950173   -0.0006042678963221774
-0.009990960555383153   -0.024483376772848994   -0.0003796216094277507
-0.009366546592129902   -0.032576569629816886   -0.0006517310255421705
-0.0052691457404321655   -0.032565770646963504   -0.0005275915115346853
-0.009990960555383153   -0.024483376772848994   -0.0003796216094277507
-0.005645355808897002   -0.02449996228496716   -0.00027769354764634177
-0.005585223360792249   -0.024566161661766294   -0.0003110133790054459
-0.0052691457404321655   -0.032565770646963504   -0.0005275915115346853
-0.009990960555383153   -0.024483376772848994   -0.0003796216094277507
-0.005585223360792249   -0.024566161661766294   -0.0003110133790054459
-0.009366546592129902   -0.032576569629816886   -0.0006517310255421705
-0.009279863841181308   -0.03269253913900466   -0.0007318882329896818
-0.009833177191775719   -0.024655266275747153   -0.0004919088342583913
-0.013510796436868241   -0.032581449459621825   -0.000843886026716904
-0.009325321246656266   -0.03262918346395409   -0.0006943350645574746
-0.009833177191775719   -0.024655266275747153   -0.0004919088342583913
-0.01427176678881209   -0.024577353521658907   -0.0005953119815866603
-0.013510796436868241   -0.032581449459621825   -0.000843886026716904
-0.014324335465292291   -0.024530238032963305   -0.0005534032329997894
-0.009325321246656266   -0.03262918346395409   -0.0006943350645574746
-0.013552978967041994   -0.03253305208238666   -0.0007858790633071323
-0.014324335465292291   -0.024530238032963305   -0.0005534032329997894
-0.013510796436868241   -0.032581449459621825   -0.000843886026716904
-0.009325321246656266   -0.03262918346395409   -0.0006943350645574746
-0.014324335465292291   -0.024530238032963305   -0.0005534032329997894
-0.009888083685972422   -0.024593677162511575   -0.00045856334680421045
-0.009833177191775719   -0.024655266275747153   -0.0004919088342583913
-0.009325321246656266   -0.03262918346395409   -0.0006943350645574746
-0.014324335465292291   -0.024530238032963305   -0.0005534032329997894
-0.009833177191775719   -0.024655266275747153   -0.0004919088342583913
-0.013510796436868241   -0.032581449459621825   -0.000843886026716904
-0.009325321246656266   -0.03262918346395409   -0.0006943350645574746
-0.009888083685972422   -0.024593677162511575   -0.00045856334680421045
-0.013552978967041994   -0.03253305208238666   -0.0007858790633071323
-0.009366546592129902   -0.032576569629816886   -0.0006517310255421705
-0.009888083685972422   -0.024593677162511575   -0.00045856334680421045
-0.014324335465292291   -0.024530238032963305   -0.0005534032329997894
-0.013552978967041994   -0.03253305208238666   -0.0007858790633071323
-0.014364124931813636   -0.024485772218477392   -0.0005080241195530622
-0.009366546592129902   -0.032576569629816886   -0.0006517310255421705
-0.01357843782003972   -0.03249404674823794   -0.000723500982852417
-0.014364124931813636   -0.024485772218477392   -0.0005080241195530622
-0.013552978967041994   -0.03253305208238666   -0.0007858790633071323
-0.009366546592129902   -0.032576569629816886   -0.0006517310255421705
-0.014364124931813636   -0.024485772218477392   -0.0005080241195530622
-0.00993943016348158   -0.02453632822494229   -0.00042106598345854933
-0.009888083685972422   -0.024593677162511575   -0.00045856334680421045
-0.009366546592129902   -0.032576569629816886   -0.0006517310255421705
-0.014364124931813636   -0.024485772218477392   -0.0005080241195530622
-0.009888083685972422   -0.024593677162511575   -0.00045856334680421045
-0.013552978967041994   -0.03253305208238666   -0.0007858790633071323
-0.009366546592129902   -0.032576569629816886   -0.0006517310255421705
-0.00993943016348158   -0.02453632822494229   -0.00042106598345854933
-0.01357843782003972   -0.03249404674823794   -0.000723500982852417
-0.009408164572057632   -0.03253478486950173   -0.0006042678963221774
-0.00993943016348158   -0.02453632822494229   -0.00042106598345854933
-0.014364124931813636   -0.024485772218477392   -0.0005080241195530622
-0.01357843782003972   -0.03249404674823794   -0.000723500982852417
-0.014403619511085469   -0.024445952236956916   -0.000458272451725011
-0.009408164572057632   -0.03253478486950173   -0.0006042678963221774
-0.01360644919455506   -0.0324668142721009   -0.0006558488690358774
-0.014403619511085469   -0.024445952236956916   -0.000458272451725011
-0.01357843782003972   -0.03249404674823794   -0.000723500982852417
-0.009408164572057632   -0.03253478486950173   -0.0006042678963221774
-0.014403619511085469   -0.024445952236956916   -0.000458272451725011
-0.009990960555383153   -0.024483376772848994   -0.0003796216094277507
-0.00993943016348158   -0.02453632822494229   -0.00042106598345854933
-0.009408164572057632   -0.03253478486950173   -0.0006042678963221774
-0.014403619511085469   -0.024445952236956916   -0.000458272451725011
-0.00993943016348158   -0.02453632822494229   -0.00042106598345854933
-0.01357843782003972   -0.03249404674823794   -0.000723500982852417
-0.013510796436868241   -0.032581449459621825   -0.000843886026716904
-0.01427176678881209   -0.024577353521658907   -0.0005953119815866603
-0.01805210556288964   -0.032444629429752354   -0.0009328473391720421
-0.013552978967041994   -0.03253305208238666   -0.0007858790633071323
-0.01427176678881209   -0.024577353521658907   -0.0005953119815866603
-0.018976673638258352   -0.024485166866954754   -0.0006718417516297624
-0.01805210556288964   -0.032444629429752354   -0.0009328473391720421
-0.01898434470977503   -0.024447680506242502   -0.0006254259254090083
-0.013552978967041994   -0.03253305208238666   -0.0007858790633071323
-0.018020439867886994   -0.03240388559734405   -0.0008554740934611918
-0.01898434470977503   -0.024447680506242502   -0.0006254259254090083
-0.01805210556288964   -0.032444629429752354   -0.0009328473391720421
-0.013552978967041994   -0.03253305208238666   -0.0007858790633071323
-0.01898434470977503   -0.024447680506242502   -0.0006254259254090083
-0.014324335465292291   -0.024530238032963305   -0.0005534032329997894
-0.01427176678881209   -0.024577353521658907   -0.0005953119815866603
-0.013552978967041994   -0.03253305208238666   -0.0007858790633071323
-0.01898434470977503   -0.024447680506242502   -0.0006254259254090083
-0.01427176678881209   -0.024577353521658907   -0.0005953119815866603
-0.01805210556288964   -0.032444629429752354   -0.0009328473391720421
-0.013552978967041994   -0.03253305208238666   -0.0007858790633071323
-0.014324335465292291   -0.024530238032963305   -0.0005534032329997894
-0.018020439867886994   -0.03240388559734405   -0.0008554740934611918
-0.01357843782003972   -0.03249404674823794   -0.000723500982852417
-0.014324335465292291   -0.024530238032963305   -0.0005534032329997894
-0.01898434470977503   -0.024447680506242502   -0.0006254259254090083
-0.018020439867886994   -0.03240388559734405   -0.0008554740934611918
-0.018992288967381397   -0.024409833343029562   -0.0005720268618106481
-0.01357843782003972   -0.03249404674823794   -0.000723500982852417
-0.017994628862473605   -0.03237129291988407   -0.0007700797756066874
-0.018992288967381397   -0.024409833343029562   -0.0005720268618106481
-0.018020439867886994   -0.03240388559734405   -0.0008554740934611918
-0.01357843782003972   -0.03249404674823794   -0.000723500982852417
-0.018992288967381397   -0.024409833343029562   -0.0005720268618106481
-0.014364124931813636   -0.024485772218477392   -0.0005080241195530622
-0.014324335465292291   -0.024530238032963305   -0.0005534032329997894
-0.01357843782003972   -0.03249404674823794   -0.000723500982852417
-0.018992288967381397   -0.024409833343029562   -0.0005720268618106481
-0.014324335465292291   -0.024530238032963305   -0.0005534032329997894
-0.018020439867886994   -0.03240388559734405   -0.0008554740934611918
-0.01357843782003972   -0.03249404674823794   -0.000723500982852417
-0.014364124931813636   -0.024485772218477392   -0.0005080241195530622
-0.017994628862473605   -0.03237129291988407   -0.0007700797756066874
-0.01360644919455506   -0.0324668142721009   -0.0006558488690358774
-0.014364124931813636   -0.024485772218477392   -0.0005080241195530622
-0.018992288967381397   -0.024409833343029562   -0.0005720268618106481
-0.017994628862473605   -0.03237129291988407   -0.0007700797756066874
-0.01897367766145841   -0.02438523947543759   -0.0005124706890649269
-0.01360644919455506   -0.0324668142721009   -0.0006558488690358774
-0.017933073400132324   -0.03236153143820672   -0.0006775786973513082
-0.01897367766145841   -0.02438523947543759   -0.0005124706890649269
-0.017994628862473605   -0.03237129291988407   -0.0007700797756066874
-0.01360644919455506   -0.0324668142721009   -0.0006558488690358774
-0.01897367766145841   -0.02438523947543759   -0.0005124706890649269
-0.014403619511085469   -0.024445952236956916   -0.000458272451725011
-0.014364124931813636   -0.024485772218477392   -0.0005080241195530622
-0.01360644919455506   -0.0324668142721009   -0.0006558488690358774
-0.01897367766145841   -0.02438523947543759   -0.0005124706890649269
-0.014364124931813636   -0.024485772218477392   -0.0005080241195530622
-0.017994628862473605   -0.03237129291988407   -0.0007700797756066874
0.0036359778957714617   -0.024801632363989457   -3.718573023638651e-05
0.003262345590497927   -0.016553530225396164   9.885067941062057e-05
-0.0010414203116085072   -0.024760751346713863   -0.0002146828641436659
0.003578823681737585   -0.024698103097719148   -3.425388076475001e-05
0.003262345590497927   -0.016553530225396164   9.885067941062057e-05
-0.0014521445196405288   -0.016476083098070023   -4.1905440167374046e-05
-0.0010414203116085072   -0.024760751346713863   -0.0002146828641436659
-0.0015169374271636206   -0.016394492025508467   -8.314682011019275e-06
0.003578823681737585   -0.024698103097719148   -3.425388076475001e-05
-0.0010955433382606964   -0.02467054086742669   -0.0001986877015789068
-0.0015169374271636206   -0.016394492025508467   -8.314682011019275e-06
-0.0010414203116085072   -0.024760751346713863   -0.0002146828641436659
0.003578823681737585   -0.024698103097719148   -3.425388076475001e-05
-0.0015169374271636206   -0.016394492025508467   -8.314682011019275e-06
0.0031604982835266152   -0.01645495268278786   0.00014048422720586747
0.003262345590497927   -0.016553530225396164   9.885067941062057e-05
0.003578823681737585   -0.024698103097719148   -3.425388076475001e-05
-0.0015169374271636206   -0.016394492025508467   -8.314682011019275e-06
0.003262345590497927   -0.016553530225396164   9.885067941062057e-05
-0.0010414203116085072   -0.024760751346713863   -0.0002146828641436659
0.003578823681737585   -0.024698103097719148   -3.425388076475001e-05
0.0031604982835266152   -0.01645495268278786   0.00014048422720586747
-0.0010955433382606964   -0.02467054086742669   -0.0001986877015789068
0.003508449521894604   -0.02460575955950065   -2.2116957822295456e-05
0.0031604982835266152   -0.01645495268278786   0.00014048422720586747
-0.0015169374271636206   -0.016394492025508467   -8.314682011019275e-06
-0.0010955433382606964   -0.02467054086742669   -0.0001986877015789068
-0.0015927669614853646   -0.016308423796244975   3.1278668220281816e-05
0.003508449521894604   -0.02460575955950065   -2.2116957822295456e-05
-0.0011575285312432552   -0.024585508331978104   -0.00017818530230293532
-0.0015927669614853646   -0.016308423796244975   3.1278668220281816e-05
-0.0010955433382606964   -0.02467054086742669   -0.0001986877015789068
0.003508449521894604   -0.02460575955950065   -2.2116957822295456e-05
-0.0015927669614853646   -0.016308423796244975   3.1278668220281816e-05
0.0030466312818638974   -0.01635716004528427   0.00020044237682000966
0.0031604982835266152   -0.01645495268278786   0.00014048422720586747
0.003508449521894604   -0.02460575955950065   -2.2116957822295456e-05
-0.0015927669614853646   -0.016308423796244975   3.1278668220281816e-05
0.0031604982835266152   -0.01645495268278786   0.00014048422720586747
-0.0010955433382606964   -0.02467054086742669   -0.0001986877015789068
0.003508449521894604   -0.02460575955950065   -2.2116957822295456e-05
0.0030466312818638974   -0.01635716004528427   0.00020044237682000966
-0.0011575285312432552   -0.024585508331978104   -0.00017818530230293532
0.003415625362186002   -0.02450924908829225   -1.1901219444455313e-06
0.0030466312818638974   -0.01635716004528427   0.00020044237682000966
-0.0015927669614853646   -0.016308423796244975   3.1278668220281816e-05
-0.0011575285312432552   -0.024585508331978104   -0.00017818530230293532
-0.0016712427139960297   -0.0162170775069511   7.679978328236683e-05
0.003415625362186002   -0.02450924908829225   -1.1901219444455313e-06
-0.0012271540965953613   -0.024504484341732895   -0.00015204668687859646
-0.0016712427139960297   -0.0162170775069511   7.679978328236683e-05
-0.0011575285312432552   -0.024585508331978104   -0.00017818530230293532
0.003415625362186002   -0.02450924908829225   -1.1901219444455313e-06
-0.0016712427139960297   -0.0162170775069511   7.679978328236683e-05
0.002907483620840738   -0.01623698662943602   0.0002664459433225655
0.0030466312818638974   -0.01635716004528427   0.00020044237682000966
0.003415625362186002   -0.02450924908829225   -1.1901219444455313e-06
-0.0016712427139960297   -0.0162170775069511   7.679978328236683e-05
0.0030466312818638974   -0.01635716004528427   0.00020044237682000966
-0.0011575285312432552   -0.024585508331978104   -0.00017818530230293532
-0.0010414203116085072   -0.024760751346713863   -0.0002146828641436659
-0.0014521445196405288   -0.016476083098070023   -4.1905440167374046e-05
-0.005473417705071493   -0.02471284064991414   -0.00036466929986615055
-0.0010955433382606964   -0.02467054086742669   -0.0001986877015789068
-0.0014521445196405288   -0.016476083098070023   -4.1905440167374046e-05
-0.005891042452563024   -0.01645602486827118   -0.0001774451961124885
-0.005473417705071493   -0.02471284064991414   -0.00036466929986615055
-0.005949677986648908   -0.016384914200586017   -0.00014610651221552083
-0.0010955433382606964   -0.02467054086742669   -0.0001986877015789068
-0.0055286976261046065   -0.024637492778028625   -0.0003399906862861859
-0.005949677986648908   -0.016384914200586017   -0.00014610651221552083
-0.005473417705071493   -0.02471284064991414   -0.00036466929986615055
-0.0010955433382606964   -0.02467054086742669   -0.0001986877015789068
-0.005949677986648908   -0.016384914200586017   -0.00014610651221552083
-0.0015169374271636206   -0.016394492025508467   -8.314682011019275e-06
-0.0014521445196405288   -0.016476083098070023   -4.1905440167374046e-05
-0.0010955433382606964   -0.02467054086742669   -0.0001986877015789068
-0.005949677986648908   -0.016384914200586017   -0.00014610651221552083
-0.0014521445196405288   -0.016476083098070023   -4.1905440167374046e-05
-0.005473417705071493   -0.02471284064991414   -0.00036466929986615055
-0.0010955433382606964   -0.02467054086742669   -0.0001986877015789068
-0.0015169374271636206   -0.016394492025508467   -8.314682011019275e-06
-0.0055286976261046065   -0.024637492778028625   -0.0003399906862861859
-0.0011575285312432552   -0.024585508331978104   -0.00017818530230293532
-0.0015169374271636206   -0.016394492025508467   -8.314682011019275e-06
-0.005949677986648908   -0.016384914200586017   -0.00014610651221552083
-0.0055286976261046065   -0.024637492778028625   -0.0003399906862861859
-0.006010350280798137   -0.016310962855337303   -0.00011164257871083929
-0.0011575285312432552   -0.024585508331978104   -0.00017818530230293532
-0.005585223360792249   -0.024566161661766294   -0.0003110133790054459
-0.006010350280798137   -0.016310962855337303   -0.00011164257871083929
-0.0055286976261046065   -0.024637492778028625   -0.0003399906862861859
-0.0011575285312432552   -0.024585508331978104   -0.00017818530230293532
-0.006010350280798137   -0.016310962855337303   -0.00011164257871083929
-0.0015927669614853646   -0.016308423796244975   3.1278668220281816e-05
-0.0015169374271636206   -0.016394492025508467   -8.314682011019275e-06
-0.0011575285312432552   -0.024585508331978104   -0.00017818530230293532
-0.006010350280798137   -0.016310962855337303   -0.00011164257871083929
-0.0015169374271636206   -0.016394492025508467   -8.314682011019275e-06
-0.0055286976261046065   -0.024637492778028625   -0.0003399906862861859
-0.0011575285312432552   -0.024585508331978104   -0.00017818530230293532
-0.0015927669614853646   -0.016308423796244975   3.1278668220281816e-05
-0.005585223360792249   -0.024566161661766294   -0.0003110133790054459
-0.0012271540965953613   -0.024504484341732895   -0.00015204668687859646
-0.0015927669614853646   -0.016308423796244975   3.1278668220281816e-05
-0.006010350280798137   -0.016310962855337303   -0.00011164257871083929
-0.005585223360792249   -0.024566161661766294   -0.0003110133790054459
-0.0060735318088660974   -0.01623551708635395   -7.343249643251962e-05
-0.0012271540965953613   -0.024504484341732895   -0.00015204668687859646
-0.005645355808897002   -0.02449996228496716   -0.00027769354764634177
-0.0060735318088660974   -0.01623551708635395   -7.343249643251962e-05
-0.005585223360792249   -0.024566161661766294   -0.0003110133790054459
-0.0012271540965953613   -0.024504484341732895   -0.00015204668687859646
-0.0060735318088660974   -0.01623551708635395   -7.343249643251962e-05
-0.0016712427139960297   -0.0162170775069511   7.679978328236683e-05
-0.0015927669614853646   -0.016308423796244975   3.1278668220281816e-05
-0.0012271540965953613   -0.024504484341732895   -0.00015204668687859646
-0.0060735318088660974   -0.01623551708635395   -7.343249643251962e-05
-0.0015927669614853646   -0.016308423796244975   3.1278668220281816e-05
-0.005585223360792249   -0.024566161661766294   -0.0003110133790054459
-0.005473417705071493   -0.02471284064991414   -0.00036466929986615055
-0.005891042452563024   -0.01645602486827118   -0.0001774451961124885
-0.009833177191775719   -0.024655266275747153   -0.0004919088342583913
-0.0055286976261046065   -0.024637492778028625   -0.0003399906862861859
-0.005891042452563024   -0.01645602486827118   -0.0001774451961124885
-0.010283972809437419   -0.01645042734534071   -0.00029987605557010134
-0.009833177191775719   -0.024655266275747153   -0.0004919088342583913
-0.010340061446202165   -0.016388147315097815   -0.00026990689908644965
-0.0055286976261046065   -0.024637492778028625   -0.0003399906862861859
-0.009888083685972422   -0.024593677162511575   -0.00045856334680421045
-0.010340061446202165   -0.016388147315097815   -0.00026990689908644965
-0.009833177191775719   -0.024655266275747153   -0.0004919088342583913
-0.0055286976261046065   -0.024637492778028625   -0.0003399906862861859
-0.010340061446202165   -0.016388147315097815   -0.00026990689908644965
-0.005949677986648908   -0.016384914200586017   -0.00014610651221552083
-0.005891042452563024   -0.01645602486827118   -0.0001774451961124885
-0.0055286976261046065   -0.024637492778028625   -0.0003399906862861859
-0.010340061446202165   -0.016388147315097815   -0.00026990689908644965
-0.005891042452563024   -0.01645602486827118   -0.0001774451961124885
-0.009833177191775719   -0.024655266275747153   -0.0004919088342583913
-0.0055286976261046065   -0.024637492778028625   -0.0003399906862861859
-0.005949677986648908   -0.016384914200586017   -0.00014610651221552083
-0.009888083685972422   -0.024593677162511575   -0.00045856334680421045
-0.005585223360792249   -0.024566161661766294   -0.0003110133790054459
-0.005949677986648908   -0.016384914200586017   -0.00014610651221552083
-0.010340061446202165   -0.016388147315097815   -0.00026990689908644965
-0.009888083685972422   -0.024593677162511575   -0.00045856334680421045
-0.010393493770506055   -0.016324768704197398   -0.00023720225335554428
-0.005585223360792249   -0.024566161661766294   -0.0003110133790054459
-0.00993943016348158   -0.02453632822494229   -0.00042106598345854933
-0.010393493770506055   -0.016324768704197398   -0.00023720225335554428
-0.009888083685972422   -0.024593677162511575   -0.00045856334680421045
-0.005585223360792249   -0.024566161661766294   -0.0003110133790054459
-0.010393493770506055   -0.016324768704197398   -0.00023720225335554428
-0.006010350280798137   -0.016310962855337303   -0.00011164257871083929
-0.005949677986648908   -0.016384914200586017   -0.00014610651221552083
-0.005585223360792249   -0.024566161661766294   -0.0003110133790054459
-0.010393493770506055   -0.016324768704197398   -0.00023720225335554428
-0.005949677986648908   -0.016384914200586017   -0.00014610651221552083
-0.009888083685972422   -0.024593677162511575   -0.00045856334680421045
-0.005585223360792249   -0.024566161661766294   -0.0003110133790054459
-0.006010350280798137   -0.016310962855337303   -0.00011164257871083929
-0.00993943016348158   -0.02453632822494229   -0.00042106598345854933
-0.005645355808897002   -0.02449996228496716   -0.00027769354764634177
-0.006010350280798137   -0.016310962855337303   -0.00011164257871083929
-0.010393493770506055   -0.016324768704197398   -0.00023720225335554428
-0.00993943016348158   -0.02453632822494229   -0.00042106598345854933
-0.01044639040218237   -0.016259925662713805   -0.00020191468055490478
-0.005645355808897002   -0.02449996228496716   -0.00027769354764634177
-0.009990960555383153   -0.024483376772848994   -0.0003796216094277507
-0.01044639040218237   -0.016259925662713805   -0.00020191468055490478
-0.00993943016348158   -0.02453632822494229   -0.00042106598345854933
-0.005645355808897002   -0.02449996228496716   -0.00027769354764634177
-0.01044639040218237   -0.016259925662713805   -0.00020191468055490478
-0.0060735318088660974   -0.01623551708635395   -7.343249643251962e-05
-0.006010350280798137   -0.016310962855337303   -0.00011164257871083929
-0.005645355808897002   -0.02449996228496716   -0.00027769354764634177
-0.01044639040218237   -0.016259925662713805   -0.00020191468055490478
-0.006010350280798137   -0.016310962855337303   -0.00011164257871083929
-0.00993943016348158   -0.02453632822494229   -0.00042106598345854933
-0.009833177191775719   -0.024655266275747153   -0.0004919088342583913
-0.010283972809437419   -0.01645042734534071   -0.00029987605557010134
-0.01427176678881209   -0.024577353521658907   -0.0005953119815866603
-0.009888083685972422   -0.024593677162511575   -0.00045856334680421045
-0.010283972809437419   -0.01645042734534071   -0.00029987605557010134
-0.01477002964689731   -0.016424804326269575   -0.00040254889719644016
-0.01427176678881209   -0.024577353521658907   -0.0005953119815866603
-0.014823498973583205   -0.016374166029719465   -0.0003741097136252243
-0.009888083685972422   -0.024593677162511575   -0.00045856334680421045
-0.014324335465292291   -0.024530238032963305   -0.0005534032329997894
-0.014823498973583205   -0.016374166029719465   -0.0003741097136252243
-0.01427176678881209   -0.024577353521658907   -0.0005953119815866603
-0.009888083685972422   -0.024593677162511575   -0.00045856334680421045
-0.014823498973583205   -0.016374166029719465   -0.0003741097136252243
-0.010340061446202165   -0.016388147315097815   -0.00026990689908644965
-0.010283972809437419   -0.01645042734534071   -0.00029987605557010134
-0.009888083685972422   -0.024593677162511575   -0.00045856334680421045
-0.014823498973583205   -0.016374166029719465   -0.0003741097136252243
-0.010283972809437419   -0.01645042734534071   -0.00029987605557010134
-0.01427176678881209   -0.024577353521658907   -0.0005953119815866603
-0.009888083685972422   -0.024593677162511575   -0.00045856334680421045
-0.010340061446202165   -0.016388147315097815   -0.00026990689908644965
-0.014324335465292291   -0.024530238032963305   -0.0005534032329997894
-0.00993943016348158   -0.02453632822494229   -0.00042106598345854933
-0.010340061446202165   -0.016388147315097815   -0.00026990689908644965
-0.014823498973583205   -0.016374166029719465   -0.0003741097136252243
-0.014324335465292291   -0.024530238032963305   -0.0005534032329997894
-0.014868767869002736   -0.016320760123256832   -0.0003437202037199173
-0.00993943016348158   -0.02453632822494229   -0.00042106598345854933
-0.014364124931813636   -0.024485772218477392   -0.0005080241195530622
-0.014868767869002736   -0.016320760123256832   -0.0003437202037199173
-0.014324335465292291   -0.024530238032963305   -0.0005534032329997894
-0.00993943016348158   -0.02453632822494229   -0.00042106598345854933
-0.014868767869002736   -0.016320760123256832   -0.0003437202037199173
-0.010393493770506055   -0.016324768704197398   -0.00023720225335554428
-0.010340061446202165   -0.016388147315097815   -0.00026990689908644965
-0.00993943016348158   -0.02453632822494229   -0.00042106598345854933
-0.014868767869002736   -0.016320760123256832   -0.0003437202037199173
-0.010340061446202165   -0.016388147315097815   -0.00026990689908644965
-0.014324335465292291   -0.024530238032963305   -0.0005534032329997894
-0.00993943016348158   -0.02453632822494229   -0.00042106598345854933
-0.010393493770506055   -0.016324768704197398   -0.00023720225335554428
-0.014364124931813636   -0.024485772218477392   -0.0005080241195530622
-0.009990960555383153   -0.024483376772848994   -0.0003796216094277507
-0.010393493770506055   -0.016324768704197398   -0.00023720225335554428
-0.014868767869002736   -0.016320760123256832   -0.0003437202037199173
-0.014364124931813636   -0.024485772218477392   -0.0005080241195530622
-0.014911551578469212   -0.01626597289983618   -0.0003105383194461237
-0.009990960555383153   -0.024483376772848994   -0.0003796216094277507
-0.014403619511085469   -0.024445952236956916   -0.000458272451725011
-0.014911551578469212   -0.01626597289983618   -0.0003105383194461237
-0.014364124931813636   -0.024485772218477392   -0.0005080241195530622
-0.009990960555383153   -0.024483376772848994   -0.0003796216094277507
-0.014911551578469212   -0.01626597289983618   -0.0003105383194461237
-0.01044639040218237   -0.016259925662713805   -0.00020191468055490478
-0.010393493770506055   -0.016324768704197398   -0.00023720225335554428
-0.009990960555383153   -0.024483376772848994   -0.0003796216094277507
-0.014911551578469212   -0.01626597289983618   -0.0003105383194461237
-0.010393493770506055   -0.016324768704197398   -0.00023720225335554428
-0.014364124931813636   -0.024485772218477392   -0.0005080241195530622
-0.01427176678881209   -0.024577353521658907   -0.0005953119815866603
-0.01477002964689731   -0.016424804326269575   -0.00040254889719644016
-0.018976673638258352   -0.024485166866954754   -0.0006718417516297624
-0.014324335465292291   -0.024530238032963305   -0.0005534032329997894
-0.01477002964689731   -0.016424804326269575   -0.00040254889719644016
-0.019469944862409036   -0.01638248881842316   -0.0004782428209320528
-0.018976673638258352   -0.024485166866954754   -0.0006718417516297624
-0.01950298679236585   -0.016340100008292967   -0.000456797694770796
-0.014324335465292291   -0.024530238032963305   -0.0005534032329997894
-0.01898434470977503   -0.024447680506242502   -0.0006254259254090083
-0.01950298679236585   -0.016340100008292967   -0.000456797694770796
-0.018976673638258352   -0.024485166866954754   -0.0006718417516297624
-0.014324335465292291   -0.024530238032963305   -0.0005534032329997894
-0.01950298679236585   -0.016340100008292967   -0.000456797694770796
-0.014823498973583205   -0.016374166029719465   -0.0003741097136252243
-0.01477002964689731   -0.016424804326269575   -0.00040254889719644016
-0.014324335465292291   -0.024530238032963305   -0.0005534032329997894
-0.01950298679236585   -0.016340100008292967   -0.000456797694770796
-0.01477002964689731   -0.016424804326269575   -0.00040254889719644016
-0.018976673638258352   -0.024485166866954754   -0.0006718417516297624
-0.014324335465292291   -0.024530238032963305   -0.0005534032329997894
-0.014823498973583205   -0.016374166029719465   -0.0003741097136252243
-0.01898434470977503   -0.024447680506242502   -0.0006254259254090083
-0.014364124931813636   -0.024485772218477392   -0.0005080241195530622
-0.014823498973583205   -0.016374166029719465   -0.0003741097136252243
-0.01950298679236585   -0.016340100008292967   -0.000456797694770796
-0.01898434470977503   -0.024447680506242502   -0.0006254259254090083
-0.019533199957294658   -0.016292085561184527   -0.00043058394635074425
-0.014364124931813636   -0.024485772218477392   -0.0005080241195530622
-0.018992288967381397   -0.024409833343029562   -0.0005720268618106481
-0.019533199957294658   -0.016292085561184527   -0.00043058394635074425
-0.01898434470977503   -0.024447680506242502   -0.0006254259254090083
-0.014364124931813636   -0.024485772218477392   -0.0005080241195530622
-0.019533199957294658   -0.016292085561184527   -0.00043058394635074425
-0.014868767869002736   -0.016320760123256832   -0.0003437202037199173
-0.014823498973583205   -0.016374166029719465   -0.0003741097136252243
-0.014364124931813636   -0.024485772218477392   -0.0005080241195530622
-0.019533199957294658   -0.016292085561184527   -0.00043058394635074425
-0.014823498973583205   -0.016374166029719465   -0.0003741097136252243
-0.01898434470977503   -0.024447680506242502   -0.0006254259254090083
-0.014364124931813636   -0.024485772218477392   -0.0005080241195530622
-0.014868767869002736   -0.016320760123256832   -0.0003437202037199173
-0.018992288967381397   -0.024409833343029562   -0.0005720268618106481
-0.014403619511085469   -0.024445952236956916   -0.000458272451725011
-0.014868767869002736   -0.016320760123256832   -0.0003437202037199173
-0.019533199957294658   -0.016292085561184527   -0.00043058394635074425
-0.018992288967381397   -0.024409833343029562   -0.0005720268618106481
-0.019547629849312468   -0.016248173160473004   -0.00040078481320888934
-0.014403619511085469   -0.024445952236956916   -0.000458272451725011
-0.01897367766145841   -0.02438523947543759   -0.0005124706890649269
-0.019547629849312468   -0.016248173160473004   -0.00040078481320888934
-0.018992288967381397   -0.024409833343029562   -0.0005720268618106481
-0.014403619511085469   -0.024445952236956916   -0.000458272451725011
-0.019547629849312468   -0.016248173160473004   -0.00040078481320888934
-0.014911551578469212   -0.01626597289983618   -0.0003105383194461237
-0.014868767869002736   -0.016320760123256832   -0.0003437202037199173
-0.014403619511085469   -0.024445952236956916   -0.000458272451725011
-0.019547629849312468   -0.016248173160473004   -0.00040078481320888934
-0.014868767869002736   -0.016320760123256832   -0.0003437202037199173
-0.018992288967381397   -0.024409833343029562   -0.0005720268618106481
0.003262345590497927   -0.016553530225396164   9.885067941062057e-05
0.002287739298676409   -0.00831684019267734   0.0001064423322899907
-0.0014521445196405288   -0.016476083098070023   -4.1905440167374046e-05
0.0031604982835266152   -0.01645495268278786   0.00014048422720586747
0.002287739298676409   -0.00831684019267734   0.0001064423322899907
-0.002110984301753886   -0.00820966430038185   5.52233148176881e-05
-0.0014521445196405288   -0.016476083098070023   -4.1905440167374046e-05
-0.0021755214481737084   -0.008168802680382857   0.00010202527832459174
0.0031604982835266152   -0.01645495268278786   0.00014048422720586747
-0.0015169374271636206   -0.016394492025508467   -8.314682011019275e-06
-0.0021755214481737084   -0.008168802680382857   0.00010202527832459174
-0.0014521445196405288   -0.016476083098070023   -4.1905440167374046e-05
0.0031604982835266152   -0.01645495268278786   0.00014048422720586747
-0.0021755214481737084   -0.008168802680382857   0.00010202527832459174
0.0020864886747129505   -0.008211973905437913   0.00022217148719126987
0.002287739298676409   -0.00831684019267734   0.0001064423322899907
0.0031604982835266152   -0.01645495268278786   0.00014048422720586747
-0.0021755214481737084   -0.008168802680382857   0.00010202527832459174
0.002287739298676409   -0.00831684019267734   0.0001064423322899907
-0.0014521445196405288   -0.016476083098070023   -4.1905440167374046e-05
0.0031604982835266152   -0.01645495268278786   0.00014048422720586747
0.0020864886747129505   -0.008211973905437913   0.00022217148719126987
-0.0015169374271636206   -0.016394492025508467   -8.314682011019275e-06
0.0030466312818638974   -0.01635716004528427   0.00020044237682000966
0.0020864886747129505   -0.008211973905437913   0.00022217148719126987
-0.0021755214481737084   -0.008168802680382857   0.00010202527832459174
-0.0015169374271636206   -0.016394492025508467   -8.314682011019275e-06
-0.002260485002045723   -0.008095538866226914   0.00015889811511848612
0.0030466312818638974   -0.01635716004528427   0.00020044237682000966
-0.0015927669614853646   -0.016308423796244975   3.1278668220281816e-05
-0.002260485002045723   -0.008095538866226914   0.00015889811511848612
-0.0015169374271636206   -0.016394492025508467   -8.314682011019275e-06
0.0030466312818638974   -0.01635716004528427   0.00020044237682000966
-0.002260485002045723   -0.008095538866226914   0.00015889811511848612
0.0019687056434414363   -0.00812643017218261   0.0003084549729074848
0.0020864886747129505   -0.008211973905437913   0.00022217148719126987
0.0030466312818638974   -0.01635716004528427   0.00020044237682000966
-0.002260485002045723   -0.008095538866226914   0.00015889811511848612
0.0020864886747129505   -0.008211973905437913   0.00022217148719126987
-0.0015169374271636206   -0.016394492025508467   -8.314682011019275e-06
0.0030466312818638974   -0.01635716004528427   0.00020044237682000966
0.0019687056434414363   -0.00812643017218261   0.0003084549729074848
-0.0015927669614853646   -0.016308423796244975   3.1278668220281816e-05
0.002907483620840738   -0.01623698662943602   0.0002664459433225655
0.0019687056434414363   -0.00812643017218261   0.0003084549729074848
-0.002260485002045723   -0.008095538866226914   0.00015889811511848612
-0.0015927669614853646   -0.016308423796244975   3.1278668220281816e-05
-0.002331980888538116   -0.008016852423561554   0.00020895382228124857
0.002907483620840738   -0.01623698662943602   0.0002664459433225655
-0.0016712427139960297   -0.0162170775069511   7.679978328236683e-05
-0.002331980888538116   -0.008016852423561554   0.00020895382228124857
-0.0015927669614853646   -0.016308423796244975   3.1278668220281816e-05
0.002907483620840738   -0.01623698662943602   0.0002664459433225655
-0.002331980888538116   -0.008016852423561554   0.00020895382228124857
0.0018176572199096153   -0.007995470147843138   0.0004072909137263305
0.0019687056434414363   -0.00812643017218261   0.0003084549729074848
0.002907483620840738   -0.01623698662943602   0.0002664459433225655
-0.002331980888538116   -0.008016852423561554   0.00020895382228124857
0.0019687056434414363   -0.00812643017218261   0.0003084549729074848
-0.0015927669614853646   -0.016308423796244975   3.1278668220281816e-05
-0.0014521445196405288   -0.016476083098070023   -4.1905440167374046e-05
-0.002110984301753886   -0.00820966430038185   5.52233148176881e-05
-0.005891042452563024   -0.01645602486827118   -0.0001774451961124885
-0.0015169374271636206   -0.016394492025508467   -8.314682011019275e-06
-0.002110984301753886   -0.00820966430038185   5.52233148176881e-05
-0.006295717480385498   -0.008331481735338004   -5.228141060880815e-05
-0.005891042452563024   -0.01645602486827118   -0.0001774451961124885
-0.006355271173320917   -0.008268649331298998   -1.9076974604835578e-05
-0.0015169374271636206   -0.016394492025508467   -8.314682011019275e-06
-0.005949677986648908   -0.016384914200586017   -0.00014610651221552083
-0.006355271173320917   -0.008268649331298998   -1.9076974604835578e-05
-0.005891042452563024   -0.01645602486827118   -0.0001774451961124885
-0.0015169374271636206   -0.016394492025508467   -8.314682011019275e-06
-0.006355271173320917   -0.008268649331298998   -1.9076974604835578e-05
-0.0021755214481737084   -0.008168802680382857   0.00010202527832459174
-0.002110984301753886   -0.00820966430038185   5.52233148176881e-05
-0.0015169374271636206   -0.016394492025508467   -8.314682011019275e-06
-0.006355271173320917   -0.008268649331298998   -1.9076974604835578e-05
-0.002110984301753886   -0.00820966430038185   5.52233148176881e-05
-0.005891042452563024   -0.01645602486827118   -0.0001774451961124885
-0.0015169374271636206   -0.016394492025508467   -8.314682011019275e-06
-0.0021755214481737084   -0.008168802680382857   0.00010202527832459174
-0.005949677986648908   -0.016384914200586017   -0.00014610651221552083
-0.0015927669614853646   -0.016308423796244975   3.1278668220281816e-05
-0.0021755214481737084   -0.008168802680382857   0.00010202527832459174
-0.006355271173320917   -0.008268649331298998   -1.9076974604835578e-05
-0.005949677986648908   -0.016384914200586017   -0.00014610651221552083
-0.006417677524690545   -0.008197616437053194   1.6098952347706542e-05
-0.0015927669614853646   -0.016308423796244975   3.1278668220281816e-05
-0.006010350280798137   -0.016310962855337303   -0.00011164257871083929
-0.006417677524690545   -0.008197616437053194   1.6098952347706542e-05
-0.005949677986648908   -0.016384914200586017   -0.00014610651221552083
-0.0015927669614853646   -0.016308423796244975   3.1278668220281816e-05
-0.006417677524690545   -0.008197616437053194   1.6098952347706542e-05
-0.002260485002045723   -0.008095538866226914   0.00015889811511848612
-0.0021755214481737084   -0.008168802680382857   0.00010202527832459174
-0.0015927669614853646   -0.016308423796244975   3.1278668220281816e-05
-0.006417677524690545   -0.008197616437053194   1.6098952347706542e-05
-0.0021755214481737084   -0.008168802680382857   0.00010202527832459174
-0.005949677986648908   -0.016384914200586017   -0.00014610651221552083
-0.0015927669614853646   -0.016308423796244975   3.1278668220281816e-05
-0.002260485002045723   -0.008095538866226914   0.00015889811511848612
-0.006010350280798137   -0.016310962855337303   -0.00011164257871083929
-0.0016712427139960297   -0.0162170775069511   7.679978328236683e-05
-0.002260485002045723   -0.008095538866226914   0.00015889811511848612
-0.006417677524690545   -0.008197616437053194   1.6098952347706542e-05
-0.006010350280798137   -0.016310962855337303   -0.00011164257871083929
-0.006477052072305429   -0.008119763368127236   5.491341092339377e-05
-0.0016712427139960297   -0.0162170775069511   7.679978328236683e-05
-0.0060735318088660974   -0.01623551708635395   -7.343249643251962e-05
-0.006477052072305429   -0.008119763368127236   5.491341092339377e-05
-0.006010350280798137   -0.016310962855337303   -0.00011164257871083929
-0.0016712427139960297   -0.0162170775069511   7.679978328236683e-05
-0.006477052072305429   -0.008119763368127236   5.491341092339377e-05
-0.002331980888538116   -0.008016852423561554   0.00020895382228124857
-0.002260485002045723   -0.008095538866226914   0.00015889811511848612
-0.0016712427139960297   -0.0162170775069511   7.679978328236683e-05
-0.006477052072305429   -0.008119763368127236   5.491341092339377e-05
-0.002260485002045723   -0.008095538866226914   0.00015889811511848612
-0.006010350280798137   -0.016310962855337303   -0.00011164257871083929
-0.005891042452563024   -0.01645602486827118   -0.0001774451961124885
-0.006295717480385498   -0.008331481735338004   -5.228141060880815e-05
-0.010283972809437419   -0.01645042734534071   -0.00029987605557010134
-0.005949677986648908   -0.016384914200586017   -0.00014610651221552083
-0.006295717480385498   -0.008331481735338004   -5.228141060880815e-05
-0.010582290329440252   -0.008426655876090275   -0.00017165505194547656
-0.010283972809437419   -0.01645042734534071   -0.00029987605557010134
-0.010635834643228282   -0.008362121906897044   -0.0001458827209691525
-0.005949677986648908   -0.016384914200586017   -0.00014610651221552083
-0.010340061446202165   -0.016388147315097815   -0.00026990689908644965
-0.010635834643228282   -0.008362121906897044   -0.0001458827209691525
-0.010283972809437419   -0.01645042734534071   -0.00029987605557010134
-0.005949677986648908   -0.016384914200586017   -0.00014610651221552083
-0.010635834643228282   -0.008362121906897044   -0.0001458827209691525
-0.006355271173320917   -0.008268649331298998   -1.9076974604835578e-05
-0.006295717480385498   -0.008331481735338004   -5.228141060880815e-05
-0.005949677986648908   -0.016384914200586017   -0.00014610651221552083
-0.010635834643228282   -0.008362121906897044   -0.0001458827209691525
-0.006295717480385498   -0.008331481735338004   -5.228141060880815e-05
-0.010283972809437419   -0.01645042734534071   -0.00029987605557010134
-0.005949677986648908   -0.016384914200586017   -0.00014610651221552083
-0.006355271173320917   -0.008268649331298998   -1.9076974604835578e-05
-0.010340061446202165   -0.016388147315097815   -0.00026990689908644965
-0.006010350280798137   -0.016310962855337303   -0.00011164257871083929
-0.006355271173320917   -0.008268649331298998   -1.9076974604835578e-05
-0.010635834643228282   -0.008362121906897044   -0.0001458827209691525
-0.010340061446202165   -0.016388147315097815   -0.00026990689908644965
-0.010687125303899194   -0.0082939237906042   -0.00012016942391528121
-0.006010350280798137   -0.016310962855337303   -0.00011164257871083929
-0.010393493770506055   -0.016324768704197398   -0.00023720225335554428
-0.010687125303899194   -0.0082939237906042   -0.00012016942391528121
-0.010340061446202165   -0.016388147315097815   -0.00026990689908644965
-0.006010350280798137   -0.016310962855337303   -0.00011164257871083929
-0.010687125303899194   -0.0082939237906042   -0.00012016942391528121
-0.006417677524690545   -0.008197616437053194   1.6098952347706542e-05
-0.006355271173320917   -0.008268649331298998   -1.9076974604835578e-05
-0.006010350280798137   -0.016310962855337303   -0.00011164257871083929
-0.010687125303899194   -0.0082939237906042   -0.00012016942391528121
-0.006355271173320917   -0.008268649331298998   -1.9076974604835578e-05
-0.010340061446202165   -0.016388147315097815   -0.00026990689908644965
-0.006010350280798137   -0.016310962855337303   -0.00011164257871083929
-0.006417677524690545   -0.008197616437053194   1.6098952347706542e-05
-0.010393493770506055   -0.016324768704197398   -0.00023720225335554428
-0.0060735318088660974   -0.01623551708635395   -7.343249643251962e-05
-0.006417677524690545   -0.008197616437053194   1.6098952347706542e-05
-0.010687125303899194   -0.0082939237906042   -0.00012016942391528121
-0.010393493770506055   -0.016324768704197398   -0.00023720225335554428
-0.010734434515354675   -0.008220054979290055   -9.214918171265812e-05
-0.0060735318088660974   -0.01623551708635395   -7.343249643251962e-05
-0.01044639040218237   -0.016259925662713805   -0.00020191468055490478
-0.010734434515354675   -0.008220054979290055   -9.214918171265812e-05
-0.010393493770506055   -0.016324768704197398   -0.00023720225335554428
-0.0060735318088660974   -0.01623551708635395   -7.343249643251962e-05
-0.010734434515354675   -0.008220054979290055   -9.214918171265812e-05
-0.006477052072305429   -0.008119763368127236   5.491341092339377e-05
-0.006417677524690545   -0.008197616437053194   1.6098952347706542e-05
-0.0060735318088660974   -0.01623551708635395   -7.343249643251962e-05
-0.010734434515354675   -0.008220054979290055   -9.214918171265812e-05
-0.006417677524690545   -0.008197616437053194   1.6098952347706542e-05
-0.010393493770506055   -0.016324768704197398   -0.00023720225335554428
-0.010283972809437419   -0.01645042734534071   -0.00029987605557010134
-0.010582290329440252   -0.008426655876090275   -0.00017165505194547656
-0.01477002964689731   -0.016424804326269575   -0.00040254889719644016
-0.010340061446202165   -0.016388147315097815   -0.00026990689908644965
-0.010582290329440252   -0.008426655876090275   -0.00017165505194547656
-0.015019455856844978   -0.008465745371903213   -0.00028180692940234686
-0.01477002964689731   -0.016424804326269575   -0.00040254889719644016
-0.015067707163757547   -0.008407845884501212   -0.0002629858420212007
-0.010340061446202165   -0.016388147315097815   -0.00026990689908644965
-0.014823498973583205   -0.016374166029719465   -0.0003741097136252243
-0.015067707163757547   -0.008407845884501212   -0.0002629858420212007
-0.01477002964689731   -0.016424804326269575   -0.00040254889719644016
-0.010340061446202165   -0.016388147315097815   -0.00026990689908644965
-0.015067707163757547   -0.008407845884501212   -0.0002629858420212007
-0.010635834643228282   -0.008362121906897044   -0.0001458827209691525
-0.010582290329440252   -0.008426655876090275   -0.00017165505194547656
-0.010340061446202165   -0.016388147315097815   -0.00026990689908644965
-0.015067707163757547   -0.008407845884501212   -0.0002629858420212007
-0.010582290329440252   -0.008426655876090275   -0.00017165505194547656
-0.01477002964689731   -0.016424804326269575   -0.00040254889719644016
-0.010340061446202165   -0.016388147315097815   -0.00026990689908644965
-0.010635834643228282   -0.008362121906897044   -0.0001458827209691525
-0.014823498973583205   -0.016374166029719465   -0.0003741097136252243
-0.010393493770506055   -0.016324768704197398   -0.00023720225335554428
-0.010635834643228282   -0.008362121906897044   -0.0001458827209691525
-0.015067707163757547   -0.008407845884501212   -0.0002629858420212007
-0.014823498973583205   -0.016374166029719465   -0.0003741097136252243
-0.015110706754349855   -0.008344731952304616   -0.00024467892487685177
-0.010393493770506055   -0.016324768704197398   -0.00023720225335554428
-0.014868767869002736   -0.016320760123256832   -0.0003437202037199173
-0.015110706754349855   -0.008344731952304616   -0.00024467892487685177
-0.014823498973583205   -0.016374166029719465   -0.0003741097136252243
-0.010393493770506055   -0.016324768704197398   -0.00023720225335554428
-0.015110706754349855   -0.008344731952304616   -0.00024467892487685177
-0.010687125303899194   -0.0082939237906042   -0.00012016942391528121
-0.010635834643228282   -0.008362121906897044   -0.0001458827209691525
-0.010393493770506055   -0.016324768704197398   -0.00023720225335554428
-0.015110706754349855   -0.008344731952304616   -0.00024467892487685177
-0.010635834643228282   -0.008362121906897044   -0.0001458827209691525
-0.014823498973583205   -0.016374166029719465   -0.0003741097136252243
-0.010393493770506055   -0.016324768704197398   -0.00023720225335554428
-0.010687125303899194   -0.0082939237906042   -0.00012016942391528121
-0.014868767869002736   -0.016320760123256832   -0.0003437202037199173
-0.01044639040218237   -0.016259925662713805   -0.00020191468055490478
-0.010687125303899194   -0.0082939237906042   -0.00012016942391528121
-0.015110706754349855   -0.008344731952304616   -0.00024467892487685177
-0.014868767869002736   -0.016320760123256832   -0.0003437202037199173
-0.015149653503311582   -0.008277522588816559   -0.00022580226528289525
-0.01044639040218237   -0.016259925662713805   -0.00020191468055490478
-0.014911551578469212   -0.01626597289983618   -0.0003105383194461237
-0.015149653503311582   -0.008277522588816559   -0.00022580226528289525
-0.014868767869002736   -0.016320760123256832   -0.0003437202037199173
-0.01044639040218237   -0.016259925662713805   -0.00020191468055490478
-0.015149653503311582   -0.008277522588816559   -0.00022580226528289525
-0.010734434515354675   -0.008220054979290055   -9.214918171265812e-05
-0.010687125303899194   -0.0082939237906042   -0.00012016942391528121
-0.01044639040218237   -0.016259925662713805   -0.00020191468055490478
-0.015149653503311582   -0.008277522588816559   -0.00022580226528289525
-0.010687125303899194   -0.0082939237906042   -0.00012016942391528121
-0.014868767869002736   -0.016320760123256832   -0.0003437202037199173
-0.01477002964689731   -0.016424804326269575   -0.00040254889719644016
-0.015019455856844978   -0.008465745371903213   -0.00028180692940234686
-0.019469944862409036   -0.01638248881842316   -0.0004782428209320528
-0.014823498973583205   -0.016374166029719465   -0.0003741097136252243
-0.015019455856844978   -0.008465745371903213   -0.00028180692940234686
-0.019615289385001077   -0.008470061378212445   -0.0003730815511649355
-0.019469944862409036   -0.01638248881842316   -0.0004782428209320528
-0.019656696201341032   -0.00841388782670575   -0.00036493695583963824
-0.014823498973583205   -0.016374166029719465   -0.0003741097136252243
-0.01950298679236585   -0.016340100008292967   -0.000456797694770796
-0.019656696201341032   -0.00841388782670575   -0.00036493695583963824
-0.019469944862409036   -0.01638248881842316   -0.0004782428209320528
-0.014823498973583205   -0.016374166029719465   -0.0003741097136252243
-0.019656696201341032   -0.00841388782670575   -0.00036493695583963824
-0.015067707163757547   -0.008407845884501212   -0.0002629858420212007
-0.015019455856844978   -0.008465745371903213   -0.00028180692940234686
-0.014823498973583205   -0.016374166029719465   -0.0003741097136252243
-0.019656696201341032   -0.00841388782670575   -0.00036493695583963824
-0.015019455856844978   -0.008465745371903213   -0.00028180692940234686
-0.019469944862409036   -0.01638248881842316   -0.0004782428209320528
-0.014823498973583205   -0.016374166029719465   -0.0003741097136252243
-0.015067707163757547   -0.008407845884501212   -0.0002629858420212007
-0.01950298679236585   -0.016340100008292967   -0.000456797694770796
-0.014868767869002736   -0.016320760123256832   -0.0003437202037199173
-0.015067707163757547   -0.008407845884501212   -0.0002629858420212007
-0.019656696201341032   -0.00841388782670575   -0.00036493695583963824
-0.01950298679236585   -0.016340100008292967   -0.000456797694770796
-0.01969379314602657   -0.008353102266932975   -0.00035539948946121847
-0.014868767869002736   -0.016320760123256832   -0.0003437202037199173
-0.019533199957294658   -0.016292085561184527   -0.00043058394635074425
-0.01969379314602657   -0.008353102266932975   -0.00035539948946121847
-0.01950298679236585   -0.016340100008292967   -0.000456797694770796
-0.014868767869002736   -0.016320760123256832   -0.0003437202037199173
-0.01969379314602657   -0.008353102266932975   -0.00035539948946121847
-0.015110706754349855   -0.008344731952304616   -0.00024467892487685177
-0.015067707163757547   -0.008407845884501212   -0.0002629858420212007
-0.014868767869002736   -0.016320760123256832   -0.0003437202037199173
-0.01969379314602657   -0.008353102266932975   -0.00035539948946121847
-0.015067707163757547   -0.008407845884501212   -0.0002629858420212007
-0.01950298679236585   -0.016340100008292967   -0.000456797694770796
-0.014868767869002736   -0.016320760123256832   -0.0003437202037199173
-0.015110706754349855   -0.008344731952304616   -0.00024467892487685177
-0.019533199957294658   -0.016292085561184527   -0.00043058394635074425
-0.014911551578469212   -0.01626597289983618   -0.0003105383194461237
-0.015110706754349855   -0.008344731952304616   -0.00024467892487685177
-0.01969379314602657   -0.008353102266932975   -0.00035539948946121847
-0.019533199957294658   -0.016292085561184527   -0.00043058394635074425
-0.0197249234134227   -0.00828874580379425   -0.00034648832049309034
-0.014911551578469212   -0.01626597289983618   -0.0003105383194461237
-0.019547629849312468   -0.016248173160473004   -0.00040078481320888934
-0.0197249234134227   -0.00828874580379425   -0.00034648832049309034
-0.019533199957294658   -0.016292085561184527   -0.00043058394635074425
-0.014911551578469212   -0.01626597289983618   -0.0003105383194461237
-0.0197249234134227   -0.00828874580379425   -0.00034648832049309034
-0.015149653503311582   -0.008277522588816559   -0.00022580226528289525
-0.015110706754349855   -0.008344731952304616   -0.00024467892487685177
-0.014911551578469212   -0.01626597289983618   -0.0003105383194461237
-0.0197249234134227   -0.00828874580379425   -0.00034648832049309034
-0.015110706754349855   -0.008344731952304616   -0.00024467892487685177
-0.019533199957294658   -0.016292085561184527   -0.00043058394635074425
0.002287739298676409   -0.00831684019267734   0.0001064423322899907
0.0   0.0   0.0
-0.002110984301753886   -0.00820966430038185   5.52233148176881e-05
0.0020864886747129505   -0.008211973905437913   0.00022217148719126987
0.0   0.0   0.0
-0.002648199758959564   -0.0006746238844860663   -2.156037896431748e-05
-0.002110984301753886   -0.00820966430038185   5.52233148176881e-05
-0.002806490912577876   -0.0005249366089721249   6.998609818236422e-05
0.0020864886747129505   -0.008211973905437913   0.00022217148719126987
-0.0021755214481737084   -0.008168802680382857   0.00010202527832459174
-0.002806490912577876   -0.0005249366089721249   6.998609818236422e-05
-0.002110984301753886   -0.00820966430038185   5.52233148176881e-05
0.0020864886747129505   -0.008211973905437913   0.00022217148719126987
-0.002806490912577876   -0.0005249366089721249   6.998609818236422e-05
0.0   0.0   0.0
0.0   0.0   0.0
0.0020864886747129505   -0.008211973905437913   0.00022217148719126987
-0.002806490912577876   -0.0005249366089721249   6.998609818236422e-05
0.0   0.0   0.0
-0.002110984301753886   -0.00820966430038185   5.52233148176881e-05
0.0020864886747129505   -0.008211973905437913   0.00022217148719126987
0.0   0.0   0.0
-0.0021755214481737084   -0.008168802680382857   0.00010202527832459174
0.0019687056434414363   -0.00812643017218261   0.0003084549729074848
0.0   0.0   0.0
-0.002806490912577876   -0.0005249366089721249   6.998609818236422e-05
-0.0021755214481737084   -0.008168802680382857   0.00010202527832459174
-0.002905929718065566   -0.00045288712075739667   0.00012293859549834942
0.0019687056434414363   -0.00812643017218261   0.0003084549729074848
-0.002260485002045723   -0.008095538866226914   0.00015889811511848612
-0.002905929718065566   -0.00045288712075739667   0.00012293859549834942
-0.0021755214481737084   -0.008168802680382857   0.00010202527832459174
0.0019687056434414363   -0.00812643017218261   0.0003084549729074848
-0.002905929718065566   -0.00045288712075739667   0.00012293859549834942
0.0   0.0   0.0
0.0   0.0   0.0
0.0019687056434414363   -0.00812643017218261   0.0003084549729074848
-0.002905929718065566   -0.00045288712075739667   0.00012293859549834942
0.0   0.0   0.0
-0.0021755214481737084   -0.008168802680382857   0.00010202527832459174
0.0019687056434414363   -0.00812643017218261   0.0003084549729074848
0.0   0.0   0.0
-0.002260485002045723   -0.008095538866226914   0.00015889811511848612
0.0018176572199096153   -0.007995470147843138   0.0004072909137263305
0.0   0.0   0.0
-0.002905929718065566   -0.00045288712075739667   0.00012293859549834942
-0.002260485002045723   -0.008095538866226914   0.00015889811511848612
-0.0030394177858227675   -0.0003571557725329639   0.0001837397371792917
0.0018176572199096153   -0.007995470147843138   0.0004072909137263305
-0.002331980888538116   -0.008016852423561554   0.00020895382228124857
-0.0030394177858227675   -0.0003571557725329639   0.0001837397371792917
-0.002260485002045723   -0.008095538866226914   0.00015889811511848612
0.0018176572199096153   -0.007995470147843138   0.0004072909137263305
-0.0030394177858227675   -0.0003571557725329639   0.0001837397371792917
0.0   0.0   0.0
0.0   0.0   0.0
0.0018176572199096153   -0.007995470147843138   0.0004072909137263305
-0.0030394177858227675   -0.0003571557725329639   0.0001837397371792917
0.0   0.0   0.0
-0.002260485002045723   -0.008095538866226914   0.00015889811511848612
-0.002110984301753886   -0.00820966430038185   5.52233148176881e-05
-0.002648199758959564   -0.0006746238844860663   -2.156037896431748e-05
-0.006295717480385498   -0.008331481735338004   -5.228141060880815e-05
-0.0021755214481737084   -0.008168802680382857   0.00010202527832459174
-0.002648199758959564   -0.0006746238844860663   -2.156037896431748e-05
-0.006482674067446794   -0.0008848270906867835   -1.9255628970245845e-05
-0.006295717480385498   -0.008331481735338004   -5.228141060880815e-05
-0.006564365259809967   -0.0008031822968755985   4.346219535954184e-06
-0.0021755214481737084   -0.008168802680382857   0.00010202527832459174
-0.006355271173320917   -0.008268649331298998   -1.9076974604835578e-05
-0.006564365259809967   -0.0008031822968755985   4.346219535954184e-06
-0.006295717480385498   -0.008331481735338004   -5.228141060880815e-05
-0.0021755214481737084   -0.008168802680382857   0.00010202527832459174
-0.006564365259809967   -0.0008031822968755985   4.346219535954184e-06
-0.002806490912577876   -0.0005249366089721249   6.998609818236422e-05
-0.002648199758959564   -0.0006746238844860663   -2.156037896431748e-05
-0.0021755214481737084   -0.008168802680382857   0.00010202527832459174
-0.006564365259809967   -0.0008031822968755985   4.346219535954184e-06
-0.002648199758959564   -0.0006746238844860663   -2.156037896431748e-05
-0.006295717480385498   -0.008331481735338004   -5.228141060880815e-05
-0.0021755214481737084   -0.008168802680382857   0.00010202527832459174
-0.002806490912577876   -0.0005249366089721249   6.998609818236422e-05
-0.006355271173320917   -0.008268649331298998   -1.9076974604835578e-05
-0.002260485002045723   -0.008095538866226914   0.00015889811511848612
-0.002806490912577876   -0.0005249366089721249   6.998609818236422e-05
-0.006564365259809967   -0.0008031822968755985   4.346219535954184e-06
-0.006355271173320917   -0.008268649331298998   -1.9076974604835578e-05
-0.006645756702893198   -0.0007076111387935234   4.6521273226625905e-05
-0.002260485002045723   -0.008095538866226914   0.00015889811511848612
-0.006417677524690545   -0.008197616437053194   1.6098952347706542e-05
-0.006645756702893198   -0.0007076111387935234   4.6521273226625905e-05
-0.006355271173320917   -0.008268649331298998   -1.9076974604835578e-05
-0.002260485002045723   -0.008095538866226914   0.00015889811511848612
-0.006645756702893198   -0.0007076111387935234   4.6521273226625905e-05
-0.002905929718065566   -0.00045288712075739667   0.00012293859549834942
-0.002806490912577876   -0.0005249366089721249   6.998609818236422e-05
-0.002260485002045723   -0.008095538866226914   0.00015889811511848612
-0.006645756702893198   -0.0007076111387935234   4.6521273226625905e-05
-0.002806490912577876   -0.0005249366089721249   6.998609818236422e-05
-0.006355271173320917   -0.008268649331298998   -1.9076974604835578e-05
-0.002260485002045723   -0.008095538866226914   0.00015889811511848612
-0.002905929718065566   -0.00045288712075739667   0.00012293859549834942
-0.006417677524690545   -0.008197616437053194   1.6098952347706542e-05
-0.002331980888538116   -0.008016852423561554   0.00020895382228124857
-0.002905929718065566   -0.00045288712075739667   0.00012293859549834942
-0.006645756702893198   -0.0007076111387935234   4.6521273226625905e-05
-0.006417677524690545   -0.008197616437053194   1.6098952347706542e-05
-0.006736054634819217   -0.0005970175668512745   8.696740655466146e-05
-0.002331980888538116   -0.008016852423561554   0.00020895382228124857
-0.006477052072305429   -0.008119763368127236   5.491341092339377e-05
-0.006736054634819217   -0.0005970175668512745   8.696740655466146e-05
-0.006417677524690545   -0.008197616437053194   1.6098952347706542e-05
-0.002331980888538116   -0.008016852423561554   0.00020895382228124857
-0.006736054634819217   -0.0005970175668512745   8.696740655466146e-05
-0.0030394177858227675   -0.0003571557725329639   0.0001837397371792917
-0.002905929718065566   -0.00045288712075739667   0.00012293859549834942
-0.002331980888538116   -0.008016852423561554   0.00020895382228124857
-0.006736054634819217   -0.0005970175668512745   8.696740655466146e-05
-0.002905929718065566   -0.00045288712075739667   0.00012293859549834942
-0.006417677524690545   -0.008197616437053194   1.6098952347706542e-05
-0.006295717480385498   -0.008331481735338004   -5.228141060880815e-05
-0.006482674067446794   -0.0008848270906867835   -1.9255628970245845e-05
-0.010582290329440252   -0.008426655876090275   -0.00017165505194547656
-0.006355271173320917   -0.008268649331298998   -1.9076974604835578e-05
-0.006482674067446794   -0.0008848270906867835   -1.9255628970245845e-05
-0.010686708078785672   -0.0009441597900512417   -9.443378487365898e-05
-0.010582290329440252   -0.008426655876090275   -0.00017165505194547656
-0.010736329352309806   -0.0008806474214211503   -8.785703118687624e-05
-0.006355271173320917   -0.008268649331298998   -1.9076974604835578e-05
-0.010635834643228282   -0.008362121906897044   -0.0001458827209691525
-0.010736329352309806   -0.0008806474214211503   -8.785703118687624e-05
-0.010582290329440252   -0.008426655876090275   -0.00017165505194547656
-0.006355271173320917   -0.008268649331298998   -1.9076974604835578e-05
-0.010736329352309806   -0.0008806474214211503   -8.785703118687624e-05
-0.006564365259809967   -0.0008031822968755985   4.346219535954184e-06
-0.006482674067446794   -0.0008848270906867835   -1.9255628970245845e-05
-0.006355271173320917   -0.008268649331298998   -1.9076974604835578e-05
-0.010736329352309806   -0.0008806474214211503   -8.785703118687624e-05
-0.006482674067446794   -0.0008848270906867835   -1.9255628970245845e-05
-0.010582290329440252   -0.008426655876090275   -0.00017165505194547656
-0.006355271173320917   -0.008268649331298998   -1.9076974604835578e-05
-0.006564365259809967   -0.0008031822968755985   4.346219535954184e-06
-0.010635834643228282   -0.008362121906897044   -0.0001458827209691525
-0.006417677524690545   -0.008197616437053194   1.6098952347706542e-05
-0.006564365259809967   -0.0008031822968755985   4.346219535954184e-06
-0.010736329352309806   -0.0008806474214211503   -8.785703118687624e-05
-0.010635834643228282   -0.008362121906897044   -0.0001458827209691525
-0.010787936009296928   -0.0008068555849801608   -7.633749256415548e-05
-0.006417677524690545   -0.008197616437053194   1.6098952347706542e-05
-0.010687125303899194   -0.0082939237906042   -0.00012016942391528121
-0.010787936009296928   -0.0008068555849801608   -7.633749256415548e-05
-0.010635834643228282   -0.008362121906897044   -0.0001458827209691525
-0.006417677524690545   -0.008197616437053194   1.6098952347706542e-05
-0.010787936009296928   -0.0008068555849801608   -7.633749256415548e-05
-0.006645756702893198   -0.0007076111387935234   4.6521273226625905e-05
-0.006564365259809967   -0.0008031822968755985   4.346219535954184e-06
-0.006417677524690545   -0.008197616437053194   1.6098952347706542e-05
-0.010787936009296928   -0.0008068555849801608   -7.633749256415548e-05
-0.006564365259809967   -0.0008031822968755985   4.346219535954184e-06
-0.010635834643228282   -0.008362121906897044   -0.0001458827209691525
-0.006417677524690545   -0.008197616437053194   1.6098952347706542e-05
-0.006645756702893198   -0.0007076111387935234   4.6521273226625905e-05
-0.010687125303899194   -0.0082939237906042   -0.00012016942391528121
-0.006477052072305429   -0.008119763368127236   5.491341092339377e-05
-0.006645756702893198   -0.0007076111387935234   4.6521273226625905e-05
-0.010787936009296928   -0.0008068555849801608   -7.633749256415548e-05
-0.010687125303899194   -0.0082939237906042   -0.00012016942391528121
-0.010837042466602262   -0.000716947141337726   -6.10953297664849e-05
-0.006477052072305429   -0.008119763368127236   5.491341092339377e-05
-0.010734434515354675   -0.008220054979290055   -9.214918171265812e-05
-0.010837042466602262   -0.000716947141337726   -6.10953297664849e-05
-0.010687125303899194   -0.0082939237906042   -0.00012016942391528121
-0.006477052072305429   -0.008119763368127236   5.491341092339377e-05
-0.010837042466602262   -0.000716947141337726   -6.10953297664849e-05
-0.006736054634819217   -0.0005970175668512745   8.696740655466146e-05
-0.006645756702893198   -0.0007076111387935234   4.6521273226625905e-05
-0.006477052072305429   -0.008119763368127236   5.491341092339377e-05
-0.010837042466602262   -0.000716947141337726   -6.10953297664849e-05
-0.006645756702893198   -0.0007076111387935234   4.6521273226625905e-05
-0.010687125303899194   -0.0082939237906042   -0.00012016942391528121
-0.010582290329440252   -0.008426655876090275   -0.00017165505194547656
-0.010686708078785672   -0.0009441597900512417   -9.443378487365898e-05
-0.015019455856844978   -0.008465745371903213   -0.00028180692940234686
-0.010635834643228282   -0.008362121906897044   -0.0001458827209691525
-0.010686708078785672   -0.0009441597900512417   -9.443378487365898e-05
-0.015097271902444087   -0.0009346417808182573   -0.0002029551076484734
-0.015019455856844978   -0.008465745371903213   -0.00028180692940234686
-0.015130801465076399   -0.0008776833552018371   -0.000200133470764577
-0.010635834643228282   -0.008362121906897044   -0.0001458827209691525
-0.015067707163757547   -0.008407845884501212   -0.0002629858420212007
-0.015130801465076399   -0.0008776833552018371   -0.000200133470764577
-0.015019455856844978   -0.008465745371903213   -0.00028180692940234686
-0.010635834643228282   -0.008362121906897044   -0.0001458827209691525
-0.015130801465076399   -0.0008776833552018371   -0.000200133470764577
-0.010736329352309806   -0.0008806474214211503   -8.785703118687624e-05
-0.010686708078785672   -0.0009441597900512417   -9.443378487365898e-05
-0.010635834643228282   -0.008362121906897044   -0.0001458827209691525
-0.015130801465076399   -0.0008776833552018371   -0.000200133470764577
-0.010686708078785672   -0.0009441597900512417   -9.443378487365898e-05
-0.015019455856844978   -0.008465745371903213   -0.00028180692940234686
-0.010635834643228282   -0.008362121906897044   -0.0001458827209691525
-0.010736329352309806   -0.0008806474214211503   -8.785703118687624e-05
-0.015067707163757547   -0.008407845884501212   -0.0002629858420212007
-0.010687125303899194   -0.0082939237906042   -0.00012016942391528121
-0.010736329352309806   -0.0008806474214211503   -8.785703118687624e-05
-0.015130801465076399   -0.0008776833552018371   -0.000200133470764577
-0.015067707163757547   -0.008407845884501212   -0.0002629858420212007
-0.015165779174672921   -0.0008142121579094544   -0.00019813764771042395
-0.010687125303899194   -0.0082939237906042   -0.00012016942391528121
-0.015110706754349855   -0.008344731952304616   -0.00024467892487685177
-0.015165779174672921   -0.0008142121579094544   -0.00019813764771042395
-0.015067707163757547   -0.008407845884501212   -0.0002629858420212007
-0.010687125303899194   -0.0082939237906042   -0.00012016942391528121
-0.015165779174672921   -0.0008142121579094544   -0.00019813764771042395
-0.010787936009296928   -0.0008068555849801608   -7.633749256415548e-05
-0.010736329352309806   -0.0008806474214211503   -8.785703118687624e-05
-0.010687125303899194   -0.0082939237906042   -0.00012016942391528121
-0.015165779174672921   -0.0008142121579094544   -0.00019813764771042395
-0.010736329352309806   -0.0008806474214211503   -8.785703118687624e-05
-0.015067707163757547   -0.008407845884501212   -0.0002629858420212007
-0.010687125303899194   -0.0082939237906042   -0.00012016942391528121
-0.010787936009296928   -0.0008068555849801608   -7.633749256415548e-05
-0.015110706754349855   -0.008344731952304616   -0.00024467892487685177
-0.010734434515354675   -0.008220054979290055   -9.214918171265812e-05
-0.010787936009296928   -0.0008068555849801608   -7.633749256415548e-05
-0.015165779174672921   -0.0008142121579094544   -0.00019813764771042395
-0.015110706754349855   -0.008344731952304616   -0.00024467892487685177
-0.015192429442137344   -0.0007454145492750709   -0.0001971134037799264
-0.010734434515354675   -0.008220054979290055   -9.214918171265812e-05
-0.015149653503311582   -0.008277522588816559   -0.00022580226528289525
-0.015192429442137344   -0.0007454145492750709   -0.0001971134037799264
-0.015110706754349855   -0.008344731952304616   -0.00024467892487685177
-0.010734434515354675   -0.008220054979290055   -9.214918171265812e-05
-0.015192429442137344   -0.0007454145492750709   -0.0001971134037799264
-0.010837042466602262   -0.000716947141337726   -6.10953297664849e-05
-0.010787936009296928   -0.0008068555849801608   -7.633749256415548e-05
-0.010734434515354675   -0.008220054979290055   -9.214918171265812e-05
-0.015192429442137344   -0.0007454145492750709   -0.0001971134037799264
-0.010787936009296928   -0.0008068555849801608   -7.633749256415548e-05
-0.015110706754349855   -0.008344731952304616   -0.00024467892487685177
-0.015019455856844978   -0.008465745371903213   -0.00028180692940234686
-0.015097271902444087   -0.0009346417808182573   -0.0002029551076484734
-0.019615289385001077   -0.008470061378212445   -0.0003730815511649355
-0.015067707163757547   -0.008407845884501212   -0.0002629858420212007
-0.015097271902444087   -0.0009346417808182573   -0.0002029551076484734
-0.019630055239922537   -0.0009280266677440201   -0.00030982587963319295
-0.019615289385001077   -0.008470061378212445   -0.0003730815511649355
-0.019657016386605403   -0.0008662667515630355   -0.0003097513008913697
-0.015067707163757547   -0.008407845884501212   -0.0002629858420212007
-0.019656696201341032   -0.00841388782670575   -0.00036493695583963824
-0.019657016386605403   -0.0008662667515630355   -0.0003097513008913697
-0.019615289385001077   -0.008470061378212445   -0.0003730815511649355
-0.015067707163757547   -0.008407845884501212   -0.0002629858420212007
-0.019657016386605403   -0.0008662667515630355   -0.0003097513008913697
-0.015130801465076399   -0.0008776833552018371   -0.000200133470764577
-0.015097271902444087   -0.0009346417808182573   -0.0002029551076484734
-0.015067707163757547   -0.008407845884501212   -0.0002629858420212007
-0.019657016386605403   -0.0008662667515630355   -0.0003097513008913697
-0.015097271902444087   -0.0009346417808182573   -0.0002029551076484734
-0.019615289385001077   -0.008470061378212445   -0.0003730815511649355
-0.015067707163757547   -0.008407845884501212   -0.0002629858420212007
-0.015130801465076399   -0.0008776833552018371   -0.000200133470764577
-0.019656696201341032   -0.00841388782670575   -0.00036493695583963824
-0.015110706754349855   -0.008344731952304616   -0.00024467892487685177
-0.015130801465076399   -0.0008776833552018371   -0.000200133470764577
-0.019657016386605403   -0.0008662667515630355   -0.0003097513008913697
-0.019656696201341032   -0.00841388782670575   -0.00036493695583963824
-0.019686605546437586   -0.000804517895138812   -0.00031449844991153855
-0.015110706754349855   -0.008344731952304616   -0.00024467892487685177
-0.01969379314602657   -0.008353102266932975   -0.00035539948946121847
-0.019686605546437586   -0.000804517895138812   -0.00031449844991153855
-0.019656696201341032   -0.00841388782670575   -0.00036493695583963824
-0.015110706754349855   -0.008344731952304616   -0.00024467892487685177
-0.019686605546437586   -0.000804517895138812   -0.00031449844991153855
-0.015165779174672921   -0.0008142121579094544   -0.00019813764771042395
-0.015130801465076399   -0.0008776833552018371   -0.000200133470764577
-0.015110706754349855   -0.008344731952304616   -0.00024467892487685177
-0.019686605546437586   -0.000804517895138812   -0.00031449844991153855
-0.015130801465076399   -0.0008776833552018371   -0.000200133470764577
-0.019656696201341032   -0.00841388782670575   -0.00036493695583963824
-0.015110706754349855   -0.008344731952304616   -0.00024467892487685177
-0.015165779174672921   -0.0008142121579094544   -0.00019813764771042395
-0.01969379314602657   -0.008353102266932975   -0.00035539948946121847
-0.015149653503311582   -0.008277522588816559   -0.00022580226528289525
-0.015165779174672921   -0.0008142121579094544   -0.00019813764771042395
-0.019686605546437586   -0.000804517895138812   -0.00031449844991153855
-0.01969379314602657   -0.008353102266932975   -0.00035539948946121847
-0.019708432318600932   -0.0007372559201413103   -0.00031953406822552046
-0.015149653503311582   -0.008277522588816559   -0.00022580226528289525
-0.0197249234134227   -0.00828874580379425   -0.00034648832049309034
-0.019708432318600932   -0.0007372559201413103   -0.00031953406822552046
-0.01969379314602657   -0.008353102266932975   -0.00035539948946121847
-0.015149653503311582   -0.008277522588816559   -0.00022580226528289525
-0.019708432318600932   -0.0007372559201413103   -0.00031953406822552046
-0.015192429442137344   -0.0007454145492750709   -0.0001971134037799264
-0.015165779174672921   -0.0008142121579094544   -0.00019813764771042395
-0.015149653503311582   -0.008277522588816559   -0.00022580226528289525
-0.019708432318600932   -0.0007372559201413103   -0.00031953406822552046
-0.015165779174672921   -0.0008142121579094544   -0.00019813764771042395
-0.01969379314602657   -0.008353102266932975   -0.00035539948946121847
              </DataArray>   
          </PointData>  
       </Piece>  
   </UnstructuredGrid> 
</VTKFile> 
