<?xml version="1.0"?> 
<VTKFile type="UnstructuredGrid"> 
   <UnstructuredGrid> 
      <Piece NumberOfPoints="6000"  NumberOfCells="1500">  
          <Points>  
             <DataArray type="Float64" NumberOfComponents="3" format="ascii">   
-500.0   0.0   0.0
-450.0   0.0   0.0
-500.0   30.0   0.0
-500.0   0.0   16.666666666666668
-450.0   0.0   0.0
-450.0   30.0   0.0
-500.0   30.0   0.0
-450.0   30.0   16.666666666666668
-500.0   0.0   16.666666666666668
-500.0   30.0   16.666666666666668
-450.0   30.0   16.666666666666668
-500.0   30.0   0.0
-500.0   0.0   16.666666666666668
-450.0   30.0   16.666666666666668
-450.0   0.0   16.666666666666668
-450.0   0.0   0.0
-500.0   0.0   16.666666666666668
-450.0   30.0   16.666666666666668
-450.0   0.0   0.0
-500.0   30.0   0.0
-500.0   0.0   16.666666666666668
-450.0   0.0   16.666666666666668
-500.0   30.0   16.666666666666668
-500.0   0.0   33.333333333333336
-450.0   0.0   16.666666666666668
-450.0   30.0   16.666666666666668
-500.0   30.0   16.666666666666668
-450.0   30.0   33.333333333333336
-500.0   0.0   33.333333333333336
-500.0   30.0   33.333333333333336
-450.0   30.0   33.333333333333336
-500.0   30.0   16.666666666666668
-500.0   0.0   33.333333333333336
-450.0   30.0   33.333333333333336
-450.0   0.0   33.333333333333336
-450.0   0.0   16.666666666666668
-500.0   0.0   33.333333333333336
-450.0   30.0   33.333333333333336
-450.0   0.0   16.666666666666668
-500.0   30.0   16.666666666666668
-500.0   0.0   33.333333333333336
-450.0   0.0   33.333333333333336
-500.0   30.0   33.333333333333336
-500.0   0.0   50.0
-450.0   0.0   33.333333333333336
-450.0   30.0   33.333333333333336
-500.0   30.0   33.333333333333336
-450.0   30.0   50.0
-500.0   0.0   50.0
-500.0   30.0   50.0
-450.0   30.0   50.0
-500.0   30.0   33.333333333333336
-500.0   0.0   50.0
-450.0   30.0   50.0
-450.0   0.0   50.0
-450.0   0.0   33.333333333333336
-500.0   0.0   50.0
-450.0   30.0   50.0
-450.0   0.0   33.333333333333336
-500.0   30.0   33.333333333333336
-500.0   30.0   0.0
-450.0   30.0   0.0
-500.0   60.0   0.0
-500.0   30.0   16.666666666666668
-450.0   30.0   0.0
-450.0   60.0   0.0
-500.0   60.0   0.0
-450.0   60.0   16.666666666666668
-500.0   30.0   16.666666666666668
-500.0   60.0   16.666666666666668
-450.0   60.0   16.666666666666668
-500.0   60.0   0.0
-500.0   30.0   16.666666666666668
-450.0   60.0   16.666666666666668
-450.0   30.0   16.666666666666668
-450.0   30.0   0.0
-500.0   30.0   16.666666666666668
-450.0   60.0   16.666666666666668
-450.0   30.0   0.0
-500.0   60.0   0.0
-500.0   30.0   16.666666666666668
-450.0   30.0   16.666666666666668
-500.0   60.0   16.666666666666668
-500.0   30.0   33.333333333333336
-450.0   30.0   16.666666666666668
-450.0   60.0   16.666666666666668
-500.0   60.0   16.666666666666668
-450.0   60.0   33.333333333333336
-500.0   30.0   33.333333333333336
-500.0   60.0   33.333333333333336
-450.0   60.0   33.333333333333336
-500.0   60.0   16.666666666666668
-500.0   30.0   33.333333333333336
-450.0   60.0   33.333333333333336
-450.0   30.0   33.333333333333336
-450.0   30.0   16.666666666666668
-500.0   30.0   33.333333333333336
-450.0   60.0   33.333333333333336
-450.0   30.0   16.666666666666668
-500.0   60.0   16.666666666666668
-500.0   30.0   33.333333333333336
-450.0   30.0   33.333333333333336
-500.0   60.0   33.333333333333336
-500.0   30.0   50.0
-450.0   30.0   33.333333333333336
-450.0   60.0   33.333333333333336
-500.0   60.0   33.333333333333336
-450.0   60.0   50.0
-500.0   30.0   50.0
-500.0   60.0   50.0
-450.0   60.0   50.0
-500.0   60.0   33.333333333333336
-500.0   30.0   50.0
-450.0   60.0   50.0
-450.0   30.0   50.0
-450.0   30.0   33.333333333333336
-500.0   30.0   50.0
-450.0   60.0   50.0
-450.0   30.0   33.333333333333336
-500.0   60.0   33.333333333333336
-500.0   60.0   0.0
-450.0   60.0   0.0
-500.0   90.0   0.0
-500.0   60.0   16.666666666666668
-450.0   60.0   0.0
-450.0   90.0   0.0
-500.0   90.0   0.0
-450.0   90.0   16.666666666666668
-500.0   60.0   16.666666666666668
-500.0   90.0   16.666666666666668
-450.0   90.0   16.666666666666668
-500.0   90.0   0.0
-500.0   60.0   16.666666666666668
-450.0   90.0   16.666666666666668
-450.0   60.0   16.666666666666668
-450.0   60.0   0.0
-500.0   60.0   16.666666666666668
-450.0   90.0   16.666666666666668
-450.0   60.0   0.0
-500.0   90.0   0.0
-500.0   60.0   16.666666666666668
-450.0   60.0   16.666666666666668
-500.0   90.0   16.666666666666668
-500.0   60.0   33.333333333333336
-450.0   60.0   16.666666666666668
-450.0   90.0   16.666666666666668
-500.0   90.0   16.666666666666668
-450.0   90.0   33.333333333333336
-500.0   60.0   33.333333333333336
-500.0   90.0   33.333333333333336
-450.0   90.0   33.333333333333336
-500.0   90.0   16.666666666666668
-500.0   60.0   33.333333333333336
-450.0   90.0   33.333333333333336
-450.0   60.0   33.333333333333336
-450.0   60.0   16.666666666666668
-500.0   60.0   33.333333333333336
-450.0   90.0   33.333333333333336
-450.0   60.0   16.666666666666668
-500.0   90.0   16.666666666666668
-500.0   60.0   33.333333333333336
-450.0   60.0   33.333333333333336
-500.0   90.0   33.333333333333336
-500.0   60.0   50.0
-450.0   60.0   33.333333333333336
-450.0   90.0   33.333333333333336
-500.0   90.0   33.333333333333336
-450.0   90.0   50.0
-500.0   60.0   50.0
-500.0   90.0   50.0
-450.0   90.0   50.0
-500.0   90.0   33.333333333333336
-500.0   60.0   50.0
-450.0   90.0   50.0
-450.0   60.0   50.0
-450.0   60.0   33.333333333333336
-500.0   60.0   50.0
-450.0   90.0   50.0
-450.0   60.0   33.333333333333336
-500.0   90.0   33.333333333333336
-500.0   90.0   0.0
-450.0   90.0   0.0
-500.0   120.0   0.0
-500.0   90.0   16.666666666666668
-450.0   90.0   0.0
-450.0   120.0   0.0
-500.0   120.0   0.0
-450.0   120.0   16.666666666666668
-500.0   90.0   16.666666666666668
-500.0   120.0   16.666666666666668
-450.0   120.0   16.666666666666668
-500.0   120.0   0.0
-500.0   90.0   16.666666666666668
-450.0   120.0   16.666666666666668
-450.0   90.0   16.666666666666668
-450.0   90.0   0.0
-500.0   90.0   16.666666666666668
-450.0   120.0   16.666666666666668
-450.0   90.0   0.0
-500.0   120.0   0.0
-500.0   90.0   16.666666666666668
-450.0   90.0   16.666666666666668
-500.0   120.0   16.666666666666668
-500.0   90.0   33.333333333333336
-450.0   90.0   16.666666666666668
-450.0   120.0   16.666666666666668
-500.0   120.0   16.666666666666668
-450.0   120.0   33.333333333333336
-500.0   90.0   33.333333333333336
-500.0   120.0   33.333333333333336
-450.0   120.0   33.333333333333336
-500.0   120.0   16.666666666666668
-500.0   90.0   33.333333333333336
-450.0   120.0   33.333333333333336
-450.0   90.0   33.333333333333336
-450.0   90.0   16.666666666666668
-500.0   90.0   33.333333333333336
-450.0   120.0   33.333333333333336
-450.0   90.0   16.666666666666668
-500.0   120.0   16.666666666666668
-500.0   90.0   33.333333333333336
-450.0   90.0   33.333333333333336
-500.0   120.0   33.333333333333336
-500.0   90.0   50.0
-450.0   90.0   33.333333333333336
-450.0   120.0   33.333333333333336
-500.0   120.0   33.333333333333336
-450.0   120.0   50.0
-500.0   90.0   50.0
-500.0   120.0   50.0
-450.0   120.0   50.0
-500.0   120.0   33.333333333333336
-500.0   90.0   50.0
-450.0   120.0   50.0
-450.0   90.0   50.0
-450.0   90.0   33.333333333333336
-500.0   90.0   50.0
-450.0   120.0   50.0
-450.0   90.0   33.333333333333336
-500.0   120.0   33.333333333333336
-500.0   120.0   0.0
-450.0   120.0   0.0
-500.0   150.0   0.0
-500.0   120.0   16.666666666666668
-450.0   120.0   0.0
-450.0   150.0   0.0
-500.0   150.0   0.0
-450.0   150.0   16.666666666666668
-500.0   120.0   16.666666666666668
-500.0   150.0   16.666666666666668
-450.0   150.0   16.666666666666668
-500.0   150.0   0.0
-500.0   120.0   16.666666666666668
-450.0   150.0   16.666666666666668
-450.0   120.0   16.666666666666668
-450.0   120.0   0.0
-500.0   120.0   16.666666666666668
-450.0   150.0   16.666666666666668
-450.0   120.0   0.0
-500.0   150.0   0.0
-500.0   120.0   16.666666666666668
-450.0   120.0   16.666666666666668
-500.0   150.0   16.666666666666668
-500.0   120.0   33.333333333333336
-450.0   120.0   16.666666666666668
-450.0   150.0   16.666666666666668
-500.0   150.0   16.666666666666668
-450.0   150.0   33.333333333333336
-500.0   120.0   33.333333333333336
-500.0   150.0   33.333333333333336
-450.0   150.0   33.333333333333336
-500.0   150.0   16.666666666666668
-500.0   120.0   33.333333333333336
-450.0   150.0   33.333333333333336
-450.0   120.0   33.333333333333336
-450.0   120.0   16.666666666666668
-500.0   120.0   33.333333333333336
-450.0   150.0   33.333333333333336
-450.0   120.0   16.666666666666668
-500.0   150.0   16.666666666666668
-500.0   120.0   33.333333333333336
-450.0   120.0   33.333333333333336
-500.0   150.0   33.333333333333336
-500.0   120.0   50.0
-450.0   120.0   33.333333333333336
-450.0   150.0   33.333333333333336
-500.0   150.0   33.333333333333336
-450.0   150.0   50.0
-500.0   120.0   50.0
-500.0   150.0   50.0
-450.0   150.0   50.0
-500.0   150.0   33.333333333333336
-500.0   120.0   50.0
-450.0   150.0   50.0
-450.0   120.0   50.0
-450.0   120.0   33.333333333333336
-500.0   120.0   50.0
-450.0   150.0   50.0
-450.0   120.0   33.333333333333336
-500.0   150.0   33.333333333333336
-450.0   0.0   0.0
-400.0   0.0   0.0
-450.0   30.0   0.0
-450.0   0.0   16.666666666666668
-400.0   0.0   0.0
-400.0   30.0   0.0
-450.0   30.0   0.0
-400.0   30.0   16.666666666666668
-450.0   0.0   16.666666666666668
-450.0   30.0   16.666666666666668
-400.0   30.0   16.666666666666668
-450.0   30.0   0.0
-450.0   0.0   16.666666666666668
-400.0   30.0   16.666666666666668
-400.0   0.0   16.666666666666668
-400.0   0.0   0.0
-450.0   0.0   16.666666666666668
-400.0   30.0   16.666666666666668
-400.0   0.0   0.0
-450.0   30.0   0.0
-450.0   0.0   16.666666666666668
-400.0   0.0   16.666666666666668
-450.0   30.0   16.666666666666668
-450.0   0.0   33.333333333333336
-400.0   0.0   16.666666666666668
-400.0   30.0   16.666666666666668
-450.0   30.0   16.666666666666668
-400.0   30.0   33.333333333333336
-450.0   0.0   33.333333333333336
-450.0   30.0   33.333333333333336
-400.0   30.0   33.333333333333336
-450.0   30.0   16.666666666666668
-450.0   0.0   33.333333333333336
-400.0   30.0   33.333333333333336
-400.0   0.0   33.333333333333336
-400.0   0.0   16.666666666666668
-450.0   0.0   33.333333333333336
-400.0   30.0   33.333333333333336
-400.0   0.0   16.666666666666668
-450.0   30.0   16.666666666666668
-450.0   0.0   33.333333333333336
-400.0   0.0   33.333333333333336
-450.0   30.0   33.333333333333336
-450.0   0.0   50.0
-400.0   0.0   33.333333333333336
-400.0   30.0   33.333333333333336
-450.0   30.0   33.333333333333336
-400.0   30.0   50.0
-450.0   0.0   50.0
-450.0   30.0   50.0
-400.0   30.0   50.0
-450.0   30.0   33.333333333333336
-450.0   0.0   50.0
-400.0   30.0   50.0
-400.0   0.0   50.0
-400.0   0.0   33.333333333333336
-450.0   0.0   50.0
-400.0   30.0   50.0
-400.0   0.0   33.333333333333336
-450.0   30.0   33.333333333333336
-450.0   30.0   0.0
-400.0   30.0   0.0
-450.0   60.0   0.0
-450.0   30.0   16.666666666666668
-400.0   30.0   0.0
-400.0   60.0   0.0
-450.0   60.0   0.0
-400.0   60.0   16.666666666666668
-450.0   30.0   16.666666666666668
-450.0   60.0   16.666666666666668
-400.0   60.0   16.666666666666668
-450.0   60.0   0.0
-450.0   30.0   16.666666666666668
-400.0   60.0   16.666666666666668
-400.0   30.0   16.666666666666668
-400.0   30.0   0.0
-450.0   30.0   16.666666666666668
-400.0   60.0   16.666666666666668
-400.0   30.0   0.0
-450.0   60.0   0.0
-450.0   30.0   16.666666666666668
-400.0   30.0   16.666666666666668
-450.0   60.0   16.666666666666668
-450.0   30.0   33.333333333333336
-400.0   30.0   16.666666666666668
-400.0   60.0   16.666666666666668
-450.0   60.0   16.666666666666668
-400.0   60.0   33.333333333333336
-450.0   30.0   33.333333333333336
-450.0   60.0   33.333333333333336
-400.0   60.0   33.333333333333336
-450.0   60.0   16.666666666666668
-450.0   30.0   33.333333333333336
-400.0   60.0   33.333333333333336
-400.0   30.0   33.333333333333336
-400.0   30.0   16.666666666666668
-450.0   30.0   33.333333333333336
-400.0   60.0   33.333333333333336
-400.0   30.0   16.666666666666668
-450.0   60.0   16.666666666666668
-450.0   30.0   33.333333333333336
-400.0   30.0   33.333333333333336
-450.0   60.0   33.333333333333336
-450.0   30.0   50.0
-400.0   30.0   33.333333333333336
-400.0   60.0   33.333333333333336
-450.0   60.0   33.333333333333336
-400.0   60.0   50.0
-450.0   30.0   50.0
-450.0   60.0   50.0
-400.0   60.0   50.0
-450.0   60.0   33.333333333333336
-450.0   30.0   50.0
-400.0   60.0   50.0
-400.0   30.0   50.0
-400.0   30.0   33.333333333333336
-450.0   30.0   50.0
-400.0   60.0   50.0
-400.0   30.0   33.333333333333336
-450.0   60.0   33.333333333333336
-450.0   60.0   0.0
-400.0   60.0   0.0
-450.0   90.0   0.0
-450.0   60.0   16.666666666666668
-400.0   60.0   0.0
-400.0   90.0   0.0
-450.0   90.0   0.0
-400.0   90.0   16.666666666666668
-450.0   60.0   16.666666666666668
-450.0   90.0   16.666666666666668
-400.0   90.0   16.666666666666668
-450.0   90.0   0.0
-450.0   60.0   16.666666666666668
-400.0   90.0   16.666666666666668
-400.0   60.0   16.666666666666668
-400.0   60.0   0.0
-450.0   60.0   16.666666666666668
-400.0   90.0   16.666666666666668
-400.0   60.0   0.0
-450.0   90.0   0.0
-450.0   60.0   16.666666666666668
-400.0   60.0   16.666666666666668
-450.0   90.0   16.666666666666668
-450.0   60.0   33.333333333333336
-400.0   60.0   16.666666666666668
-400.0   90.0   16.666666666666668
-450.0   90.0   16.666666666666668
-400.0   90.0   33.333333333333336
-450.0   60.0   33.333333333333336
-450.0   90.0   33.333333333333336
-400.0   90.0   33.333333333333336
-450.0   90.0   16.666666666666668
-450.0   60.0   33.333333333333336
-400.0   90.0   33.333333333333336
-400.0   60.0   33.333333333333336
-400.0   60.0   16.666666666666668
-450.0   60.0   33.333333333333336
-400.0   90.0   33.333333333333336
-400.0   60.0   16.666666666666668
-450.0   90.0   16.666666666666668
-450.0   60.0   33.333333333333336
-400.0   60.0   33.333333333333336
-450.0   90.0   33.333333333333336
-450.0   60.0   50.0
-400.0   60.0   33.333333333333336
-400.0   90.0   33.333333333333336
-450.0   90.0   33.333333333333336
-400.0   90.0   50.0
-450.0   60.0   50.0
-450.0   90.0   50.0
-400.0   90.0   50.0
-450.0   90.0   33.333333333333336
-450.0   60.0   50.0
-400.0   90.0   50.0
-400.0   60.0   50.0
-400.0   60.0   33.333333333333336
-450.0   60.0   50.0
-400.0   90.0   50.0
-400.0   60.0   33.333333333333336
-450.0   90.0   33.333333333333336
-450.0   90.0   0.0
-400.0   90.0   0.0
-450.0   120.0   0.0
-450.0   90.0   16.666666666666668
-400.0   90.0   0.0
-400.0   120.0   0.0
-450.0   120.0   0.0
-400.0   120.0   16.666666666666668
-450.0   90.0   16.666666666666668
-450.0   120.0   16.666666666666668
-400.0   120.0   16.666666666666668
-450.0   120.0   0.0
-450.0   90.0   16.666666666666668
-400.0   120.0   16.666666666666668
-400.0   90.0   16.666666666666668
-400.0   90.0   0.0
-450.0   90.0   16.666666666666668
-400.0   120.0   16.666666666666668
-400.0   90.0   0.0
-450.0   120.0   0.0
-450.0   90.0   16.666666666666668
-400.0   90.0   16.666666666666668
-450.0   120.0   16.666666666666668
-450.0   90.0   33.333333333333336
-400.0   90.0   16.666666666666668
-400.0   120.0   16.666666666666668
-450.0   120.0   16.666666666666668
-400.0   120.0   33.333333333333336
-450.0   90.0   33.333333333333336
-450.0   120.0   33.333333333333336
-400.0   120.0   33.333333333333336
-450.0   120.0   16.666666666666668
-450.0   90.0   33.333333333333336
-400.0   120.0   33.333333333333336
-400.0   90.0   33.333333333333336
-400.0   90.0   16.666666666666668
-450.0   90.0   33.333333333333336
-400.0   120.0   33.333333333333336
-400.0   90.0   16.666666666666668
-450.0   120.0   16.666666666666668
-450.0   90.0   33.333333333333336
-400.0   90.0   33.333333333333336
-450.0   120.0   33.333333333333336
-450.0   90.0   50.0
-400.0   90.0   33.333333333333336
-400.0   120.0   33.333333333333336
-450.0   120.0   33.333333333333336
-400.0   120.0   50.0
-450.0   90.0   50.0
-450.0   120.0   50.0
-400.0   120.0   50.0
-450.0   120.0   33.333333333333336
-450.0   90.0   50.0
-400.0   120.0   50.0
-400.0   90.0   50.0
-400.0   90.0   33.333333333333336
-450.0   90.0   50.0
-400.0   120.0   50.0
-400.0   90.0   33.333333333333336
-450.0   120.0   33.333333333333336
-450.0   120.0   0.0
-400.0   120.0   0.0
-450.0   150.0   0.0
-450.0   120.0   16.666666666666668
-400.0   120.0   0.0
-400.0   150.0   0.0
-450.0   150.0   0.0
-400.0   150.0   16.666666666666668
-450.0   120.0   16.666666666666668
-450.0   150.0   16.666666666666668
-400.0   150.0   16.666666666666668
-450.0   150.0   0.0
-450.0   120.0   16.666666666666668
-400.0   150.0   16.666666666666668
-400.0   120.0   16.666666666666668
-400.0   120.0   0.0
-450.0   120.0   16.666666666666668
-400.0   150.0   16.666666666666668
-400.0   120.0   0.0
-450.0   150.0   0.0
-450.0   120.0   16.666666666666668
-400.0   120.0   16.666666666666668
-450.0   150.0   16.666666666666668
-450.0   120.0   33.333333333333336
-400.0   120.0   16.666666666666668
-400.0   150.0   16.666666666666668
-450.0   150.0   16.666666666666668
-400.0   150.0   33.333333333333336
-450.0   120.0   33.333333333333336
-450.0   150.0   33.333333333333336
-400.0   150.0   33.333333333333336
-450.0   150.0   16.666666666666668
-450.0   120.0   33.333333333333336
-400.0   150.0   33.333333333333336
-400.0   120.0   33.333333333333336
-400.0   120.0   16.666666666666668
-450.0   120.0   33.333333333333336
-400.0   150.0   33.333333333333336
-400.0   120.0   16.666666666666668
-450.0   150.0   16.666666666666668
-450.0   120.0   33.333333333333336
-400.0   120.0   33.333333333333336
-450.0   150.0   33.333333333333336
-450.0   120.0   50.0
-400.0   120.0   33.333333333333336
-400.0   150.0   33.333333333333336
-450.0   150.0   33.333333333333336
-400.0   150.0   50.0
-450.0   120.0   50.0
-450.0   150.0   50.0
-400.0   150.0   50.0
-450.0   150.0   33.333333333333336
-450.0   120.0   50.0
-400.0   150.0   50.0
-400.0   120.0   50.0
-400.0   120.0   33.333333333333336
-450.0   120.0   50.0
-400.0   150.0   50.0
-400.0   120.0   33.333333333333336
-450.0   150.0   33.333333333333336
-400.0   0.0   0.0
-350.0   0.0   0.0
-400.0   30.0   0.0
-400.0   0.0   16.666666666666668
-350.0   0.0   0.0
-350.0   30.0   0.0
-400.0   30.0   0.0
-350.0   30.0   16.666666666666668
-400.0   0.0   16.666666666666668
-400.0   30.0   16.666666666666668
-350.0   30.0   16.666666666666668
-400.0   30.0   0.0
-400.0   0.0   16.666666666666668
-350.0   30.0   16.666666666666668
-350.0   0.0   16.666666666666668
-350.0   0.0   0.0
-400.0   0.0   16.666666666666668
-350.0   30.0   16.666666666666668
-350.0   0.0   0.0
-400.0   30.0   0.0
-400.0   0.0   16.666666666666668
-350.0   0.0   16.666666666666668
-400.0   30.0   16.666666666666668
-400.0   0.0   33.333333333333336
-350.0   0.0   16.666666666666668
-350.0   30.0   16.666666666666668
-400.0   30.0   16.666666666666668
-350.0   30.0   33.333333333333336
-400.0   0.0   33.333333333333336
-400.0   30.0   33.333333333333336
-350.0   30.0   33.333333333333336
-400.0   30.0   16.666666666666668
-400.0   0.0   33.333333333333336
-350.0   30.0   33.333333333333336
-350.0   0.0   33.333333333333336
-350.0   0.0   16.666666666666668
-400.0   0.0   33.333333333333336
-350.0   30.0   33.333333333333336
-350.0   0.0   16.666666666666668
-400.0   30.0   16.666666666666668
-400.0   0.0   33.333333333333336
-350.0   0.0   33.333333333333336
-400.0   30.0   33.333333333333336
-400.0   0.0   50.0
-350.0   0.0   33.333333333333336
-350.0   30.0   33.333333333333336
-400.0   30.0   33.333333333333336
-350.0   30.0   50.0
-400.0   0.0   50.0
-400.0   30.0   50.0
-350.0   30.0   50.0
-400.0   30.0   33.333333333333336
-400.0   0.0   50.0
-350.0   30.0   50.0
-350.0   0.0   50.0
-350.0   0.0   33.333333333333336
-400.0   0.0   50.0
-350.0   30.0   50.0
-350.0   0.0   33.333333333333336
-400.0   30.0   33.333333333333336
-400.0   30.0   0.0
-350.0   30.0   0.0
-400.0   60.0   0.0
-400.0   30.0   16.666666666666668
-350.0   30.0   0.0
-350.0   60.0   0.0
-400.0   60.0   0.0
-350.0   60.0   16.666666666666668
-400.0   30.0   16.666666666666668
-400.0   60.0   16.666666666666668
-350.0   60.0   16.666666666666668
-400.0   60.0   0.0
-400.0   30.0   16.666666666666668
-350.0   60.0   16.666666666666668
-350.0   30.0   16.666666666666668
-350.0   30.0   0.0
-400.0   30.0   16.666666666666668
-350.0   60.0   16.666666666666668
-350.0   30.0   0.0
-400.0   60.0   0.0
-400.0   30.0   16.666666666666668
-350.0   30.0   16.666666666666668
-400.0   60.0   16.666666666666668
-400.0   30.0   33.333333333333336
-350.0   30.0   16.666666666666668
-350.0   60.0   16.666666666666668
-400.0   60.0   16.666666666666668
-350.0   60.0   33.333333333333336
-400.0   30.0   33.333333333333336
-400.0   60.0   33.333333333333336
-350.0   60.0   33.333333333333336
-400.0   60.0   16.666666666666668
-400.0   30.0   33.333333333333336
-350.0   60.0   33.333333333333336
-350.0   30.0   33.333333333333336
-350.0   30.0   16.666666666666668
-400.0   30.0   33.333333333333336
-350.0   60.0   33.333333333333336
-350.0   30.0   16.666666666666668
-400.0   60.0   16.666666666666668
-400.0   30.0   33.333333333333336
-350.0   30.0   33.333333333333336
-400.0   60.0   33.333333333333336
-400.0   30.0   50.0
-350.0   30.0   33.333333333333336
-350.0   60.0   33.333333333333336
-400.0   60.0   33.333333333333336
-350.0   60.0   50.0
-400.0   30.0   50.0
-400.0   60.0   50.0
-350.0   60.0   50.0
-400.0   60.0   33.333333333333336
-400.0   30.0   50.0
-350.0   60.0   50.0
-350.0   30.0   50.0
-350.0   30.0   33.333333333333336
-400.0   30.0   50.0
-350.0   60.0   50.0
-350.0   30.0   33.333333333333336
-400.0   60.0   33.333333333333336
-400.0   60.0   0.0
-350.0   60.0   0.0
-400.0   90.0   0.0
-400.0   60.0   16.666666666666668
-350.0   60.0   0.0
-350.0   90.0   0.0
-400.0   90.0   0.0
-350.0   90.0   16.666666666666668
-400.0   60.0   16.666666666666668
-400.0   90.0   16.666666666666668
-350.0   90.0   16.666666666666668
-400.0   90.0   0.0
-400.0   60.0   16.666666666666668
-350.0   90.0   16.666666666666668
-350.0   60.0   16.666666666666668
-350.0   60.0   0.0
-400.0   60.0   16.666666666666668
-350.0   90.0   16.666666666666668
-350.0   60.0   0.0
-400.0   90.0   0.0
-400.0   60.0   16.666666666666668
-350.0   60.0   16.666666666666668
-400.0   90.0   16.666666666666668
-400.0   60.0   33.333333333333336
-350.0   60.0   16.666666666666668
-350.0   90.0   16.666666666666668
-400.0   90.0   16.666666666666668
-350.0   90.0   33.333333333333336
-400.0   60.0   33.333333333333336
-400.0   90.0   33.333333333333336
-350.0   90.0   33.333333333333336
-400.0   90.0   16.666666666666668
-400.0   60.0   33.333333333333336
-350.0   90.0   33.333333333333336
-350.0   60.0   33.333333333333336
-350.0   60.0   16.666666666666668
-400.0   60.0   33.333333333333336
-350.0   90.0   33.333333333333336
-350.0   60.0   16.666666666666668
-400.0   90.0   16.666666666666668
-400.0   60.0   33.333333333333336
-350.0   60.0   33.333333333333336
-400.0   90.0   33.333333333333336
-400.0   60.0   50.0
-350.0   60.0   33.333333333333336
-350.0   90.0   33.333333333333336
-400.0   90.0   33.333333333333336
-350.0   90.0   50.0
-400.0   60.0   50.0
-400.0   90.0   50.0
-350.0   90.0   50.0
-400.0   90.0   33.333333333333336
-400.0   60.0   50.0
-350.0   90.0   50.0
-350.0   60.0   50.0
-350.0   60.0   33.333333333333336
-400.0   60.0   50.0
-350.0   90.0   50.0
-350.0   60.0   33.333333333333336
-400.0   90.0   33.333333333333336
-400.0   90.0   0.0
-350.0   90.0   0.0
-400.0   120.0   0.0
-400.0   90.0   16.666666666666668
-350.0   90.0   0.0
-350.0   120.0   0.0
-400.0   120.0   0.0
-350.0   120.0   16.666666666666668
-400.0   90.0   16.666666666666668
-400.0   120.0   16.666666666666668
-350.0   120.0   16.666666666666668
-400.0   120.0   0.0
-400.0   90.0   16.666666666666668
-350.0   120.0   16.666666666666668
-350.0   90.0   16.666666666666668
-350.0   90.0   0.0
-400.0   90.0   16.666666666666668
-350.0   120.0   16.666666666666668
-350.0   90.0   0.0
-400.0   120.0   0.0
-400.0   90.0   16.666666666666668
-350.0   90.0   16.666666666666668
-400.0   120.0   16.666666666666668
-400.0   90.0   33.333333333333336
-350.0   90.0   16.666666666666668
-350.0   120.0   16.666666666666668
-400.0   120.0   16.666666666666668
-350.0   120.0   33.333333333333336
-400.0   90.0   33.333333333333336
-400.0   120.0   33.333333333333336
-350.0   120.0   33.333333333333336
-400.0   120.0   16.666666666666668
-400.0   90.0   33.333333333333336
-350.0   120.0   33.333333333333336
-350.0   90.0   33.333333333333336
-350.0   90.0   16.666666666666668
-400.0   90.0   33.333333333333336
-350.0   120.0   33.333333333333336
-350.0   90.0   16.666666666666668
-400.0   120.0   16.666666666666668
-400.0   90.0   33.333333333333336
-350.0   90.0   33.333333333333336
-400.0   120.0   33.333333333333336
-400.0   90.0   50.0
-350.0   90.0   33.333333333333336
-350.0   120.0   33.333333333333336
-400.0   120.0   33.333333333333336
-350.0   120.0   50.0
-400.0   90.0   50.0
-400.0   120.0   50.0
-350.0   120.0   50.0
-400.0   120.0   33.333333333333336
-400.0   90.0   50.0
-350.0   120.0   50.0
-350.0   90.0   50.0
-350.0   90.0   33.333333333333336
-400.0   90.0   50.0
-350.0   120.0   50.0
-350.0   90.0   33.333333333333336
-400.0   120.0   33.333333333333336
-400.0   120.0   0.0
-350.0   120.0   0.0
-400.0   150.0   0.0
-400.0   120.0   16.666666666666668
-350.0   120.0   0.0
-350.0   150.0   0.0
-400.0   150.0   0.0
-350.0   150.0   16.666666666666668
-400.0   120.0   16.666666666666668
-400.0   150.0   16.666666666666668
-350.0   150.0   16.666666666666668
-400.0   150.0   0.0
-400.0   120.0   16.666666666666668
-350.0   150.0   16.666666666666668
-350.0   120.0   16.666666666666668
-350.0   120.0   0.0
-400.0   120.0   16.666666666666668
-350.0   150.0   16.666666666666668
-350.0   120.0   0.0
-400.0   150.0   0.0
-400.0   120.0   16.666666666666668
-350.0   120.0   16.666666666666668
-400.0   150.0   16.666666666666668
-400.0   120.0   33.333333333333336
-350.0   120.0   16.666666666666668
-350.0   150.0   16.666666666666668
-400.0   150.0   16.666666666666668
-350.0   150.0   33.333333333333336
-400.0   120.0   33.333333333333336
-400.0   150.0   33.333333333333336
-350.0   150.0   33.333333333333336
-400.0   150.0   16.666666666666668
-400.0   120.0   33.333333333333336
-350.0   150.0   33.333333333333336
-350.0   120.0   33.333333333333336
-350.0   120.0   16.666666666666668
-400.0   120.0   33.333333333333336
-350.0   150.0   33.333333333333336
-350.0   120.0   16.666666666666668
-400.0   150.0   16.666666666666668
-400.0   120.0   33.333333333333336
-350.0   120.0   33.333333333333336
-400.0   150.0   33.333333333333336
-400.0   120.0   50.0
-350.0   120.0   33.333333333333336
-350.0   150.0   33.333333333333336
-400.0   150.0   33.333333333333336
-350.0   150.0   50.0
-400.0   120.0   50.0
-400.0   150.0   50.0
-350.0   150.0   50.0
-400.0   150.0   33.333333333333336
-400.0   120.0   50.0
-350.0   150.0   50.0
-350.0   120.0   50.0
-350.0   120.0   33.333333333333336
-400.0   120.0   50.0
-350.0   150.0   50.0
-350.0   120.0   33.333333333333336
-400.0   150.0   33.333333333333336
-350.0   0.0   0.0
-300.0   0.0   0.0
-350.0   30.0   0.0
-350.0   0.0   16.666666666666668
-300.0   0.0   0.0
-300.0   30.0   0.0
-350.0   30.0   0.0
-300.0   30.0   16.666666666666668
-350.0   0.0   16.666666666666668
-350.0   30.0   16.666666666666668
-300.0   30.0   16.666666666666668
-350.0   30.0   0.0
-350.0   0.0   16.666666666666668
-300.0   30.0   16.666666666666668
-300.0   0.0   16.666666666666668
-300.0   0.0   0.0
-350.0   0.0   16.666666666666668
-300.0   30.0   16.666666666666668
-300.0   0.0   0.0
-350.0   30.0   0.0
-350.0   0.0   16.666666666666668
-300.0   0.0   16.666666666666668
-350.0   30.0   16.666666666666668
-350.0   0.0   33.333333333333336
-300.0   0.0   16.666666666666668
-300.0   30.0   16.666666666666668
-350.0   30.0   16.666666666666668
-300.0   30.0   33.333333333333336
-350.0   0.0   33.333333333333336
-350.0   30.0   33.333333333333336
-300.0   30.0   33.333333333333336
-350.0   30.0   16.666666666666668
-350.0   0.0   33.333333333333336
-300.0   30.0   33.333333333333336
-300.0   0.0   33.333333333333336
-300.0   0.0   16.666666666666668
-350.0   0.0   33.333333333333336
-300.0   30.0   33.333333333333336
-300.0   0.0   16.666666666666668
-350.0   30.0   16.666666666666668
-350.0   0.0   33.333333333333336
-300.0   0.0   33.333333333333336
-350.0   30.0   33.333333333333336
-350.0   0.0   50.0
-300.0   0.0   33.333333333333336
-300.0   30.0   33.333333333333336
-350.0   30.0   33.333333333333336
-300.0   30.0   50.0
-350.0   0.0   50.0
-350.0   30.0   50.0
-300.0   30.0   50.0
-350.0   30.0   33.333333333333336
-350.0   0.0   50.0
-300.0   30.0   50.0
-300.0   0.0   50.0
-300.0   0.0   33.333333333333336
-350.0   0.0   50.0
-300.0   30.0   50.0
-300.0   0.0   33.333333333333336
-350.0   30.0   33.333333333333336
-350.0   30.0   0.0
-300.0   30.0   0.0
-350.0   60.0   0.0
-350.0   30.0   16.666666666666668
-300.0   30.0   0.0
-300.0   60.0   0.0
-350.0   60.0   0.0
-300.0   60.0   16.666666666666668
-350.0   30.0   16.666666666666668
-350.0   60.0   16.666666666666668
-300.0   60.0   16.666666666666668
-350.0   60.0   0.0
-350.0   30.0   16.666666666666668
-300.0   60.0   16.666666666666668
-300.0   30.0   16.666666666666668
-300.0   30.0   0.0
-350.0   30.0   16.666666666666668
-300.0   60.0   16.666666666666668
-300.0   30.0   0.0
-350.0   60.0   0.0
-350.0   30.0   16.666666666666668
-300.0   30.0   16.666666666666668
-350.0   60.0   16.666666666666668
-350.0   30.0   33.333333333333336
-300.0   30.0   16.666666666666668
-300.0   60.0   16.666666666666668
-350.0   60.0   16.666666666666668
-300.0   60.0   33.333333333333336
-350.0   30.0   33.333333333333336
-350.0   60.0   33.333333333333336
-300.0   60.0   33.333333333333336
-350.0   60.0   16.666666666666668
-350.0   30.0   33.333333333333336
-300.0   60.0   33.333333333333336
-300.0   30.0   33.333333333333336
-300.0   30.0   16.666666666666668
-350.0   30.0   33.333333333333336
-300.0   60.0   33.333333333333336
-300.0   30.0   16.666666666666668
-350.0   60.0   16.666666666666668
-350.0   30.0   33.333333333333336
-300.0   30.0   33.333333333333336
-350.0   60.0   33.333333333333336
-350.0   30.0   50.0
-300.0   30.0   33.333333333333336
-300.0   60.0   33.333333333333336
-350.0   60.0   33.333333333333336
-300.0   60.0   50.0
-350.0   30.0   50.0
-350.0   60.0   50.0
-300.0   60.0   50.0
-350.0   60.0   33.333333333333336
-350.0   30.0   50.0
-300.0   60.0   50.0
-300.0   30.0   50.0
-300.0   30.0   33.333333333333336
-350.0   30.0   50.0
-300.0   60.0   50.0
-300.0   30.0   33.333333333333336
-350.0   60.0   33.333333333333336
-350.0   60.0   0.0
-300.0   60.0   0.0
-350.0   90.0   0.0
-350.0   60.0   16.666666666666668
-300.0   60.0   0.0
-300.0   90.0   0.0
-350.0   90.0   0.0
-300.0   90.0   16.666666666666668
-350.0   60.0   16.666666666666668
-350.0   90.0   16.666666666666668
-300.0   90.0   16.666666666666668
-350.0   90.0   0.0
-350.0   60.0   16.666666666666668
-300.0   90.0   16.666666666666668
-300.0   60.0   16.666666666666668
-300.0   60.0   0.0
-350.0   60.0   16.666666666666668
-300.0   90.0   16.666666666666668
-300.0   60.0   0.0
-350.0   90.0   0.0
-350.0   60.0   16.666666666666668
-300.0   60.0   16.666666666666668
-350.0   90.0   16.666666666666668
-350.0   60.0   33.333333333333336
-300.0   60.0   16.666666666666668
-300.0   90.0   16.666666666666668
-350.0   90.0   16.666666666666668
-300.0   90.0   33.333333333333336
-350.0   60.0   33.333333333333336
-350.0   90.0   33.333333333333336
-300.0   90.0   33.333333333333336
-350.0   90.0   16.666666666666668
-350.0   60.0   33.333333333333336
-300.0   90.0   33.333333333333336
-300.0   60.0   33.333333333333336
-300.0   60.0   16.666666666666668
-350.0   60.0   33.333333333333336
-300.0   90.0   33.333333333333336
-300.0   60.0   16.666666666666668
-350.0   90.0   16.666666666666668
-350.0   60.0   33.333333333333336
-300.0   60.0   33.333333333333336
-350.0   90.0   33.333333333333336
-350.0   60.0   50.0
-300.0   60.0   33.333333333333336
-300.0   90.0   33.333333333333336
-350.0   90.0   33.333333333333336
-300.0   90.0   50.0
-350.0   60.0   50.0
-350.0   90.0   50.0
-300.0   90.0   50.0
-350.0   90.0   33.333333333333336
-350.0   60.0   50.0
-300.0   90.0   50.0
-300.0   60.0   50.0
-300.0   60.0   33.333333333333336
-350.0   60.0   50.0
-300.0   90.0   50.0
-300.0   60.0   33.333333333333336
-350.0   90.0   33.333333333333336
-350.0   90.0   0.0
-300.0   90.0   0.0
-350.0   120.0   0.0
-350.0   90.0   16.666666666666668
-300.0   90.0   0.0
-300.0   120.0   0.0
-350.0   120.0   0.0
-300.0   120.0   16.666666666666668
-350.0   90.0   16.666666666666668
-350.0   120.0   16.666666666666668
-300.0   120.0   16.666666666666668
-350.0   120.0   0.0
-350.0   90.0   16.666666666666668
-300.0   120.0   16.666666666666668
-300.0   90.0   16.666666666666668
-300.0   90.0   0.0
-350.0   90.0   16.666666666666668
-300.0   120.0   16.666666666666668
-300.0   90.0   0.0
-350.0   120.0   0.0
-350.0   90.0   16.666666666666668
-300.0   90.0   16.666666666666668
-350.0   120.0   16.666666666666668
-350.0   90.0   33.333333333333336
-300.0   90.0   16.666666666666668
-300.0   120.0   16.666666666666668
-350.0   120.0   16.666666666666668
-300.0   120.0   33.333333333333336
-350.0   90.0   33.333333333333336
-350.0   120.0   33.333333333333336
-300.0   120.0   33.333333333333336
-350.0   120.0   16.666666666666668
-350.0   90.0   33.333333333333336
-300.0   120.0   33.333333333333336
-300.0   90.0   33.333333333333336
-300.0   90.0   16.666666666666668
-350.0   90.0   33.333333333333336
-300.0   120.0   33.333333333333336
-300.0   90.0   16.666666666666668
-350.0   120.0   16.666666666666668
-350.0   90.0   33.333333333333336
-300.0   90.0   33.333333333333336
-350.0   120.0   33.333333333333336
-350.0   90.0   50.0
-300.0   90.0   33.333333333333336
-300.0   120.0   33.333333333333336
-350.0   120.0   33.333333333333336
-300.0   120.0   50.0
-350.0   90.0   50.0
-350.0   120.0   50.0
-300.0   120.0   50.0
-350.0   120.0   33.333333333333336
-350.0   90.0   50.0
-300.0   120.0   50.0
-300.0   90.0   50.0
-300.0   90.0   33.333333333333336
-350.0   90.0   50.0
-300.0   120.0   50.0
-300.0   90.0   33.333333333333336
-350.0   120.0   33.333333333333336
-350.0   120.0   0.0
-300.0   120.0   0.0
-350.0   150.0   0.0
-350.0   120.0   16.666666666666668
-300.0   120.0   0.0
-300.0   150.0   0.0
-350.0   150.0   0.0
-300.0   150.0   16.666666666666668
-350.0   120.0   16.666666666666668
-350.0   150.0   16.666666666666668
-300.0   150.0   16.666666666666668
-350.0   150.0   0.0
-350.0   120.0   16.666666666666668
-300.0   150.0   16.666666666666668
-300.0   120.0   16.666666666666668
-300.0   120.0   0.0
-350.0   120.0   16.666666666666668
-300.0   150.0   16.666666666666668
-300.0   120.0   0.0
-350.0   150.0   0.0
-350.0   120.0   16.666666666666668
-300.0   120.0   16.666666666666668
-350.0   150.0   16.666666666666668
-350.0   120.0   33.333333333333336
-300.0   120.0   16.666666666666668
-300.0   150.0   16.666666666666668
-350.0   150.0   16.666666666666668
-300.0   150.0   33.333333333333336
-350.0   120.0   33.333333333333336
-350.0   150.0   33.333333333333336
-300.0   150.0   33.333333333333336
-350.0   150.0   16.666666666666668
-350.0   120.0   33.333333333333336
-300.0   150.0   33.333333333333336
-300.0   120.0   33.333333333333336
-300.0   120.0   16.666666666666668
-350.0   120.0   33.333333333333336
-300.0   150.0   33.333333333333336
-300.0   120.0   16.666666666666668
-350.0   150.0   16.666666666666668
-350.0   120.0   33.333333333333336
-300.0   120.0   33.333333333333336
-350.0   150.0   33.333333333333336
-350.0   120.0   50.0
-300.0   120.0   33.333333333333336
-300.0   150.0   33.333333333333336
-350.0   150.0   33.333333333333336
-300.0   150.0   50.0
-350.0   120.0   50.0
-350.0   150.0   50.0
-300.0   150.0   50.0
-350.0   150.0   33.333333333333336
-350.0   120.0   50.0
-300.0   150.0   50.0
-300.0   120.0   50.0
-300.0   120.0   33.333333333333336
-350.0   120.0   50.0
-300.0   150.0   50.0
-300.0   120.0   33.333333333333336
-350.0   150.0   33.333333333333336
-300.0   0.0   0.0
-250.0   0.0   0.0
-300.0   30.0   0.0
-300.0   0.0   16.666666666666668
-250.0   0.0   0.0
-250.0   30.0   0.0
-300.0   30.0   0.0
-250.0   30.0   16.666666666666668
-300.0   0.0   16.666666666666668
-300.0   30.0   16.666666666666668
-250.0   30.0   16.666666666666668
-300.0   30.0   0.0
-300.0   0.0   16.666666666666668
-250.0   30.0   16.666666666666668
-250.0   0.0   16.666666666666668
-250.0   0.0   0.0
-300.0   0.0   16.666666666666668
-250.0   30.0   16.666666666666668
-250.0   0.0   0.0
-300.0   30.0   0.0
-300.0   0.0   16.666666666666668
-250.0   0.0   16.666666666666668
-300.0   30.0   16.666666666666668
-300.0   0.0   33.333333333333336
-250.0   0.0   16.666666666666668
-250.0   30.0   16.666666666666668
-300.0   30.0   16.666666666666668
-250.0   30.0   33.333333333333336
-300.0   0.0   33.333333333333336
-300.0   30.0   33.333333333333336
-250.0   30.0   33.333333333333336
-300.0   30.0   16.666666666666668
-300.0   0.0   33.333333333333336
-250.0   30.0   33.333333333333336
-250.0   0.0   33.333333333333336
-250.0   0.0   16.666666666666668
-300.0   0.0   33.333333333333336
-250.0   30.0   33.333333333333336
-250.0   0.0   16.666666666666668
-300.0   30.0   16.666666666666668
-300.0   0.0   33.333333333333336
-250.0   0.0   33.333333333333336
-300.0   30.0   33.333333333333336
-300.0   0.0   50.0
-250.0   0.0   33.333333333333336
-250.0   30.0   33.333333333333336
-300.0   30.0   33.333333333333336
-250.0   30.0   50.0
-300.0   0.0   50.0
-300.0   30.0   50.0
-250.0   30.0   50.0
-300.0   30.0   33.333333333333336
-300.0   0.0   50.0
-250.0   30.0   50.0
-250.0   0.0   50.0
-250.0   0.0   33.333333333333336
-300.0   0.0   50.0
-250.0   30.0   50.0
-250.0   0.0   33.333333333333336
-300.0   30.0   33.333333333333336
-300.0   30.0   0.0
-250.0   30.0   0.0
-300.0   60.0   0.0
-300.0   30.0   16.666666666666668
-250.0   30.0   0.0
-250.0   60.0   0.0
-300.0   60.0   0.0
-250.0   60.0   16.666666666666668
-300.0   30.0   16.666666666666668
-300.0   60.0   16.666666666666668
-250.0   60.0   16.666666666666668
-300.0   60.0   0.0
-300.0   30.0   16.666666666666668
-250.0   60.0   16.666666666666668
-250.0   30.0   16.666666666666668
-250.0   30.0   0.0
-300.0   30.0   16.666666666666668
-250.0   60.0   16.666666666666668
-250.0   30.0   0.0
-300.0   60.0   0.0
-300.0   30.0   16.666666666666668
-250.0   30.0   16.666666666666668
-300.0   60.0   16.666666666666668
-300.0   30.0   33.333333333333336
-250.0   30.0   16.666666666666668
-250.0   60.0   16.666666666666668
-300.0   60.0   16.666666666666668
-250.0   60.0   33.333333333333336
-300.0   30.0   33.333333333333336
-300.0   60.0   33.333333333333336
-250.0   60.0   33.333333333333336
-300.0   60.0   16.666666666666668
-300.0   30.0   33.333333333333336
-250.0   60.0   33.333333333333336
-250.0   30.0   33.333333333333336
-250.0   30.0   16.666666666666668
-300.0   30.0   33.333333333333336
-250.0   60.0   33.333333333333336
-250.0   30.0   16.666666666666668
-300.0   60.0   16.666666666666668
-300.0   30.0   33.333333333333336
-250.0   30.0   33.333333333333336
-300.0   60.0   33.333333333333336
-300.0   30.0   50.0
-250.0   30.0   33.333333333333336
-250.0   60.0   33.333333333333336
-300.0   60.0   33.333333333333336
-250.0   60.0   50.0
-300.0   30.0   50.0
-300.0   60.0   50.0
-250.0   60.0   50.0
-300.0   60.0   33.333333333333336
-300.0   30.0   50.0
-250.0   60.0   50.0
-250.0   30.0   50.0
-250.0   30.0   33.333333333333336
-300.0   30.0   50.0
-250.0   60.0   50.0
-250.0   30.0   33.333333333333336
-300.0   60.0   33.333333333333336
-300.0   60.0   0.0
-250.0   60.0   0.0
-300.0   90.0   0.0
-300.0   60.0   16.666666666666668
-250.0   60.0   0.0
-250.0   90.0   0.0
-300.0   90.0   0.0
-250.0   90.0   16.666666666666668
-300.0   60.0   16.666666666666668
-300.0   90.0   16.666666666666668
-250.0   90.0   16.666666666666668
-300.0   90.0   0.0
-300.0   60.0   16.666666666666668
-250.0   90.0   16.666666666666668
-250.0   60.0   16.666666666666668
-250.0   60.0   0.0
-300.0   60.0   16.666666666666668
-250.0   90.0   16.666666666666668
-250.0   60.0   0.0
-300.0   90.0   0.0
-300.0   60.0   16.666666666666668
-250.0   60.0   16.666666666666668
-300.0   90.0   16.666666666666668
-300.0   60.0   33.333333333333336
-250.0   60.0   16.666666666666668
-250.0   90.0   16.666666666666668
-300.0   90.0   16.666666666666668
-250.0   90.0   33.333333333333336
-300.0   60.0   33.333333333333336
-300.0   90.0   33.333333333333336
-250.0   90.0   33.333333333333336
-300.0   90.0   16.666666666666668
-300.0   60.0   33.333333333333336
-250.0   90.0   33.333333333333336
-250.0   60.0   33.333333333333336
-250.0   60.0   16.666666666666668
-300.0   60.0   33.333333333333336
-250.0   90.0   33.333333333333336
-250.0   60.0   16.666666666666668
-300.0   90.0   16.666666666666668
-300.0   60.0   33.333333333333336
-250.0   60.0   33.333333333333336
-300.0   90.0   33.333333333333336
-300.0   60.0   50.0
-250.0   60.0   33.333333333333336
-250.0   90.0   33.333333333333336
-300.0   90.0   33.333333333333336
-250.0   90.0   50.0
-300.0   60.0   50.0
-300.0   90.0   50.0
-250.0   90.0   50.0
-300.0   90.0   33.333333333333336
-300.0   60.0   50.0
-250.0   90.0   50.0
-250.0   60.0   50.0
-250.0   60.0   33.333333333333336
-300.0   60.0   50.0
-250.0   90.0   50.0
-250.0   60.0   33.333333333333336
-300.0   90.0   33.333333333333336
-300.0   90.0   0.0
-250.0   90.0   0.0
-300.0   120.0   0.0
-300.0   90.0   16.666666666666668
-250.0   90.0   0.0
-250.0   120.0   0.0
-300.0   120.0   0.0
-250.0   120.0   16.666666666666668
-300.0   90.0   16.666666666666668
-300.0   120.0   16.666666666666668
-250.0   120.0   16.666666666666668
-300.0   120.0   0.0
-300.0   90.0   16.666666666666668
-250.0   120.0   16.666666666666668
-250.0   90.0   16.666666666666668
-250.0   90.0   0.0
-300.0   90.0   16.666666666666668
-250.0   120.0   16.666666666666668
-250.0   90.0   0.0
-300.0   120.0   0.0
-300.0   90.0   16.666666666666668
-250.0   90.0   16.666666666666668
-300.0   120.0   16.666666666666668
-300.0   90.0   33.333333333333336
-250.0   90.0   16.666666666666668
-250.0   120.0   16.666666666666668
-300.0   120.0   16.666666666666668
-250.0   120.0   33.333333333333336
-300.0   90.0   33.333333333333336
-300.0   120.0   33.333333333333336
-250.0   120.0   33.333333333333336
-300.0   120.0   16.666666666666668
-300.0   90.0   33.333333333333336
-250.0   120.0   33.333333333333336
-250.0   90.0   33.333333333333336
-250.0   90.0   16.666666666666668
-300.0   90.0   33.333333333333336
-250.0   120.0   33.333333333333336
-250.0   90.0   16.666666666666668
-300.0   120.0   16.666666666666668
-300.0   90.0   33.333333333333336
-250.0   90.0   33.333333333333336
-300.0   120.0   33.333333333333336
-300.0   90.0   50.0
-250.0   90.0   33.333333333333336
-250.0   120.0   33.333333333333336
-300.0   120.0   33.333333333333336
-250.0   120.0   50.0
-300.0   90.0   50.0
-300.0   120.0   50.0
-250.0   120.0   50.0
-300.0   120.0   33.333333333333336
-300.0   90.0   50.0
-250.0   120.0   50.0
-250.0   90.0   50.0
-250.0   90.0   33.333333333333336
-300.0   90.0   50.0
-250.0   120.0   50.0
-250.0   90.0   33.333333333333336
-300.0   120.0   33.333333333333336
-300.0   120.0   0.0
-250.0   120.0   0.0
-300.0   150.0   0.0
-300.0   120.0   16.666666666666668
-250.0   120.0   0.0
-250.0   150.0   0.0
-300.0   150.0   0.0
-250.0   150.0   16.666666666666668
-300.0   120.0   16.666666666666668
-300.0   150.0   16.666666666666668
-250.0   150.0   16.666666666666668
-300.0   150.0   0.0
-300.0   120.0   16.666666666666668
-250.0   150.0   16.666666666666668
-250.0   120.0   16.666666666666668
-250.0   120.0   0.0
-300.0   120.0   16.666666666666668
-250.0   150.0   16.666666666666668
-250.0   120.0   0.0
-300.0   150.0   0.0
-300.0   120.0   16.666666666666668
-250.0   120.0   16.666666666666668
-300.0   150.0   16.666666666666668
-300.0   120.0   33.333333333333336
-250.0   120.0   16.666666666666668
-250.0   150.0   16.666666666666668
-300.0   150.0   16.666666666666668
-250.0   150.0   33.333333333333336
-300.0   120.0   33.333333333333336
-300.0   150.0   33.333333333333336
-250.0   150.0   33.333333333333336
-300.0   150.0   16.666666666666668
-300.0   120.0   33.333333333333336
-250.0   150.0   33.333333333333336
-250.0   120.0   33.333333333333336
-250.0   120.0   16.666666666666668
-300.0   120.0   33.333333333333336
-250.0   150.0   33.333333333333336
-250.0   120.0   16.666666666666668
-300.0   150.0   16.666666666666668
-300.0   120.0   33.333333333333336
-250.0   120.0   33.333333333333336
-300.0   150.0   33.333333333333336
-300.0   120.0   50.0
-250.0   120.0   33.333333333333336
-250.0   150.0   33.333333333333336
-300.0   150.0   33.333333333333336
-250.0   150.0   50.0
-300.0   120.0   50.0
-300.0   150.0   50.0
-250.0   150.0   50.0
-300.0   150.0   33.333333333333336
-300.0   120.0   50.0
-250.0   150.0   50.0
-250.0   120.0   50.0
-250.0   120.0   33.333333333333336
-300.0   120.0   50.0
-250.0   150.0   50.0
-250.0   120.0   33.333333333333336
-300.0   150.0   33.333333333333336
-250.0   0.0   0.0
-200.0   0.0   0.0
-250.0   30.0   0.0
-250.0   0.0   16.666666666666668
-200.0   0.0   0.0
-200.0   30.0   0.0
-250.0   30.0   0.0
-200.0   30.0   16.666666666666668
-250.0   0.0   16.666666666666668
-250.0   30.0   16.666666666666668
-200.0   30.0   16.666666666666668
-250.0   30.0   0.0
-250.0   0.0   16.666666666666668
-200.0   30.0   16.666666666666668
-200.0   0.0   16.666666666666668
-200.0   0.0   0.0
-250.0   0.0   16.666666666666668
-200.0   30.0   16.666666666666668
-200.0   0.0   0.0
-250.0   30.0   0.0
-250.0   0.0   16.666666666666668
-200.0   0.0   16.666666666666668
-250.0   30.0   16.666666666666668
-250.0   0.0   33.333333333333336
-200.0   0.0   16.666666666666668
-200.0   30.0   16.666666666666668
-250.0   30.0   16.666666666666668
-200.0   30.0   33.333333333333336
-250.0   0.0   33.333333333333336
-250.0   30.0   33.333333333333336
-200.0   30.0   33.333333333333336
-250.0   30.0   16.666666666666668
-250.0   0.0   33.333333333333336
-200.0   30.0   33.333333333333336
-200.0   0.0   33.333333333333336
-200.0   0.0   16.666666666666668
-250.0   0.0   33.333333333333336
-200.0   30.0   33.333333333333336
-200.0   0.0   16.666666666666668
-250.0   30.0   16.666666666666668
-250.0   0.0   33.333333333333336
-200.0   0.0   33.333333333333336
-250.0   30.0   33.333333333333336
-250.0   0.0   50.0
-200.0   0.0   33.333333333333336
-200.0   30.0   33.333333333333336
-250.0   30.0   33.333333333333336
-200.0   30.0   50.0
-250.0   0.0   50.0
-250.0   30.0   50.0
-200.0   30.0   50.0
-250.0   30.0   33.333333333333336
-250.0   0.0   50.0
-200.0   30.0   50.0
-200.0   0.0   50.0
-200.0   0.0   33.333333333333336
-250.0   0.0   50.0
-200.0   30.0   50.0
-200.0   0.0   33.333333333333336
-250.0   30.0   33.333333333333336
-250.0   30.0   0.0
-200.0   30.0   0.0
-250.0   60.0   0.0
-250.0   30.0   16.666666666666668
-200.0   30.0   0.0
-200.0   60.0   0.0
-250.0   60.0   0.0
-200.0   60.0   16.666666666666668
-250.0   30.0   16.666666666666668
-250.0   60.0   16.666666666666668
-200.0   60.0   16.666666666666668
-250.0   60.0   0.0
-250.0   30.0   16.666666666666668
-200.0   60.0   16.666666666666668
-200.0   30.0   16.666666666666668
-200.0   30.0   0.0
-250.0   30.0   16.666666666666668
-200.0   60.0   16.666666666666668
-200.0   30.0   0.0
-250.0   60.0   0.0
-250.0   30.0   16.666666666666668
-200.0   30.0   16.666666666666668
-250.0   60.0   16.666666666666668
-250.0   30.0   33.333333333333336
-200.0   30.0   16.666666666666668
-200.0   60.0   16.666666666666668
-250.0   60.0   16.666666666666668
-200.0   60.0   33.333333333333336
-250.0   30.0   33.333333333333336
-250.0   60.0   33.333333333333336
-200.0   60.0   33.333333333333336
-250.0   60.0   16.666666666666668
-250.0   30.0   33.333333333333336
-200.0   60.0   33.333333333333336
-200.0   30.0   33.333333333333336
-200.0   30.0   16.666666666666668
-250.0   30.0   33.333333333333336
-200.0   60.0   33.333333333333336
-200.0   30.0   16.666666666666668
-250.0   60.0   16.666666666666668
-250.0   30.0   33.333333333333336
-200.0   30.0   33.333333333333336
-250.0   60.0   33.333333333333336
-250.0   30.0   50.0
-200.0   30.0   33.333333333333336
-200.0   60.0   33.333333333333336
-250.0   60.0   33.333333333333336
-200.0   60.0   50.0
-250.0   30.0   50.0
-250.0   60.0   50.0
-200.0   60.0   50.0
-250.0   60.0   33.333333333333336
-250.0   30.0   50.0
-200.0   60.0   50.0
-200.0   30.0   50.0
-200.0   30.0   33.333333333333336
-250.0   30.0   50.0
-200.0   60.0   50.0
-200.0   30.0   33.333333333333336
-250.0   60.0   33.333333333333336
-250.0   60.0   0.0
-200.0   60.0   0.0
-250.0   90.0   0.0
-250.0   60.0   16.666666666666668
-200.0   60.0   0.0
-200.0   90.0   0.0
-250.0   90.0   0.0
-200.0   90.0   16.666666666666668
-250.0   60.0   16.666666666666668
-250.0   90.0   16.666666666666668
-200.0   90.0   16.666666666666668
-250.0   90.0   0.0
-250.0   60.0   16.666666666666668
-200.0   90.0   16.666666666666668
-200.0   60.0   16.666666666666668
-200.0   60.0   0.0
-250.0   60.0   16.666666666666668
-200.0   90.0   16.666666666666668
-200.0   60.0   0.0
-250.0   90.0   0.0
-250.0   60.0   16.666666666666668
-200.0   60.0   16.666666666666668
-250.0   90.0   16.666666666666668
-250.0   60.0   33.333333333333336
-200.0   60.0   16.666666666666668
-200.0   90.0   16.666666666666668
-250.0   90.0   16.666666666666668
-200.0   90.0   33.333333333333336
-250.0   60.0   33.333333333333336
-250.0   90.0   33.333333333333336
-200.0   90.0   33.333333333333336
-250.0   90.0   16.666666666666668
-250.0   60.0   33.333333333333336
-200.0   90.0   33.333333333333336
-200.0   60.0   33.333333333333336
-200.0   60.0   16.666666666666668
-250.0   60.0   33.333333333333336
-200.0   90.0   33.333333333333336
-200.0   60.0   16.666666666666668
-250.0   90.0   16.666666666666668
-250.0   60.0   33.333333333333336
-200.0   60.0   33.333333333333336
-250.0   90.0   33.333333333333336
-250.0   60.0   50.0
-200.0   60.0   33.333333333333336
-200.0   90.0   33.333333333333336
-250.0   90.0   33.333333333333336
-200.0   90.0   50.0
-250.0   60.0   50.0
-250.0   90.0   50.0
-200.0   90.0   50.0
-250.0   90.0   33.333333333333336
-250.0   60.0   50.0
-200.0   90.0   50.0
-200.0   60.0   50.0
-200.0   60.0   33.333333333333336
-250.0   60.0   50.0
-200.0   90.0   50.0
-200.0   60.0   33.333333333333336
-250.0   90.0   33.333333333333336
-250.0   90.0   0.0
-200.0   90.0   0.0
-250.0   120.0   0.0
-250.0   90.0   16.666666666666668
-200.0   90.0   0.0
-200.0   120.0   0.0
-250.0   120.0   0.0
-200.0   120.0   16.666666666666668
-250.0   90.0   16.666666666666668
-250.0   120.0   16.666666666666668
-200.0   120.0   16.666666666666668
-250.0   120.0   0.0
-250.0   90.0   16.666666666666668
-200.0   120.0   16.666666666666668
-200.0   90.0   16.666666666666668
-200.0   90.0   0.0
-250.0   90.0   16.666666666666668
-200.0   120.0   16.666666666666668
-200.0   90.0   0.0
-250.0   120.0   0.0
-250.0   90.0   16.666666666666668
-200.0   90.0   16.666666666666668
-250.0   120.0   16.666666666666668
-250.0   90.0   33.333333333333336
-200.0   90.0   16.666666666666668
-200.0   120.0   16.666666666666668
-250.0   120.0   16.666666666666668
-200.0   120.0   33.333333333333336
-250.0   90.0   33.333333333333336
-250.0   120.0   33.333333333333336
-200.0   120.0   33.333333333333336
-250.0   120.0   16.666666666666668
-250.0   90.0   33.333333333333336
-200.0   120.0   33.333333333333336
-200.0   90.0   33.333333333333336
-200.0   90.0   16.666666666666668
-250.0   90.0   33.333333333333336
-200.0   120.0   33.333333333333336
-200.0   90.0   16.666666666666668
-250.0   120.0   16.666666666666668
-250.0   90.0   33.333333333333336
-200.0   90.0   33.333333333333336
-250.0   120.0   33.333333333333336
-250.0   90.0   50.0
-200.0   90.0   33.333333333333336
-200.0   120.0   33.333333333333336
-250.0   120.0   33.333333333333336
-200.0   120.0   50.0
-250.0   90.0   50.0
-250.0   120.0   50.0
-200.0   120.0   50.0
-250.0   120.0   33.333333333333336
-250.0   90.0   50.0
-200.0   120.0   50.0
-200.0   90.0   50.0
-200.0   90.0   33.333333333333336
-250.0   90.0   50.0
-200.0   120.0   50.0
-200.0   90.0   33.333333333333336
-250.0   120.0   33.333333333333336
-250.0   120.0   0.0
-200.0   120.0   0.0
-250.0   150.0   0.0
-250.0   120.0   16.666666666666668
-200.0   120.0   0.0
-200.0   150.0   0.0
-250.0   150.0   0.0
-200.0   150.0   16.666666666666668
-250.0   120.0   16.666666666666668
-250.0   150.0   16.666666666666668
-200.0   150.0   16.666666666666668
-250.0   150.0   0.0
-250.0   120.0   16.666666666666668
-200.0   150.0   16.666666666666668
-200.0   120.0   16.666666666666668
-200.0   120.0   0.0
-250.0   120.0   16.666666666666668
-200.0   150.0   16.666666666666668
-200.0   120.0   0.0
-250.0   150.0   0.0
-250.0   120.0   16.666666666666668
-200.0   120.0   16.666666666666668
-250.0   150.0   16.666666666666668
-250.0   120.0   33.333333333333336
-200.0   120.0   16.666666666666668
-200.0   150.0   16.666666666666668
-250.0   150.0   16.666666666666668
-200.0   150.0   33.333333333333336
-250.0   120.0   33.333333333333336
-250.0   150.0   33.333333333333336
-200.0   150.0   33.333333333333336
-250.0   150.0   16.666666666666668
-250.0   120.0   33.333333333333336
-200.0   150.0   33.333333333333336
-200.0   120.0   33.333333333333336
-200.0   120.0   16.666666666666668
-250.0   120.0   33.333333333333336
-200.0   150.0   33.333333333333336
-200.0   120.0   16.666666666666668
-250.0   150.0   16.666666666666668
-250.0   120.0   33.333333333333336
-200.0   120.0   33.333333333333336
-250.0   150.0   33.333333333333336
-250.0   120.0   50.0
-200.0   120.0   33.333333333333336
-200.0   150.0   33.333333333333336
-250.0   150.0   33.333333333333336
-200.0   150.0   50.0
-250.0   120.0   50.0
-250.0   150.0   50.0
-200.0   150.0   50.0
-250.0   150.0   33.333333333333336
-250.0   120.0   50.0
-200.0   150.0   50.0
-200.0   120.0   50.0
-200.0   120.0   33.333333333333336
-250.0   120.0   50.0
-200.0   150.0   50.0
-200.0   120.0   33.333333333333336
-250.0   150.0   33.333333333333336
-200.0   0.0   0.0
-150.0   0.0   0.0
-200.0   30.0   0.0
-200.0   0.0   16.666666666666668
-150.0   0.0   0.0
-150.0   30.0   0.0
-200.0   30.0   0.0
-150.0   30.0   16.666666666666668
-200.0   0.0   16.666666666666668
-200.0   30.0   16.666666666666668
-150.0   30.0   16.666666666666668
-200.0   30.0   0.0
-200.0   0.0   16.666666666666668
-150.0   30.0   16.666666666666668
-150.0   0.0   16.666666666666668
-150.0   0.0   0.0
-200.0   0.0   16.666666666666668
-150.0   30.0   16.666666666666668
-150.0   0.0   0.0
-200.0   30.0   0.0
-200.0   0.0   16.666666666666668
-150.0   0.0   16.666666666666668
-200.0   30.0   16.666666666666668
-200.0   0.0   33.333333333333336
-150.0   0.0   16.666666666666668
-150.0   30.0   16.666666666666668
-200.0   30.0   16.666666666666668
-150.0   30.0   33.333333333333336
-200.0   0.0   33.333333333333336
-200.0   30.0   33.333333333333336
-150.0   30.0   33.333333333333336
-200.0   30.0   16.666666666666668
-200.0   0.0   33.333333333333336
-150.0   30.0   33.333333333333336
-150.0   0.0   33.333333333333336
-150.0   0.0   16.666666666666668
-200.0   0.0   33.333333333333336
-150.0   30.0   33.333333333333336
-150.0   0.0   16.666666666666668
-200.0   30.0   16.666666666666668
-200.0   0.0   33.333333333333336
-150.0   0.0   33.333333333333336
-200.0   30.0   33.333333333333336
-200.0   0.0   50.0
-150.0   0.0   33.333333333333336
-150.0   30.0   33.333333333333336
-200.0   30.0   33.333333333333336
-150.0   30.0   50.0
-200.0   0.0   50.0
-200.0   30.0   50.0
-150.0   30.0   50.0
-200.0   30.0   33.333333333333336
-200.0   0.0   50.0
-150.0   30.0   50.0
-150.0   0.0   50.0
-150.0   0.0   33.333333333333336
-200.0   0.0   50.0
-150.0   30.0   50.0
-150.0   0.0   33.333333333333336
-200.0   30.0   33.333333333333336
-200.0   30.0   0.0
-150.0   30.0   0.0
-200.0   60.0   0.0
-200.0   30.0   16.666666666666668
-150.0   30.0   0.0
-150.0   60.0   0.0
-200.0   60.0   0.0
-150.0   60.0   16.666666666666668
-200.0   30.0   16.666666666666668
-200.0   60.0   16.666666666666668
-150.0   60.0   16.666666666666668
-200.0   60.0   0.0
-200.0   30.0   16.666666666666668
-150.0   60.0   16.666666666666668
-150.0   30.0   16.666666666666668
-150.0   30.0   0.0
-200.0   30.0   16.666666666666668
-150.0   60.0   16.666666666666668
-150.0   30.0   0.0
-200.0   60.0   0.0
-200.0   30.0   16.666666666666668
-150.0   30.0   16.666666666666668
-200.0   60.0   16.666666666666668
-200.0   30.0   33.333333333333336
-150.0   30.0   16.666666666666668
-150.0   60.0   16.666666666666668
-200.0   60.0   16.666666666666668
-150.0   60.0   33.333333333333336
-200.0   30.0   33.333333333333336
-200.0   60.0   33.333333333333336
-150.0   60.0   33.333333333333336
-200.0   60.0   16.666666666666668
-200.0   30.0   33.333333333333336
-150.0   60.0   33.333333333333336
-150.0   30.0   33.333333333333336
-150.0   30.0   16.666666666666668
-200.0   30.0   33.333333333333336
-150.0   60.0   33.333333333333336
-150.0   30.0   16.666666666666668
-200.0   60.0   16.666666666666668
-200.0   30.0   33.333333333333336
-150.0   30.0   33.333333333333336
-200.0   60.0   33.333333333333336
-200.0   30.0   50.0
-150.0   30.0   33.333333333333336
-150.0   60.0   33.333333333333336
-200.0   60.0   33.333333333333336
-150.0   60.0   50.0
-200.0   30.0   50.0
-200.0   60.0   50.0
-150.0   60.0   50.0
-200.0   60.0   33.333333333333336
-200.0   30.0   50.0
-150.0   60.0   50.0
-150.0   30.0   50.0
-150.0   30.0   33.333333333333336
-200.0   30.0   50.0
-150.0   60.0   50.0
-150.0   30.0   33.333333333333336
-200.0   60.0   33.333333333333336
-200.0   60.0   0.0
-150.0   60.0   0.0
-200.0   90.0   0.0
-200.0   60.0   16.666666666666668
-150.0   60.0   0.0
-150.0   90.0   0.0
-200.0   90.0   0.0
-150.0   90.0   16.666666666666668
-200.0   60.0   16.666666666666668
-200.0   90.0   16.666666666666668
-150.0   90.0   16.666666666666668
-200.0   90.0   0.0
-200.0   60.0   16.666666666666668
-150.0   90.0   16.666666666666668
-150.0   60.0   16.666666666666668
-150.0   60.0   0.0
-200.0   60.0   16.666666666666668
-150.0   90.0   16.666666666666668
-150.0   60.0   0.0
-200.0   90.0   0.0
-200.0   60.0   16.666666666666668
-150.0   60.0   16.666666666666668
-200.0   90.0   16.666666666666668
-200.0   60.0   33.333333333333336
-150.0   60.0   16.666666666666668
-150.0   90.0   16.666666666666668
-200.0   90.0   16.666666666666668
-150.0   90.0   33.333333333333336
-200.0   60.0   33.333333333333336
-200.0   90.0   33.333333333333336
-150.0   90.0   33.333333333333336
-200.0   90.0   16.666666666666668
-200.0   60.0   33.333333333333336
-150.0   90.0   33.333333333333336
-150.0   60.0   33.333333333333336
-150.0   60.0   16.666666666666668
-200.0   60.0   33.333333333333336
-150.0   90.0   33.333333333333336
-150.0   60.0   16.666666666666668
-200.0   90.0   16.666666666666668
-200.0   60.0   33.333333333333336
-150.0   60.0   33.333333333333336
-200.0   90.0   33.333333333333336
-200.0   60.0   50.0
-150.0   60.0   33.333333333333336
-150.0   90.0   33.333333333333336
-200.0   90.0   33.333333333333336
-150.0   90.0   50.0
-200.0   60.0   50.0
-200.0   90.0   50.0
-150.0   90.0   50.0
-200.0   90.0   33.333333333333336
-200.0   60.0   50.0
-150.0   90.0   50.0
-150.0   60.0   50.0
-150.0   60.0   33.333333333333336
-200.0   60.0   50.0
-150.0   90.0   50.0
-150.0   60.0   33.333333333333336
-200.0   90.0   33.333333333333336
-200.0   90.0   0.0
-150.0   90.0   0.0
-200.0   120.0   0.0
-200.0   90.0   16.666666666666668
-150.0   90.0   0.0
-150.0   120.0   0.0
-200.0   120.0   0.0
-150.0   120.0   16.666666666666668
-200.0   90.0   16.666666666666668
-200.0   120.0   16.666666666666668
-150.0   120.0   16.666666666666668
-200.0   120.0   0.0
-200.0   90.0   16.666666666666668
-150.0   120.0   16.666666666666668
-150.0   90.0   16.666666666666668
-150.0   90.0   0.0
-200.0   90.0   16.666666666666668
-150.0   120.0   16.666666666666668
-150.0   90.0   0.0
-200.0   120.0   0.0
-200.0   90.0   16.666666666666668
-150.0   90.0   16.666666666666668
-200.0   120.0   16.666666666666668
-200.0   90.0   33.333333333333336
-150.0   90.0   16.666666666666668
-150.0   120.0   16.666666666666668
-200.0   120.0   16.666666666666668
-150.0   120.0   33.333333333333336
-200.0   90.0   33.333333333333336
-200.0   120.0   33.333333333333336
-150.0   120.0   33.333333333333336
-200.0   120.0   16.666666666666668
-200.0   90.0   33.333333333333336
-150.0   120.0   33.333333333333336
-150.0   90.0   33.333333333333336
-150.0   90.0   16.666666666666668
-200.0   90.0   33.333333333333336
-150.0   120.0   33.333333333333336
-150.0   90.0   16.666666666666668
-200.0   120.0   16.666666666666668
-200.0   90.0   33.333333333333336
-150.0   90.0   33.333333333333336
-200.0   120.0   33.333333333333336
-200.0   90.0   50.0
-150.0   90.0   33.333333333333336
-150.0   120.0   33.333333333333336
-200.0   120.0   33.333333333333336
-150.0   120.0   50.0
-200.0   90.0   50.0
-200.0   120.0   50.0
-150.0   120.0   50.0
-200.0   120.0   33.333333333333336
-200.0   90.0   50.0
-150.0   120.0   50.0
-150.0   90.0   50.0
-150.0   90.0   33.333333333333336
-200.0   90.0   50.0
-150.0   120.0   50.0
-150.0   90.0   33.333333333333336
-200.0   120.0   33.333333333333336
-200.0   120.0   0.0
-150.0   120.0   0.0
-200.0   150.0   0.0
-200.0   120.0   16.666666666666668
-150.0   120.0   0.0
-150.0   150.0   0.0
-200.0   150.0   0.0
-150.0   150.0   16.666666666666668
-200.0   120.0   16.666666666666668
-200.0   150.0   16.666666666666668
-150.0   150.0   16.666666666666668
-200.0   150.0   0.0
-200.0   120.0   16.666666666666668
-150.0   150.0   16.666666666666668
-150.0   120.0   16.666666666666668
-150.0   120.0   0.0
-200.0   120.0   16.666666666666668
-150.0   150.0   16.666666666666668
-150.0   120.0   0.0
-200.0   150.0   0.0
-200.0   120.0   16.666666666666668
-150.0   120.0   16.666666666666668
-200.0   150.0   16.666666666666668
-200.0   120.0   33.333333333333336
-150.0   120.0   16.666666666666668
-150.0   150.0   16.666666666666668
-200.0   150.0   16.666666666666668
-150.0   150.0   33.333333333333336
-200.0   120.0   33.333333333333336
-200.0   150.0   33.333333333333336
-150.0   150.0   33.333333333333336
-200.0   150.0   16.666666666666668
-200.0   120.0   33.333333333333336
-150.0   150.0   33.333333333333336
-150.0   120.0   33.333333333333336
-150.0   120.0   16.666666666666668
-200.0   120.0   33.333333333333336
-150.0   150.0   33.333333333333336
-150.0   120.0   16.666666666666668
-200.0   150.0   16.666666666666668
-200.0   120.0   33.333333333333336
-150.0   120.0   33.333333333333336
-200.0   150.0   33.333333333333336
-200.0   120.0   50.0
-150.0   120.0   33.333333333333336
-150.0   150.0   33.333333333333336
-200.0   150.0   33.333333333333336
-150.0   150.0   50.0
-200.0   120.0   50.0
-200.0   150.0   50.0
-150.0   150.0   50.0
-200.0   150.0   33.333333333333336
-200.0   120.0   50.0
-150.0   150.0   50.0
-150.0   120.0   50.0
-150.0   120.0   33.333333333333336
-200.0   120.0   50.0
-150.0   150.0   50.0
-150.0   120.0   33.333333333333336
-200.0   150.0   33.333333333333336
-150.0   0.0   0.0
-100.0   0.0   0.0
-150.0   30.0   0.0
-150.0   0.0   16.666666666666668
-100.0   0.0   0.0
-100.0   30.0   0.0
-150.0   30.0   0.0
-100.0   30.0   16.666666666666668
-150.0   0.0   16.666666666666668
-150.0   30.0   16.666666666666668
-100.0   30.0   16.666666666666668
-150.0   30.0   0.0
-150.0   0.0   16.666666666666668
-100.0   30.0   16.666666666666668
-100.0   0.0   16.666666666666668
-100.0   0.0   0.0
-150.0   0.0   16.666666666666668
-100.0   30.0   16.666666666666668
-100.0   0.0   0.0
-150.0   30.0   0.0
-150.0   0.0   16.666666666666668
-100.0   0.0   16.666666666666668
-150.0   30.0   16.666666666666668
-150.0   0.0   33.333333333333336
-100.0   0.0   16.666666666666668
-100.0   30.0   16.666666666666668
-150.0   30.0   16.666666666666668
-100.0   30.0   33.333333333333336
-150.0   0.0   33.333333333333336
-150.0   30.0   33.333333333333336
-100.0   30.0   33.333333333333336
-150.0   30.0   16.666666666666668
-150.0   0.0   33.333333333333336
-100.0   30.0   33.333333333333336
-100.0   0.0   33.333333333333336
-100.0   0.0   16.666666666666668
-150.0   0.0   33.333333333333336
-100.0   30.0   33.333333333333336
-100.0   0.0   16.666666666666668
-150.0   30.0   16.666666666666668
-150.0   0.0   33.333333333333336
-100.0   0.0   33.333333333333336
-150.0   30.0   33.333333333333336
-150.0   0.0   50.0
-100.0   0.0   33.333333333333336
-100.0   30.0   33.333333333333336
-150.0   30.0   33.333333333333336
-100.0   30.0   50.0
-150.0   0.0   50.0
-150.0   30.0   50.0
-100.0   30.0   50.0
-150.0   30.0   33.333333333333336
-150.0   0.0   50.0
-100.0   30.0   50.0
-100.0   0.0   50.0
-100.0   0.0   33.333333333333336
-150.0   0.0   50.0
-100.0   30.0   50.0
-100.0   0.0   33.333333333333336
-150.0   30.0   33.333333333333336
-150.0   30.0   0.0
-100.0   30.0   0.0
-150.0   60.0   0.0
-150.0   30.0   16.666666666666668
-100.0   30.0   0.0
-100.0   60.0   0.0
-150.0   60.0   0.0
-100.0   60.0   16.666666666666668
-150.0   30.0   16.666666666666668
-150.0   60.0   16.666666666666668
-100.0   60.0   16.666666666666668
-150.0   60.0   0.0
-150.0   30.0   16.666666666666668
-100.0   60.0   16.666666666666668
-100.0   30.0   16.666666666666668
-100.0   30.0   0.0
-150.0   30.0   16.666666666666668
-100.0   60.0   16.666666666666668
-100.0   30.0   0.0
-150.0   60.0   0.0
-150.0   30.0   16.666666666666668
-100.0   30.0   16.666666666666668
-150.0   60.0   16.666666666666668
-150.0   30.0   33.333333333333336
-100.0   30.0   16.666666666666668
-100.0   60.0   16.666666666666668
-150.0   60.0   16.666666666666668
-100.0   60.0   33.333333333333336
-150.0   30.0   33.333333333333336
-150.0   60.0   33.333333333333336
-100.0   60.0   33.333333333333336
-150.0   60.0   16.666666666666668
-150.0   30.0   33.333333333333336
-100.0   60.0   33.333333333333336
-100.0   30.0   33.333333333333336
-100.0   30.0   16.666666666666668
-150.0   30.0   33.333333333333336
-100.0   60.0   33.333333333333336
-100.0   30.0   16.666666666666668
-150.0   60.0   16.666666666666668
-150.0   30.0   33.333333333333336
-100.0   30.0   33.333333333333336
-150.0   60.0   33.333333333333336
-150.0   30.0   50.0
-100.0   30.0   33.333333333333336
-100.0   60.0   33.333333333333336
-150.0   60.0   33.333333333333336
-100.0   60.0   50.0
-150.0   30.0   50.0
-150.0   60.0   50.0
-100.0   60.0   50.0
-150.0   60.0   33.333333333333336
-150.0   30.0   50.0
-100.0   60.0   50.0
-100.0   30.0   50.0
-100.0   30.0   33.333333333333336
-150.0   30.0   50.0
-100.0   60.0   50.0
-100.0   30.0   33.333333333333336
-150.0   60.0   33.333333333333336
-150.0   60.0   0.0
-100.0   60.0   0.0
-150.0   90.0   0.0
-150.0   60.0   16.666666666666668
-100.0   60.0   0.0
-100.0   90.0   0.0
-150.0   90.0   0.0
-100.0   90.0   16.666666666666668
-150.0   60.0   16.666666666666668
-150.0   90.0   16.666666666666668
-100.0   90.0   16.666666666666668
-150.0   90.0   0.0
-150.0   60.0   16.666666666666668
-100.0   90.0   16.666666666666668
-100.0   60.0   16.666666666666668
-100.0   60.0   0.0
-150.0   60.0   16.666666666666668
-100.0   90.0   16.666666666666668
-100.0   60.0   0.0
-150.0   90.0   0.0
-150.0   60.0   16.666666666666668
-100.0   60.0   16.666666666666668
-150.0   90.0   16.666666666666668
-150.0   60.0   33.333333333333336
-100.0   60.0   16.666666666666668
-100.0   90.0   16.666666666666668
-150.0   90.0   16.666666666666668
-100.0   90.0   33.333333333333336
-150.0   60.0   33.333333333333336
-150.0   90.0   33.333333333333336
-100.0   90.0   33.333333333333336
-150.0   90.0   16.666666666666668
-150.0   60.0   33.333333333333336
-100.0   90.0   33.333333333333336
-100.0   60.0   33.333333333333336
-100.0   60.0   16.666666666666668
-150.0   60.0   33.333333333333336
-100.0   90.0   33.333333333333336
-100.0   60.0   16.666666666666668
-150.0   90.0   16.666666666666668
-150.0   60.0   33.333333333333336
-100.0   60.0   33.333333333333336
-150.0   90.0   33.333333333333336
-150.0   60.0   50.0
-100.0   60.0   33.333333333333336
-100.0   90.0   33.333333333333336
-150.0   90.0   33.333333333333336
-100.0   90.0   50.0
-150.0   60.0   50.0
-150.0   90.0   50.0
-100.0   90.0   50.0
-150.0   90.0   33.333333333333336
-150.0   60.0   50.0
-100.0   90.0   50.0
-100.0   60.0   50.0
-100.0   60.0   33.333333333333336
-150.0   60.0   50.0
-100.0   90.0   50.0
-100.0   60.0   33.333333333333336
-150.0   90.0   33.333333333333336
-150.0   90.0   0.0
-100.0   90.0   0.0
-150.0   120.0   0.0
-150.0   90.0   16.666666666666668
-100.0   90.0   0.0
-100.0   120.0   0.0
-150.0   120.0   0.0
-100.0   120.0   16.666666666666668
-150.0   90.0   16.666666666666668
-150.0   120.0   16.666666666666668
-100.0   120.0   16.666666666666668
-150.0   120.0   0.0
-150.0   90.0   16.666666666666668
-100.0   120.0   16.666666666666668
-100.0   90.0   16.666666666666668
-100.0   90.0   0.0
-150.0   90.0   16.666666666666668
-100.0   120.0   16.666666666666668
-100.0   90.0   0.0
-150.0   120.0   0.0
-150.0   90.0   16.666666666666668
-100.0   90.0   16.666666666666668
-150.0   120.0   16.666666666666668
-150.0   90.0   33.333333333333336
-100.0   90.0   16.666666666666668
-100.0   120.0   16.666666666666668
-150.0   120.0   16.666666666666668
-100.0   120.0   33.333333333333336
-150.0   90.0   33.333333333333336
-150.0   120.0   33.333333333333336
-100.0   120.0   33.333333333333336
-150.0   120.0   16.666666666666668
-150.0   90.0   33.333333333333336
-100.0   120.0   33.333333333333336
-100.0   90.0   33.333333333333336
-100.0   90.0   16.666666666666668
-150.0   90.0   33.333333333333336
-100.0   120.0   33.333333333333336
-100.0   90.0   16.666666666666668
-150.0   120.0   16.666666666666668
-150.0   90.0   33.333333333333336
-100.0   90.0   33.333333333333336
-150.0   120.0   33.333333333333336
-150.0   90.0   50.0
-100.0   90.0   33.333333333333336
-100.0   120.0   33.333333333333336
-150.0   120.0   33.333333333333336
-100.0   120.0   50.0
-150.0   90.0   50.0
-150.0   120.0   50.0
-100.0   120.0   50.0
-150.0   120.0   33.333333333333336
-150.0   90.0   50.0
-100.0   120.0   50.0
-100.0   90.0   50.0
-100.0   90.0   33.333333333333336
-150.0   90.0   50.0
-100.0   120.0   50.0
-100.0   90.0   33.333333333333336
-150.0   120.0   33.333333333333336
-150.0   120.0   0.0
-100.0   120.0   0.0
-150.0   150.0   0.0
-150.0   120.0   16.666666666666668
-100.0   120.0   0.0
-100.0   150.0   0.0
-150.0   150.0   0.0
-100.0   150.0   16.666666666666668
-150.0   120.0   16.666666666666668
-150.0   150.0   16.666666666666668
-100.0   150.0   16.666666666666668
-150.0   150.0   0.0
-150.0   120.0   16.666666666666668
-100.0   150.0   16.666666666666668
-100.0   120.0   16.666666666666668
-100.0   120.0   0.0
-150.0   120.0   16.666666666666668
-100.0   150.0   16.666666666666668
-100.0   120.0   0.0
-150.0   150.0   0.0
-150.0   120.0   16.666666666666668
-100.0   120.0   16.666666666666668
-150.0   150.0   16.666666666666668
-150.0   120.0   33.333333333333336
-100.0   120.0   16.666666666666668
-100.0   150.0   16.666666666666668
-150.0   150.0   16.666666666666668
-100.0   150.0   33.333333333333336
-150.0   120.0   33.333333333333336
-150.0   150.0   33.333333333333336
-100.0   150.0   33.333333333333336
-150.0   150.0   16.666666666666668
-150.0   120.0   33.333333333333336
-100.0   150.0   33.333333333333336
-100.0   120.0   33.333333333333336
-100.0   120.0   16.666666666666668
-150.0   120.0   33.333333333333336
-100.0   150.0   33.333333333333336
-100.0   120.0   16.666666666666668
-150.0   150.0   16.666666666666668
-150.0   120.0   33.333333333333336
-100.0   120.0   33.333333333333336
-150.0   150.0   33.333333333333336
-150.0   120.0   50.0
-100.0   120.0   33.333333333333336
-100.0   150.0   33.333333333333336
-150.0   150.0   33.333333333333336
-100.0   150.0   50.0
-150.0   120.0   50.0
-150.0   150.0   50.0
-100.0   150.0   50.0
-150.0   150.0   33.333333333333336
-150.0   120.0   50.0
-100.0   150.0   50.0
-100.0   120.0   50.0
-100.0   120.0   33.333333333333336
-150.0   120.0   50.0
-100.0   150.0   50.0
-100.0   120.0   33.333333333333336
-150.0   150.0   33.333333333333336
-100.0   0.0   0.0
-50.0   0.0   0.0
-100.0   30.0   0.0
-100.0   0.0   16.666666666666668
-50.0   0.0   0.0
-50.0   30.0   0.0
-100.0   30.0   0.0
-50.0   30.0   16.666666666666668
-100.0   0.0   16.666666666666668
-100.0   30.0   16.666666666666668
-50.0   30.0   16.666666666666668
-100.0   30.0   0.0
-100.0   0.0   16.666666666666668
-50.0   30.0   16.666666666666668
-50.0   0.0   16.666666666666668
-50.0   0.0   0.0
-100.0   0.0   16.666666666666668
-50.0   30.0   16.666666666666668
-50.0   0.0   0.0
-100.0   30.0   0.0
-100.0   0.0   16.666666666666668
-50.0   0.0   16.666666666666668
-100.0   30.0   16.666666666666668
-100.0   0.0   33.333333333333336
-50.0   0.0   16.666666666666668
-50.0   30.0   16.666666666666668
-100.0   30.0   16.666666666666668
-50.0   30.0   33.333333333333336
-100.0   0.0   33.333333333333336
-100.0   30.0   33.333333333333336
-50.0   30.0   33.333333333333336
-100.0   30.0   16.666666666666668
-100.0   0.0   33.333333333333336
-50.0   30.0   33.333333333333336
-50.0   0.0   33.333333333333336
-50.0   0.0   16.666666666666668
-100.0   0.0   33.333333333333336
-50.0   30.0   33.333333333333336
-50.0   0.0   16.666666666666668
-100.0   30.0   16.666666666666668
-100.0   0.0   33.333333333333336
-50.0   0.0   33.333333333333336
-100.0   30.0   33.333333333333336
-100.0   0.0   50.0
-50.0   0.0   33.333333333333336
-50.0   30.0   33.333333333333336
-100.0   30.0   33.333333333333336
-50.0   30.0   50.0
-100.0   0.0   50.0
-100.0   30.0   50.0
-50.0   30.0   50.0
-100.0   30.0   33.333333333333336
-100.0   0.0   50.0
-50.0   30.0   50.0
-50.0   0.0   50.0
-50.0   0.0   33.333333333333336
-100.0   0.0   50.0
-50.0   30.0   50.0
-50.0   0.0   33.333333333333336
-100.0   30.0   33.333333333333336
-100.0   30.0   0.0
-50.0   30.0   0.0
-100.0   60.0   0.0
-100.0   30.0   16.666666666666668
-50.0   30.0   0.0
-50.0   60.0   0.0
-100.0   60.0   0.0
-50.0   60.0   16.666666666666668
-100.0   30.0   16.666666666666668
-100.0   60.0   16.666666666666668
-50.0   60.0   16.666666666666668
-100.0   60.0   0.0
-100.0   30.0   16.666666666666668
-50.0   60.0   16.666666666666668
-50.0   30.0   16.666666666666668
-50.0   30.0   0.0
-100.0   30.0   16.666666666666668
-50.0   60.0   16.666666666666668
-50.0   30.0   0.0
-100.0   60.0   0.0
-100.0   30.0   16.666666666666668
-50.0   30.0   16.666666666666668
-100.0   60.0   16.666666666666668
-100.0   30.0   33.333333333333336
-50.0   30.0   16.666666666666668
-50.0   60.0   16.666666666666668
-100.0   60.0   16.666666666666668
-50.0   60.0   33.333333333333336
-100.0   30.0   33.333333333333336
-100.0   60.0   33.333333333333336
-50.0   60.0   33.333333333333336
-100.0   60.0   16.666666666666668
-100.0   30.0   33.333333333333336
-50.0   60.0   33.333333333333336
-50.0   30.0   33.333333333333336
-50.0   30.0   16.666666666666668
-100.0   30.0   33.333333333333336
-50.0   60.0   33.333333333333336
-50.0   30.0   16.666666666666668
-100.0   60.0   16.666666666666668
-100.0   30.0   33.333333333333336
-50.0   30.0   33.333333333333336
-100.0   60.0   33.333333333333336
-100.0   30.0   50.0
-50.0   30.0   33.333333333333336
-50.0   60.0   33.333333333333336
-100.0   60.0   33.333333333333336
-50.0   60.0   50.0
-100.0   30.0   50.0
-100.0   60.0   50.0
-50.0   60.0   50.0
-100.0   60.0   33.333333333333336
-100.0   30.0   50.0
-50.0   60.0   50.0
-50.0   30.0   50.0
-50.0   30.0   33.333333333333336
-100.0   30.0   50.0
-50.0   60.0   50.0
-50.0   30.0   33.333333333333336
-100.0   60.0   33.333333333333336
-100.0   60.0   0.0
-50.0   60.0   0.0
-100.0   90.0   0.0
-100.0   60.0   16.666666666666668
-50.0   60.0   0.0
-50.0   90.0   0.0
-100.0   90.0   0.0
-50.0   90.0   16.666666666666668
-100.0   60.0   16.666666666666668
-100.0   90.0   16.666666666666668
-50.0   90.0   16.666666666666668
-100.0   90.0   0.0
-100.0   60.0   16.666666666666668
-50.0   90.0   16.666666666666668
-50.0   60.0   16.666666666666668
-50.0   60.0   0.0
-100.0   60.0   16.666666666666668
-50.0   90.0   16.666666666666668
-50.0   60.0   0.0
-100.0   90.0   0.0
-100.0   60.0   16.666666666666668
-50.0   60.0   16.666666666666668
-100.0   90.0   16.666666666666668
-100.0   60.0   33.333333333333336
-50.0   60.0   16.666666666666668
-50.0   90.0   16.666666666666668
-100.0   90.0   16.666666666666668
-50.0   90.0   33.333333333333336
-100.0   60.0   33.333333333333336
-100.0   90.0   33.333333333333336
-50.0   90.0   33.333333333333336
-100.0   90.0   16.666666666666668
-100.0   60.0   33.333333333333336
-50.0   90.0   33.333333333333336
-50.0   60.0   33.333333333333336
-50.0   60.0   16.666666666666668
-100.0   60.0   33.333333333333336
-50.0   90.0   33.333333333333336
-50.0   60.0   16.666666666666668
-100.0   90.0   16.666666666666668
-100.0   60.0   33.333333333333336
-50.0   60.0   33.333333333333336
-100.0   90.0   33.333333333333336
-100.0   60.0   50.0
-50.0   60.0   33.333333333333336
-50.0   90.0   33.333333333333336
-100.0   90.0   33.333333333333336
-50.0   90.0   50.0
-100.0   60.0   50.0
-100.0   90.0   50.0
-50.0   90.0   50.0
-100.0   90.0   33.333333333333336
-100.0   60.0   50.0
-50.0   90.0   50.0
-50.0   60.0   50.0
-50.0   60.0   33.333333333333336
-100.0   60.0   50.0
-50.0   90.0   50.0
-50.0   60.0   33.333333333333336
-100.0   90.0   33.333333333333336
-100.0   90.0   0.0
-50.0   90.0   0.0
-100.0   120.0   0.0
-100.0   90.0   16.666666666666668
-50.0   90.0   0.0
-50.0   120.0   0.0
-100.0   120.0   0.0
-50.0   120.0   16.666666666666668
-100.0   90.0   16.666666666666668
-100.0   120.0   16.666666666666668
-50.0   120.0   16.666666666666668
-100.0   120.0   0.0
-100.0   90.0   16.666666666666668
-50.0   120.0   16.666666666666668
-50.0   90.0   16.666666666666668
-50.0   90.0   0.0
-100.0   90.0   16.666666666666668
-50.0   120.0   16.666666666666668
-50.0   90.0   0.0
-100.0   120.0   0.0
-100.0   90.0   16.666666666666668
-50.0   90.0   16.666666666666668
-100.0   120.0   16.666666666666668
-100.0   90.0   33.333333333333336
-50.0   90.0   16.666666666666668
-50.0   120.0   16.666666666666668
-100.0   120.0   16.666666666666668
-50.0   120.0   33.333333333333336
-100.0   90.0   33.333333333333336
-100.0   120.0   33.333333333333336
-50.0   120.0   33.333333333333336
-100.0   120.0   16.666666666666668
-100.0   90.0   33.333333333333336
-50.0   120.0   33.333333333333336
-50.0   90.0   33.333333333333336
-50.0   90.0   16.666666666666668
-100.0   90.0   33.333333333333336
-50.0   120.0   33.333333333333336
-50.0   90.0   16.666666666666668
-100.0   120.0   16.666666666666668
-100.0   90.0   33.333333333333336
-50.0   90.0   33.333333333333336
-100.0   120.0   33.333333333333336
-100.0   90.0   50.0
-50.0   90.0   33.333333333333336
-50.0   120.0   33.333333333333336
-100.0   120.0   33.333333333333336
-50.0   120.0   50.0
-100.0   90.0   50.0
-100.0   120.0   50.0
-50.0   120.0   50.0
-100.0   120.0   33.333333333333336
-100.0   90.0   50.0
-50.0   120.0   50.0
-50.0   90.0   50.0
-50.0   90.0   33.333333333333336
-100.0   90.0   50.0
-50.0   120.0   50.0
-50.0   90.0   33.333333333333336
-100.0   120.0   33.333333333333336
-100.0   120.0   0.0
-50.0   120.0   0.0
-100.0   150.0   0.0
-100.0   120.0   16.666666666666668
-50.0   120.0   0.0
-50.0   150.0   0.0
-100.0   150.0   0.0
-50.0   150.0   16.666666666666668
-100.0   120.0   16.666666666666668
-100.0   150.0   16.666666666666668
-50.0   150.0   16.666666666666668
-100.0   150.0   0.0
-100.0   120.0   16.666666666666668
-50.0   150.0   16.666666666666668
-50.0   120.0   16.666666666666668
-50.0   120.0   0.0
-100.0   120.0   16.666666666666668
-50.0   150.0   16.666666666666668
-50.0   120.0   0.0
-100.0   150.0   0.0
-100.0   120.0   16.666666666666668
-50.0   120.0   16.666666666666668
-100.0   150.0   16.666666666666668
-100.0   120.0   33.333333333333336
-50.0   120.0   16.666666666666668
-50.0   150.0   16.666666666666668
-100.0   150.0   16.666666666666668
-50.0   150.0   33.333333333333336
-100.0   120.0   33.333333333333336
-100.0   150.0   33.333333333333336
-50.0   150.0   33.333333333333336
-100.0   150.0   16.666666666666668
-100.0   120.0   33.333333333333336
-50.0   150.0   33.333333333333336
-50.0   120.0   33.333333333333336
-50.0   120.0   16.666666666666668
-100.0   120.0   33.333333333333336
-50.0   150.0   33.333333333333336
-50.0   120.0   16.666666666666668
-100.0   150.0   16.666666666666668
-100.0   120.0   33.333333333333336
-50.0   120.0   33.333333333333336
-100.0   150.0   33.333333333333336
-100.0   120.0   50.0
-50.0   120.0   33.333333333333336
-50.0   150.0   33.333333333333336
-100.0   150.0   33.333333333333336
-50.0   150.0   50.0
-100.0   120.0   50.0
-100.0   150.0   50.0
-50.0   150.0   50.0
-100.0   150.0   33.333333333333336
-100.0   120.0   50.0
-50.0   150.0   50.0
-50.0   120.0   50.0
-50.0   120.0   33.333333333333336
-100.0   120.0   50.0
-50.0   150.0   50.0
-50.0   120.0   33.333333333333336
-100.0   150.0   33.333333333333336
-50.0   0.0   0.0
0.0   0.0   0.0
-50.0   30.0   0.0
-50.0   0.0   16.666666666666668
0.0   0.0   0.0
0.0   30.0   0.0
-50.0   30.0   0.0
0.0   30.0   16.666666666666668
-50.0   0.0   16.666666666666668
-50.0   30.0   16.666666666666668
0.0   30.0   16.666666666666668
-50.0   30.0   0.0
-50.0   0.0   16.666666666666668
0.0   30.0   16.666666666666668
0.0   0.0   16.666666666666668
0.0   0.0   0.0
-50.0   0.0   16.666666666666668
0.0   30.0   16.666666666666668
0.0   0.0   0.0
-50.0   30.0   0.0
-50.0   0.0   16.666666666666668
0.0   0.0   16.666666666666668
-50.0   30.0   16.666666666666668
-50.0   0.0   33.333333333333336
0.0   0.0   16.666666666666668
0.0   30.0   16.666666666666668
-50.0   30.0   16.666666666666668
0.0   30.0   33.333333333333336
-50.0   0.0   33.333333333333336
-50.0   30.0   33.333333333333336
0.0   30.0   33.333333333333336
-50.0   30.0   16.666666666666668
-50.0   0.0   33.333333333333336
0.0   30.0   33.333333333333336
0.0   0.0   33.333333333333336
0.0   0.0   16.666666666666668
-50.0   0.0   33.333333333333336
0.0   30.0   33.333333333333336
0.0   0.0   16.666666666666668
-50.0   30.0   16.666666666666668
-50.0   0.0   33.333333333333336
0.0   0.0   33.333333333333336
-50.0   30.0   33.333333333333336
-50.0   0.0   50.0
0.0   0.0   33.333333333333336
0.0   30.0   33.333333333333336
-50.0   30.0   33.333333333333336
0.0   30.0   50.0
-50.0   0.0   50.0
-50.0   30.0   50.0
0.0   30.0   50.0
-50.0   30.0   33.333333333333336
-50.0   0.0   50.0
0.0   30.0   50.0
0.0   0.0   50.0
0.0   0.0   33.333333333333336
-50.0   0.0   50.0
0.0   30.0   50.0
0.0   0.0   33.333333333333336
-50.0   30.0   33.333333333333336
-50.0   30.0   0.0
0.0   30.0   0.0
-50.0   60.0   0.0
-50.0   30.0   16.666666666666668
0.0   30.0   0.0
0.0   60.0   0.0
-50.0   60.0   0.0
0.0   60.0   16.666666666666668
-50.0   30.0   16.666666666666668
-50.0   60.0   16.666666666666668
0.0   60.0   16.666666666666668
-50.0   60.0   0.0
-50.0   30.0   16.666666666666668
0.0   60.0   16.666666666666668
0.0   30.0   16.666666666666668
0.0   30.0   0.0
-50.0   30.0   16.666666666666668
0.0   60.0   16.666666666666668
0.0   30.0   0.0
-50.0   60.0   0.0
-50.0   30.0   16.666666666666668
0.0   30.0   16.666666666666668
-50.0   60.0   16.666666666666668
-50.0   30.0   33.333333333333336
0.0   30.0   16.666666666666668
0.0   60.0   16.666666666666668
-50.0   60.0   16.666666666666668
0.0   60.0   33.333333333333336
-50.0   30.0   33.333333333333336
-50.0   60.0   33.333333333333336
0.0   60.0   33.333333333333336
-50.0   60.0   16.666666666666668
-50.0   30.0   33.333333333333336
0.0   60.0   33.333333333333336
0.0   30.0   33.333333333333336
0.0   30.0   16.666666666666668
-50.0   30.0   33.333333333333336
0.0   60.0   33.333333333333336
0.0   30.0   16.666666666666668
-50.0   60.0   16.666666666666668
-50.0   30.0   33.333333333333336
0.0   30.0   33.333333333333336
-50.0   60.0   33.333333333333336
-50.0   30.0   50.0
0.0   30.0   33.333333333333336
0.0   60.0   33.333333333333336
-50.0   60.0   33.333333333333336
0.0   60.0   50.0
-50.0   30.0   50.0
-50.0   60.0   50.0
0.0   60.0   50.0
-50.0   60.0   33.333333333333336
-50.0   30.0   50.0
0.0   60.0   50.0
0.0   30.0   50.0
0.0   30.0   33.333333333333336
-50.0   30.0   50.0
0.0   60.0   50.0
0.0   30.0   33.333333333333336
-50.0   60.0   33.333333333333336
-50.0   60.0   0.0
0.0   60.0   0.0
-50.0   90.0   0.0
-50.0   60.0   16.666666666666668
0.0   60.0   0.0
0.0   90.0   0.0
-50.0   90.0   0.0
0.0   90.0   16.666666666666668
-50.0   60.0   16.666666666666668
-50.0   90.0   16.666666666666668
0.0   90.0   16.666666666666668
-50.0   90.0   0.0
-50.0   60.0   16.666666666666668
0.0   90.0   16.666666666666668
0.0   60.0   16.666666666666668
0.0   60.0   0.0
-50.0   60.0   16.666666666666668
0.0   90.0   16.666666666666668
0.0   60.0   0.0
-50.0   90.0   0.0
-50.0   60.0   16.666666666666668
0.0   60.0   16.666666666666668
-50.0   90.0   16.666666666666668
-50.0   60.0   33.333333333333336
0.0   60.0   16.666666666666668
0.0   90.0   16.666666666666668
-50.0   90.0   16.666666666666668
0.0   90.0   33.333333333333336
-50.0   60.0   33.333333333333336
-50.0   90.0   33.333333333333336
0.0   90.0   33.333333333333336
-50.0   90.0   16.666666666666668
-50.0   60.0   33.333333333333336
0.0   90.0   33.333333333333336
0.0   60.0   33.333333333333336
0.0   60.0   16.666666666666668
-50.0   60.0   33.333333333333336
0.0   90.0   33.333333333333336
0.0   60.0   16.666666666666668
-50.0   90.0   16.666666666666668
-50.0   60.0   33.333333333333336
0.0   60.0   33.333333333333336
-50.0   90.0   33.333333333333336
-50.0   60.0   50.0
0.0   60.0   33.333333333333336
0.0   90.0   33.333333333333336
-50.0   90.0   33.333333333333336
0.0   90.0   50.0
-50.0   60.0   50.0
-50.0   90.0   50.0
0.0   90.0   50.0
-50.0   90.0   33.333333333333336
-50.0   60.0   50.0
0.0   90.0   50.0
0.0   60.0   50.0
0.0   60.0   33.333333333333336
-50.0   60.0   50.0
0.0   90.0   50.0
0.0   60.0   33.333333333333336
-50.0   90.0   33.333333333333336
-50.0   90.0   0.0
0.0   90.0   0.0
-50.0   120.0   0.0
-50.0   90.0   16.666666666666668
0.0   90.0   0.0
0.0   120.0   0.0
-50.0   120.0   0.0
0.0   120.0   16.666666666666668
-50.0   90.0   16.666666666666668
-50.0   120.0   16.666666666666668
0.0   120.0   16.666666666666668
-50.0   120.0   0.0
-50.0   90.0   16.666666666666668
0.0   120.0   16.666666666666668
0.0   90.0   16.666666666666668
0.0   90.0   0.0
-50.0   90.0   16.666666666666668
0.0   120.0   16.666666666666668
0.0   90.0   0.0
-50.0   120.0   0.0
-50.0   90.0   16.666666666666668
0.0   90.0   16.666666666666668
-50.0   120.0   16.666666666666668
-50.0   90.0   33.333333333333336
0.0   90.0   16.666666666666668
0.0   120.0   16.666666666666668
-50.0   120.0   16.666666666666668
0.0   120.0   33.333333333333336
-50.0   90.0   33.333333333333336
-50.0   120.0   33.333333333333336
0.0   120.0   33.333333333333336
-50.0   120.0   16.666666666666668
-50.0   90.0   33.333333333333336
0.0   120.0   33.333333333333336
0.0   90.0   33.333333333333336
0.0   90.0   16.666666666666668
-50.0   90.0   33.333333333333336
0.0   120.0   33.333333333333336
0.0   90.0   16.666666666666668
-50.0   120.0   16.666666666666668
-50.0   90.0   33.333333333333336
0.0   90.0   33.333333333333336
-50.0   120.0   33.333333333333336
-50.0   90.0   50.0
0.0   90.0   33.333333333333336
0.0   120.0   33.333333333333336
-50.0   120.0   33.333333333333336
0.0   120.0   50.0
-50.0   90.0   50.0
-50.0   120.0   50.0
0.0   120.0   50.0
-50.0   120.0   33.333333333333336
-50.0   90.0   50.0
0.0   120.0   50.0
0.0   90.0   50.0
0.0   90.0   33.333333333333336
-50.0   90.0   50.0
0.0   120.0   50.0
0.0   90.0   33.333333333333336
-50.0   120.0   33.333333333333336
-50.0   120.0   0.0
0.0   120.0   0.0
-50.0   150.0   0.0
-50.0   120.0   16.666666666666668
0.0   120.0   0.0
0.0   150.0   0.0
-50.0   150.0   0.0
0.0   150.0   16.666666666666668
-50.0   120.0   16.666666666666668
-50.0   150.0   16.666666666666668
0.0   150.0   16.666666666666668
-50.0   150.0   0.0
-50.0   120.0   16.666666666666668
0.0   150.0   16.666666666666668
0.0   120.0   16.666666666666668
0.0   120.0   0.0
-50.0   120.0   16.666666666666668
0.0   150.0   16.666666666666668
0.0   120.0   0.0
-50.0   150.0   0.0
-50.0   120.0   16.666666666666668
0.0   120.0   16.666666666666668
-50.0   150.0   16.666666666666668
-50.0   120.0   33.333333333333336
0.0   120.0   16.666666666666668
0.0   150.0   16.666666666666668
-50.0   150.0   16.666666666666668
0.0   150.0   33.333333333333336
-50.0   120.0   33.333333333333336
-50.0   150.0   33.333333333333336
0.0   150.0   33.333333333333336
-50.0   150.0   16.666666666666668
-50.0   120.0   33.333333333333336
0.0   150.0   33.333333333333336
0.0   120.0   33.333333333333336
0.0   120.0   16.666666666666668
-50.0   120.0   33.333333333333336
0.0   150.0   33.333333333333336
0.0   120.0   16.666666666666668
-50.0   150.0   16.666666666666668
-50.0   120.0   33.333333333333336
0.0   120.0   33.333333333333336
-50.0   150.0   33.333333333333336
-50.0   120.0   50.0
0.0   120.0   33.333333333333336
0.0   150.0   33.333333333333336
-50.0   150.0   33.333333333333336
0.0   150.0   50.0
-50.0   120.0   50.0
-50.0   150.0   50.0
0.0   150.0   50.0
-50.0   150.0   33.333333333333336
-50.0   120.0   50.0
0.0   150.0   50.0
0.0   120.0   50.0
0.0   120.0   33.333333333333336
-50.0   120.0   50.0
0.0   150.0   50.0
0.0   120.0   33.333333333333336
-50.0   150.0   33.333333333333336
0.0   0.0   0.0
50.0   0.0   0.0
0.0   30.0   0.0
0.0   0.0   16.666666666666668
50.0   0.0   0.0
50.0   30.0   0.0
0.0   30.0   0.0
50.0   30.0   16.666666666666668
0.0   0.0   16.666666666666668
0.0   30.0   16.666666666666668
50.0   30.0   16.666666666666668
0.0   30.0   0.0
0.0   0.0   16.666666666666668
50.0   30.0   16.666666666666668
50.0   0.0   16.666666666666668
50.0   0.0   0.0
0.0   0.0   16.666666666666668
50.0   30.0   16.666666666666668
50.0   0.0   0.0
0.0   30.0   0.0
0.0   0.0   16.666666666666668
50.0   0.0   16.666666666666668
0.0   30.0   16.666666666666668
0.0   0.0   33.333333333333336
50.0   0.0   16.666666666666668
50.0   30.0   16.666666666666668
0.0   30.0   16.666666666666668
50.0   30.0   33.333333333333336
0.0   0.0   33.333333333333336
0.0   30.0   33.333333333333336
50.0   30.0   33.333333333333336
0.0   30.0   16.666666666666668
0.0   0.0   33.333333333333336
50.0   30.0   33.333333333333336
50.0   0.0   33.333333333333336
50.0   0.0   16.666666666666668
0.0   0.0   33.333333333333336
50.0   30.0   33.333333333333336
50.0   0.0   16.666666666666668
0.0   30.0   16.666666666666668
0.0   0.0   33.333333333333336
50.0   0.0   33.333333333333336
0.0   30.0   33.333333333333336
0.0   0.0   50.0
50.0   0.0   33.333333333333336
50.0   30.0   33.333333333333336
0.0   30.0   33.333333333333336
50.0   30.0   50.0
0.0   0.0   50.0
0.0   30.0   50.0
50.0   30.0   50.0
0.0   30.0   33.333333333333336
0.0   0.0   50.0
50.0   30.0   50.0
50.0   0.0   50.0
50.0   0.0   33.333333333333336
0.0   0.0   50.0
50.0   30.0   50.0
50.0   0.0   33.333333333333336
0.0   30.0   33.333333333333336
0.0   30.0   0.0
50.0   30.0   0.0
0.0   60.0   0.0
0.0   30.0   16.666666666666668
50.0   30.0   0.0
50.0   60.0   0.0
0.0   60.0   0.0
50.0   60.0   16.666666666666668
0.0   30.0   16.666666666666668
0.0   60.0   16.666666666666668
50.0   60.0   16.666666666666668
0.0   60.0   0.0
0.0   30.0   16.666666666666668
50.0   60.0   16.666666666666668
50.0   30.0   16.666666666666668
50.0   30.0   0.0
0.0   30.0   16.666666666666668
50.0   60.0   16.666666666666668
50.0   30.0   0.0
0.0   60.0   0.0
0.0   30.0   16.666666666666668
50.0   30.0   16.666666666666668
0.0   60.0   16.666666666666668
0.0   30.0   33.333333333333336
50.0   30.0   16.666666666666668
50.0   60.0   16.666666666666668
0.0   60.0   16.666666666666668
50.0   60.0   33.333333333333336
0.0   30.0   33.333333333333336
0.0   60.0   33.333333333333336
50.0   60.0   33.333333333333336
0.0   60.0   16.666666666666668
0.0   30.0   33.333333333333336
50.0   60.0   33.333333333333336
50.0   30.0   33.333333333333336
50.0   30.0   16.666666666666668
0.0   30.0   33.333333333333336
50.0   60.0   33.333333333333336
50.0   30.0   16.666666666666668
0.0   60.0   16.666666666666668
0.0   30.0   33.333333333333336
50.0   30.0   33.333333333333336
0.0   60.0   33.333333333333336
0.0   30.0   50.0
50.0   30.0   33.333333333333336
50.0   60.0   33.333333333333336
0.0   60.0   33.333333333333336
50.0   60.0   50.0
0.0   30.0   50.0
0.0   60.0   50.0
50.0   60.0   50.0
0.0   60.0   33.333333333333336
0.0   30.0   50.0
50.0   60.0   50.0
50.0   30.0   50.0
50.0   30.0   33.333333333333336
0.0   30.0   50.0
50.0   60.0   50.0
50.0   30.0   33.333333333333336
0.0   60.0   33.333333333333336
0.0   60.0   0.0
50.0   60.0   0.0
0.0   90.0   0.0
0.0   60.0   16.666666666666668
50.0   60.0   0.0
50.0   90.0   0.0
0.0   90.0   0.0
50.0   90.0   16.666666666666668
0.0   60.0   16.666666666666668
0.0   90.0   16.666666666666668
50.0   90.0   16.666666666666668
0.0   90.0   0.0
0.0   60.0   16.666666666666668
50.0   90.0   16.666666666666668
50.0   60.0   16.666666666666668
50.0   60.0   0.0
0.0   60.0   16.666666666666668
50.0   90.0   16.666666666666668
50.0   60.0   0.0
0.0   90.0   0.0
0.0   60.0   16.666666666666668
50.0   60.0   16.666666666666668
0.0   90.0   16.666666666666668
0.0   60.0   33.333333333333336
50.0   60.0   16.666666666666668
50.0   90.0   16.666666666666668
0.0   90.0   16.666666666666668
50.0   90.0   33.333333333333336
0.0   60.0   33.333333333333336
0.0   90.0   33.333333333333336
50.0   90.0   33.333333333333336
0.0   90.0   16.666666666666668
0.0   60.0   33.333333333333336
50.0   90.0   33.333333333333336
50.0   60.0   33.333333333333336
50.0   60.0   16.666666666666668
0.0   60.0   33.333333333333336
50.0   90.0   33.333333333333336
50.0   60.0   16.666666666666668
0.0   90.0   16.666666666666668
0.0   60.0   33.333333333333336
50.0   60.0   33.333333333333336
0.0   90.0   33.333333333333336
0.0   60.0   50.0
50.0   60.0   33.333333333333336
50.0   90.0   33.333333333333336
0.0   90.0   33.333333333333336
50.0   90.0   50.0
0.0   60.0   50.0
0.0   90.0   50.0
50.0   90.0   50.0
0.0   90.0   33.333333333333336
0.0   60.0   50.0
50.0   90.0   50.0
50.0   60.0   50.0
50.0   60.0   33.333333333333336
0.0   60.0   50.0
50.0   90.0   50.0
50.0   60.0   33.333333333333336
0.0   90.0   33.333333333333336
0.0   90.0   0.0
50.0   90.0   0.0
0.0   120.0   0.0
0.0   90.0   16.666666666666668
50.0   90.0   0.0
50.0   120.0   0.0
0.0   120.0   0.0
50.0   120.0   16.666666666666668
0.0   90.0   16.666666666666668
0.0   120.0   16.666666666666668
50.0   120.0   16.666666666666668
0.0   120.0   0.0
0.0   90.0   16.666666666666668
50.0   120.0   16.666666666666668
50.0   90.0   16.666666666666668
50.0   90.0   0.0
0.0   90.0   16.666666666666668
50.0   120.0   16.666666666666668
50.0   90.0   0.0
0.0   120.0   0.0
0.0   90.0   16.666666666666668
50.0   90.0   16.666666666666668
0.0   120.0   16.666666666666668
0.0   90.0   33.333333333333336
50.0   90.0   16.666666666666668
50.0   120.0   16.666666666666668
0.0   120.0   16.666666666666668
50.0   120.0   33.333333333333336
0.0   90.0   33.333333333333336
0.0   120.0   33.333333333333336
50.0   120.0   33.333333333333336
0.0   120.0   16.666666666666668
0.0   90.0   33.333333333333336
50.0   120.0   33.333333333333336
50.0   90.0   33.333333333333336
50.0   90.0   16.666666666666668
0.0   90.0   33.333333333333336
50.0   120.0   33.333333333333336
50.0   90.0   16.666666666666668
0.0   120.0   16.666666666666668
0.0   90.0   33.333333333333336
50.0   90.0   33.333333333333336
0.0   120.0   33.333333333333336
0.0   90.0   50.0
50.0   90.0   33.333333333333336
50.0   120.0   33.333333333333336
0.0   120.0   33.333333333333336
50.0   120.0   50.0
0.0   90.0   50.0
0.0   120.0   50.0
50.0   120.0   50.0
0.0   120.0   33.333333333333336
0.0   90.0   50.0
50.0   120.0   50.0
50.0   90.0   50.0
50.0   90.0   33.333333333333336
0.0   90.0   50.0
50.0   120.0   50.0
50.0   90.0   33.333333333333336
0.0   120.0   33.333333333333336
0.0   120.0   0.0
50.0   120.0   0.0
0.0   150.0   0.0
0.0   120.0   16.666666666666668
50.0   120.0   0.0
50.0   150.0   0.0
0.0   150.0   0.0
50.0   150.0   16.666666666666668
0.0   120.0   16.666666666666668
0.0   150.0   16.666666666666668
50.0   150.0   16.666666666666668
0.0   150.0   0.0
0.0   120.0   16.666666666666668
50.0   150.0   16.666666666666668
50.0   120.0   16.666666666666668
50.0   120.0   0.0
0.0   120.0   16.666666666666668
50.0   150.0   16.666666666666668
50.0   120.0   0.0
0.0   150.0   0.0
0.0   120.0   16.666666666666668
50.0   120.0   16.666666666666668
0.0   150.0   16.666666666666668
0.0   120.0   33.333333333333336
50.0   120.0   16.666666666666668
50.0   150.0   16.666666666666668
0.0   150.0   16.666666666666668
50.0   150.0   33.333333333333336
0.0   120.0   33.333333333333336
0.0   150.0   33.333333333333336
50.0   150.0   33.333333333333336
0.0   150.0   16.666666666666668
0.0   120.0   33.333333333333336
50.0   150.0   33.333333333333336
50.0   120.0   33.333333333333336
50.0   120.0   16.666666666666668
0.0   120.0   33.333333333333336
50.0   150.0   33.333333333333336
50.0   120.0   16.666666666666668
0.0   150.0   16.666666666666668
0.0   120.0   33.333333333333336
50.0   120.0   33.333333333333336
0.0   150.0   33.333333333333336
0.0   120.0   50.0
50.0   120.0   33.333333333333336
50.0   150.0   33.333333333333336
0.0   150.0   33.333333333333336
50.0   150.0   50.0
0.0   120.0   50.0
0.0   150.0   50.0
50.0   150.0   50.0
0.0   150.0   33.333333333333336
0.0   120.0   50.0
50.0   150.0   50.0
50.0   120.0   50.0
50.0   120.0   33.333333333333336
0.0   120.0   50.0
50.0   150.0   50.0
50.0   120.0   33.333333333333336
0.0   150.0   33.333333333333336
50.0   0.0   0.0
100.0   0.0   0.0
50.0   30.0   0.0
50.0   0.0   16.666666666666668
100.0   0.0   0.0
100.0   30.0   0.0
50.0   30.0   0.0
100.0   30.0   16.666666666666668
50.0   0.0   16.666666666666668
50.0   30.0   16.666666666666668
100.0   30.0   16.666666666666668
50.0   30.0   0.0
50.0   0.0   16.666666666666668
100.0   30.0   16.666666666666668
100.0   0.0   16.666666666666668
100.0   0.0   0.0
50.0   0.0   16.666666666666668
100.0   30.0   16.666666666666668
100.0   0.0   0.0
50.0   30.0   0.0
50.0   0.0   16.666666666666668
100.0   0.0   16.666666666666668
50.0   30.0   16.666666666666668
50.0   0.0   33.333333333333336
100.0   0.0   16.666666666666668
100.0   30.0   16.666666666666668
50.0   30.0   16.666666666666668
100.0   30.0   33.333333333333336
50.0   0.0   33.333333333333336
50.0   30.0   33.333333333333336
100.0   30.0   33.333333333333336
50.0   30.0   16.666666666666668
50.0   0.0   33.333333333333336
100.0   30.0   33.333333333333336
100.0   0.0   33.333333333333336
100.0   0.0   16.666666666666668
50.0   0.0   33.333333333333336
100.0   30.0   33.333333333333336
100.0   0.0   16.666666666666668
50.0   30.0   16.666666666666668
50.0   0.0   33.333333333333336
100.0   0.0   33.333333333333336
50.0   30.0   33.333333333333336
50.0   0.0   50.0
100.0   0.0   33.333333333333336
100.0   30.0   33.333333333333336
50.0   30.0   33.333333333333336
100.0   30.0   50.0
50.0   0.0   50.0
50.0   30.0   50.0
100.0   30.0   50.0
50.0   30.0   33.333333333333336
50.0   0.0   50.0
100.0   30.0   50.0
100.0   0.0   50.0
100.0   0.0   33.333333333333336
50.0   0.0   50.0
100.0   30.0   50.0
100.0   0.0   33.333333333333336
50.0   30.0   33.333333333333336
50.0   30.0   0.0
100.0   30.0   0.0
50.0   60.0   0.0
50.0   30.0   16.666666666666668
100.0   30.0   0.0
100.0   60.0   0.0
50.0   60.0   0.0
100.0   60.0   16.666666666666668
50.0   30.0   16.666666666666668
50.0   60.0   16.666666666666668
100.0   60.0   16.666666666666668
50.0   60.0   0.0
50.0   30.0   16.666666666666668
100.0   60.0   16.666666666666668
100.0   30.0   16.666666666666668
100.0   30.0   0.0
50.0   30.0   16.666666666666668
100.0   60.0   16.666666666666668
100.0   30.0   0.0
50.0   60.0   0.0
50.0   30.0   16.666666666666668
100.0   30.0   16.666666666666668
50.0   60.0   16.666666666666668
50.0   30.0   33.333333333333336
100.0   30.0   16.666666666666668
100.0   60.0   16.666666666666668
50.0   60.0   16.666666666666668
100.0   60.0   33.333333333333336
50.0   30.0   33.333333333333336
50.0   60.0   33.333333333333336
100.0   60.0   33.333333333333336
50.0   60.0   16.666666666666668
50.0   30.0   33.333333333333336
100.0   60.0   33.333333333333336
100.0   30.0   33.333333333333336
100.0   30.0   16.666666666666668
50.0   30.0   33.333333333333336
100.0   60.0   33.333333333333336
100.0   30.0   16.666666666666668
50.0   60.0   16.666666666666668
50.0   30.0   33.333333333333336
100.0   30.0   33.333333333333336
50.0   60.0   33.333333333333336
50.0   30.0   50.0
100.0   30.0   33.333333333333336
100.0   60.0   33.333333333333336
50.0   60.0   33.333333333333336
100.0   60.0   50.0
50.0   30.0   50.0
50.0   60.0   50.0
100.0   60.0   50.0
50.0   60.0   33.333333333333336
50.0   30.0   50.0
100.0   60.0   50.0
100.0   30.0   50.0
100.0   30.0   33.333333333333336
50.0   30.0   50.0
100.0   60.0   50.0
100.0   30.0   33.333333333333336
50.0   60.0   33.333333333333336
50.0   60.0   0.0
100.0   60.0   0.0
50.0   90.0   0.0
50.0   60.0   16.666666666666668
100.0   60.0   0.0
100.0   90.0   0.0
50.0   90.0   0.0
100.0   90.0   16.666666666666668
50.0   60.0   16.666666666666668
50.0   90.0   16.666666666666668
100.0   90.0   16.666666666666668
50.0   90.0   0.0
50.0   60.0   16.666666666666668
100.0   90.0   16.666666666666668
100.0   60.0   16.666666666666668
100.0   60.0   0.0
50.0   60.0   16.666666666666668
100.0   90.0   16.666666666666668
100.0   60.0   0.0
50.0   90.0   0.0
50.0   60.0   16.666666666666668
100.0   60.0   16.666666666666668
50.0   90.0   16.666666666666668
50.0   60.0   33.333333333333336
100.0   60.0   16.666666666666668
100.0   90.0   16.666666666666668
50.0   90.0   16.666666666666668
100.0   90.0   33.333333333333336
50.0   60.0   33.333333333333336
50.0   90.0   33.333333333333336
100.0   90.0   33.333333333333336
50.0   90.0   16.666666666666668
50.0   60.0   33.333333333333336
100.0   90.0   33.333333333333336
100.0   60.0   33.333333333333336
100.0   60.0   16.666666666666668
50.0   60.0   33.333333333333336
100.0   90.0   33.333333333333336
100.0   60.0   16.666666666666668
50.0   90.0   16.666666666666668
50.0   60.0   33.333333333333336
100.0   60.0   33.333333333333336
50.0   90.0   33.333333333333336
50.0   60.0   50.0
100.0   60.0   33.333333333333336
100.0   90.0   33.333333333333336
50.0   90.0   33.333333333333336
100.0   90.0   50.0
50.0   60.0   50.0
50.0   90.0   50.0
100.0   90.0   50.0
50.0   90.0   33.333333333333336
50.0   60.0   50.0
100.0   90.0   50.0
100.0   60.0   50.0
100.0   60.0   33.333333333333336
50.0   60.0   50.0
100.0   90.0   50.0
100.0   60.0   33.333333333333336
50.0   90.0   33.333333333333336
50.0   90.0   0.0
100.0   90.0   0.0
50.0   120.0   0.0
50.0   90.0   16.666666666666668
100.0   90.0   0.0
100.0   120.0   0.0
50.0   120.0   0.0
100.0   120.0   16.666666666666668
50.0   90.0   16.666666666666668
50.0   120.0   16.666666666666668
100.0   120.0   16.666666666666668
50.0   120.0   0.0
50.0   90.0   16.666666666666668
100.0   120.0   16.666666666666668
100.0   90.0   16.666666666666668
100.0   90.0   0.0
50.0   90.0   16.666666666666668
100.0   120.0   16.666666666666668
100.0   90.0   0.0
50.0   120.0   0.0
50.0   90.0   16.666666666666668
100.0   90.0   16.666666666666668
50.0   120.0   16.666666666666668
50.0   90.0   33.333333333333336
100.0   90.0   16.666666666666668
100.0   120.0   16.666666666666668
50.0   120.0   16.666666666666668
100.0   120.0   33.333333333333336
50.0   90.0   33.333333333333336
50.0   120.0   33.333333333333336
100.0   120.0   33.333333333333336
50.0   120.0   16.666666666666668
50.0   90.0   33.333333333333336
100.0   120.0   33.333333333333336
100.0   90.0   33.333333333333336
100.0   90.0   16.666666666666668
50.0   90.0   33.333333333333336
100.0   120.0   33.333333333333336
100.0   90.0   16.666666666666668
50.0   120.0   16.666666666666668
50.0   90.0   33.333333333333336
100.0   90.0   33.333333333333336
50.0   120.0   33.333333333333336
50.0   90.0   50.0
100.0   90.0   33.333333333333336
100.0   120.0   33.333333333333336
50.0   120.0   33.333333333333336
100.0   120.0   50.0
50.0   90.0   50.0
50.0   120.0   50.0
100.0   120.0   50.0
50.0   120.0   33.333333333333336
50.0   90.0   50.0
100.0   120.0   50.0
100.0   90.0   50.0
100.0   90.0   33.333333333333336
50.0   90.0   50.0
100.0   120.0   50.0
100.0   90.0   33.333333333333336
50.0   120.0   33.333333333333336
50.0   120.0   0.0
100.0   120.0   0.0
50.0   150.0   0.0
50.0   120.0   16.666666666666668
100.0   120.0   0.0
100.0   150.0   0.0
50.0   150.0   0.0
100.0   150.0   16.666666666666668
50.0   120.0   16.666666666666668
50.0   150.0   16.666666666666668
100.0   150.0   16.666666666666668
50.0   150.0   0.0
50.0   120.0   16.666666666666668
100.0   150.0   16.666666666666668
100.0   120.0   16.666666666666668
100.0   120.0   0.0
50.0   120.0   16.666666666666668
100.0   150.0   16.666666666666668
100.0   120.0   0.0
50.0   150.0   0.0
50.0   120.0   16.666666666666668
100.0   120.0   16.666666666666668
50.0   150.0   16.666666666666668
50.0   120.0   33.333333333333336
100.0   120.0   16.666666666666668
100.0   150.0   16.666666666666668
50.0   150.0   16.666666666666668
100.0   150.0   33.333333333333336
50.0   120.0   33.333333333333336
50.0   150.0   33.333333333333336
100.0   150.0   33.333333333333336
50.0   150.0   16.666666666666668
50.0   120.0   33.333333333333336
100.0   150.0   33.333333333333336
100.0   120.0   33.333333333333336
100.0   120.0   16.666666666666668
50.0   120.0   33.333333333333336
100.0   150.0   33.333333333333336
100.0   120.0   16.666666666666668
50.0   150.0   16.666666666666668
50.0   120.0   33.333333333333336
100.0   120.0   33.333333333333336
50.0   150.0   33.333333333333336
50.0   120.0   50.0
100.0   120.0   33.333333333333336
100.0   150.0   33.333333333333336
50.0   150.0   33.333333333333336
100.0   150.0   50.0
50.0   120.0   50.0
50.0   150.0   50.0
100.0   150.0   50.0
50.0   150.0   33.333333333333336
50.0   120.0   50.0
100.0   150.0   50.0
100.0   120.0   50.0
100.0   120.0   33.333333333333336
50.0   120.0   50.0
100.0   150.0   50.0
100.0   120.0   33.333333333333336
50.0   150.0   33.333333333333336
100.0   0.0   0.0
150.0   0.0   0.0
100.0   30.0   0.0
100.0   0.0   16.666666666666668
150.0   0.0   0.0
150.0   30.0   0.0
100.0   30.0   0.0
150.0   30.0   16.666666666666668
100.0   0.0   16.666666666666668
100.0   30.0   16.666666666666668
150.0   30.0   16.666666666666668
100.0   30.0   0.0
100.0   0.0   16.666666666666668
150.0   30.0   16.666666666666668
150.0   0.0   16.666666666666668
150.0   0.0   0.0
100.0   0.0   16.666666666666668
150.0   30.0   16.666666666666668
150.0   0.0   0.0
100.0   30.0   0.0
100.0   0.0   16.666666666666668
150.0   0.0   16.666666666666668
100.0   30.0   16.666666666666668
100.0   0.0   33.333333333333336
150.0   0.0   16.666666666666668
150.0   30.0   16.666666666666668
100.0   30.0   16.666666666666668
150.0   30.0   33.333333333333336
100.0   0.0   33.333333333333336
100.0   30.0   33.333333333333336
150.0   30.0   33.333333333333336
100.0   30.0   16.666666666666668
100.0   0.0   33.333333333333336
150.0   30.0   33.333333333333336
150.0   0.0   33.333333333333336
150.0   0.0   16.666666666666668
100.0   0.0   33.333333333333336
150.0   30.0   33.333333333333336
150.0   0.0   16.666666666666668
100.0   30.0   16.666666666666668
100.0   0.0   33.333333333333336
150.0   0.0   33.333333333333336
100.0   30.0   33.333333333333336
100.0   0.0   50.0
150.0   0.0   33.333333333333336
150.0   30.0   33.333333333333336
100.0   30.0   33.333333333333336
150.0   30.0   50.0
100.0   0.0   50.0
100.0   30.0   50.0
150.0   30.0   50.0
100.0   30.0   33.333333333333336
100.0   0.0   50.0
150.0   30.0   50.0
150.0   0.0   50.0
150.0   0.0   33.333333333333336
100.0   0.0   50.0
150.0   30.0   50.0
150.0   0.0   33.333333333333336
100.0   30.0   33.333333333333336
100.0   30.0   0.0
150.0   30.0   0.0
100.0   60.0   0.0
100.0   30.0   16.666666666666668
150.0   30.0   0.0
150.0   60.0   0.0
100.0   60.0   0.0
150.0   60.0   16.666666666666668
100.0   30.0   16.666666666666668
100.0   60.0   16.666666666666668
150.0   60.0   16.666666666666668
100.0   60.0   0.0
100.0   30.0   16.666666666666668
150.0   60.0   16.666666666666668
150.0   30.0   16.666666666666668
150.0   30.0   0.0
100.0   30.0   16.666666666666668
150.0   60.0   16.666666666666668
150.0   30.0   0.0
100.0   60.0   0.0
100.0   30.0   16.666666666666668
150.0   30.0   16.666666666666668
100.0   60.0   16.666666666666668
100.0   30.0   33.333333333333336
150.0   30.0   16.666666666666668
150.0   60.0   16.666666666666668
100.0   60.0   16.666666666666668
150.0   60.0   33.333333333333336
100.0   30.0   33.333333333333336
100.0   60.0   33.333333333333336
150.0   60.0   33.333333333333336
100.0   60.0   16.666666666666668
100.0   30.0   33.333333333333336
150.0   60.0   33.333333333333336
150.0   30.0   33.333333333333336
150.0   30.0   16.666666666666668
100.0   30.0   33.333333333333336
150.0   60.0   33.333333333333336
150.0   30.0   16.666666666666668
100.0   60.0   16.666666666666668
100.0   30.0   33.333333333333336
150.0   30.0   33.333333333333336
100.0   60.0   33.333333333333336
100.0   30.0   50.0
150.0   30.0   33.333333333333336
150.0   60.0   33.333333333333336
100.0   60.0   33.333333333333336
150.0   60.0   50.0
100.0   30.0   50.0
100.0   60.0   50.0
150.0   60.0   50.0
100.0   60.0   33.333333333333336
100.0   30.0   50.0
150.0   60.0   50.0
150.0   30.0   50.0
150.0   30.0   33.333333333333336
100.0   30.0   50.0
150.0   60.0   50.0
150.0   30.0   33.333333333333336
100.0   60.0   33.333333333333336
100.0   60.0   0.0
150.0   60.0   0.0
100.0   90.0   0.0
100.0   60.0   16.666666666666668
150.0   60.0   0.0
150.0   90.0   0.0
100.0   90.0   0.0
150.0   90.0   16.666666666666668
100.0   60.0   16.666666666666668
100.0   90.0   16.666666666666668
150.0   90.0   16.666666666666668
100.0   90.0   0.0
100.0   60.0   16.666666666666668
150.0   90.0   16.666666666666668
150.0   60.0   16.666666666666668
150.0   60.0   0.0
100.0   60.0   16.666666666666668
150.0   90.0   16.666666666666668
150.0   60.0   0.0
100.0   90.0   0.0
100.0   60.0   16.666666666666668
150.0   60.0   16.666666666666668
100.0   90.0   16.666666666666668
100.0   60.0   33.333333333333336
150.0   60.0   16.666666666666668
150.0   90.0   16.666666666666668
100.0   90.0   16.666666666666668
150.0   90.0   33.333333333333336
100.0   60.0   33.333333333333336
100.0   90.0   33.333333333333336
150.0   90.0   33.333333333333336
100.0   90.0   16.666666666666668
100.0   60.0   33.333333333333336
150.0   90.0   33.333333333333336
150.0   60.0   33.333333333333336
150.0   60.0   16.666666666666668
100.0   60.0   33.333333333333336
150.0   90.0   33.333333333333336
150.0   60.0   16.666666666666668
100.0   90.0   16.666666666666668
100.0   60.0   33.333333333333336
150.0   60.0   33.333333333333336
100.0   90.0   33.333333333333336
100.0   60.0   50.0
150.0   60.0   33.333333333333336
150.0   90.0   33.333333333333336
100.0   90.0   33.333333333333336
150.0   90.0   50.0
100.0   60.0   50.0
100.0   90.0   50.0
150.0   90.0   50.0
100.0   90.0   33.333333333333336
100.0   60.0   50.0
150.0   90.0   50.0
150.0   60.0   50.0
150.0   60.0   33.333333333333336
100.0   60.0   50.0
150.0   90.0   50.0
150.0   60.0   33.333333333333336
100.0   90.0   33.333333333333336
100.0   90.0   0.0
150.0   90.0   0.0
100.0   120.0   0.0
100.0   90.0   16.666666666666668
150.0   90.0   0.0
150.0   120.0   0.0
100.0   120.0   0.0
150.0   120.0   16.666666666666668
100.0   90.0   16.666666666666668
100.0   120.0   16.666666666666668
150.0   120.0   16.666666666666668
100.0   120.0   0.0
100.0   90.0   16.666666666666668
150.0   120.0   16.666666666666668
150.0   90.0   16.666666666666668
150.0   90.0   0.0
100.0   90.0   16.666666666666668
150.0   120.0   16.666666666666668
150.0   90.0   0.0
100.0   120.0   0.0
100.0   90.0   16.666666666666668
150.0   90.0   16.666666666666668
100.0   120.0   16.666666666666668
100.0   90.0   33.333333333333336
150.0   90.0   16.666666666666668
150.0   120.0   16.666666666666668
100.0   120.0   16.666666666666668
150.0   120.0   33.333333333333336
100.0   90.0   33.333333333333336
100.0   120.0   33.333333333333336
150.0   120.0   33.333333333333336
100.0   120.0   16.666666666666668
100.0   90.0   33.333333333333336
150.0   120.0   33.333333333333336
150.0   90.0   33.333333333333336
150.0   90.0   16.666666666666668
100.0   90.0   33.333333333333336
150.0   120.0   33.333333333333336
150.0   90.0   16.666666666666668
100.0   120.0   16.666666666666668
100.0   90.0   33.333333333333336
150.0   90.0   33.333333333333336
100.0   120.0   33.333333333333336
100.0   90.0   50.0
150.0   90.0   33.333333333333336
150.0   120.0   33.333333333333336
100.0   120.0   33.333333333333336
150.0   120.0   50.0
100.0   90.0   50.0
100.0   120.0   50.0
150.0   120.0   50.0
100.0   120.0   33.333333333333336
100.0   90.0   50.0
150.0   120.0   50.0
150.0   90.0   50.0
150.0   90.0   33.333333333333336
100.0   90.0   50.0
150.0   120.0   50.0
150.0   90.0   33.333333333333336
100.0   120.0   33.333333333333336
100.0   120.0   0.0
150.0   120.0   0.0
100.0   150.0   0.0
100.0   120.0   16.666666666666668
150.0   120.0   0.0
150.0   150.0   0.0
100.0   150.0   0.0
150.0   150.0   16.666666666666668
100.0   120.0   16.666666666666668
100.0   150.0   16.666666666666668
150.0   150.0   16.666666666666668
100.0   150.0   0.0
100.0   120.0   16.666666666666668
150.0   150.0   16.666666666666668
150.0   120.0   16.666666666666668
150.0   120.0   0.0
100.0   120.0   16.666666666666668
150.0   150.0   16.666666666666668
150.0   120.0   0.0
100.0   150.0   0.0
100.0   120.0   16.666666666666668
150.0   120.0   16.666666666666668
100.0   150.0   16.666666666666668
100.0   120.0   33.333333333333336
150.0   120.0   16.666666666666668
150.0   150.0   16.666666666666668
100.0   150.0   16.666666666666668
150.0   150.0   33.333333333333336
100.0   120.0   33.333333333333336
100.0   150.0   33.333333333333336
150.0   150.0   33.333333333333336
100.0   150.0   16.666666666666668
100.0   120.0   33.333333333333336
150.0   150.0   33.333333333333336
150.0   120.0   33.333333333333336
150.0   120.0   16.666666666666668
100.0   120.0   33.333333333333336
150.0   150.0   33.333333333333336
150.0   120.0   16.666666666666668
100.0   150.0   16.666666666666668
100.0   120.0   33.333333333333336
150.0   120.0   33.333333333333336
100.0   150.0   33.333333333333336
100.0   120.0   50.0
150.0   120.0   33.333333333333336
150.0   150.0   33.333333333333336
100.0   150.0   33.333333333333336
150.0   150.0   50.0
100.0   120.0   50.0
100.0   150.0   50.0
150.0   150.0   50.0
100.0   150.0   33.333333333333336
100.0   120.0   50.0
150.0   150.0   50.0
150.0   120.0   50.0
150.0   120.0   33.333333333333336
100.0   120.0   50.0
150.0   150.0   50.0
150.0   120.0   33.333333333333336
100.0   150.0   33.333333333333336
150.0   0.0   0.0
200.0   0.0   0.0
150.0   30.0   0.0
150.0   0.0   16.666666666666668
200.0   0.0   0.0
200.0   30.0   0.0
150.0   30.0   0.0
200.0   30.0   16.666666666666668
150.0   0.0   16.666666666666668
150.0   30.0   16.666666666666668
200.0   30.0   16.666666666666668
150.0   30.0   0.0
150.0   0.0   16.666666666666668
200.0   30.0   16.666666666666668
200.0   0.0   16.666666666666668
200.0   0.0   0.0
150.0   0.0   16.666666666666668
200.0   30.0   16.666666666666668
200.0   0.0   0.0
150.0   30.0   0.0
150.0   0.0   16.666666666666668
200.0   0.0   16.666666666666668
150.0   30.0   16.666666666666668
150.0   0.0   33.333333333333336
200.0   0.0   16.666666666666668
200.0   30.0   16.666666666666668
150.0   30.0   16.666666666666668
200.0   30.0   33.333333333333336
150.0   0.0   33.333333333333336
150.0   30.0   33.333333333333336
200.0   30.0   33.333333333333336
150.0   30.0   16.666666666666668
150.0   0.0   33.333333333333336
200.0   30.0   33.333333333333336
200.0   0.0   33.333333333333336
200.0   0.0   16.666666666666668
150.0   0.0   33.333333333333336
200.0   30.0   33.333333333333336
200.0   0.0   16.666666666666668
150.0   30.0   16.666666666666668
150.0   0.0   33.333333333333336
200.0   0.0   33.333333333333336
150.0   30.0   33.333333333333336
150.0   0.0   50.0
200.0   0.0   33.333333333333336
200.0   30.0   33.333333333333336
150.0   30.0   33.333333333333336
200.0   30.0   50.0
150.0   0.0   50.0
150.0   30.0   50.0
200.0   30.0   50.0
150.0   30.0   33.333333333333336
150.0   0.0   50.0
200.0   30.0   50.0
200.0   0.0   50.0
200.0   0.0   33.333333333333336
150.0   0.0   50.0
200.0   30.0   50.0
200.0   0.0   33.333333333333336
150.0   30.0   33.333333333333336
150.0   30.0   0.0
200.0   30.0   0.0
150.0   60.0   0.0
150.0   30.0   16.666666666666668
200.0   30.0   0.0
200.0   60.0   0.0
150.0   60.0   0.0
200.0   60.0   16.666666666666668
150.0   30.0   16.666666666666668
150.0   60.0   16.666666666666668
200.0   60.0   16.666666666666668
150.0   60.0   0.0
150.0   30.0   16.666666666666668
200.0   60.0   16.666666666666668
200.0   30.0   16.666666666666668
200.0   30.0   0.0
150.0   30.0   16.666666666666668
200.0   60.0   16.666666666666668
200.0   30.0   0.0
150.0   60.0   0.0
150.0   30.0   16.666666666666668
200.0   30.0   16.666666666666668
150.0   60.0   16.666666666666668
150.0   30.0   33.333333333333336
200.0   30.0   16.666666666666668
200.0   60.0   16.666666666666668
150.0   60.0   16.666666666666668
200.0   60.0   33.333333333333336
150.0   30.0   33.333333333333336
150.0   60.0   33.333333333333336
200.0   60.0   33.333333333333336
150.0   60.0   16.666666666666668
150.0   30.0   33.333333333333336
200.0   60.0   33.333333333333336
200.0   30.0   33.333333333333336
200.0   30.0   16.666666666666668
150.0   30.0   33.333333333333336
200.0   60.0   33.333333333333336
200.0   30.0   16.666666666666668
150.0   60.0   16.666666666666668
150.0   30.0   33.333333333333336
200.0   30.0   33.333333333333336
150.0   60.0   33.333333333333336
150.0   30.0   50.0
200.0   30.0   33.333333333333336
200.0   60.0   33.333333333333336
150.0   60.0   33.333333333333336
200.0   60.0   50.0
150.0   30.0   50.0
150.0   60.0   50.0
200.0   60.0   50.0
150.0   60.0   33.333333333333336
150.0   30.0   50.0
200.0   60.0   50.0
200.0   30.0   50.0
200.0   30.0   33.333333333333336
150.0   30.0   50.0
200.0   60.0   50.0
200.0   30.0   33.333333333333336
150.0   60.0   33.333333333333336
150.0   60.0   0.0
200.0   60.0   0.0
150.0   90.0   0.0
150.0   60.0   16.666666666666668
200.0   60.0   0.0
200.0   90.0   0.0
150.0   90.0   0.0
200.0   90.0   16.666666666666668
150.0   60.0   16.666666666666668
150.0   90.0   16.666666666666668
200.0   90.0   16.666666666666668
150.0   90.0   0.0
150.0   60.0   16.666666666666668
200.0   90.0   16.666666666666668
200.0   60.0   16.666666666666668
200.0   60.0   0.0
150.0   60.0   16.666666666666668
200.0   90.0   16.666666666666668
200.0   60.0   0.0
150.0   90.0   0.0
150.0   60.0   16.666666666666668
200.0   60.0   16.666666666666668
150.0   90.0   16.666666666666668
150.0   60.0   33.333333333333336
200.0   60.0   16.666666666666668
200.0   90.0   16.666666666666668
150.0   90.0   16.666666666666668
200.0   90.0   33.333333333333336
150.0   60.0   33.333333333333336
150.0   90.0   33.333333333333336
200.0   90.0   33.333333333333336
150.0   90.0   16.666666666666668
150.0   60.0   33.333333333333336
200.0   90.0   33.333333333333336
200.0   60.0   33.333333333333336
200.0   60.0   16.666666666666668
150.0   60.0   33.333333333333336
200.0   90.0   33.333333333333336
200.0   60.0   16.666666666666668
150.0   90.0   16.666666666666668
150.0   60.0   33.333333333333336
200.0   60.0   33.333333333333336
150.0   90.0   33.333333333333336
150.0   60.0   50.0
200.0   60.0   33.333333333333336
200.0   90.0   33.333333333333336
150.0   90.0   33.333333333333336
200.0   90.0   50.0
150.0   60.0   50.0
150.0   90.0   50.0
200.0   90.0   50.0
150.0   90.0   33.333333333333336
150.0   60.0   50.0
200.0   90.0   50.0
200.0   60.0   50.0
200.0   60.0   33.333333333333336
150.0   60.0   50.0
200.0   90.0   50.0
200.0   60.0   33.333333333333336
150.0   90.0   33.333333333333336
150.0   90.0   0.0
200.0   90.0   0.0
150.0   120.0   0.0
150.0   90.0   16.666666666666668
200.0   90.0   0.0
200.0   120.0   0.0
150.0   120.0   0.0
200.0   120.0   16.666666666666668
150.0   90.0   16.666666666666668
150.0   120.0   16.666666666666668
200.0   120.0   16.666666666666668
150.0   120.0   0.0
150.0   90.0   16.666666666666668
200.0   120.0   16.666666666666668
200.0   90.0   16.666666666666668
200.0   90.0   0.0
150.0   90.0   16.666666666666668
200.0   120.0   16.666666666666668
200.0   90.0   0.0
150.0   120.0   0.0
150.0   90.0   16.666666666666668
200.0   90.0   16.666666666666668
150.0   120.0   16.666666666666668
150.0   90.0   33.333333333333336
200.0   90.0   16.666666666666668
200.0   120.0   16.666666666666668
150.0   120.0   16.666666666666668
200.0   120.0   33.333333333333336
150.0   90.0   33.333333333333336
150.0   120.0   33.333333333333336
200.0   120.0   33.333333333333336
150.0   120.0   16.666666666666668
150.0   90.0   33.333333333333336
200.0   120.0   33.333333333333336
200.0   90.0   33.333333333333336
200.0   90.0   16.666666666666668
150.0   90.0   33.333333333333336
200.0   120.0   33.333333333333336
200.0   90.0   16.666666666666668
150.0   120.0   16.666666666666668
150.0   90.0   33.333333333333336
200.0   90.0   33.333333333333336
150.0   120.0   33.333333333333336
150.0   90.0   50.0
200.0   90.0   33.333333333333336
200.0   120.0   33.333333333333336
150.0   120.0   33.333333333333336
200.0   120.0   50.0
150.0   90.0   50.0
150.0   120.0   50.0
200.0   120.0   50.0
150.0   120.0   33.333333333333336
150.0   90.0   50.0
200.0   120.0   50.0
200.0   90.0   50.0
200.0   90.0   33.333333333333336
150.0   90.0   50.0
200.0   120.0   50.0
200.0   90.0   33.333333333333336
150.0   120.0   33.333333333333336
150.0   120.0   0.0
200.0   120.0   0.0
150.0   150.0   0.0
150.0   120.0   16.666666666666668
200.0   120.0   0.0
200.0   150.0   0.0
150.0   150.0   0.0
200.0   150.0   16.666666666666668
150.0   120.0   16.666666666666668
150.0   150.0   16.666666666666668
200.0   150.0   16.666666666666668
150.0   150.0   0.0
150.0   120.0   16.666666666666668
200.0   150.0   16.666666666666668
200.0   120.0   16.666666666666668
200.0   120.0   0.0
150.0   120.0   16.666666666666668
200.0   150.0   16.666666666666668
200.0   120.0   0.0
150.0   150.0   0.0
150.0   120.0   16.666666666666668
200.0   120.0   16.666666666666668
150.0   150.0   16.666666666666668
150.0   120.0   33.333333333333336
200.0   120.0   16.666666666666668
200.0   150.0   16.666666666666668
150.0   150.0   16.666666666666668
200.0   150.0   33.333333333333336
150.0   120.0   33.333333333333336
150.0   150.0   33.333333333333336
200.0   150.0   33.333333333333336
150.0   150.0   16.666666666666668
150.0   120.0   33.333333333333336
200.0   150.0   33.333333333333336
200.0   120.0   33.333333333333336
200.0   120.0   16.666666666666668
150.0   120.0   33.333333333333336
200.0   150.0   33.333333333333336
200.0   120.0   16.666666666666668
150.0   150.0   16.666666666666668
150.0   120.0   33.333333333333336
200.0   120.0   33.333333333333336
150.0   150.0   33.333333333333336
150.0   120.0   50.0
200.0   120.0   33.333333333333336
200.0   150.0   33.333333333333336
150.0   150.0   33.333333333333336
200.0   150.0   50.0
150.0   120.0   50.0
150.0   150.0   50.0
200.0   150.0   50.0
150.0   150.0   33.333333333333336
150.0   120.0   50.0
200.0   150.0   50.0
200.0   120.0   50.0
200.0   120.0   33.333333333333336
150.0   120.0   50.0
200.0   150.0   50.0
200.0   120.0   33.333333333333336
150.0   150.0   33.333333333333336
200.0   0.0   0.0
250.0   0.0   0.0
200.0   30.0   0.0
200.0   0.0   16.666666666666668
250.0   0.0   0.0
250.0   30.0   0.0
200.0   30.0   0.0
250.0   30.0   16.666666666666668
200.0   0.0   16.666666666666668
200.0   30.0   16.666666666666668
250.0   30.0   16.666666666666668
200.0   30.0   0.0
200.0   0.0   16.666666666666668
250.0   30.0   16.666666666666668
250.0   0.0   16.666666666666668
250.0   0.0   0.0
200.0   0.0   16.666666666666668
250.0   30.0   16.666666666666668
250.0   0.0   0.0
200.0   30.0   0.0
200.0   0.0   16.666666666666668
250.0   0.0   16.666666666666668
200.0   30.0   16.666666666666668
200.0   0.0   33.333333333333336
250.0   0.0   16.666666666666668
250.0   30.0   16.666666666666668
200.0   30.0   16.666666666666668
250.0   30.0   33.333333333333336
200.0   0.0   33.333333333333336
200.0   30.0   33.333333333333336
250.0   30.0   33.333333333333336
200.0   30.0   16.666666666666668
200.0   0.0   33.333333333333336
250.0   30.0   33.333333333333336
250.0   0.0   33.333333333333336
250.0   0.0   16.666666666666668
200.0   0.0   33.333333333333336
250.0   30.0   33.333333333333336
250.0   0.0   16.666666666666668
200.0   30.0   16.666666666666668
200.0   0.0   33.333333333333336
250.0   0.0   33.333333333333336
200.0   30.0   33.333333333333336
200.0   0.0   50.0
250.0   0.0   33.333333333333336
250.0   30.0   33.333333333333336
200.0   30.0   33.333333333333336
250.0   30.0   50.0
200.0   0.0   50.0
200.0   30.0   50.0
250.0   30.0   50.0
200.0   30.0   33.333333333333336
200.0   0.0   50.0
250.0   30.0   50.0
250.0   0.0   50.0
250.0   0.0   33.333333333333336
200.0   0.0   50.0
250.0   30.0   50.0
250.0   0.0   33.333333333333336
200.0   30.0   33.333333333333336
200.0   30.0   0.0
250.0   30.0   0.0
200.0   60.0   0.0
200.0   30.0   16.666666666666668
250.0   30.0   0.0
250.0   60.0   0.0
200.0   60.0   0.0
250.0   60.0   16.666666666666668
200.0   30.0   16.666666666666668
200.0   60.0   16.666666666666668
250.0   60.0   16.666666666666668
200.0   60.0   0.0
200.0   30.0   16.666666666666668
250.0   60.0   16.666666666666668
250.0   30.0   16.666666666666668
250.0   30.0   0.0
200.0   30.0   16.666666666666668
250.0   60.0   16.666666666666668
250.0   30.0   0.0
200.0   60.0   0.0
200.0   30.0   16.666666666666668
250.0   30.0   16.666666666666668
200.0   60.0   16.666666666666668
200.0   30.0   33.333333333333336
250.0   30.0   16.666666666666668
250.0   60.0   16.666666666666668
200.0   60.0   16.666666666666668
250.0   60.0   33.333333333333336
200.0   30.0   33.333333333333336
200.0   60.0   33.333333333333336
250.0   60.0   33.333333333333336
200.0   60.0   16.666666666666668
200.0   30.0   33.333333333333336
250.0   60.0   33.333333333333336
250.0   30.0   33.333333333333336
250.0   30.0   16.666666666666668
200.0   30.0   33.333333333333336
250.0   60.0   33.333333333333336
250.0   30.0   16.666666666666668
200.0   60.0   16.666666666666668
200.0   30.0   33.333333333333336
250.0   30.0   33.333333333333336
200.0   60.0   33.333333333333336
200.0   30.0   50.0
250.0   30.0   33.333333333333336
250.0   60.0   33.333333333333336
200.0   60.0   33.333333333333336
250.0   60.0   50.0
200.0   30.0   50.0
200.0   60.0   50.0
250.0   60.0   50.0
200.0   60.0   33.333333333333336
200.0   30.0   50.0
250.0   60.0   50.0
250.0   30.0   50.0
250.0   30.0   33.333333333333336
200.0   30.0   50.0
250.0   60.0   50.0
250.0   30.0   33.333333333333336
200.0   60.0   33.333333333333336
200.0   60.0   0.0
250.0   60.0   0.0
200.0   90.0   0.0
200.0   60.0   16.666666666666668
250.0   60.0   0.0
250.0   90.0   0.0
200.0   90.0   0.0
250.0   90.0   16.666666666666668
200.0   60.0   16.666666666666668
200.0   90.0   16.666666666666668
250.0   90.0   16.666666666666668
200.0   90.0   0.0
200.0   60.0   16.666666666666668
250.0   90.0   16.666666666666668
250.0   60.0   16.666666666666668
250.0   60.0   0.0
200.0   60.0   16.666666666666668
250.0   90.0   16.666666666666668
250.0   60.0   0.0
200.0   90.0   0.0
200.0   60.0   16.666666666666668
250.0   60.0   16.666666666666668
200.0   90.0   16.666666666666668
200.0   60.0   33.333333333333336
250.0   60.0   16.666666666666668
250.0   90.0   16.666666666666668
200.0   90.0   16.666666666666668
250.0   90.0   33.333333333333336
200.0   60.0   33.333333333333336
200.0   90.0   33.333333333333336
250.0   90.0   33.333333333333336
200.0   90.0   16.666666666666668
200.0   60.0   33.333333333333336
250.0   90.0   33.333333333333336
250.0   60.0   33.333333333333336
250.0   60.0   16.666666666666668
200.0   60.0   33.333333333333336
250.0   90.0   33.333333333333336
250.0   60.0   16.666666666666668
200.0   90.0   16.666666666666668
200.0   60.0   33.333333333333336
250.0   60.0   33.333333333333336
200.0   90.0   33.333333333333336
200.0   60.0   50.0
250.0   60.0   33.333333333333336
250.0   90.0   33.333333333333336
200.0   90.0   33.333333333333336
250.0   90.0   50.0
200.0   60.0   50.0
200.0   90.0   50.0
250.0   90.0   50.0
200.0   90.0   33.333333333333336
200.0   60.0   50.0
250.0   90.0   50.0
250.0   60.0   50.0
250.0   60.0   33.333333333333336
200.0   60.0   50.0
250.0   90.0   50.0
250.0   60.0   33.333333333333336
200.0   90.0   33.333333333333336
200.0   90.0   0.0
250.0   90.0   0.0
200.0   120.0   0.0
200.0   90.0   16.666666666666668
250.0   90.0   0.0
250.0   120.0   0.0
200.0   120.0   0.0
250.0   120.0   16.666666666666668
200.0   90.0   16.666666666666668
200.0   120.0   16.666666666666668
250.0   120.0   16.666666666666668
200.0   120.0   0.0
200.0   90.0   16.666666666666668
250.0   120.0   16.666666666666668
250.0   90.0   16.666666666666668
250.0   90.0   0.0
200.0   90.0   16.666666666666668
250.0   120.0   16.666666666666668
250.0   90.0   0.0
200.0   120.0   0.0
200.0   90.0   16.666666666666668
250.0   90.0   16.666666666666668
200.0   120.0   16.666666666666668
200.0   90.0   33.333333333333336
250.0   90.0   16.666666666666668
250.0   120.0   16.666666666666668
200.0   120.0   16.666666666666668
250.0   120.0   33.333333333333336
200.0   90.0   33.333333333333336
200.0   120.0   33.333333333333336
250.0   120.0   33.333333333333336
200.0   120.0   16.666666666666668
200.0   90.0   33.333333333333336
250.0   120.0   33.333333333333336
250.0   90.0   33.333333333333336
250.0   90.0   16.666666666666668
200.0   90.0   33.333333333333336
250.0   120.0   33.333333333333336
250.0   90.0   16.666666666666668
200.0   120.0   16.666666666666668
200.0   90.0   33.333333333333336
250.0   90.0   33.333333333333336
200.0   120.0   33.333333333333336
200.0   90.0   50.0
250.0   90.0   33.333333333333336
250.0   120.0   33.333333333333336
200.0   120.0   33.333333333333336
250.0   120.0   50.0
200.0   90.0   50.0
200.0   120.0   50.0
250.0   120.0   50.0
200.0   120.0   33.333333333333336
200.0   90.0   50.0
250.0   120.0   50.0
250.0   90.0   50.0
250.0   90.0   33.333333333333336
200.0   90.0   50.0
250.0   120.0   50.0
250.0   90.0   33.333333333333336
200.0   120.0   33.333333333333336
200.0   120.0   0.0
250.0   120.0   0.0
200.0   150.0   0.0
200.0   120.0   16.666666666666668
250.0   120.0   0.0
250.0   150.0   0.0
200.0   150.0   0.0
250.0   150.0   16.666666666666668
200.0   120.0   16.666666666666668
200.0   150.0   16.666666666666668
250.0   150.0   16.666666666666668
200.0   150.0   0.0
200.0   120.0   16.666666666666668
250.0   150.0   16.666666666666668
250.0   120.0   16.666666666666668
250.0   120.0   0.0
200.0   120.0   16.666666666666668
250.0   150.0   16.666666666666668
250.0   120.0   0.0
200.0   150.0   0.0
200.0   120.0   16.666666666666668
250.0   120.0   16.666666666666668
200.0   150.0   16.666666666666668
200.0   120.0   33.333333333333336
250.0   120.0   16.666666666666668
250.0   150.0   16.666666666666668
200.0   150.0   16.666666666666668
250.0   150.0   33.333333333333336
200.0   120.0   33.333333333333336
200.0   150.0   33.333333333333336
250.0   150.0   33.333333333333336
200.0   150.0   16.666666666666668
200.0   120.0   33.333333333333336
250.0   150.0   33.333333333333336
250.0   120.0   33.333333333333336
250.0   120.0   16.666666666666668
200.0   120.0   33.333333333333336
250.0   150.0   33.333333333333336
250.0   120.0   16.666666666666668
200.0   150.0   16.666666666666668
200.0   120.0   33.333333333333336
250.0   120.0   33.333333333333336
200.0   150.0   33.333333333333336
200.0   120.0   50.0
250.0   120.0   33.333333333333336
250.0   150.0   33.333333333333336
200.0   150.0   33.333333333333336
250.0   150.0   50.0
200.0   120.0   50.0
200.0   150.0   50.0
250.0   150.0   50.0
200.0   150.0   33.333333333333336
200.0   120.0   50.0
250.0   150.0   50.0
250.0   120.0   50.0
250.0   120.0   33.333333333333336
200.0   120.0   50.0
250.0   150.0   50.0
250.0   120.0   33.333333333333336
200.0   150.0   33.333333333333336
250.0   0.0   0.0
300.0   0.0   0.0
250.0   30.0   0.0
250.0   0.0   16.666666666666668
300.0   0.0   0.0
300.0   30.0   0.0
250.0   30.0   0.0
300.0   30.0   16.666666666666668
250.0   0.0   16.666666666666668
250.0   30.0   16.666666666666668
300.0   30.0   16.666666666666668
250.0   30.0   0.0
250.0   0.0   16.666666666666668
300.0   30.0   16.666666666666668
300.0   0.0   16.666666666666668
300.0   0.0   0.0
250.0   0.0   16.666666666666668
300.0   30.0   16.666666666666668
300.0   0.0   0.0
250.0   30.0   0.0
250.0   0.0   16.666666666666668
300.0   0.0   16.666666666666668
250.0   30.0   16.666666666666668
250.0   0.0   33.333333333333336
300.0   0.0   16.666666666666668
300.0   30.0   16.666666666666668
250.0   30.0   16.666666666666668
300.0   30.0   33.333333333333336
250.0   0.0   33.333333333333336
250.0   30.0   33.333333333333336
300.0   30.0   33.333333333333336
250.0   30.0   16.666666666666668
250.0   0.0   33.333333333333336
300.0   30.0   33.333333333333336
300.0   0.0   33.333333333333336
300.0   0.0   16.666666666666668
250.0   0.0   33.333333333333336
300.0   30.0   33.333333333333336
300.0   0.0   16.666666666666668
250.0   30.0   16.666666666666668
250.0   0.0   33.333333333333336
300.0   0.0   33.333333333333336
250.0   30.0   33.333333333333336
250.0   0.0   50.0
300.0   0.0   33.333333333333336
300.0   30.0   33.333333333333336
250.0   30.0   33.333333333333336
300.0   30.0   50.0
250.0   0.0   50.0
250.0   30.0   50.0
300.0   30.0   50.0
250.0   30.0   33.333333333333336
250.0   0.0   50.0
300.0   30.0   50.0
300.0   0.0   50.0
300.0   0.0   33.333333333333336
250.0   0.0   50.0
300.0   30.0   50.0
300.0   0.0   33.333333333333336
250.0   30.0   33.333333333333336
250.0   30.0   0.0
300.0   30.0   0.0
250.0   60.0   0.0
250.0   30.0   16.666666666666668
300.0   30.0   0.0
300.0   60.0   0.0
250.0   60.0   0.0
300.0   60.0   16.666666666666668
250.0   30.0   16.666666666666668
250.0   60.0   16.666666666666668
300.0   60.0   16.666666666666668
250.0   60.0   0.0
250.0   30.0   16.666666666666668
300.0   60.0   16.666666666666668
300.0   30.0   16.666666666666668
300.0   30.0   0.0
250.0   30.0   16.666666666666668
300.0   60.0   16.666666666666668
300.0   30.0   0.0
250.0   60.0   0.0
250.0   30.0   16.666666666666668
300.0   30.0   16.666666666666668
250.0   60.0   16.666666666666668
250.0   30.0   33.333333333333336
300.0   30.0   16.666666666666668
300.0   60.0   16.666666666666668
250.0   60.0   16.666666666666668
300.0   60.0   33.333333333333336
250.0   30.0   33.333333333333336
250.0   60.0   33.333333333333336
300.0   60.0   33.333333333333336
250.0   60.0   16.666666666666668
250.0   30.0   33.333333333333336
300.0   60.0   33.333333333333336
300.0   30.0   33.333333333333336
300.0   30.0   16.666666666666668
250.0   30.0   33.333333333333336
300.0   60.0   33.333333333333336
300.0   30.0   16.666666666666668
250.0   60.0   16.666666666666668
250.0   30.0   33.333333333333336
300.0   30.0   33.333333333333336
250.0   60.0   33.333333333333336
250.0   30.0   50.0
300.0   30.0   33.333333333333336
300.0   60.0   33.333333333333336
250.0   60.0   33.333333333333336
300.0   60.0   50.0
250.0   30.0   50.0
250.0   60.0   50.0
300.0   60.0   50.0
250.0   60.0   33.333333333333336
250.0   30.0   50.0
300.0   60.0   50.0
300.0   30.0   50.0
300.0   30.0   33.333333333333336
250.0   30.0   50.0
300.0   60.0   50.0
300.0   30.0   33.333333333333336
250.0   60.0   33.333333333333336
250.0   60.0   0.0
300.0   60.0   0.0
250.0   90.0   0.0
250.0   60.0   16.666666666666668
300.0   60.0   0.0
300.0   90.0   0.0
250.0   90.0   0.0
300.0   90.0   16.666666666666668
250.0   60.0   16.666666666666668
250.0   90.0   16.666666666666668
300.0   90.0   16.666666666666668
250.0   90.0   0.0
250.0   60.0   16.666666666666668
300.0   90.0   16.666666666666668
300.0   60.0   16.666666666666668
300.0   60.0   0.0
250.0   60.0   16.666666666666668
300.0   90.0   16.666666666666668
300.0   60.0   0.0
250.0   90.0   0.0
250.0   60.0   16.666666666666668
300.0   60.0   16.666666666666668
250.0   90.0   16.666666666666668
250.0   60.0   33.333333333333336
300.0   60.0   16.666666666666668
300.0   90.0   16.666666666666668
250.0   90.0   16.666666666666668
300.0   90.0   33.333333333333336
250.0   60.0   33.333333333333336
250.0   90.0   33.333333333333336
300.0   90.0   33.333333333333336
250.0   90.0   16.666666666666668
250.0   60.0   33.333333333333336
300.0   90.0   33.333333333333336
300.0   60.0   33.333333333333336
300.0   60.0   16.666666666666668
250.0   60.0   33.333333333333336
300.0   90.0   33.333333333333336
300.0   60.0   16.666666666666668
250.0   90.0   16.666666666666668
250.0   60.0   33.333333333333336
300.0   60.0   33.333333333333336
250.0   90.0   33.333333333333336
250.0   60.0   50.0
300.0   60.0   33.333333333333336
300.0   90.0   33.333333333333336
250.0   90.0   33.333333333333336
300.0   90.0   50.0
250.0   60.0   50.0
250.0   90.0   50.0
300.0   90.0   50.0
250.0   90.0   33.333333333333336
250.0   60.0   50.0
300.0   90.0   50.0
300.0   60.0   50.0
300.0   60.0   33.333333333333336
250.0   60.0   50.0
300.0   90.0   50.0
300.0   60.0   33.333333333333336
250.0   90.0   33.333333333333336
250.0   90.0   0.0
300.0   90.0   0.0
250.0   120.0   0.0
250.0   90.0   16.666666666666668
300.0   90.0   0.0
300.0   120.0   0.0
250.0   120.0   0.0
300.0   120.0   16.666666666666668
250.0   90.0   16.666666666666668
250.0   120.0   16.666666666666668
300.0   120.0   16.666666666666668
250.0   120.0   0.0
250.0   90.0   16.666666666666668
300.0   120.0   16.666666666666668
300.0   90.0   16.666666666666668
300.0   90.0   0.0
250.0   90.0   16.666666666666668
300.0   120.0   16.666666666666668
300.0   90.0   0.0
250.0   120.0   0.0
250.0   90.0   16.666666666666668
300.0   90.0   16.666666666666668
250.0   120.0   16.666666666666668
250.0   90.0   33.333333333333336
300.0   90.0   16.666666666666668
300.0   120.0   16.666666666666668
250.0   120.0   16.666666666666668
300.0   120.0   33.333333333333336
250.0   90.0   33.333333333333336
250.0   120.0   33.333333333333336
300.0   120.0   33.333333333333336
250.0   120.0   16.666666666666668
250.0   90.0   33.333333333333336
300.0   120.0   33.333333333333336
300.0   90.0   33.333333333333336
300.0   90.0   16.666666666666668
250.0   90.0   33.333333333333336
300.0   120.0   33.333333333333336
300.0   90.0   16.666666666666668
250.0   120.0   16.666666666666668
250.0   90.0   33.333333333333336
300.0   90.0   33.333333333333336
250.0   120.0   33.333333333333336
250.0   90.0   50.0
300.0   90.0   33.333333333333336
300.0   120.0   33.333333333333336
250.0   120.0   33.333333333333336
300.0   120.0   50.0
250.0   90.0   50.0
250.0   120.0   50.0
300.0   120.0   50.0
250.0   120.0   33.333333333333336
250.0   90.0   50.0
300.0   120.0   50.0
300.0   90.0   50.0
300.0   90.0   33.333333333333336
250.0   90.0   50.0
300.0   120.0   50.0
300.0   90.0   33.333333333333336
250.0   120.0   33.333333333333336
250.0   120.0   0.0
300.0   120.0   0.0
250.0   150.0   0.0
250.0   120.0   16.666666666666668
300.0   120.0   0.0
300.0   150.0   0.0
250.0   150.0   0.0
300.0   150.0   16.666666666666668
250.0   120.0   16.666666666666668
250.0   150.0   16.666666666666668
300.0   150.0   16.666666666666668
250.0   150.0   0.0
250.0   120.0   16.666666666666668
300.0   150.0   16.666666666666668
300.0   120.0   16.666666666666668
300.0   120.0   0.0
250.0   120.0   16.666666666666668
300.0   150.0   16.666666666666668
300.0   120.0   0.0
250.0   150.0   0.0
250.0   120.0   16.666666666666668
300.0   120.0   16.666666666666668
250.0   150.0   16.666666666666668
250.0   120.0   33.333333333333336
300.0   120.0   16.666666666666668
300.0   150.0   16.666666666666668
250.0   150.0   16.666666666666668
300.0   150.0   33.333333333333336
250.0   120.0   33.333333333333336
250.0   150.0   33.333333333333336
300.0   150.0   33.333333333333336
250.0   150.0   16.666666666666668
250.0   120.0   33.333333333333336
300.0   150.0   33.333333333333336
300.0   120.0   33.333333333333336
300.0   120.0   16.666666666666668
250.0   120.0   33.333333333333336
300.0   150.0   33.333333333333336
300.0   120.0   16.666666666666668
250.0   150.0   16.666666666666668
250.0   120.0   33.333333333333336
300.0   120.0   33.333333333333336
250.0   150.0   33.333333333333336
250.0   120.0   50.0
300.0   120.0   33.333333333333336
300.0   150.0   33.333333333333336
250.0   150.0   33.333333333333336
300.0   150.0   50.0
250.0   120.0   50.0
250.0   150.0   50.0
300.0   150.0   50.0
250.0   150.0   33.333333333333336
250.0   120.0   50.0
300.0   150.0   50.0
300.0   120.0   50.0
300.0   120.0   33.333333333333336
250.0   120.0   50.0
300.0   150.0   50.0
300.0   120.0   33.333333333333336
250.0   150.0   33.333333333333336
300.0   0.0   0.0
350.0   0.0   0.0
300.0   30.0   0.0
300.0   0.0   16.666666666666668
350.0   0.0   0.0
350.0   30.0   0.0
300.0   30.0   0.0
350.0   30.0   16.666666666666668
300.0   0.0   16.666666666666668
300.0   30.0   16.666666666666668
350.0   30.0   16.666666666666668
300.0   30.0   0.0
300.0   0.0   16.666666666666668
350.0   30.0   16.666666666666668
350.0   0.0   16.666666666666668
350.0   0.0   0.0
300.0   0.0   16.666666666666668
350.0   30.0   16.666666666666668
350.0   0.0   0.0
300.0   30.0   0.0
300.0   0.0   16.666666666666668
350.0   0.0   16.666666666666668
300.0   30.0   16.666666666666668
300.0   0.0   33.333333333333336
350.0   0.0   16.666666666666668
350.0   30.0   16.666666666666668
300.0   30.0   16.666666666666668
350.0   30.0   33.333333333333336
300.0   0.0   33.333333333333336
300.0   30.0   33.333333333333336
350.0   30.0   33.333333333333336
300.0   30.0   16.666666666666668
300.0   0.0   33.333333333333336
350.0   30.0   33.333333333333336
350.0   0.0   33.333333333333336
350.0   0.0   16.666666666666668
300.0   0.0   33.333333333333336
350.0   30.0   33.333333333333336
350.0   0.0   16.666666666666668
300.0   30.0   16.666666666666668
300.0   0.0   33.333333333333336
350.0   0.0   33.333333333333336
300.0   30.0   33.333333333333336
300.0   0.0   50.0
350.0   0.0   33.333333333333336
350.0   30.0   33.333333333333336
300.0   30.0   33.333333333333336
350.0   30.0   50.0
300.0   0.0   50.0
300.0   30.0   50.0
350.0   30.0   50.0
300.0   30.0   33.333333333333336
300.0   0.0   50.0
350.0   30.0   50.0
350.0   0.0   50.0
350.0   0.0   33.333333333333336
300.0   0.0   50.0
350.0   30.0   50.0
350.0   0.0   33.333333333333336
300.0   30.0   33.333333333333336
300.0   30.0   0.0
350.0   30.0   0.0
300.0   60.0   0.0
300.0   30.0   16.666666666666668
350.0   30.0   0.0
350.0   60.0   0.0
300.0   60.0   0.0
350.0   60.0   16.666666666666668
300.0   30.0   16.666666666666668
300.0   60.0   16.666666666666668
350.0   60.0   16.666666666666668
300.0   60.0   0.0
300.0   30.0   16.666666666666668
350.0   60.0   16.666666666666668
350.0   30.0   16.666666666666668
350.0   30.0   0.0
300.0   30.0   16.666666666666668
350.0   60.0   16.666666666666668
350.0   30.0   0.0
300.0   60.0   0.0
300.0   30.0   16.666666666666668
350.0   30.0   16.666666666666668
300.0   60.0   16.666666666666668
300.0   30.0   33.333333333333336
350.0   30.0   16.666666666666668
350.0   60.0   16.666666666666668
300.0   60.0   16.666666666666668
350.0   60.0   33.333333333333336
300.0   30.0   33.333333333333336
300.0   60.0   33.333333333333336
350.0   60.0   33.333333333333336
300.0   60.0   16.666666666666668
300.0   30.0   33.333333333333336
350.0   60.0   33.333333333333336
350.0   30.0   33.333333333333336
350.0   30.0   16.666666666666668
300.0   30.0   33.333333333333336
350.0   60.0   33.333333333333336
350.0   30.0   16.666666666666668
300.0   60.0   16.666666666666668
300.0   30.0   33.333333333333336
350.0   30.0   33.333333333333336
300.0   60.0   33.333333333333336
300.0   30.0   50.0
350.0   30.0   33.333333333333336
350.0   60.0   33.333333333333336
300.0   60.0   33.333333333333336
350.0   60.0   50.0
300.0   30.0   50.0
300.0   60.0   50.0
350.0   60.0   50.0
300.0   60.0   33.333333333333336
300.0   30.0   50.0
350.0   60.0   50.0
350.0   30.0   50.0
350.0   30.0   33.333333333333336
300.0   30.0   50.0
350.0   60.0   50.0
350.0   30.0   33.333333333333336
300.0   60.0   33.333333333333336
300.0   60.0   0.0
350.0   60.0   0.0
300.0   90.0   0.0
300.0   60.0   16.666666666666668
350.0   60.0   0.0
350.0   90.0   0.0
300.0   90.0   0.0
350.0   90.0   16.666666666666668
300.0   60.0   16.666666666666668
300.0   90.0   16.666666666666668
350.0   90.0   16.666666666666668
300.0   90.0   0.0
300.0   60.0   16.666666666666668
350.0   90.0   16.666666666666668
350.0   60.0   16.666666666666668
350.0   60.0   0.0
300.0   60.0   16.666666666666668
350.0   90.0   16.666666666666668
350.0   60.0   0.0
300.0   90.0   0.0
300.0   60.0   16.666666666666668
350.0   60.0   16.666666666666668
300.0   90.0   16.666666666666668
300.0   60.0   33.333333333333336
350.0   60.0   16.666666666666668
350.0   90.0   16.666666666666668
300.0   90.0   16.666666666666668
350.0   90.0   33.333333333333336
300.0   60.0   33.333333333333336
300.0   90.0   33.333333333333336
350.0   90.0   33.333333333333336
300.0   90.0   16.666666666666668
300.0   60.0   33.333333333333336
350.0   90.0   33.333333333333336
350.0   60.0   33.333333333333336
350.0   60.0   16.666666666666668
300.0   60.0   33.333333333333336
350.0   90.0   33.333333333333336
350.0   60.0   16.666666666666668
300.0   90.0   16.666666666666668
300.0   60.0   33.333333333333336
350.0   60.0   33.333333333333336
300.0   90.0   33.333333333333336
300.0   60.0   50.0
350.0   60.0   33.333333333333336
350.0   90.0   33.333333333333336
300.0   90.0   33.333333333333336
350.0   90.0   50.0
300.0   60.0   50.0
300.0   90.0   50.0
350.0   90.0   50.0
300.0   90.0   33.333333333333336
300.0   60.0   50.0
350.0   90.0   50.0
350.0   60.0   50.0
350.0   60.0   33.333333333333336
300.0   60.0   50.0
350.0   90.0   50.0
350.0   60.0   33.333333333333336
300.0   90.0   33.333333333333336
300.0   90.0   0.0
350.0   90.0   0.0
300.0   120.0   0.0
300.0   90.0   16.666666666666668
350.0   90.0   0.0
350.0   120.0   0.0
300.0   120.0   0.0
350.0   120.0   16.666666666666668
300.0   90.0   16.666666666666668
300.0   120.0   16.666666666666668
350.0   120.0   16.666666666666668
300.0   120.0   0.0
300.0   90.0   16.666666666666668
350.0   120.0   16.666666666666668
350.0   90.0   16.666666666666668
350.0   90.0   0.0
300.0   90.0   16.666666666666668
350.0   120.0   16.666666666666668
350.0   90.0   0.0
300.0   120.0   0.0
300.0   90.0   16.666666666666668
350.0   90.0   16.666666666666668
300.0   120.0   16.666666666666668
300.0   90.0   33.333333333333336
350.0   90.0   16.666666666666668
350.0   120.0   16.666666666666668
300.0   120.0   16.666666666666668
350.0   120.0   33.333333333333336
300.0   90.0   33.333333333333336
300.0   120.0   33.333333333333336
350.0   120.0   33.333333333333336
300.0   120.0   16.666666666666668
300.0   90.0   33.333333333333336
350.0   120.0   33.333333333333336
350.0   90.0   33.333333333333336
350.0   90.0   16.666666666666668
300.0   90.0   33.333333333333336
350.0   120.0   33.333333333333336
350.0   90.0   16.666666666666668
300.0   120.0   16.666666666666668
300.0   90.0   33.333333333333336
350.0   90.0   33.333333333333336
300.0   120.0   33.333333333333336
300.0   90.0   50.0
350.0   90.0   33.333333333333336
350.0   120.0   33.333333333333336
300.0   120.0   33.333333333333336
350.0   120.0   50.0
300.0   90.0   50.0
300.0   120.0   50.0
350.0   120.0   50.0
300.0   120.0   33.333333333333336
300.0   90.0   50.0
350.0   120.0   50.0
350.0   90.0   50.0
350.0   90.0   33.333333333333336
300.0   90.0   50.0
350.0   120.0   50.0
350.0   90.0   33.333333333333336
300.0   120.0   33.333333333333336
300.0   120.0   0.0
350.0   120.0   0.0
300.0   150.0   0.0
300.0   120.0   16.666666666666668
350.0   120.0   0.0
350.0   150.0   0.0
300.0   150.0   0.0
350.0   150.0   16.666666666666668
300.0   120.0   16.666666666666668
300.0   150.0   16.666666666666668
350.0   150.0   16.666666666666668
300.0   150.0   0.0
300.0   120.0   16.666666666666668
350.0   150.0   16.666666666666668
350.0   120.0   16.666666666666668
350.0   120.0   0.0
300.0   120.0   16.666666666666668
350.0   150.0   16.666666666666668
350.0   120.0   0.0
300.0   150.0   0.0
300.0   120.0   16.666666666666668
350.0   120.0   16.666666666666668
300.0   150.0   16.666666666666668
300.0   120.0   33.333333333333336
350.0   120.0   16.666666666666668
350.0   150.0   16.666666666666668
300.0   150.0   16.666666666666668
350.0   150.0   33.333333333333336
300.0   120.0   33.333333333333336
300.0   150.0   33.333333333333336
350.0   150.0   33.333333333333336
300.0   150.0   16.666666666666668
300.0   120.0   33.333333333333336
350.0   150.0   33.333333333333336
350.0   120.0   33.333333333333336
350.0   120.0   16.666666666666668
300.0   120.0   33.333333333333336
350.0   150.0   33.333333333333336
350.0   120.0   16.666666666666668
300.0   150.0   16.666666666666668
300.0   120.0   33.333333333333336
350.0   120.0   33.333333333333336
300.0   150.0   33.333333333333336
300.0   120.0   50.0
350.0   120.0   33.333333333333336
350.0   150.0   33.333333333333336
300.0   150.0   33.333333333333336
350.0   150.0   50.0
300.0   120.0   50.0
300.0   150.0   50.0
350.0   150.0   50.0
300.0   150.0   33.333333333333336
300.0   120.0   50.0
350.0   150.0   50.0
350.0   120.0   50.0
350.0   120.0   33.333333333333336
300.0   120.0   50.0
350.0   150.0   50.0
350.0   120.0   33.333333333333336
300.0   150.0   33.333333333333336
350.0   0.0   0.0
400.0   0.0   0.0
350.0   30.0   0.0
350.0   0.0   16.666666666666668
400.0   0.0   0.0
400.0   30.0   0.0
350.0   30.0   0.0
400.0   30.0   16.666666666666668
350.0   0.0   16.666666666666668
350.0   30.0   16.666666666666668
400.0   30.0   16.666666666666668
350.0   30.0   0.0
350.0   0.0   16.666666666666668
400.0   30.0   16.666666666666668
400.0   0.0   16.666666666666668
400.0   0.0   0.0
350.0   0.0   16.666666666666668
400.0   30.0   16.666666666666668
400.0   0.0   0.0
350.0   30.0   0.0
350.0   0.0   16.666666666666668
400.0   0.0   16.666666666666668
350.0   30.0   16.666666666666668
350.0   0.0   33.333333333333336
400.0   0.0   16.666666666666668
400.0   30.0   16.666666666666668
350.0   30.0   16.666666666666668
400.0   30.0   33.333333333333336
350.0   0.0   33.333333333333336
350.0   30.0   33.333333333333336
400.0   30.0   33.333333333333336
350.0   30.0   16.666666666666668
350.0   0.0   33.333333333333336
400.0   30.0   33.333333333333336
400.0   0.0   33.333333333333336
400.0   0.0   16.666666666666668
350.0   0.0   33.333333333333336
400.0   30.0   33.333333333333336
400.0   0.0   16.666666666666668
350.0   30.0   16.666666666666668
350.0   0.0   33.333333333333336
400.0   0.0   33.333333333333336
350.0   30.0   33.333333333333336
350.0   0.0   50.0
400.0   0.0   33.333333333333336
400.0   30.0   33.333333333333336
350.0   30.0   33.333333333333336
400.0   30.0   50.0
350.0   0.0   50.0
350.0   30.0   50.0
400.0   30.0   50.0
350.0   30.0   33.333333333333336
350.0   0.0   50.0
400.0   30.0   50.0
400.0   0.0   50.0
400.0   0.0   33.333333333333336
350.0   0.0   50.0
400.0   30.0   50.0
400.0   0.0   33.333333333333336
350.0   30.0   33.333333333333336
350.0   30.0   0.0
400.0   30.0   0.0
350.0   60.0   0.0
350.0   30.0   16.666666666666668
400.0   30.0   0.0
400.0   60.0   0.0
350.0   60.0   0.0
400.0   60.0   16.666666666666668
350.0   30.0   16.666666666666668
350.0   60.0   16.666666666666668
400.0   60.0   16.666666666666668
350.0   60.0   0.0
350.0   30.0   16.666666666666668
400.0   60.0   16.666666666666668
400.0   30.0   16.666666666666668
400.0   30.0   0.0
350.0   30.0   16.666666666666668
400.0   60.0   16.666666666666668
400.0   30.0   0.0
350.0   60.0   0.0
350.0   30.0   16.666666666666668
400.0   30.0   16.666666666666668
350.0   60.0   16.666666666666668
350.0   30.0   33.333333333333336
400.0   30.0   16.666666666666668
400.0   60.0   16.666666666666668
350.0   60.0   16.666666666666668
400.0   60.0   33.333333333333336
350.0   30.0   33.333333333333336
350.0   60.0   33.333333333333336
400.0   60.0   33.333333333333336
350.0   60.0   16.666666666666668
350.0   30.0   33.333333333333336
400.0   60.0   33.333333333333336
400.0   30.0   33.333333333333336
400.0   30.0   16.666666666666668
350.0   30.0   33.333333333333336
400.0   60.0   33.333333333333336
400.0   30.0   16.666666666666668
350.0   60.0   16.666666666666668
350.0   30.0   33.333333333333336
400.0   30.0   33.333333333333336
350.0   60.0   33.333333333333336
350.0   30.0   50.0
400.0   30.0   33.333333333333336
400.0   60.0   33.333333333333336
350.0   60.0   33.333333333333336
400.0   60.0   50.0
350.0   30.0   50.0
350.0   60.0   50.0
400.0   60.0   50.0
350.0   60.0   33.333333333333336
350.0   30.0   50.0
400.0   60.0   50.0
400.0   30.0   50.0
400.0   30.0   33.333333333333336
350.0   30.0   50.0
400.0   60.0   50.0
400.0   30.0   33.333333333333336
350.0   60.0   33.333333333333336
350.0   60.0   0.0
400.0   60.0   0.0
350.0   90.0   0.0
350.0   60.0   16.666666666666668
400.0   60.0   0.0
400.0   90.0   0.0
350.0   90.0   0.0
400.0   90.0   16.666666666666668
350.0   60.0   16.666666666666668
350.0   90.0   16.666666666666668
400.0   90.0   16.666666666666668
350.0   90.0   0.0
350.0   60.0   16.666666666666668
400.0   90.0   16.666666666666668
400.0   60.0   16.666666666666668
400.0   60.0   0.0
350.0   60.0   16.666666666666668
400.0   90.0   16.666666666666668
400.0   60.0   0.0
350.0   90.0   0.0
350.0   60.0   16.666666666666668
400.0   60.0   16.666666666666668
350.0   90.0   16.666666666666668
350.0   60.0   33.333333333333336
400.0   60.0   16.666666666666668
400.0   90.0   16.666666666666668
350.0   90.0   16.666666666666668
400.0   90.0   33.333333333333336
350.0   60.0   33.333333333333336
350.0   90.0   33.333333333333336
400.0   90.0   33.333333333333336
350.0   90.0   16.666666666666668
350.0   60.0   33.333333333333336
400.0   90.0   33.333333333333336
400.0   60.0   33.333333333333336
400.0   60.0   16.666666666666668
350.0   60.0   33.333333333333336
400.0   90.0   33.333333333333336
400.0   60.0   16.666666666666668
350.0   90.0   16.666666666666668
350.0   60.0   33.333333333333336
400.0   60.0   33.333333333333336
350.0   90.0   33.333333333333336
350.0   60.0   50.0
400.0   60.0   33.333333333333336
400.0   90.0   33.333333333333336
350.0   90.0   33.333333333333336
400.0   90.0   50.0
350.0   60.0   50.0
350.0   90.0   50.0
400.0   90.0   50.0
350.0   90.0   33.333333333333336
350.0   60.0   50.0
400.0   90.0   50.0
400.0   60.0   50.0
400.0   60.0   33.333333333333336
350.0   60.0   50.0
400.0   90.0   50.0
400.0   60.0   33.333333333333336
350.0   90.0   33.333333333333336
350.0   90.0   0.0
400.0   90.0   0.0
350.0   120.0   0.0
350.0   90.0   16.666666666666668
400.0   90.0   0.0
400.0   120.0   0.0
350.0   120.0   0.0
400.0   120.0   16.666666666666668
350.0   90.0   16.666666666666668
350.0   120.0   16.666666666666668
400.0   120.0   16.666666666666668
350.0   120.0   0.0
350.0   90.0   16.666666666666668
400.0   120.0   16.666666666666668
400.0   90.0   16.666666666666668
400.0   90.0   0.0
350.0   90.0   16.666666666666668
400.0   120.0   16.666666666666668
400.0   90.0   0.0
350.0   120.0   0.0
350.0   90.0   16.666666666666668
400.0   90.0   16.666666666666668
350.0   120.0   16.666666666666668
350.0   90.0   33.333333333333336
400.0   90.0   16.666666666666668
400.0   120.0   16.666666666666668
350.0   120.0   16.666666666666668
400.0   120.0   33.333333333333336
350.0   90.0   33.333333333333336
350.0   120.0   33.333333333333336
400.0   120.0   33.333333333333336
350.0   120.0   16.666666666666668
350.0   90.0   33.333333333333336
400.0   120.0   33.333333333333336
400.0   90.0   33.333333333333336
400.0   90.0   16.666666666666668
350.0   90.0   33.333333333333336
400.0   120.0   33.333333333333336
400.0   90.0   16.666666666666668
350.0   120.0   16.666666666666668
350.0   90.0   33.333333333333336
400.0   90.0   33.333333333333336
350.0   120.0   33.333333333333336
350.0   90.0   50.0
400.0   90.0   33.333333333333336
400.0   120.0   33.333333333333336
350.0   120.0   33.333333333333336
400.0   120.0   50.0
350.0   90.0   50.0
350.0   120.0   50.0
400.0   120.0   50.0
350.0   120.0   33.333333333333336
350.0   90.0   50.0
400.0   120.0   50.0
400.0   90.0   50.0
400.0   90.0   33.333333333333336
350.0   90.0   50.0
400.0   120.0   50.0
400.0   90.0   33.333333333333336
350.0   120.0   33.333333333333336
350.0   120.0   0.0
400.0   120.0   0.0
350.0   150.0   0.0
350.0   120.0   16.666666666666668
400.0   120.0   0.0
400.0   150.0   0.0
350.0   150.0   0.0
400.0   150.0   16.666666666666668
350.0   120.0   16.666666666666668
350.0   150.0   16.666666666666668
400.0   150.0   16.666666666666668
350.0   150.0   0.0
350.0   120.0   16.666666666666668
400.0   150.0   16.666666666666668
400.0   120.0   16.666666666666668
400.0   120.0   0.0
350.0   120.0   16.666666666666668
400.0   150.0   16.666666666666668
400.0   120.0   0.0
350.0   150.0   0.0
350.0   120.0   16.666666666666668
400.0   120.0   16.666666666666668
350.0   150.0   16.666666666666668
350.0   120.0   33.333333333333336
400.0   120.0   16.666666666666668
400.0   150.0   16.666666666666668
350.0   150.0   16.666666666666668
400.0   150.0   33.333333333333336
350.0   120.0   33.333333333333336
350.0   150.0   33.333333333333336
400.0   150.0   33.333333333333336
350.0   150.0   16.666666666666668
350.0   120.0   33.333333333333336
400.0   150.0   33.333333333333336
400.0   120.0   33.333333333333336
400.0   120.0   16.666666666666668
350.0   120.0   33.333333333333336
400.0   150.0   33.333333333333336
400.0   120.0   16.666666666666668
350.0   150.0   16.666666666666668
350.0   120.0   33.333333333333336
400.0   120.0   33.333333333333336
350.0   150.0   33.333333333333336
350.0   120.0   50.0
400.0   120.0   33.333333333333336
400.0   150.0   33.333333333333336
350.0   150.0   33.333333333333336
400.0   150.0   50.0
350.0   120.0   50.0
350.0   150.0   50.0
400.0   150.0   50.0
350.0   150.0   33.333333333333336
350.0   120.0   50.0
400.0   150.0   50.0
400.0   120.0   50.0
400.0   120.0   33.333333333333336
350.0   120.0   50.0
400.0   150.0   50.0
400.0   120.0   33.333333333333336
350.0   150.0   33.333333333333336
400.0   0.0   0.0
450.0   0.0   0.0
400.0   30.0   0.0
400.0   0.0   16.666666666666668
450.0   0.0   0.0
450.0   30.0   0.0
400.0   30.0   0.0
450.0   30.0   16.666666666666668
400.0   0.0   16.666666666666668
400.0   30.0   16.666666666666668
450.0   30.0   16.666666666666668
400.0   30.0   0.0
400.0   0.0   16.666666666666668
450.0   30.0   16.666666666666668
450.0   0.0   16.666666666666668
450.0   0.0   0.0
400.0   0.0   16.666666666666668
450.0   30.0   16.666666666666668
450.0   0.0   0.0
400.0   30.0   0.0
400.0   0.0   16.666666666666668
450.0   0.0   16.666666666666668
400.0   30.0   16.666666666666668
400.0   0.0   33.333333333333336
450.0   0.0   16.666666666666668
450.0   30.0   16.666666666666668
400.0   30.0   16.666666666666668
450.0   30.0   33.333333333333336
400.0   0.0   33.333333333333336
400.0   30.0   33.333333333333336
450.0   30.0   33.333333333333336
400.0   30.0   16.666666666666668
400.0   0.0   33.333333333333336
450.0   30.0   33.333333333333336
450.0   0.0   33.333333333333336
450.0   0.0   16.666666666666668
400.0   0.0   33.333333333333336
450.0   30.0   33.333333333333336
450.0   0.0   16.666666666666668
400.0   30.0   16.666666666666668
400.0   0.0   33.333333333333336
450.0   0.0   33.333333333333336
400.0   30.0   33.333333333333336
400.0   0.0   50.0
450.0   0.0   33.333333333333336
450.0   30.0   33.333333333333336
400.0   30.0   33.333333333333336
450.0   30.0   50.0
400.0   0.0   50.0
400.0   30.0   50.0
450.0   30.0   50.0
400.0   30.0   33.333333333333336
400.0   0.0   50.0
450.0   30.0   50.0
450.0   0.0   50.0
450.0   0.0   33.333333333333336
400.0   0.0   50.0
450.0   30.0   50.0
450.0   0.0   33.333333333333336
400.0   30.0   33.333333333333336
400.0   30.0   0.0
450.0   30.0   0.0
400.0   60.0   0.0
400.0   30.0   16.666666666666668
450.0   30.0   0.0
450.0   60.0   0.0
400.0   60.0   0.0
450.0   60.0   16.666666666666668
400.0   30.0   16.666666666666668
400.0   60.0   16.666666666666668
450.0   60.0   16.666666666666668
400.0   60.0   0.0
400.0   30.0   16.666666666666668
450.0   60.0   16.666666666666668
450.0   30.0   16.666666666666668
450.0   30.0   0.0
400.0   30.0   16.666666666666668
450.0   60.0   16.666666666666668
450.0   30.0   0.0
400.0   60.0   0.0
400.0   30.0   16.666666666666668
450.0   30.0   16.666666666666668
400.0   60.0   16.666666666666668
400.0   30.0   33.333333333333336
450.0   30.0   16.666666666666668
450.0   60.0   16.666666666666668
400.0   60.0   16.666666666666668
450.0   60.0   33.333333333333336
400.0   30.0   33.333333333333336
400.0   60.0   33.333333333333336
450.0   60.0   33.333333333333336
400.0   60.0   16.666666666666668
400.0   30.0   33.333333333333336
450.0   60.0   33.333333333333336
450.0   30.0   33.333333333333336
450.0   30.0   16.666666666666668
400.0   30.0   33.333333333333336
450.0   60.0   33.333333333333336
450.0   30.0   16.666666666666668
400.0   60.0   16.666666666666668
400.0   30.0   33.333333333333336
450.0   30.0   33.333333333333336
400.0   60.0   33.333333333333336
400.0   30.0   50.0
450.0   30.0   33.333333333333336
450.0   60.0   33.333333333333336
400.0   60.0   33.333333333333336
450.0   60.0   50.0
400.0   30.0   50.0
400.0   60.0   50.0
450.0   60.0   50.0
400.0   60.0   33.333333333333336
400.0   30.0   50.0
450.0   60.0   50.0
450.0   30.0   50.0
450.0   30.0   33.333333333333336
400.0   30.0   50.0
450.0   60.0   50.0
450.0   30.0   33.333333333333336
400.0   60.0   33.333333333333336
400.0   60.0   0.0
450.0   60.0   0.0
400.0   90.0   0.0
400.0   60.0   16.666666666666668
450.0   60.0   0.0
450.0   90.0   0.0
400.0   90.0   0.0
450.0   90.0   16.666666666666668
400.0   60.0   16.666666666666668
400.0   90.0   16.666666666666668
450.0   90.0   16.666666666666668
400.0   90.0   0.0
400.0   60.0   16.666666666666668
450.0   90.0   16.666666666666668
450.0   60.0   16.666666666666668
450.0   60.0   0.0
400.0   60.0   16.666666666666668
450.0   90.0   16.666666666666668
450.0   60.0   0.0
400.0   90.0   0.0
400.0   60.0   16.666666666666668
450.0   60.0   16.666666666666668
400.0   90.0   16.666666666666668
400.0   60.0   33.333333333333336
450.0   60.0   16.666666666666668
450.0   90.0   16.666666666666668
400.0   90.0   16.666666666666668
450.0   90.0   33.333333333333336
400.0   60.0   33.333333333333336
400.0   90.0   33.333333333333336
450.0   90.0   33.333333333333336
400.0   90.0   16.666666666666668
400.0   60.0   33.333333333333336
450.0   90.0   33.333333333333336
450.0   60.0   33.333333333333336
450.0   60.0   16.666666666666668
400.0   60.0   33.333333333333336
450.0   90.0   33.333333333333336
450.0   60.0   16.666666666666668
400.0   90.0   16.666666666666668
400.0   60.0   33.333333333333336
450.0   60.0   33.333333333333336
400.0   90.0   33.333333333333336
400.0   60.0   50.0
450.0   60.0   33.333333333333336
450.0   90.0   33.333333333333336
400.0   90.0   33.333333333333336
450.0   90.0   50.0
400.0   60.0   50.0
400.0   90.0   50.0
450.0   90.0   50.0
400.0   90.0   33.333333333333336
400.0   60.0   50.0
450.0   90.0   50.0
450.0   60.0   50.0
450.0   60.0   33.333333333333336
400.0   60.0   50.0
450.0   90.0   50.0
450.0   60.0   33.333333333333336
400.0   90.0   33.333333333333336
400.0   90.0   0.0
450.0   90.0   0.0
400.0   120.0   0.0
400.0   90.0   16.666666666666668
450.0   90.0   0.0
450.0   120.0   0.0
400.0   120.0   0.0
450.0   120.0   16.666666666666668
400.0   90.0   16.666666666666668
400.0   120.0   16.666666666666668
450.0   120.0   16.666666666666668
400.0   120.0   0.0
400.0   90.0   16.666666666666668
450.0   120.0   16.666666666666668
450.0   90.0   16.666666666666668
450.0   90.0   0.0
400.0   90.0   16.666666666666668
450.0   120.0   16.666666666666668
450.0   90.0   0.0
400.0   120.0   0.0
400.0   90.0   16.666666666666668
450.0   90.0   16.666666666666668
400.0   120.0   16.666666666666668
400.0   90.0   33.333333333333336
450.0   90.0   16.666666666666668
450.0   120.0   16.666666666666668
400.0   120.0   16.666666666666668
450.0   120.0   33.333333333333336
400.0   90.0   33.333333333333336
400.0   120.0   33.333333333333336
450.0   120.0   33.333333333333336
400.0   120.0   16.666666666666668
400.0   90.0   33.333333333333336
450.0   120.0   33.333333333333336
450.0   90.0   33.333333333333336
450.0   90.0   16.666666666666668
400.0   90.0   33.333333333333336
450.0   120.0   33.333333333333336
450.0   90.0   16.666666666666668
400.0   120.0   16.666666666666668
400.0   90.0   33.333333333333336
450.0   90.0   33.333333333333336
400.0   120.0   33.333333333333336
400.0   90.0   50.0
450.0   90.0   33.333333333333336
450.0   120.0   33.333333333333336
400.0   120.0   33.333333333333336
450.0   120.0   50.0
400.0   90.0   50.0
400.0   120.0   50.0
450.0   120.0   50.0
400.0   120.0   33.333333333333336
400.0   90.0   50.0
450.0   120.0   50.0
450.0   90.0   50.0
450.0   90.0   33.333333333333336
400.0   90.0   50.0
450.0   120.0   50.0
450.0   90.0   33.333333333333336
400.0   120.0   33.333333333333336
400.0   120.0   0.0
450.0   120.0   0.0
400.0   150.0   0.0
400.0   120.0   16.666666666666668
450.0   120.0   0.0
450.0   150.0   0.0
400.0   150.0   0.0
450.0   150.0   16.666666666666668
400.0   120.0   16.666666666666668
400.0   150.0   16.666666666666668
450.0   150.0   16.666666666666668
400.0   150.0   0.0
400.0   120.0   16.666666666666668
450.0   150.0   16.666666666666668
450.0   120.0   16.666666666666668
450.0   120.0   0.0
400.0   120.0   16.666666666666668
450.0   150.0   16.666666666666668
450.0   120.0   0.0
400.0   150.0   0.0
400.0   120.0   16.666666666666668
450.0   120.0   16.666666666666668
400.0   150.0   16.666666666666668
400.0   120.0   33.333333333333336
450.0   120.0   16.666666666666668
450.0   150.0   16.666666666666668
400.0   150.0   16.666666666666668
450.0   150.0   33.333333333333336
400.0   120.0   33.333333333333336
400.0   150.0   33.333333333333336
450.0   150.0   33.333333333333336
400.0   150.0   16.666666666666668
400.0   120.0   33.333333333333336
450.0   150.0   33.333333333333336
450.0   120.0   33.333333333333336
450.0   120.0   16.666666666666668
400.0   120.0   33.333333333333336
450.0   150.0   33.333333333333336
450.0   120.0   16.666666666666668
400.0   150.0   16.666666666666668
400.0   120.0   33.333333333333336
450.0   120.0   33.333333333333336
400.0   150.0   33.333333333333336
400.0   120.0   50.0
450.0   120.0   33.333333333333336
450.0   150.0   33.333333333333336
400.0   150.0   33.333333333333336
450.0   150.0   50.0
400.0   120.0   50.0
400.0   150.0   50.0
450.0   150.0   50.0
400.0   150.0   33.333333333333336
400.0   120.0   50.0
450.0   150.0   50.0
450.0   120.0   50.0
450.0   120.0   33.333333333333336
400.0   120.0   50.0
450.0   150.0   50.0
450.0   120.0   33.333333333333336
400.0   150.0   33.333333333333336
450.0   0.0   0.0
500.0   0.0   0.0
450.0   30.0   0.0
450.0   0.0   16.666666666666668
500.0   0.0   0.0
500.0   30.0   0.0
450.0   30.0   0.0
500.0   30.0   16.666666666666668
450.0   0.0   16.666666666666668
450.0   30.0   16.666666666666668
500.0   30.0   16.666666666666668
450.0   30.0   0.0
450.0   0.0   16.666666666666668
500.0   30.0   16.666666666666668
500.0   0.0   16.666666666666668
500.0   0.0   0.0
450.0   0.0   16.666666666666668
500.0   30.0   16.666666666666668
500.0   0.0   0.0
450.0   30.0   0.0
450.0   0.0   16.666666666666668
500.0   0.0   16.666666666666668
450.0   30.0   16.666666666666668
450.0   0.0   33.333333333333336
500.0   0.0   16.666666666666668
500.0   30.0   16.666666666666668
450.0   30.0   16.666666666666668
500.0   30.0   33.333333333333336
450.0   0.0   33.333333333333336
450.0   30.0   33.333333333333336
500.0   30.0   33.333333333333336
450.0   30.0   16.666666666666668
450.0   0.0   33.333333333333336
500.0   30.0   33.333333333333336
500.0   0.0   33.333333333333336
500.0   0.0   16.666666666666668
450.0   0.0   33.333333333333336
500.0   30.0   33.333333333333336
500.0   0.0   16.666666666666668
450.0   30.0   16.666666666666668
450.0   0.0   33.333333333333336
500.0   0.0   33.333333333333336
450.0   30.0   33.333333333333336
450.0   0.0   50.0
500.0   0.0   33.333333333333336
500.0   30.0   33.333333333333336
450.0   30.0   33.333333333333336
500.0   30.0   50.0
450.0   0.0   50.0
450.0   30.0   50.0
500.0   30.0   50.0
450.0   30.0   33.333333333333336
450.0   0.0   50.0
500.0   30.0   50.0
500.0   0.0   50.0
500.0   0.0   33.333333333333336
450.0   0.0   50.0
500.0   30.0   50.0
500.0   0.0   33.333333333333336
450.0   30.0   33.333333333333336
450.0   30.0   0.0
500.0   30.0   0.0
450.0   60.0   0.0
450.0   30.0   16.666666666666668
500.0   30.0   0.0
500.0   60.0   0.0
450.0   60.0   0.0
500.0   60.0   16.666666666666668
450.0   30.0   16.666666666666668
450.0   60.0   16.666666666666668
500.0   60.0   16.666666666666668
450.0   60.0   0.0
450.0   30.0   16.666666666666668
500.0   60.0   16.666666666666668
500.0   30.0   16.666666666666668
500.0   30.0   0.0
450.0   30.0   16.666666666666668
500.0   60.0   16.666666666666668
500.0   30.0   0.0
450.0   60.0   0.0
450.0   30.0   16.666666666666668
500.0   30.0   16.666666666666668
450.0   60.0   16.666666666666668
450.0   30.0   33.333333333333336
500.0   30.0   16.666666666666668
500.0   60.0   16.666666666666668
450.0   60.0   16.666666666666668
500.0   60.0   33.333333333333336
450.0   30.0   33.333333333333336
450.0   60.0   33.333333333333336
500.0   60.0   33.333333333333336
450.0   60.0   16.666666666666668
450.0   30.0   33.333333333333336
500.0   60.0   33.333333333333336
500.0   30.0   33.333333333333336
500.0   30.0   16.666666666666668
450.0   30.0   33.333333333333336
500.0   60.0   33.333333333333336
500.0   30.0   16.666666666666668
450.0   60.0   16.666666666666668
450.0   30.0   33.333333333333336
500.0   30.0   33.333333333333336
450.0   60.0   33.333333333333336
450.0   30.0   50.0
500.0   30.0   33.333333333333336
500.0   60.0   33.333333333333336
450.0   60.0   33.333333333333336
500.0   60.0   50.0
450.0   30.0   50.0
450.0   60.0   50.0
500.0   60.0   50.0
450.0   60.0   33.333333333333336
450.0   30.0   50.0
500.0   60.0   50.0
500.0   30.0   50.0
500.0   30.0   33.333333333333336
450.0   30.0   50.0
500.0   60.0   50.0
500.0   30.0   33.333333333333336
450.0   60.0   33.333333333333336
450.0   60.0   0.0
500.0   60.0   0.0
450.0   90.0   0.0
450.0   60.0   16.666666666666668
500.0   60.0   0.0
500.0   90.0   0.0
450.0   90.0   0.0
500.0   90.0   16.666666666666668
450.0   60.0   16.666666666666668
450.0   90.0   16.666666666666668
500.0   90.0   16.666666666666668
450.0   90.0   0.0
450.0   60.0   16.666666666666668
500.0   90.0   16.666666666666668
500.0   60.0   16.666666666666668
500.0   60.0   0.0
450.0   60.0   16.666666666666668
500.0   90.0   16.666666666666668
500.0   60.0   0.0
450.0   90.0   0.0
450.0   60.0   16.666666666666668
500.0   60.0   16.666666666666668
450.0   90.0   16.666666666666668
450.0   60.0   33.333333333333336
500.0   60.0   16.666666666666668
500.0   90.0   16.666666666666668
450.0   90.0   16.666666666666668
500.0   90.0   33.333333333333336
450.0   60.0   33.333333333333336
450.0   90.0   33.333333333333336
500.0   90.0   33.333333333333336
450.0   90.0   16.666666666666668
450.0   60.0   33.333333333333336
500.0   90.0   33.333333333333336
500.0   60.0   33.333333333333336
500.0   60.0   16.666666666666668
450.0   60.0   33.333333333333336
500.0   90.0   33.333333333333336
500.0   60.0   16.666666666666668
450.0   90.0   16.666666666666668
450.0   60.0   33.333333333333336
500.0   60.0   33.333333333333336
450.0   90.0   33.333333333333336
450.0   60.0   50.0
500.0   60.0   33.333333333333336
500.0   90.0   33.333333333333336
450.0   90.0   33.333333333333336
500.0   90.0   50.0
450.0   60.0   50.0
450.0   90.0   50.0
500.0   90.0   50.0
450.0   90.0   33.333333333333336
450.0   60.0   50.0
500.0   90.0   50.0
500.0   60.0   50.0
500.0   60.0   33.333333333333336
450.0   60.0   50.0
500.0   90.0   50.0
500.0   60.0   33.333333333333336
450.0   90.0   33.333333333333336
450.0   90.0   0.0
500.0   90.0   0.0
450.0   120.0   0.0
450.0   90.0   16.666666666666668
500.0   90.0   0.0
500.0   120.0   0.0
450.0   120.0   0.0
500.0   120.0   16.666666666666668
450.0   90.0   16.666666666666668
450.0   120.0   16.666666666666668
500.0   120.0   16.666666666666668
450.0   120.0   0.0
450.0   90.0   16.666666666666668
500.0   120.0   16.666666666666668
500.0   90.0   16.666666666666668
500.0   90.0   0.0
450.0   90.0   16.666666666666668
500.0   120.0   16.666666666666668
500.0   90.0   0.0
450.0   120.0   0.0
450.0   90.0   16.666666666666668
500.0   90.0   16.666666666666668
450.0   120.0   16.666666666666668
450.0   90.0   33.333333333333336
500.0   90.0   16.666666666666668
500.0   120.0   16.666666666666668
450.0   120.0   16.666666666666668
500.0   120.0   33.333333333333336
450.0   90.0   33.333333333333336
450.0   120.0   33.333333333333336
500.0   120.0   33.333333333333336
450.0   120.0   16.666666666666668
450.0   90.0   33.333333333333336
500.0   120.0   33.333333333333336
500.0   90.0   33.333333333333336
500.0   90.0   16.666666666666668
450.0   90.0   33.333333333333336
500.0   120.0   33.333333333333336
500.0   90.0   16.666666666666668
450.0   120.0   16.666666666666668
450.0   90.0   33.333333333333336
500.0   90.0   33.333333333333336
450.0   120.0   33.333333333333336
450.0   90.0   50.0
500.0   90.0   33.333333333333336
500.0   120.0   33.333333333333336
450.0   120.0   33.333333333333336
500.0   120.0   50.0
450.0   90.0   50.0
450.0   120.0   50.0
500.0   120.0   50.0
450.0   120.0   33.333333333333336
450.0   90.0   50.0
500.0   120.0   50.0
500.0   90.0   50.0
500.0   90.0   33.333333333333336
450.0   90.0   50.0
500.0   120.0   50.0
500.0   90.0   33.333333333333336
450.0   120.0   33.333333333333336
450.0   120.0   0.0
500.0   120.0   0.0
450.0   150.0   0.0
450.0   120.0   16.666666666666668
500.0   120.0   0.0
500.0   150.0   0.0
450.0   150.0   0.0
500.0   150.0   16.666666666666668
450.0   120.0   16.666666666666668
450.0   150.0   16.666666666666668
500.0   150.0   16.666666666666668
450.0   150.0   0.0
450.0   120.0   16.666666666666668
500.0   150.0   16.666666666666668
500.0   120.0   16.666666666666668
500.0   120.0   0.0
450.0   120.0   16.666666666666668
500.0   150.0   16.666666666666668
500.0   120.0   0.0
450.0   150.0   0.0
450.0   120.0   16.666666666666668
500.0   120.0   16.666666666666668
450.0   150.0   16.666666666666668
450.0   120.0   33.333333333333336
500.0   120.0   16.666666666666668
500.0   150.0   16.666666666666668
450.0   150.0   16.666666666666668
500.0   150.0   33.333333333333336
450.0   120.0   33.333333333333336
450.0   150.0   33.333333333333336
500.0   150.0   33.333333333333336
450.0   150.0   16.666666666666668
450.0   120.0   33.333333333333336
500.0   150.0   33.333333333333336
500.0   120.0   33.333333333333336
500.0   120.0   16.666666666666668
450.0   120.0   33.333333333333336
500.0   150.0   33.333333333333336
500.0   120.0   16.666666666666668
450.0   150.0   16.666666666666668
450.0   120.0   33.333333333333336
500.0   120.0   33.333333333333336
450.0   150.0   33.333333333333336
450.0   120.0   50.0
500.0   120.0   33.333333333333336
500.0   150.0   33.333333333333336
450.0   150.0   33.333333333333336
500.0   150.0   50.0
450.0   120.0   50.0
450.0   150.0   50.0
500.0   150.0   50.0
450.0   150.0   33.333333333333336
450.0   120.0   50.0
500.0   150.0   50.0
500.0   120.0   50.0
500.0   120.0   33.333333333333336
450.0   120.0   50.0
500.0   150.0   50.0
500.0   120.0   33.333333333333336
450.0   150.0   33.333333333333336
             </DataArray>   
          </Points>  
          <Cells>  
             <DataArray type="Int32" Name="connectivity" format="ascii">   
0   1   2   3
4   5   6   7
8   9   10   11
12   13   14   15
16   17   18   19
20   21   22   23
24   25   26   27
28   29   30   31
32   33   34   35
36   37   38   39
40   41   42   43
44   45   46   47
48   49   50   51
52   53   54   55
56   57   58   59
60   61   62   63
64   65   66   67
68   69   70   71
72   73   74   75
76   77   78   79
80   81   82   83
84   85   86   87
88   89   90   91
92   93   94   95
96   97   98   99
100   101   102   103
104   105   106   107
108   109   110   111
112   113   114   115
116   117   118   119
120   121   122   123
124   125   126   127
128   129   130   131
132   133   134   135
136   137   138   139
140   141   142   143
144   145   146   147
148   149   150   151
152   153   154   155
156   157   158   159
160   161   162   163
164   165   166   167
168   169   170   171
172   173   174   175
176   177   178   179
180   181   182   183
184   185   186   187
188   189   190   191
192   193   194   195
196   197   198   199
200   201   202   203
204   205   206   207
208   209   210   211
212   213   214   215
216   217   218   219
220   221   222   223
224   225   226   227
228   229   230   231
232   233   234   235
236   237   238   239
240   241   242   243
244   245   246   247
248   249   250   251
252   253   254   255
256   257   258   259
260   261   262   263
264   265   266   267
268   269   270   271
272   273   274   275
276   277   278   279
280   281   282   283
284   285   286   287
288   289   290   291
292   293   294   295
296   297   298   299
300   301   302   303
304   305   306   307
308   309   310   311
312   313   314   315
316   317   318   319
320   321   322   323
324   325   326   327
328   329   330   331
332   333   334   335
336   337   338   339
340   341   342   343
344   345   346   347
348   349   350   351
352   353   354   355
356   357   358   359
360   361   362   363
364   365   366   367
368   369   370   371
372   373   374   375
376   377   378   379
380   381   382   383
384   385   386   387
388   389   390   391
392   393   394   395
396   397   398   399
400   401   402   403
404   405   406   407
408   409   410   411
412   413   414   415
416   417   418   419
420   421   422   423
424   425   426   427
428   429   430   431
432   433   434   435
436   437   438   439
440   441   442   443
444   445   446   447
448   449   450   451
452   453   454   455
456   457   458   459
460   461   462   463
464   465   466   467
468   469   470   471
472   473   474   475
476   477   478   479
480   481   482   483
484   485   486   487
488   489   490   491
492   493   494   495
496   497   498   499
500   501   502   503
504   505   506   507
508   509   510   511
512   513   514   515
516   517   518   519
520   521   522   523
524   525   526   527
528   529   530   531
532   533   534   535
536   537   538   539
540   541   542   543
544   545   546   547
548   549   550   551
552   553   554   555
556   557   558   559
560   561   562   563
564   565   566   567
568   569   570   571
572   573   574   575
576   577   578   579
580   581   582   583
584   585   586   587
588   589   590   591
592   593   594   595
596   597   598   599
600   601   602   603
604   605   606   607
608   609   610   611
612   613   614   615
616   617   618   619
620   621   622   623
624   625   626   627
628   629   630   631
632   633   634   635
636   637   638   639
640   641   642   643
644   645   646   647
648   649   650   651
652   653   654   655
656   657   658   659
660   661   662   663
664   665   666   667
668   669   670   671
672   673   674   675
676   677   678   679
680   681   682   683
684   685   686   687
688   689   690   691
692   693   694   695
696   697   698   699
700   701   702   703
704   705   706   707
708   709   710   711
712   713   714   715
716   717   718   719
720   721   722   723
724   725   726   727
728   729   730   731
732   733   734   735
736   737   738   739
740   741   742   743
744   745   746   747
748   749   750   751
752   753   754   755
756   757   758   759
760   761   762   763
764   765   766   767
768   769   770   771
772   773   774   775
776   777   778   779
780   781   782   783
784   785   786   787
788   789   790   791
792   793   794   795
796   797   798   799
800   801   802   803
804   805   806   807
808   809   810   811
812   813   814   815
816   817   818   819
820   821   822   823
824   825   826   827
828   829   830   831
832   833   834   835
836   837   838   839
840   841   842   843
844   845   846   847
848   849   850   851
852   853   854   855
856   857   858   859
860   861   862   863
864   865   866   867
868   869   870   871
872   873   874   875
876   877   878   879
880   881   882   883
884   885   886   887
888   889   890   891
892   893   894   895
896   897   898   899
900   901   902   903
904   905   906   907
908   909   910   911
912   913   914   915
916   917   918   919
920   921   922   923
924   925   926   927
928   929   930   931
932   933   934   935
936   937   938   939
940   941   942   943
944   945   946   947
948   949   950   951
952   953   954   955
956   957   958   959
960   961   962   963
964   965   966   967
968   969   970   971
972   973   974   975
976   977   978   979
980   981   982   983
984   985   986   987
988   989   990   991
992   993   994   995
996   997   998   999
1000   1001   1002   1003
1004   1005   1006   1007
1008   1009   1010   1011
1012   1013   1014   1015
1016   1017   1018   1019
1020   1021   1022   1023
1024   1025   1026   1027
1028   1029   1030   1031
1032   1033   1034   1035
1036   1037   1038   1039
1040   1041   1042   1043
1044   1045   1046   1047
1048   1049   1050   1051
1052   1053   1054   1055
1056   1057   1058   1059
1060   1061   1062   1063
1064   1065   1066   1067
1068   1069   1070   1071
1072   1073   1074   1075
1076   1077   1078   1079
1080   1081   1082   1083
1084   1085   1086   1087
1088   1089   1090   1091
1092   1093   1094   1095
1096   1097   1098   1099
1100   1101   1102   1103
1104   1105   1106   1107
1108   1109   1110   1111
1112   1113   1114   1115
1116   1117   1118   1119
1120   1121   1122   1123
1124   1125   1126   1127
1128   1129   1130   1131
1132   1133   1134   1135
1136   1137   1138   1139
1140   1141   1142   1143
1144   1145   1146   1147
1148   1149   1150   1151
1152   1153   1154   1155
1156   1157   1158   1159
1160   1161   1162   1163
1164   1165   1166   1167
1168   1169   1170   1171
1172   1173   1174   1175
1176   1177   1178   1179
1180   1181   1182   1183
1184   1185   1186   1187
1188   1189   1190   1191
1192   1193   1194   1195
1196   1197   1198   1199
1200   1201   1202   1203
1204   1205   1206   1207
1208   1209   1210   1211
1212   1213   1214   1215
1216   1217   1218   1219
1220   1221   1222   1223
1224   1225   1226   1227
1228   1229   1230   1231
1232   1233   1234   1235
1236   1237   1238   1239
1240   1241   1242   1243
1244   1245   1246   1247
1248   1249   1250   1251
1252   1253   1254   1255
1256   1257   1258   1259
1260   1261   1262   1263
1264   1265   1266   1267
1268   1269   1270   1271
1272   1273   1274   1275
1276   1277   1278   1279
1280   1281   1282   1283
1284   1285   1286   1287
1288   1289   1290   1291
1292   1293   1294   1295
1296   1297   1298   1299
1300   1301   1302   1303
1304   1305   1306   1307
1308   1309   1310   1311
1312   1313   1314   1315
1316   1317   1318   1319
1320   1321   1322   1323
1324   1325   1326   1327
1328   1329   1330   1331
1332   1333   1334   1335
1336   1337   1338   1339
1340   1341   1342   1343
1344   1345   1346   1347
1348   1349   1350   1351
1352   1353   1354   1355
1356   1357   1358   1359
1360   1361   1362   1363
1364   1365   1366   1367
1368   1369   1370   1371
1372   1373   1374   1375
1376   1377   1378   1379
1380   1381   1382   1383
1384   1385   1386   1387
1388   1389   1390   1391
1392   1393   1394   1395
1396   1397   1398   1399
1400   1401   1402   1403
1404   1405   1406   1407
1408   1409   1410   1411
1412   1413   1414   1415
1416   1417   1418   1419
1420   1421   1422   1423
1424   1425   1426   1427
1428   1429   1430   1431
1432   1433   1434   1435
1436   1437   1438   1439
1440   1441   1442   1443
1444   1445   1446   1447
1448   1449   1450   1451
1452   1453   1454   1455
1456   1457   1458   1459
1460   1461   1462   1463
1464   1465   1466   1467
1468   1469   1470   1471
1472   1473   1474   1475
1476   1477   1478   1479
1480   1481   1482   1483
1484   1485   1486   1487
1488   1489   1490   1491
1492   1493   1494   1495
1496   1497   1498   1499
1500   1501   1502   1503
1504   1505   1506   1507
1508   1509   1510   1511
1512   1513   1514   1515
1516   1517   1518   1519
1520   1521   1522   1523
1524   1525   1526   1527
1528   1529   1530   1531
1532   1533   1534   1535
1536   1537   1538   1539
1540   1541   1542   1543
1544   1545   1546   1547
1548   1549   1550   1551
1552   1553   1554   1555
1556   1557   1558   1559
1560   1561   1562   1563
1564   1565   1566   1567
1568   1569   1570   1571
1572   1573   1574   1575
1576   1577   1578   1579
1580   1581   1582   1583
1584   1585   1586   1587
1588   1589   1590   1591
1592   1593   1594   1595
1596   1597   1598   1599
1600   1601   1602   1603
1604   1605   1606   1607
1608   1609   1610   1611
1612   1613   1614   1615
1616   1617   1618   1619
1620   1621   1622   1623
1624   1625   1626   1627
1628   1629   1630   1631
1632   1633   1634   1635
1636   1637   1638   1639
1640   1641   1642   1643
1644   1645   1646   1647
1648   1649   1650   1651
1652   1653   1654   1655
1656   1657   1658   1659
1660   1661   1662   1663
1664   1665   1666   1667
1668   1669   1670   1671
1672   1673   1674   1675
1676   1677   1678   1679
1680   1681   1682   1683
1684   1685   1686   1687
1688   1689   1690   1691
1692   1693   1694   1695
1696   1697   1698   1699
1700   1701   1702   1703
1704   1705   1706   1707
1708   1709   1710   1711
1712   1713   1714   1715
1716   1717   1718   1719
1720   1721   1722   1723
1724   1725   1726   1727
1728   1729   1730   1731
1732   1733   1734   1735
1736   1737   1738   1739
1740   1741   1742   1743
1744   1745   1746   1747
1748   1749   1750   1751
1752   1753   1754   1755
1756   1757   1758   1759
1760   1761   1762   1763
1764   1765   1766   1767
1768   1769   1770   1771
1772   1773   1774   1775
1776   1777   1778   1779
1780   1781   1782   1783
1784   1785   1786   1787
1788   1789   1790   1791
1792   1793   1794   1795
1796   1797   1798   1799
1800   1801   1802   1803
1804   1805   1806   1807
1808   1809   1810   1811
1812   1813   1814   1815
1816   1817   1818   1819
1820   1821   1822   1823
1824   1825   1826   1827
1828   1829   1830   1831
1832   1833   1834   1835
1836   1837   1838   1839
1840   1841   1842   1843
1844   1845   1846   1847
1848   1849   1850   1851
1852   1853   1854   1855
1856   1857   1858   1859
1860   1861   1862   1863
1864   1865   1866   1867
1868   1869   1870   1871
1872   1873   1874   1875
1876   1877   1878   1879
1880   1881   1882   1883
1884   1885   1886   1887
1888   1889   1890   1891
1892   1893   1894   1895
1896   1897   1898   1899
1900   1901   1902   1903
1904   1905   1906   1907
1908   1909   1910   1911
1912   1913   1914   1915
1916   1917   1918   1919
1920   1921   1922   1923
1924   1925   1926   1927
1928   1929   1930   1931
1932   1933   1934   1935
1936   1937   1938   1939
1940   1941   1942   1943
1944   1945   1946   1947
1948   1949   1950   1951
1952   1953   1954   1955
1956   1957   1958   1959
1960   1961   1962   1963
1964   1965   1966   1967
1968   1969   1970   1971
1972   1973   1974   1975
1976   1977   1978   1979
1980   1981   1982   1983
1984   1985   1986   1987
1988   1989   1990   1991
1992   1993   1994   1995
1996   1997   1998   1999
2000   2001   2002   2003
2004   2005   2006   2007
2008   2009   2010   2011
2012   2013   2014   2015
2016   2017   2018   2019
2020   2021   2022   2023
2024   2025   2026   2027
2028   2029   2030   2031
2032   2033   2034   2035
2036   2037   2038   2039
2040   2041   2042   2043
2044   2045   2046   2047
2048   2049   2050   2051
2052   2053   2054   2055
2056   2057   2058   2059
2060   2061   2062   2063
2064   2065   2066   2067
2068   2069   2070   2071
2072   2073   2074   2075
2076   2077   2078   2079
2080   2081   2082   2083
2084   2085   2086   2087
2088   2089   2090   2091
2092   2093   2094   2095
2096   2097   2098   2099
2100   2101   2102   2103
2104   2105   2106   2107
2108   2109   2110   2111
2112   2113   2114   2115
2116   2117   2118   2119
2120   2121   2122   2123
2124   2125   2126   2127
2128   2129   2130   2131
2132   2133   2134   2135
2136   2137   2138   2139
2140   2141   2142   2143
2144   2145   2146   2147
2148   2149   2150   2151
2152   2153   2154   2155
2156   2157   2158   2159
2160   2161   2162   2163
2164   2165   2166   2167
2168   2169   2170   2171
2172   2173   2174   2175
2176   2177   2178   2179
2180   2181   2182   2183
2184   2185   2186   2187
2188   2189   2190   2191
2192   2193   2194   2195
2196   2197   2198   2199
2200   2201   2202   2203
2204   2205   2206   2207
2208   2209   2210   2211
2212   2213   2214   2215
2216   2217   2218   2219
2220   2221   2222   2223
2224   2225   2226   2227
2228   2229   2230   2231
2232   2233   2234   2235
2236   2237   2238   2239
2240   2241   2242   2243
2244   2245   2246   2247
2248   2249   2250   2251
2252   2253   2254   2255
2256   2257   2258   2259
2260   2261   2262   2263
2264   2265   2266   2267
2268   2269   2270   2271
2272   2273   2274   2275
2276   2277   2278   2279
2280   2281   2282   2283
2284   2285   2286   2287
2288   2289   2290   2291
2292   2293   2294   2295
2296   2297   2298   2299
2300   2301   2302   2303
2304   2305   2306   2307
2308   2309   2310   2311
2312   2313   2314   2315
2316   2317   2318   2319
2320   2321   2322   2323
2324   2325   2326   2327
2328   2329   2330   2331
2332   2333   2334   2335
2336   2337   2338   2339
2340   2341   2342   2343
2344   2345   2346   2347
2348   2349   2350   2351
2352   2353   2354   2355
2356   2357   2358   2359
2360   2361   2362   2363
2364   2365   2366   2367
2368   2369   2370   2371
2372   2373   2374   2375
2376   2377   2378   2379
2380   2381   2382   2383
2384   2385   2386   2387
2388   2389   2390   2391
2392   2393   2394   2395
2396   2397   2398   2399
2400   2401   2402   2403
2404   2405   2406   2407
2408   2409   2410   2411
2412   2413   2414   2415
2416   2417   2418   2419
2420   2421   2422   2423
2424   2425   2426   2427
2428   2429   2430   2431
2432   2433   2434   2435
2436   2437   2438   2439
2440   2441   2442   2443
2444   2445   2446   2447
2448   2449   2450   2451
2452   2453   2454   2455
2456   2457   2458   2459
2460   2461   2462   2463
2464   2465   2466   2467
2468   2469   2470   2471
2472   2473   2474   2475
2476   2477   2478   2479
2480   2481   2482   2483
2484   2485   2486   2487
2488   2489   2490   2491
2492   2493   2494   2495
2496   2497   2498   2499
2500   2501   2502   2503
2504   2505   2506   2507
2508   2509   2510   2511
2512   2513   2514   2515
2516   2517   2518   2519
2520   2521   2522   2523
2524   2525   2526   2527
2528   2529   2530   2531
2532   2533   2534   2535
2536   2537   2538   2539
2540   2541   2542   2543
2544   2545   2546   2547
2548   2549   2550   2551
2552   2553   2554   2555
2556   2557   2558   2559
2560   2561   2562   2563
2564   2565   2566   2567
2568   2569   2570   2571
2572   2573   2574   2575
2576   2577   2578   2579
2580   2581   2582   2583
2584   2585   2586   2587
2588   2589   2590   2591
2592   2593   2594   2595
2596   2597   2598   2599
2600   2601   2602   2603
2604   2605   2606   2607
2608   2609   2610   2611
2612   2613   2614   2615
2616   2617   2618   2619
2620   2621   2622   2623
2624   2625   2626   2627
2628   2629   2630   2631
2632   2633   2634   2635
2636   2637   2638   2639
2640   2641   2642   2643
2644   2645   2646   2647
2648   2649   2650   2651
2652   2653   2654   2655
2656   2657   2658   2659
2660   2661   2662   2663
2664   2665   2666   2667
2668   2669   2670   2671
2672   2673   2674   2675
2676   2677   2678   2679
2680   2681   2682   2683
2684   2685   2686   2687
2688   2689   2690   2691
2692   2693   2694   2695
2696   2697   2698   2699
2700   2701   2702   2703
2704   2705   2706   2707
2708   2709   2710   2711
2712   2713   2714   2715
2716   2717   2718   2719
2720   2721   2722   2723
2724   2725   2726   2727
2728   2729   2730   2731
2732   2733   2734   2735
2736   2737   2738   2739
2740   2741   2742   2743
2744   2745   2746   2747
2748   2749   2750   2751
2752   2753   2754   2755
2756   2757   2758   2759
2760   2761   2762   2763
2764   2765   2766   2767
2768   2769   2770   2771
2772   2773   2774   2775
2776   2777   2778   2779
2780   2781   2782   2783
2784   2785   2786   2787
2788   2789   2790   2791
2792   2793   2794   2795
2796   2797   2798   2799
2800   2801   2802   2803
2804   2805   2806   2807
2808   2809   2810   2811
2812   2813   2814   2815
2816   2817   2818   2819
2820   2821   2822   2823
2824   2825   2826   2827
2828   2829   2830   2831
2832   2833   2834   2835
2836   2837   2838   2839
2840   2841   2842   2843
2844   2845   2846   2847
2848   2849   2850   2851
2852   2853   2854   2855
2856   2857   2858   2859
2860   2861   2862   2863
2864   2865   2866   2867
2868   2869   2870   2871
2872   2873   2874   2875
2876   2877   2878   2879
2880   2881   2882   2883
2884   2885   2886   2887
2888   2889   2890   2891
2892   2893   2894   2895
2896   2897   2898   2899
2900   2901   2902   2903
2904   2905   2906   2907
2908   2909   2910   2911
2912   2913   2914   2915
2916   2917   2918   2919
2920   2921   2922   2923
2924   2925   2926   2927
2928   2929   2930   2931
2932   2933   2934   2935
2936   2937   2938   2939
2940   2941   2942   2943
2944   2945   2946   2947
2948   2949   2950   2951
2952   2953   2954   2955
2956   2957   2958   2959
2960   2961   2962   2963
2964   2965   2966   2967
2968   2969   2970   2971
2972   2973   2974   2975
2976   2977   2978   2979
2980   2981   2982   2983
2984   2985   2986   2987
2988   2989   2990   2991
2992   2993   2994   2995
2996   2997   2998   2999
3000   3001   3002   3003
3004   3005   3006   3007
3008   3009   3010   3011
3012   3013   3014   3015
3016   3017   3018   3019
3020   3021   3022   3023
3024   3025   3026   3027
3028   3029   3030   3031
3032   3033   3034   3035
3036   3037   3038   3039
3040   3041   3042   3043
3044   3045   3046   3047
3048   3049   3050   3051
3052   3053   3054   3055
3056   3057   3058   3059
3060   3061   3062   3063
3064   3065   3066   3067
3068   3069   3070   3071
3072   3073   3074   3075
3076   3077   3078   3079
3080   3081   3082   3083
3084   3085   3086   3087
3088   3089   3090   3091
3092   3093   3094   3095
3096   3097   3098   3099
3100   3101   3102   3103
3104   3105   3106   3107
3108   3109   3110   3111
3112   3113   3114   3115
3116   3117   3118   3119
3120   3121   3122   3123
3124   3125   3126   3127
3128   3129   3130   3131
3132   3133   3134   3135
3136   3137   3138   3139
3140   3141   3142   3143
3144   3145   3146   3147
3148   3149   3150   3151
3152   3153   3154   3155
3156   3157   3158   3159
3160   3161   3162   3163
3164   3165   3166   3167
3168   3169   3170   3171
3172   3173   3174   3175
3176   3177   3178   3179
3180   3181   3182   3183
3184   3185   3186   3187
3188   3189   3190   3191
3192   3193   3194   3195
3196   3197   3198   3199
3200   3201   3202   3203
3204   3205   3206   3207
3208   3209   3210   3211
3212   3213   3214   3215
3216   3217   3218   3219
3220   3221   3222   3223
3224   3225   3226   3227
3228   3229   3230   3231
3232   3233   3234   3235
3236   3237   3238   3239
3240   3241   3242   3243
3244   3245   3246   3247
3248   3249   3250   3251
3252   3253   3254   3255
3256   3257   3258   3259
3260   3261   3262   3263
3264   3265   3266   3267
3268   3269   3270   3271
3272   3273   3274   3275
3276   3277   3278   3279
3280   3281   3282   3283
3284   3285   3286   3287
3288   3289   3290   3291
3292   3293   3294   3295
3296   3297   3298   3299
3300   3301   3302   3303
3304   3305   3306   3307
3308   3309   3310   3311
3312   3313   3314   3315
3316   3317   3318   3319
3320   3321   3322   3323
3324   3325   3326   3327
3328   3329   3330   3331
3332   3333   3334   3335
3336   3337   3338   3339
3340   3341   3342   3343
3344   3345   3346   3347
3348   3349   3350   3351
3352   3353   3354   3355
3356   3357   3358   3359
3360   3361   3362   3363
3364   3365   3366   3367
3368   3369   3370   3371
3372   3373   3374   3375
3376   3377   3378   3379
3380   3381   3382   3383
3384   3385   3386   3387
3388   3389   3390   3391
3392   3393   3394   3395
3396   3397   3398   3399
3400   3401   3402   3403
3404   3405   3406   3407
3408   3409   3410   3411
3412   3413   3414   3415
3416   3417   3418   3419
3420   3421   3422   3423
3424   3425   3426   3427
3428   3429   3430   3431
3432   3433   3434   3435
3436   3437   3438   3439
3440   3441   3442   3443
3444   3445   3446   3447
3448   3449   3450   3451
3452   3453   3454   3455
3456   3457   3458   3459
3460   3461   3462   3463
3464   3465   3466   3467
3468   3469   3470   3471
3472   3473   3474   3475
3476   3477   3478   3479
3480   3481   3482   3483
3484   3485   3486   3487
3488   3489   3490   3491
3492   3493   3494   3495
3496   3497   3498   3499
3500   3501   3502   3503
3504   3505   3506   3507
3508   3509   3510   3511
3512   3513   3514   3515
3516   3517   3518   3519
3520   3521   3522   3523
3524   3525   3526   3527
3528   3529   3530   3531
3532   3533   3534   3535
3536   3537   3538   3539
3540   3541   3542   3543
3544   3545   3546   3547
3548   3549   3550   3551
3552   3553   3554   3555
3556   3557   3558   3559
3560   3561   3562   3563
3564   3565   3566   3567
3568   3569   3570   3571
3572   3573   3574   3575
3576   3577   3578   3579
3580   3581   3582   3583
3584   3585   3586   3587
3588   3589   3590   3591
3592   3593   3594   3595
3596   3597   3598   3599
3600   3601   3602   3603
3604   3605   3606   3607
3608   3609   3610   3611
3612   3613   3614   3615
3616   3617   3618   3619
3620   3621   3622   3623
3624   3625   3626   3627
3628   3629   3630   3631
3632   3633   3634   3635
3636   3637   3638   3639
3640   3641   3642   3643
3644   3645   3646   3647
3648   3649   3650   3651
3652   3653   3654   3655
3656   3657   3658   3659
3660   3661   3662   3663
3664   3665   3666   3667
3668   3669   3670   3671
3672   3673   3674   3675
3676   3677   3678   3679
3680   3681   3682   3683
3684   3685   3686   3687
3688   3689   3690   3691
3692   3693   3694   3695
3696   3697   3698   3699
3700   3701   3702   3703
3704   3705   3706   3707
3708   3709   3710   3711
3712   3713   3714   3715
3716   3717   3718   3719
3720   3721   3722   3723
3724   3725   3726   3727
3728   3729   3730   3731
3732   3733   3734   3735
3736   3737   3738   3739
3740   3741   3742   3743
3744   3745   3746   3747
3748   3749   3750   3751
3752   3753   3754   3755
3756   3757   3758   3759
3760   3761   3762   3763
3764   3765   3766   3767
3768   3769   3770   3771
3772   3773   3774   3775
3776   3777   3778   3779
3780   3781   3782   3783
3784   3785   3786   3787
3788   3789   3790   3791
3792   3793   3794   3795
3796   3797   3798   3799
3800   3801   3802   3803
3804   3805   3806   3807
3808   3809   3810   3811
3812   3813   3814   3815
3816   3817   3818   3819
3820   3821   3822   3823
3824   3825   3826   3827
3828   3829   3830   3831
3832   3833   3834   3835
3836   3837   3838   3839
3840   3841   3842   3843
3844   3845   3846   3847
3848   3849   3850   3851
3852   3853   3854   3855
3856   3857   3858   3859
3860   3861   3862   3863
3864   3865   3866   3867
3868   3869   3870   3871
3872   3873   3874   3875
3876   3877   3878   3879
3880   3881   3882   3883
3884   3885   3886   3887
3888   3889   3890   3891
3892   3893   3894   3895
3896   3897   3898   3899
3900   3901   3902   3903
3904   3905   3906   3907
3908   3909   3910   3911
3912   3913   3914   3915
3916   3917   3918   3919
3920   3921   3922   3923
3924   3925   3926   3927
3928   3929   3930   3931
3932   3933   3934   3935
3936   3937   3938   3939
3940   3941   3942   3943
3944   3945   3946   3947
3948   3949   3950   3951
3952   3953   3954   3955
3956   3957   3958   3959
3960   3961   3962   3963
3964   3965   3966   3967
3968   3969   3970   3971
3972   3973   3974   3975
3976   3977   3978   3979
3980   3981   3982   3983
3984   3985   3986   3987
3988   3989   3990   3991
3992   3993   3994   3995
3996   3997   3998   3999
4000   4001   4002   4003
4004   4005   4006   4007
4008   4009   4010   4011
4012   4013   4014   4015
4016   4017   4018   4019
4020   4021   4022   4023
4024   4025   4026   4027
4028   4029   4030   4031
4032   4033   4034   4035
4036   4037   4038   4039
4040   4041   4042   4043
4044   4045   4046   4047
4048   4049   4050   4051
4052   4053   4054   4055
4056   4057   4058   4059
4060   4061   4062   4063
4064   4065   4066   4067
4068   4069   4070   4071
4072   4073   4074   4075
4076   4077   4078   4079
4080   4081   4082   4083
4084   4085   4086   4087
4088   4089   4090   4091
4092   4093   4094   4095
4096   4097   4098   4099
4100   4101   4102   4103
4104   4105   4106   4107
4108   4109   4110   4111
4112   4113   4114   4115
4116   4117   4118   4119
4120   4121   4122   4123
4124   4125   4126   4127
4128   4129   4130   4131
4132   4133   4134   4135
4136   4137   4138   4139
4140   4141   4142   4143
4144   4145   4146   4147
4148   4149   4150   4151
4152   4153   4154   4155
4156   4157   4158   4159
4160   4161   4162   4163
4164   4165   4166   4167
4168   4169   4170   4171
4172   4173   4174   4175
4176   4177   4178   4179
4180   4181   4182   4183
4184   4185   4186   4187
4188   4189   4190   4191
4192   4193   4194   4195
4196   4197   4198   4199
4200   4201   4202   4203
4204   4205   4206   4207
4208   4209   4210   4211
4212   4213   4214   4215
4216   4217   4218   4219
4220   4221   4222   4223
4224   4225   4226   4227
4228   4229   4230   4231
4232   4233   4234   4235
4236   4237   4238   4239
4240   4241   4242   4243
4244   4245   4246   4247
4248   4249   4250   4251
4252   4253   4254   4255
4256   4257   4258   4259
4260   4261   4262   4263
4264   4265   4266   4267
4268   4269   4270   4271
4272   4273   4274   4275
4276   4277   4278   4279
4280   4281   4282   4283
4284   4285   4286   4287
4288   4289   4290   4291
4292   4293   4294   4295
4296   4297   4298   4299
4300   4301   4302   4303
4304   4305   4306   4307
4308   4309   4310   4311
4312   4313   4314   4315
4316   4317   4318   4319
4320   4321   4322   4323
4324   4325   4326   4327
4328   4329   4330   4331
4332   4333   4334   4335
4336   4337   4338   4339
4340   4341   4342   4343
4344   4345   4346   4347
4348   4349   4350   4351
4352   4353   4354   4355
4356   4357   4358   4359
4360   4361   4362   4363
4364   4365   4366   4367
4368   4369   4370   4371
4372   4373   4374   4375
4376   4377   4378   4379
4380   4381   4382   4383
4384   4385   4386   4387
4388   4389   4390   4391
4392   4393   4394   4395
4396   4397   4398   4399
4400   4401   4402   4403
4404   4405   4406   4407
4408   4409   4410   4411
4412   4413   4414   4415
4416   4417   4418   4419
4420   4421   4422   4423
4424   4425   4426   4427
4428   4429   4430   4431
4432   4433   4434   4435
4436   4437   4438   4439
4440   4441   4442   4443
4444   4445   4446   4447
4448   4449   4450   4451
4452   4453   4454   4455
4456   4457   4458   4459
4460   4461   4462   4463
4464   4465   4466   4467
4468   4469   4470   4471
4472   4473   4474   4475
4476   4477   4478   4479
4480   4481   4482   4483
4484   4485   4486   4487
4488   4489   4490   4491
4492   4493   4494   4495
4496   4497   4498   4499
4500   4501   4502   4503
4504   4505   4506   4507
4508   4509   4510   4511
4512   4513   4514   4515
4516   4517   4518   4519
4520   4521   4522   4523
4524   4525   4526   4527
4528   4529   4530   4531
4532   4533   4534   4535
4536   4537   4538   4539
4540   4541   4542   4543
4544   4545   4546   4547
4548   4549   4550   4551
4552   4553   4554   4555
4556   4557   4558   4559
4560   4561   4562   4563
4564   4565   4566   4567
4568   4569   4570   4571
4572   4573   4574   4575
4576   4577   4578   4579
4580   4581   4582   4583
4584   4585   4586   4587
4588   4589   4590   4591
4592   4593   4594   4595
4596   4597   4598   4599
4600   4601   4602   4603
4604   4605   4606   4607
4608   4609   4610   4611
4612   4613   4614   4615
4616   4617   4618   4619
4620   4621   4622   4623
4624   4625   4626   4627
4628   4629   4630   4631
4632   4633   4634   4635
4636   4637   4638   4639
4640   4641   4642   4643
4644   4645   4646   4647
4648   4649   4650   4651
4652   4653   4654   4655
4656   4657   4658   4659
4660   4661   4662   4663
4664   4665   4666   4667
4668   4669   4670   4671
4672   4673   4674   4675
4676   4677   4678   4679
4680   4681   4682   4683
4684   4685   4686   4687
4688   4689   4690   4691
4692   4693   4694   4695
4696   4697   4698   4699
4700   4701   4702   4703
4704   4705   4706   4707
4708   4709   4710   4711
4712   4713   4714   4715
4716   4717   4718   4719
4720   4721   4722   4723
4724   4725   4726   4727
4728   4729   4730   4731
4732   4733   4734   4735
4736   4737   4738   4739
4740   4741   4742   4743
4744   4745   4746   4747
4748   4749   4750   4751
4752   4753   4754   4755
4756   4757   4758   4759
4760   4761   4762   4763
4764   4765   4766   4767
4768   4769   4770   4771
4772   4773   4774   4775
4776   4777   4778   4779
4780   4781   4782   4783
4784   4785   4786   4787
4788   4789   4790   4791
4792   4793   4794   4795
4796   4797   4798   4799
4800   4801   4802   4803
4804   4805   4806   4807
4808   4809   4810   4811
4812   4813   4814   4815
4816   4817   4818   4819
4820   4821   4822   4823
4824   4825   4826   4827
4828   4829   4830   4831
4832   4833   4834   4835
4836   4837   4838   4839
4840   4841   4842   4843
4844   4845   4846   4847
4848   4849   4850   4851
4852   4853   4854   4855
4856   4857   4858   4859
4860   4861   4862   4863
4864   4865   4866   4867
4868   4869   4870   4871
4872   4873   4874   4875
4876   4877   4878   4879
4880   4881   4882   4883
4884   4885   4886   4887
4888   4889   4890   4891
4892   4893   4894   4895
4896   4897   4898   4899
4900   4901   4902   4903
4904   4905   4906   4907
4908   4909   4910   4911
4912   4913   4914   4915
4916   4917   4918   4919
4920   4921   4922   4923
4924   4925   4926   4927
4928   4929   4930   4931
4932   4933   4934   4935
4936   4937   4938   4939
4940   4941   4942   4943
4944   4945   4946   4947
4948   4949   4950   4951
4952   4953   4954   4955
4956   4957   4958   4959
4960   4961   4962   4963
4964   4965   4966   4967
4968   4969   4970   4971
4972   4973   4974   4975
4976   4977   4978   4979
4980   4981   4982   4983
4984   4985   4986   4987
4988   4989   4990   4991
4992   4993   4994   4995
4996   4997   4998   4999
5000   5001   5002   5003
5004   5005   5006   5007
5008   5009   5010   5011
5012   5013   5014   5015
5016   5017   5018   5019
5020   5021   5022   5023
5024   5025   5026   5027
5028   5029   5030   5031
5032   5033   5034   5035
5036   5037   5038   5039
5040   5041   5042   5043
5044   5045   5046   5047
5048   5049   5050   5051
5052   5053   5054   5055
5056   5057   5058   5059
5060   5061   5062   5063
5064   5065   5066   5067
5068   5069   5070   5071
5072   5073   5074   5075
5076   5077   5078   5079
5080   5081   5082   5083
5084   5085   5086   5087
5088   5089   5090   5091
5092   5093   5094   5095
5096   5097   5098   5099
5100   5101   5102   5103
5104   5105   5106   5107
5108   5109   5110   5111
5112   5113   5114   5115
5116   5117   5118   5119
5120   5121   5122   5123
5124   5125   5126   5127
5128   5129   5130   5131
5132   5133   5134   5135
5136   5137   5138   5139
5140   5141   5142   5143
5144   5145   5146   5147
5148   5149   5150   5151
5152   5153   5154   5155
5156   5157   5158   5159
5160   5161   5162   5163
5164   5165   5166   5167
5168   5169   5170   5171
5172   5173   5174   5175
5176   5177   5178   5179
5180   5181   5182   5183
5184   5185   5186   5187
5188   5189   5190   5191
5192   5193   5194   5195
5196   5197   5198   5199
5200   5201   5202   5203
5204   5205   5206   5207
5208   5209   5210   5211
5212   5213   5214   5215
5216   5217   5218   5219
5220   5221   5222   5223
5224   5225   5226   5227
5228   5229   5230   5231
5232   5233   5234   5235
5236   5237   5238   5239
5240   5241   5242   5243
5244   5245   5246   5247
5248   5249   5250   5251
5252   5253   5254   5255
5256   5257   5258   5259
5260   5261   5262   5263
5264   5265   5266   5267
5268   5269   5270   5271
5272   5273   5274   5275
5276   5277   5278   5279
5280   5281   5282   5283
5284   5285   5286   5287
5288   5289   5290   5291
5292   5293   5294   5295
5296   5297   5298   5299
5300   5301   5302   5303
5304   5305   5306   5307
5308   5309   5310   5311
5312   5313   5314   5315
5316   5317   5318   5319
5320   5321   5322   5323
5324   5325   5326   5327
5328   5329   5330   5331
5332   5333   5334   5335
5336   5337   5338   5339
5340   5341   5342   5343
5344   5345   5346   5347
5348   5349   5350   5351
5352   5353   5354   5355
5356   5357   5358   5359
5360   5361   5362   5363
5364   5365   5366   5367
5368   5369   5370   5371
5372   5373   5374   5375
5376   5377   5378   5379
5380   5381   5382   5383
5384   5385   5386   5387
5388   5389   5390   5391
5392   5393   5394   5395
5396   5397   5398   5399
5400   5401   5402   5403
5404   5405   5406   5407
5408   5409   5410   5411
5412   5413   5414   5415
5416   5417   5418   5419
5420   5421   5422   5423
5424   5425   5426   5427
5428   5429   5430   5431
5432   5433   5434   5435
5436   5437   5438   5439
5440   5441   5442   5443
5444   5445   5446   5447
5448   5449   5450   5451
5452   5453   5454   5455
5456   5457   5458   5459
5460   5461   5462   5463
5464   5465   5466   5467
5468   5469   5470   5471
5472   5473   5474   5475
5476   5477   5478   5479
5480   5481   5482   5483
5484   5485   5486   5487
5488   5489   5490   5491
5492   5493   5494   5495
5496   5497   5498   5499
5500   5501   5502   5503
5504   5505   5506   5507
5508   5509   5510   5511
5512   5513   5514   5515
5516   5517   5518   5519
5520   5521   5522   5523
5524   5525   5526   5527
5528   5529   5530   5531
5532   5533   5534   5535
5536   5537   5538   5539
5540   5541   5542   5543
5544   5545   5546   5547
5548   5549   5550   5551
5552   5553   5554   5555
5556   5557   5558   5559
5560   5561   5562   5563
5564   5565   5566   5567
5568   5569   5570   5571
5572   5573   5574   5575
5576   5577   5578   5579
5580   5581   5582   5583
5584   5585   5586   5587
5588   5589   5590   5591
5592   5593   5594   5595
5596   5597   5598   5599
5600   5601   5602   5603
5604   5605   5606   5607
5608   5609   5610   5611
5612   5613   5614   5615
5616   5617   5618   5619
5620   5621   5622   5623
5624   5625   5626   5627
5628   5629   5630   5631
5632   5633   5634   5635
5636   5637   5638   5639
5640   5641   5642   5643
5644   5645   5646   5647
5648   5649   5650   5651
5652   5653   5654   5655
5656   5657   5658   5659
5660   5661   5662   5663
5664   5665   5666   5667
5668   5669   5670   5671
5672   5673   5674   5675
5676   5677   5678   5679
5680   5681   5682   5683
5684   5685   5686   5687
5688   5689   5690   5691
5692   5693   5694   5695
5696   5697   5698   5699
5700   5701   5702   5703
5704   5705   5706   5707
5708   5709   5710   5711
5712   5713   5714   5715
5716   5717   5718   5719
5720   5721   5722   5723
5724   5725   5726   5727
5728   5729   5730   5731
5732   5733   5734   5735
5736   5737   5738   5739
5740   5741   5742   5743
5744   5745   5746   5747
5748   5749   5750   5751
5752   5753   5754   5755
5756   5757   5758   5759
5760   5761   5762   5763
5764   5765   5766   5767
5768   5769   5770   5771
5772   5773   5774   5775
5776   5777   5778   5779
5780   5781   5782   5783
5784   5785   5786   5787
5788   5789   5790   5791
5792   5793   5794   5795
5796   5797   5798   5799
5800   5801   5802   5803
5804   5805   5806   5807
5808   5809   5810   5811
5812   5813   5814   5815
5816   5817   5818   5819
5820   5821   5822   5823
5824   5825   5826   5827
5828   5829   5830   5831
5832   5833   5834   5835
5836   5837   5838   5839
5840   5841   5842   5843
5844   5845   5846   5847
5848   5849   5850   5851
5852   5853   5854   5855
5856   5857   5858   5859
5860   5861   5862   5863
5864   5865   5866   5867
5868   5869   5870   5871
5872   5873   5874   5875
5876   5877   5878   5879
5880   5881   5882   5883
5884   5885   5886   5887
5888   5889   5890   5891
5892   5893   5894   5895
5896   5897   5898   5899
5900   5901   5902   5903
5904   5905   5906   5907
5908   5909   5910   5911
5912   5913   5914   5915
5916   5917   5918   5919
5920   5921   5922   5923
5924   5925   5926   5927
5928   5929   5930   5931
5932   5933   5934   5935
5936   5937   5938   5939
5940   5941   5942   5943
5944   5945   5946   5947
5948   5949   5950   5951
5952   5953   5954   5955
5956   5957   5958   5959
5960   5961   5962   5963
5964   5965   5966   5967
5968   5969   5970   5971
5972   5973   5974   5975
5976   5977   5978   5979
5980   5981   5982   5983
5984   5985   5986   5987
5988   5989   5990   5991
5992   5993   5994   5995
5996   5997   5998   5999
              </DataArray>   
              <DataArray type="Int32" Name="offsets" format="ascii">   
4
8
12
16
20
24
28
32
36
40
44
48
52
56
60
64
68
72
76
80
84
88
92
96
100
104
108
112
116
120
124
128
132
136
140
144
148
152
156
160
164
168
172
176
180
184
188
192
196
200
204
208
212
216
220
224
228
232
236
240
244
248
252
256
260
264
268
272
276
280
284
288
292
296
300
304
308
312
316
320
324
328
332
336
340
344
348
352
356
360
364
368
372
376
380
384
388
392
396
400
404
408
412
416
420
424
428
432
436
440
444
448
452
456
460
464
468
472
476
480
484
488
492
496
500
504
508
512
516
520
524
528
532
536
540
544
548
552
556
560
564
568
572
576
580
584
588
592
596
600
604
608
612
616
620
624
628
632
636
640
644
648
652
656
660
664
668
672
676
680
684
688
692
696
700
704
708
712
716
720
724
728
732
736
740
744
748
752
756
760
764
768
772
776
780
784
788
792
796
800
804
808
812
816
820
824
828
832
836
840
844
848
852
856
860
864
868
872
876
880
884
888
892
896
900
904
908
912
916
920
924
928
932
936
940
944
948
952
956
960
964
968
972
976
980
984
988
992
996
1000
1004
1008
1012
1016
1020
1024
1028
1032
1036
1040
1044
1048
1052
1056
1060
1064
1068
1072
1076
1080
1084
1088
1092
1096
1100
1104
1108
1112
1116
1120
1124
1128
1132
1136
1140
1144
1148
1152
1156
1160
1164
1168
1172
1176
1180
1184
1188
1192
1196
1200
1204
1208
1212
1216
1220
1224
1228
1232
1236
1240
1244
1248
1252
1256
1260
1264
1268
1272
1276
1280
1284
1288
1292
1296
1300
1304
1308
1312
1316
1320
1324
1328
1332
1336
1340
1344
1348
1352
1356
1360
1364
1368
1372
1376
1380
1384
1388
1392
1396
1400
1404
1408
1412
1416
1420
1424
1428
1432
1436
1440
1444
1448
1452
1456
1460
1464
1468
1472
1476
1480
1484
1488
1492
1496
1500
1504
1508
1512
1516
1520
1524
1528
1532
1536
1540
1544
1548
1552
1556
1560
1564
1568
1572
1576
1580
1584
1588
1592
1596
1600
1604
1608
1612
1616
1620
1624
1628
1632
1636
1640
1644
1648
1652
1656
1660
1664
1668
1672
1676
1680
1684
1688
1692
1696
1700
1704
1708
1712
1716
1720
1724
1728
1732
1736
1740
1744
1748
1752
1756
1760
1764
1768
1772
1776
1780
1784
1788
1792
1796
1800
1804
1808
1812
1816
1820
1824
1828
1832
1836
1840
1844
1848
1852
1856
1860
1864
1868
1872
1876
1880
1884
1888
1892
1896
1900
1904
1908
1912
1916
1920
1924
1928
1932
1936
1940
1944
1948
1952
1956
1960
1964
1968
1972
1976
1980
1984
1988
1992
1996
2000
2004
2008
2012
2016
2020
2024
2028
2032
2036
2040
2044
2048
2052
2056
2060
2064
2068
2072
2076
2080
2084
2088
2092
2096
2100
2104
2108
2112
2116
2120
2124
2128
2132
2136
2140
2144
2148
2152
2156
2160
2164
2168
2172
2176
2180
2184
2188
2192
2196
2200
2204
2208
2212
2216
2220
2224
2228
2232
2236
2240
2244
2248
2252
2256
2260
2264
2268
2272
2276
2280
2284
2288
2292
2296
2300
2304
2308
2312
2316
2320
2324
2328
2332
2336
2340
2344
2348
2352
2356
2360
2364
2368
2372
2376
2380
2384
2388
2392
2396
2400
2404
2408
2412
2416
2420
2424
2428
2432
2436
2440
2444
2448
2452
2456
2460
2464
2468
2472
2476
2480
2484
2488
2492
2496
2500
2504
2508
2512
2516
2520
2524
2528
2532
2536
2540
2544
2548
2552
2556
2560
2564
2568
2572
2576
2580
2584
2588
2592
2596
2600
2604
2608
2612
2616
2620
2624
2628
2632
2636
2640
2644
2648
2652
2656
2660
2664
2668
2672
2676
2680
2684
2688
2692
2696
2700
2704
2708
2712
2716
2720
2724
2728
2732
2736
2740
2744
2748
2752
2756
2760
2764
2768
2772
2776
2780
2784
2788
2792
2796
2800
2804
2808
2812
2816
2820
2824
2828
2832
2836
2840
2844
2848
2852
2856
2860
2864
2868
2872
2876
2880
2884
2888
2892
2896
2900
2904
2908
2912
2916
2920
2924
2928
2932
2936
2940
2944
2948
2952
2956
2960
2964
2968
2972
2976
2980
2984
2988
2992
2996
3000
3004
3008
3012
3016
3020
3024
3028
3032
3036
3040
3044
3048
3052
3056
3060
3064
3068
3072
3076
3080
3084
3088
3092
3096
3100
3104
3108
3112
3116
3120
3124
3128
3132
3136
3140
3144
3148
3152
3156
3160
3164
3168
3172
3176
3180
3184
3188
3192
3196
3200
3204
3208
3212
3216
3220
3224
3228
3232
3236
3240
3244
3248
3252
3256
3260
3264
3268
3272
3276
3280
3284
3288
3292
3296
3300
3304
3308
3312
3316
3320
3324
3328
3332
3336
3340
3344
3348
3352
3356
3360
3364
3368
3372
3376
3380
3384
3388
3392
3396
3400
3404
3408
3412
3416
3420
3424
3428
3432
3436
3440
3444
3448
3452
3456
3460
3464
3468
3472
3476
3480
3484
3488
3492
3496
3500
3504
3508
3512
3516
3520
3524
3528
3532
3536
3540
3544
3548
3552
3556
3560
3564
3568
3572
3576
3580
3584
3588
3592
3596
3600
3604
3608
3612
3616
3620
3624
3628
3632
3636
3640
3644
3648
3652
3656
3660
3664
3668
3672
3676
3680
3684
3688
3692
3696
3700
3704
3708
3712
3716
3720
3724
3728
3732
3736
3740
3744
3748
3752
3756
3760
3764
3768
3772
3776
3780
3784
3788
3792
3796
3800
3804
3808
3812
3816
3820
3824
3828
3832
3836
3840
3844
3848
3852
3856
3860
3864
3868
3872
3876
3880
3884
3888
3892
3896
3900
3904
3908
3912
3916
3920
3924
3928
3932
3936
3940
3944
3948
3952
3956
3960
3964
3968
3972
3976
3980
3984
3988
3992
3996
4000
4004
4008
4012
4016
4020
4024
4028
4032
4036
4040
4044
4048
4052
4056
4060
4064
4068
4072
4076
4080
4084
4088
4092
4096
4100
4104
4108
4112
4116
4120
4124
4128
4132
4136
4140
4144
4148
4152
4156
4160
4164
4168
4172
4176
4180
4184
4188
4192
4196
4200
4204
4208
4212
4216
4220
4224
4228
4232
4236
4240
4244
4248
4252
4256
4260
4264
4268
4272
4276
4280
4284
4288
4292
4296
4300
4304
4308
4312
4316
4320
4324
4328
4332
4336
4340
4344
4348
4352
4356
4360
4364
4368
4372
4376
4380
4384
4388
4392
4396
4400
4404
4408
4412
4416
4420
4424
4428
4432
4436
4440
4444
4448
4452
4456
4460
4464
4468
4472
4476
4480
4484
4488
4492
4496
4500
4504
4508
4512
4516
4520
4524
4528
4532
4536
4540
4544
4548
4552
4556
4560
4564
4568
4572
4576
4580
4584
4588
4592
4596
4600
4604
4608
4612
4616
4620
4624
4628
4632
4636
4640
4644
4648
4652
4656
4660
4664
4668
4672
4676
4680
4684
4688
4692
4696
4700
4704
4708
4712
4716
4720
4724
4728
4732
4736
4740
4744
4748
4752
4756
4760
4764
4768
4772
4776
4780
4784
4788
4792
4796
4800
4804
4808
4812
4816
4820
4824
4828
4832
4836
4840
4844
4848
4852
4856
4860
4864
4868
4872
4876
4880
4884
4888
4892
4896
4900
4904
4908
4912
4916
4920
4924
4928
4932
4936
4940
4944
4948
4952
4956
4960
4964
4968
4972
4976
4980
4984
4988
4992
4996
5000
5004
5008
5012
5016
5020
5024
5028
5032
5036
5040
5044
5048
5052
5056
5060
5064
5068
5072
5076
5080
5084
5088
5092
5096
5100
5104
5108
5112
5116
5120
5124
5128
5132
5136
5140
5144
5148
5152
5156
5160
5164
5168
5172
5176
5180
5184
5188
5192
5196
5200
5204
5208
5212
5216
5220
5224
5228
5232
5236
5240
5244
5248
5252
5256
5260
5264
5268
5272
5276
5280
5284
5288
5292
5296
5300
5304
5308
5312
5316
5320
5324
5328
5332
5336
5340
5344
5348
5352
5356
5360
5364
5368
5372
5376
5380
5384
5388
5392
5396
5400
5404
5408
5412
5416
5420
5424
5428
5432
5436
5440
5444
5448
5452
5456
5460
5464
5468
5472
5476
5480
5484
5488
5492
5496
5500
5504
5508
5512
5516
5520
5524
5528
5532
5536
5540
5544
5548
5552
5556
5560
5564
5568
5572
5576
5580
5584
5588
5592
5596
5600
5604
5608
5612
5616
5620
5624
5628
5632
5636
5640
5644
5648
5652
5656
5660
5664
5668
5672
5676
5680
5684
5688
5692
5696
5700
5704
5708
5712
5716
5720
5724
5728
5732
5736
5740
5744
5748
5752
5756
5760
5764
5768
5772
5776
5780
5784
5788
5792
5796
5800
5804
5808
5812
5816
5820
5824
5828
5832
5836
5840
5844
5848
5852
5856
5860
5864
5868
5872
5876
5880
5884
5888
5892
5896
5900
5904
5908
5912
5916
5920
5924
5928
5932
5936
5940
5944
5948
5952
5956
5960
5964
5968
5972
5976
5980
5984
5988
5992
5996
6000
              </DataArray>   
              <DataArray type="UInt8" Name="types" format="ascii">   
10
10
10
10
10
10
10
10
10
10
10
10
10
10
10
10
10
10
10
10
10
10
10
10
10
10
10
10
10
10
10
10
10
10
10
10
10
10
10
10
10
10
10
10
10
10
10
10
10
10
10
10
10
10
10
10
10
10
10
10
10
10
10
10
10
10
10
10
10
10
10
10
10
10
10
10
10
10
10
10
10
10
10
10
10
10
10
10
10
10
10
10
10
10
10
10
10
10
10
10
10
10
10
10
10
10
10
10
10
10
10
10
10
10
10
10
10
10
10
10
10
10
10
10
10
10
10
10
10
10
10
10
10
10
10
10
10
10
10
10
10
10
10
10
10
10
10
10
10
10
10
10
10
10
10
10
10
10
10
10
10
10
10
10
10
10
10
10
10
10
10
10
10
10
10
10
10
10
10
10
10
10
10
10
10
10
10
10
10
10
10
10
10
10
10
10
10
10
10
10
10
10
10
10
10
10
10
10
10
10
10
10
10
10
10
10
10
10
10
10
10
10
10
10
10
10
10
10
10
10
10
10
10
10
10
10
10
10
10
10
10
10
10
10
10
10
10
10
10
10
10
10
10
10
10
10
10
10
10
10
10
10
10
10
10
10
10
10
10
10
10
10
10
10
10
10
10
10
10
10
10
10
10
10
10
10
10
10
10
10
10
10
10
10
10
10
10
10
10
10
10
10
10
10
10
10
10
10
10
10
10
10
10
10
10
10
10
10
10
10
10
10
10
10
10
10
10
10
10
10
10
10
10
10
10
10
10
10
10
10
10
10
10
10
10
10
10
10
10
10
10
10
10
10
10
10
10
10
10
10
10
10
10
10
10
10
10
10
10
10
10
10
10
10
10
10
10
10
10
10
10
10
10
10
10
10
10
10
10
10
10
10
10
10
10
10
10
10
10
10
10
10
10
10
10
10
10
10
10
10
10
10
10
10
10
10
10
10
10
10
10
10
10
10
10
10
10
10
10
10
10
10
10
10
10
10
10
10
10
10
10
10
10
10
10
10
10
10
10
10
10
10
10
10
10
10
10
10
10
10
10
10
10
10
10
10
10
10
10
10
10
10
10
10
10
10
10
10
10
10
10
10
10
10
10
10
10
10
10
10
10
10
10
10
10
10
10
10
10
10
10
10
10
10
10
10
10
10
10
10
10
10
10
10
10
10
10
10
10
10
10
10
10
10
10
10
10
10
10
10
10
10
10
10
10
10
10
10
10
10
10
10
10
10
10
10
10
10
10
10
10
10
10
10
10
10
10
10
10
10
10
10
10
10
10
10
10
10
10
10
10
10
10
10
10
10
10
10
10
10
10
10
10
10
10
10
10
10
10
10
10
10
10
10
10
10
10
10
10
10
10
10
10
10
10
10
10
10
10
10
10
10
10
10
10
10
10
10
10
10
10
10
10
10
10
10
10
10
10
10
10
10
10
10
10
10
10
10
10
10
10
10
10
10
10
10
10
10
10
10
10
10
10
10
10
10
10
10
10
10
10
10
10
10
10
10
10
10
10
10
10
10
10
10
10
10
10
10
10
10
10
10
10
10
10
10
10
10
10
10
10
10
10
10
10
10
10
10
10
10
10
10
10
10
10
10
10
10
10
10
10
10
10
10
10
10
10
10
10
10
10
10
10
10
10
10
10
10
10
10
10
10
10
10
10
10
10
10
10
10
10
10
10
10
10
10
10
10
10
10
10
10
10
10
10
10
10
10
10
10
10
10
10
10
10
10
10
10
10
10
10
10
10
10
10
10
10
10
10
10
10
10
10
10
10
10
10
10
10
10
10
10
10
10
10
10
10
10
10
10
10
10
10
10
10
10
10
10
10
10
10
10
10
10
10
10
10
10
10
10
10
10
10
10
10
10
10
10
10
10
10
10
10
10
10
10
10
10
10
10
10
10
10
10
10
10
10
10
10
10
10
10
10
10
10
10
10
10
10
10
10
10
10
10
10
10
10
10
10
10
10
10
10
10
10
10
10
10
10
10
10
10
10
10
10
10
10
10
10
10
10
10
10
10
10
10
10
10
10
10
10
10
10
10
10
10
10
10
10
10
10
10
10
10
10
10
10
10
10
10
10
10
10
10
10
10
10
10
10
10
10
10
10
10
10
10
10
10
10
10
10
10
10
10
10
10
10
10
10
10
10
10
10
10
10
10
10
10
10
10
10
10
10
10
10
10
10
10
10
10
10
10
10
10
10
10
10
10
10
10
10
10
10
10
10
10
10
10
10
10
10
10
10
10
10
10
10
10
10
10
10
10
10
10
10
10
10
10
10
10
10
10
10
10
10
10
10
10
10
10
10
10
10
10
10
10
10
10
10
10
10
10
10
10
10
10
10
10
10
10
10
10
10
10
10
10
10
10
10
10
10
10
10
10
10
10
10
10
10
10
10
10
10
10
10
10
10
10
10
10
10
10
10
10
10
10
10
10
10
10
10
10
10
10
10
10
10
10
10
10
10
10
10
10
10
10
10
10
10
10
10
10
10
10
10
10
10
10
10
10
10
10
10
10
10
10
10
10
10
10
10
10
10
10
10
10
10
10
10
10
10
10
10
10
10
10
10
10
10
10
10
10
10
10
10
10
10
10
10
10
10
10
10
10
10
10
10
10
10
10
10
10
10
10
10
10
10
10
10
10
10
10
10
10
10
10
10
10
10
10
10
10
10
10
10
10
10
10
10
10
10
10
10
10
10
10
10
10
10
10
10
10
10
10
10
10
10
10
10
10
10
10
10
10
10
10
10
10
10
10
10
10
10
10
10
10
10
10
10
10
10
10
10
10
10
10
10
10
10
10
10
10
10
10
10
10
10
10
10
10
10
10
10
10
10
10
10
10
10
10
10
10
10
10
10
10
10
10
10
10
10
10
10
10
10
10
10
10
10
10
10
10
10
10
10
10
10
10
10
10
10
10
10
10
10
10
10
10
10
10
10
10
10
10
10
10
10
10
10
10
10
10
10
10
10
10
10
10
10
10
10
10
10
10
10
10
10
10
10
10
10
10
10
10
10
10
10
10
10
10
10
10
10
10
10
10
10
10
10
10
10
10
10
10
10
10
10
10
10
10
10
10
10
10
10
10
10
10
10
10
10
10
10
10
10
10
10
10
10
10
10
10
10
10
10
10
10
10
10
10
10
10
10
10
10
10
10
10
10
10
10
10
10
10
10
10
10
10
10
10
10
10
10
10
10
10
10
10
10
10
10
10
10
10
10
10
10
10
10
10
10
10
10
10
10
10
10
10
10
10
10
10
10
10
10
10
10
10
10
10
10
10
10
10
10
10
10
10
10
10
10
10
10
10
10
10
10
10
10
10
10
10
10
10
10
10
10
10
10
10
10
10
10
10
10
10
10
10
10
10
10
10
10
10
10
10
10
10
10
10
              </DataArray>   
          </Cells>  
          <PointData>  
             <DataArray type="Float64" NumberOfComponents="3" Name="Strains" format="ascii">   
-6.308032811912394e-05   0.0   -4.1486880286649945e-05
-6.308032811912394e-05   0.0   -4.1486880286649945e-05
-6.308032811912394e-05   0.0   -4.1486880286649945e-05
-6.308032811912394e-05   0.0   -4.1486880286649945e-05
-4.0130614229646377e-05   6.976526895806237e-06   9.485589999629957e-07
-4.0130614229646377e-05   6.976526895806237e-06   9.485589999629957e-07
-4.0130614229646377e-05   6.976526895806237e-06   9.485589999629957e-07
-4.0130614229646377e-05   6.976526895806237e-06   9.485589999629957e-07
-3.933111155235511e-05   0.0   -3.916690832647861e-05
-3.933111155235511e-05   0.0   -3.916690832647861e-05
-3.933111155235511e-05   0.0   -3.916690832647861e-05
-3.933111155235511e-05   0.0   -3.916690832647861e-05
-6.600931584814705e-05   8.37770489969156e-06   2.7014256002651e-07
-6.600931584814705e-05   8.37770489969156e-06   2.7014256002651e-07
-6.600931584814705e-05   8.37770489969156e-06   2.7014256002651e-07
-6.600931584814705e-05   8.37770489969156e-06   2.7014256002651e-07
-5.120571983573943e-05   1.9333099668094456e-06   -2.053588050092354e-05
-5.120571983573943e-05   1.9333099668094456e-06   -2.053588050092354e-05
-5.120571983573943e-05   1.9333099668094456e-06   -2.053588050092354e-05
-5.120571983573943e-05   1.9333099668094456e-06   -2.053588050092354e-05
-6.600931584814715e-05   0.0   -4.419353126629355e-05
-6.600931584814715e-05   0.0   -4.419353126629355e-05
-6.600931584814715e-05   0.0   -4.419353126629355e-05
-6.600931584814715e-05   0.0   -4.419353126629355e-05
-3.933111155235511e-05   8.377704899691573e-06   5.296765499841465e-06
-3.933111155235511e-05   8.377704899691573e-06   5.296765499841465e-06
-3.933111155235511e-05   8.377704899691573e-06   5.296765499841465e-06
-3.933111155235511e-05   8.377704899691573e-06   5.296765499841465e-06
-3.943570756197132e-05   0.0   -4.0123874261499094e-05
-3.943570756197132e-05   0.0   -4.0123874261499094e-05
-3.943570756197132e-05   0.0   -4.0123874261499094e-05
-3.943570756197132e-05   0.0   -4.0123874261499094e-05
-6.806341169408654e-05   8.97695060833275e-06   2.2027955936934683e-06
-6.806341169408654e-05   8.97695060833275e-06   2.2027955936934683e-06
-6.806341169408654e-05   8.97695060833275e-06   2.2027955936934683e-06
-6.806341169408654e-05   8.97695060833275e-06   2.2027955936934683e-06
-5.2722511705059145e-05   3.391380837328716e-06   -2.001402919208308e-05
-5.2722511705059145e-05   3.391380837328716e-06   -2.001402919208308e-05
-5.2722511705059145e-05   3.391380837328716e-06   -2.001402919208308e-05
-5.2722511705059145e-05   3.391380837328716e-06   -2.001402919208308e-05
-6.806341169408666e-05   0.0   -4.5510044626498755e-05
-6.806341169408666e-05   0.0   -4.5510044626498755e-05
-6.806341169408666e-05   0.0   -4.5510044626498755e-05
-6.806341169408666e-05   0.0   -4.5510044626498755e-05
-3.943570756197132e-05   8.976950608332763e-06   7.588965958693142e-06
-3.943570756197132e-05   8.976950608332763e-06   7.588965958693142e-06
-3.943570756197132e-05   8.976950608332763e-06   7.588965958693142e-06
-3.943570756197132e-05   8.976950608332763e-06   7.588965958693142e-06
-3.940784959683345e-05   0.0   -4.037077367689449e-05
-3.940784959683345e-05   0.0   -4.037077367689449e-05
-3.940784959683345e-05   0.0   -4.037077367689449e-05
-3.940784959683345e-05   0.0   -4.037077367689449e-05
-7.249477659330346e-05   1.0231278383703531e-05   8.635337620333574e-06
-7.249477659330346e-05   1.0231278383703531e-05   8.635337620333574e-06
-7.249477659330346e-05   1.0231278383703531e-05   8.635337620333574e-06
-7.249477659330346e-05   1.0231278383703531e-05   8.635337620333574e-06
-5.373563064545996e-05   4.282725791336879e-06   -1.9060774070652225e-05
-5.373563064545996e-05   4.282725791336879e-06   -1.9060774070652225e-05
-5.373563064545996e-05   4.282725791336879e-06   -1.9060774070652225e-05
-5.373563064545996e-05   4.282725791336879e-06   -1.9060774070652225e-05
-4.0130614229646444e-05   0.0   -3.73009641491662e-05
-4.0130614229646444e-05   0.0   -3.73009641491662e-05
-4.0130614229646444e-05   0.0   -3.73009641491662e-05
-4.0130614229646444e-05   0.0   -3.73009641491662e-05
-1.828301276676686e-05   2.556484581316006e-06   6.455957044226812e-07
-1.828301276676686e-05   2.556484581316006e-06   6.455957044226812e-07
-1.828301276676686e-05   2.556484581316006e-06   6.455957044226812e-07
-1.828301276676686e-05   2.556484581316006e-06   6.455957044226812e-07
-1.7578178744414672e-05   0.0   -3.698083739319426e-05
-1.7578178744414672e-05   0.0   -3.698083739319426e-05
-1.7578178744414672e-05   0.0   -3.698083739319426e-05
-1.7578178744414672e-05   0.0   -3.698083739319426e-05
-3.933111155235511e-05   3.6434515554739264e-06   -2.912020313244551e-06
-3.933111155235511e-05   3.6434515554739264e-06   -2.912020313244551e-06
-3.933111155235511e-05   3.6434515554739264e-06   -2.912020313244551e-06
-3.933111155235511e-05   3.6434515554739264e-06   -2.912020313244551e-06
-2.885439648703051e-05   2.667722966432834e-07   -1.8347204533487036e-05
-2.885439648703051e-05   2.667722966432834e-07   -1.8347204533487036e-05
-2.885439648703051e-05   2.667722966432834e-07   -1.8347204533487036e-05
-2.885439648703051e-05   2.667722966432834e-07   -1.8347204533487036e-05
-3.9331111552355074e-05   0.0   -3.916690832647858e-05
-3.9331111552355074e-05   0.0   -3.916690832647858e-05
-3.9331111552355074e-05   0.0   -3.916690832647858e-05
-3.9331111552355074e-05   0.0   -3.916690832647858e-05
-1.7578178744414672e-05   3.6434515554739264e-06   -7.259493799601963e-07
-1.7578178744414672e-05   3.6434515554739264e-06   -7.259493799601963e-07
-1.7578178744414672e-05   3.6434515554739264e-06   -7.259493799601963e-07
-1.7578178744414672e-05   3.6434515554739264e-06   -7.259493799601963e-07
-1.7179736883791395e-05   0.0   -3.7443738716743755e-05
-1.7179736883791395e-05   0.0   -3.7443738716743755e-05
-1.7179736883791395e-05   0.0   -3.7443738716743755e-05
-1.7179736883791395e-05   0.0   -3.7443738716743755e-05
-3.943570756197132e-05   4.466892574592234e-06   -3.030589797865891e-06
-3.943570756197132e-05   4.466892574592234e-06   -3.030589797865891e-06
-3.943570756197132e-05   4.466892574592234e-06   -3.030589797865891e-06
-3.943570756197132e-05   4.466892574592234e-06   -3.030589797865891e-06
-2.8255424218073192e-05   1.4359746747790396e-06   -1.984584463114135e-05
-2.8255424218073192e-05   1.4359746747790396e-06   -1.984584463114135e-05
-2.8255424218073192e-05   1.4359746747790396e-06   -1.984584463114135e-05
-2.8255424218073192e-05   1.4359746747790396e-06   -1.984584463114135e-05
-3.943570756197132e-05   0.0   -4.0123874261499094e-05
-3.943570756197132e-05   0.0   -4.0123874261499094e-05
-3.943570756197132e-05   0.0   -4.0123874261499094e-05
-3.943570756197132e-05   0.0   -4.0123874261499094e-05
-1.7179736883791395e-05   4.466892574592234e-06   -3.504542531105584e-07
-1.7179736883791395e-05   4.466892574592234e-06   -3.504542531105584e-07
-1.7179736883791395e-05   4.466892574592234e-06   -3.504542531105584e-07
-1.7179736883791395e-05   4.466892574592234e-06   -3.504542531105584e-07
-1.6815879558097597e-05   0.0   -3.725122304628932e-05
-1.6815879558097597e-05   0.0   -3.725122304628932e-05
-1.6815879558097597e-05   0.0   -3.725122304628932e-05
-1.6815879558097597e-05   0.0   -3.725122304628932e-05
-3.940784959683334e-05   5.199251051008557e-06   -2.7174902790013923e-06
-3.940784959683334e-05   5.199251051008557e-06   -2.7174902790013923e-06
-3.940784959683334e-05   5.199251051008557e-06   -2.7174902790013923e-06
-3.940784959683334e-05   5.199251051008557e-06   -2.7174902790013923e-06
-2.812579356003445e-05   2.3938760126747895e-06   -1.983769198399944e-05
-2.812579356003445e-05   2.3938760126747895e-06   -1.983769198399944e-05
-2.812579356003445e-05   2.3938760126747895e-06   -1.983769198399944e-05
-2.812579356003445e-05   2.3938760126747895e-06   -1.983769198399944e-05
-1.8283012766766893e-05   0.0   -3.5767073400376595e-05
-1.8283012766766893e-05   0.0   -3.5767073400376595e-05
-1.8283012766766893e-05   0.0   -3.5767073400376595e-05
-1.8283012766766893e-05   0.0   -3.5767073400376595e-05
2.3534611341201104e-06   -3.292025185593189e-07   -1.5704717433671474e-06
2.3534611341201104e-06   -3.292025185593189e-07   -1.5704717433671474e-06
2.3534611341201104e-06   -3.292025185593189e-07   -1.5704717433671474e-06
2.3534611341201104e-06   -3.292025185593189e-07   -1.5704717433671474e-06
2.8062873733701995e-06   0.0   -3.659283592382513e-05
2.8062873733701995e-06   0.0   -3.659283592382513e-05
2.8062873733701995e-06   0.0   -3.659283592382513e-05
2.8062873733701995e-06   0.0   -3.659283592382513e-05
-1.7578178744414672e-05   6.466691156149865e-07   -3.0067271968861272e-06
-1.7578178744414672e-05   6.466691156149865e-07   -3.0067271968861272e-06
-1.7578178744414672e-05   6.466691156149865e-07   -3.0067271968861272e-06
-1.7578178744414672e-05   6.466691156149865e-07   -3.0067271968861272e-06
-7.738362696698328e-06   -6.881354362072194e-07   -1.8605537878653295e-05
-7.738362696698328e-06   -6.881354362072194e-07   -1.8605537878653295e-05
-7.738362696698328e-06   -6.881354362072194e-07   -1.8605537878653295e-05
-7.738362696698328e-06   -6.881354362072194e-07   -1.8605537878653295e-05
-1.7578178744414672e-05   0.0   -3.698083739319426e-05
-1.7578178744414672e-05   0.0   -3.698083739319426e-05
-1.7578178744414672e-05   0.0   -3.698083739319426e-05
-1.7578178744414672e-05   0.0   -3.698083739319426e-05
2.8062873733702046e-06   6.466691156149933e-07   -2.6187257275171245e-06
2.8062873733702046e-06   6.466691156149933e-07   -2.6187257275171245e-06
2.8062873733702046e-06   6.466691156149933e-07   -2.6187257275171245e-06
2.8062873733702046e-06   6.466691156149933e-07   -2.6187257275171245e-06
3.164522506273239e-06   0.0   -3.653999865922348e-05
3.164522506273239e-06   0.0   -3.653999865922348e-05
3.164522506273239e-06   0.0   -3.653999865922348e-05
3.164522506273239e-06   0.0   -3.653999865922348e-05
-1.7179736883791364e-05   1.5062334292003488e-06   -3.5366397333026933e-06
-1.7179736883791364e-05   1.5062334292003488e-06   -3.5366397333026933e-06
-1.7179736883791364e-05   1.5062334292003488e-06   -3.5366397333026933e-06
-1.7179736883791364e-05   1.5062334292003488e-06   -3.5366397333026933e-06
-7.206828119070714e-06   3.673656116422542e-07   -1.9474833650635628e-05
-7.206828119070714e-06   3.673656116422542e-07   -1.9474833650635628e-05
-7.206828119070714e-06   3.673656116422542e-07   -1.9474833650635628e-05
-7.206828119070714e-06   3.673656116422542e-07   -1.9474833650635628e-05
-1.7179736883791395e-05   0.0   -3.7443738716743755e-05
-1.7179736883791395e-05   0.0   -3.7443738716743755e-05
-1.7179736883791395e-05   0.0   -3.7443738716743755e-05
-1.7179736883791395e-05   0.0   -3.7443738716743755e-05
3.1645225062732444e-06   1.506233429200342e-06   -2.6328996757824886e-06
3.1645225062732444e-06   1.506233429200342e-06   -2.6328996757824886e-06
3.1645225062732444e-06   1.506233429200342e-06   -2.6328996757824886e-06
3.1645225062732444e-06   1.506233429200342e-06   -2.6328996757824886e-06
3.6444300714153245e-06   0.0   -3.5750351888039827e-05
3.6444300714153245e-06   0.0   -3.5750351888039827e-05
3.6444300714153245e-06   0.0   -3.5750351888039827e-05
3.6444300714153245e-06   0.0   -3.5750351888039827e-05
-1.6815879558097583e-05   2.5014519304157606e-06   -3.1507069971011104e-06
-1.6815879558097583e-05   2.5014519304157606e-06   -3.1507069971011104e-06
-1.6815879558097583e-05   2.5014519304157606e-06   -3.1507069971011104e-06
-1.6815879558097583e-05   2.5014519304157606e-06   -3.1507069971011104e-06
-6.76765340618802e-06   1.411155690586556e-06   -1.9243572839719505e-05
-6.76765340618802e-06   1.411155690586556e-06   -1.9243572839719505e-05
-6.76765340618802e-06   1.411155690586556e-06   -1.9243572839719505e-05
-6.76765340618802e-06   1.411155690586556e-06   -1.9243572839719505e-05
2.3534611341201146e-06   0.0   -3.596459491151219e-05
2.3534611341201146e-06   0.0   -3.596459491151219e-05
2.3534611341201146e-06   0.0   -3.596459491151219e-05
2.3534611341201146e-06   0.0   -3.596459491151219e-05
2.4759422192733683e-05   -2.9040606531765777e-06   -3.637628723954998e-07
2.4759422192733683e-05   -2.9040606531765777e-06   -3.637628723954998e-07
2.4759422192733683e-05   -2.9040606531765777e-06   -3.637628723954998e-07
2.4759422192733683e-05   -2.9040606531765777e-06   -3.637628723954998e-07
2.481101523705409e-05   0.0   -3.790533273574425e-05
2.481101523705409e-05   0.0   -3.790533273574425e-05
2.481101523705409e-05   0.0   -3.790533273574425e-05
2.481101523705409e-05   0.0   -3.790533273574425e-05
2.8062873733702093e-06   -2.1874946865316447e-06   8.171051564786895e-08
2.8062873733702093e-06   -2.1874946865316447e-06   8.171051564786895e-08
2.8062873733702093e-06   -2.1874946865316447e-06   8.171051564786895e-08
2.8062873733702093e-06   -2.1874946865316447e-06   8.171051564786895e-08
1.3582238185587103e-05   -1.6172815201933857e-06   -1.8220335404516554e-05
1.3582238185587103e-05   -1.6172815201933857e-06   -1.8220335404516554e-05
1.3582238185587103e-05   -1.6172815201933857e-06   -1.8220335404516554e-05
1.3582238185587103e-05   -1.6172815201933857e-06   -1.8220335404516554e-05
2.8062873733702093e-06   0.0   -3.659283592382526e-05
2.8062873733702093e-06   0.0   -3.659283592382526e-05
2.8062873733702093e-06   0.0   -3.659283592382526e-05
2.8062873733702093e-06   0.0   -3.659283592382526e-05
2.481101523705409e-05   -2.1874946865316447e-06   -1.230786296271122e-06
2.481101523705409e-05   -2.1874946865316447e-06   -1.230786296271122e-06
2.481101523705409e-05   -2.1874946865316447e-06   -1.230786296271122e-06
2.481101523705409e-05   -2.1874946865316447e-06   -1.230786296271122e-06
2.471127403163967e-05   0.0   -3.736411310441869e-05
2.471127403163967e-05   0.0   -3.736411310441869e-05
2.471127403163967e-05   0.0   -3.736411310441869e-05
2.471127403163967e-05   0.0   -3.736411310441869e-05
3.1645225062732444e-06   -1.3735240753252325e-06   -6.287461169461735e-07
3.1645225062732444e-06   -1.3735240753252325e-06   -6.287461169461735e-07
3.1645225062732444e-06   -1.3735240753252325e-06   -6.287461169461735e-07
3.1645225062732444e-06   -1.3735240753252325e-06   -6.287461169461735e-07
1.375878070250494e-05   -6.427309838278587e-07   -1.8724318965564077e-05
1.375878070250494e-05   -6.427309838278587e-07   -1.8724318965564077e-05
1.375878070250494e-05   -6.427309838278587e-07   -1.8724318965564077e-05
1.375878070250494e-05   -6.427309838278587e-07   -1.8724318965564077e-05
3.164522506273242e-06   0.0   -3.653999865922352e-05
3.164522506273242e-06   0.0   -3.653999865922352e-05
3.164522506273242e-06   0.0   -3.653999865922352e-05
3.164522506273242e-06   0.0   -3.653999865922352e-05
2.471127403163967e-05   -1.3735240753252325e-06   -1.4528605621413147e-06
2.471127403163967e-05   -1.3735240753252325e-06   -1.4528605621413147e-06
2.471127403163967e-05   -1.3735240753252325e-06   -1.4528605621413147e-06
2.471127403163967e-05   -1.3735240753252325e-06   -1.4528605621413147e-06
2.5196122650912325e-05   0.0   -3.59184278983962e-05
2.5196122650912325e-05   0.0   -3.59184278983962e-05
2.5196122650912325e-05   0.0   -3.59184278983962e-05
2.5196122650912325e-05   0.0   -3.59184278983962e-05
3.644430071415331e-06   -2.801266839271737e-07   1.6913574445509371e-07
3.644430071415331e-06   -2.801266839271737e-07   1.6913574445509371e-07
3.644430071415331e-06   -2.801266839271737e-07   1.6913574445509371e-07
3.644430071415331e-06   -2.801266839271737e-07   1.6913574445509371e-07
1.4180322578592774e-05   5.179756340227982e-07   -1.7869546491610612e-05
1.4180322578592774e-05   5.179756340227982e-07   -1.7869546491610612e-05
1.4180322578592774e-05   5.179756340227982e-07   -1.7869546491610612e-05
1.4180322578592774e-05   5.179756340227982e-07   -1.7869546491610612e-05
2.4759422192733683e-05   0.0   -3.770703130341813e-05
2.4759422192733683e-05   0.0   -3.770703130341813e-05
2.4759422192733683e-05   0.0   -3.770703130341813e-05
2.4759422192733683e-05   0.0   -3.770703130341813e-05
5.5937938876335106e-05   -7.3668707103873325e-06   9.837040743018803e-06
5.5937938876335106e-05   -7.3668707103873325e-06   9.837040743018803e-06
5.5937938876335106e-05   -7.3668707103873325e-06   9.837040743018803e-06
5.5937938876335106e-05   -7.3668707103873325e-06   9.837040743018803e-06
5.2544580286259416e-05   0.0   -4.1663755663198476e-05
5.2544580286259416e-05   0.0   -4.1663755663198476e-05
5.2544580286259416e-05   0.0   -4.1663755663198476e-05
5.2544580286259416e-05   0.0   -4.1663755663198476e-05
2.481101523705409e-05   -6.26403821242371e-06   8.317275679597953e-06
2.481101523705409e-05   -6.26403821242371e-06   8.317275679597953e-06
2.481101523705409e-05   -6.26403821242371e-06   8.317275679597953e-06
2.481101523705409e-05   -6.26403821242371e-06   8.317275679597953e-06
3.865200123949655e-05   -3.297270299816952e-06   -1.6531095072036847e-05
3.865200123949655e-05   -3.297270299816952e-06   -1.6531095072036847e-05
3.865200123949655e-05   -3.297270299816952e-06   -1.6531095072036847e-05
3.865200123949655e-05   -3.297270299816952e-06   -1.6531095072036847e-05
2.481101523705407e-05   0.0   -3.7905332735744214e-05
2.481101523705407e-05   0.0   -3.7905332735744214e-05
2.481101523705407e-05   0.0   -3.7905332735744214e-05
2.481101523705407e-05   0.0   -3.7905332735744214e-05
5.2544580286259233e-05   -6.264038212423683e-06   4.5588527521436985e-06
5.2544580286259233e-05   -6.264038212423683e-06   4.5588527521436985e-06
5.2544580286259233e-05   -6.264038212423683e-06   4.5588527521436985e-06
5.2544580286259233e-05   -6.264038212423683e-06   4.5588527521436985e-06
5.0982712326478226e-05   0.0   -4.0797614862806614e-05
5.0982712326478226e-05   0.0   -4.0797614862806614e-05
5.0982712326478226e-05   0.0   -4.0797614862806614e-05
5.0982712326478226e-05   0.0   -4.0797614862806614e-05
2.471127403163967e-05   -5.722502930646548e-06   6.421617386978894e-06
2.471127403163967e-05   -5.722502930646548e-06   6.421617386978894e-06
2.471127403163967e-05   -5.722502930646548e-06   6.421617386978894e-06
2.471127403163967e-05   -5.722502930646548e-06   6.421617386978894e-06
3.7896863781766137e-05   -2.410235105885307e-06   -1.754172622475529e-05
3.7896863781766137e-05   -2.410235105885307e-06   -1.754172622475529e-05
3.7896863781766137e-05   -2.410235105885307e-06   -1.754172622475529e-05
3.7896863781766137e-05   -2.410235105885307e-06   -1.754172622475529e-05
2.471127403163967e-05   0.0   -3.736411310441869e-05
2.471127403163967e-05   0.0   -3.736411310441869e-05
2.471127403163967e-05   0.0   -3.736411310441869e-05
2.471127403163967e-05   0.0   -3.736411310441869e-05
5.098271232647805e-05   -5.722502930646521e-06   2.9881156285909636e-06
5.098271232647805e-05   -5.722502930646521e-06   2.9881156285909636e-06
5.098271232647805e-05   -5.722502930646521e-06   2.9881156285909636e-06
5.098271232647805e-05   -5.722502930646521e-06   2.9881156285909636e-06
4.865297260384608e-05   0.0   -3.8584209723371775e-05
4.865297260384608e-05   0.0   -3.8584209723371775e-05
4.865297260384608e-05   0.0   -3.8584209723371775e-05
4.865297260384608e-05   0.0   -3.8584209723371775e-05
2.5196122650912325e-05   -4.442969708292745e-06   3.176322023160204e-06
2.5196122650912325e-05   -4.442969708292745e-06   3.176322023160204e-06
2.5196122650912325e-05   -4.442969708292745e-06   3.176322023160204e-06
2.5196122650912325e-05   -4.442969708292745e-06   3.176322023160204e-06
3.668212331774292e-05   -1.0167471824609615e-06   -1.8022745937056503e-05
3.668212331774292e-05   -1.0167471824609615e-06   -1.8022745937056503e-05
3.668212331774292e-05   -1.0167471824609615e-06   -1.8022745937056503e-05
3.668212331774292e-05   -1.0167471824609615e-06   -1.8022745937056503e-05
-5.46666325966713e-05   6.976526895806237e-06   -3.5926330941485073e-05
-5.46666325966713e-05   6.976526895806237e-06   -3.5926330941485073e-05
-5.46666325966713e-05   6.976526895806237e-06   -3.5926330941485073e-05
-5.46666325966713e-05   6.976526895806237e-06   -3.5926330941485073e-05
-3.5019333373230806e-05   6.269964815418927e-06   -3.6047694839832877e-06
-3.5019333373230806e-05   6.269964815418927e-06   -3.6047694839832877e-06
-3.5019333373230806e-05   6.269964815418927e-06   -3.6047694839832877e-06
-3.5019333373230806e-05   6.269964815418927e-06   -3.6047694839832877e-06
-3.5897145165378475e-05   8.37770489969156e-06   -3.0177848306953023e-05
-3.5897145165378475e-05   8.37770489969156e-06   -3.0177848306953023e-05
-3.5897145165378475e-05   8.37770489969156e-06   -3.0177848306953023e-05
-3.5897145165378475e-05   8.37770489969156e-06   -3.0177848306953023e-05
-5.525151555971645e-05   7.528937406489671e-06   2.588696179531486e-06
-5.525151555971645e-05   7.528937406489671e-06   2.588696179531486e-06
-5.525151555971645e-05   7.528937406489671e-06   2.588696179531486e-06
-5.525151555971645e-05   7.528937406489671e-06   2.588696179531486e-06
-4.3417643677867695e-05   7.289059195533164e-06   -1.6990496696976136e-05
-4.3417643677867695e-05   7.289059195533164e-06   -1.6990496696976136e-05
-4.3417643677867695e-05   7.289059195533164e-06   -1.6990496696976136e-05
-4.3417643677867695e-05   7.289059195533164e-06   -1.6990496696976136e-05
-5.525151555971645e-05   8.37770489969156e-06   -2.96685878110319e-05
-5.525151555971645e-05   8.37770489969156e-06   -2.96685878110319e-05
-5.525151555971645e-05   8.37770489969156e-06   -2.96685878110319e-05
-5.525151555971645e-05   8.37770489969156e-06   -2.96685878110319e-05
-3.58971451653786e-05   7.528937406489698e-06   2.0794356836103693e-06
-3.58971451653786e-05   7.528937406489698e-06   2.0794356836103693e-06
-3.58971451653786e-05   7.528937406489698e-06   2.0794356836103693e-06
-3.58971451653786e-05   7.528937406489698e-06   2.0794356836103693e-06
-3.60775710198248e-05   8.97695060833275e-06   -2.713561631959981e-05
-3.60775710198248e-05   8.97695060833275e-06   -2.713561631959981e-05
-3.60775710198248e-05   8.97695060833275e-06   -2.713561631959981e-05
-3.60775710198248e-05   8.97695060833275e-06   -2.713561631959981e-05
-5.563440972260825e-05   8.09728378082901e-06   5.98691494820797e-06
-5.563440972260825e-05   8.09728378082901e-06   5.98691494820797e-06
-5.563440972260825e-05   8.09728378082901e-06   5.98691494820797e-06
-5.563440972260825e-05   8.09728378082901e-06   5.98691494820797e-06
-4.468979337160907e-05   8.080498668645511e-06   -1.2244041236147038e-05
-4.468979337160907e-05   8.080498668645511e-06   -1.2244041236147038e-05
-4.468979337160907e-05   8.080498668645511e-06   -1.2244041236147038e-05
-4.468979337160907e-05   8.080498668645511e-06   -1.2244041236147038e-05
-5.563440972260815e-05   8.97695060833275e-06   -2.660781622309756e-05
-5.563440972260815e-05   8.97695060833275e-06   -2.660781622309756e-05
-5.563440972260815e-05   8.97695060833275e-06   -2.660781622309756e-05
-5.563440972260815e-05   8.97695060833275e-06   -2.660781622309756e-05
-3.607757101982487e-05   8.09728378082901e-06   5.459114851705759e-06
-3.607757101982487e-05   8.09728378082901e-06   5.459114851705759e-06
-3.607757101982487e-05   8.09728378082901e-06   5.459114851705759e-06
-3.607757101982487e-05   8.09728378082901e-06   5.459114851705759e-06
-3.5868776646633475e-05   1.0231278383703531e-05   -2.006227132594199e-05
-3.5868776646633475e-05   1.0231278383703531e-05   -2.006227132594199e-05
-3.5868776646633475e-05   1.0231278383703531e-05   -2.006227132594199e-05
-3.5868776646633475e-05   1.0231278383703531e-05   -2.006227132594199e-05
-5.4082990026390893e-05   8.551123842485183e-06   1.1302843698384493e-05
-5.4082990026390893e-05   8.551123842485183e-06   1.1302843698384493e-05
-5.4082990026390893e-05   8.551123842485183e-06   1.1302843698384493e-05
-5.4082990026390893e-05   8.551123842485183e-06   1.1302843698384493e-05
-4.352198175244349e-05   8.86537015426617e-06   -6.487384545263017e-06
-4.352198175244349e-05   8.86537015426617e-06   -6.487384545263017e-06
-4.352198175244349e-05   8.86537015426617e-06   -6.487384545263017e-06
-4.352198175244349e-05   8.86537015426617e-06   -6.487384545263017e-06
-3.5019333373230806e-05   2.5564845813159923e-06   -3.8187122234047346e-05
-3.5019333373230806e-05   2.5564845813159923e-06   -3.8187122234047346e-05
-3.5019333373230806e-05   2.5564845813159923e-06   -3.8187122234047346e-05
-3.5019333373230806e-05   2.5564845813159923e-06   -3.8187122234047346e-05
-1.6604498447786645e-05   2.9176337840999757e-06   -7.2790411699699745e-06
-1.6604498447786645e-05   2.9176337840999757e-06   -7.2790411699699745e-06
-1.6604498447786645e-05   2.9176337840999757e-06   -7.2790411699699745e-06
-1.6604498447786645e-05   2.9176337840999757e-06   -7.2790411699699745e-06
-1.6997707628681403e-05   3.643451555473913e-06   -3.812755071447814e-05
-1.6997707628681403e-05   3.643451555473913e-06   -3.812755071447814e-05
-1.6997707628681403e-05   3.643451555473913e-06   -3.812755071447814e-05
-1.6997707628681403e-05   3.643451555473913e-06   -3.812755071447814e-05
-3.5897145165378475e-05   4.075257231408731e-06   -6.887571558877149e-06
-3.5897145165378475e-05   4.075257231408731e-06   -6.887571558877149e-06
-3.5897145165378475e-05   4.075257231408731e-06   -6.887571558877149e-06
-3.5897145165378475e-05   4.075257231408731e-06   -6.887571558877149e-06
-2.6055854828425714e-05   3.2810952443402717e-06   -2.281322492822424e-05
-2.6055854828425714e-05   3.2810952443402717e-06   -2.281322492822424e-05
-2.6055854828425714e-05   3.2810952443402717e-06   -2.281322492822424e-05
-2.6055854828425714e-05   3.2810952443402717e-06   -2.281322492822424e-05
-3.589714516537844e-05   3.643451555473913e-06   -3.838663412003896e-05
-3.589714516537844e-05   3.643451555473913e-06   -3.838663412003896e-05
-3.589714516537844e-05   3.643451555473913e-06   -3.838663412003896e-05
-3.589714516537844e-05   3.643451555473913e-06   -3.838663412003896e-05
-1.6997707628681434e-05   4.075257231408731e-06   -6.628488153316292e-06
-1.6997707628681434e-05   4.075257231408731e-06   -6.628488153316292e-06
-1.6997707628681434e-05   4.075257231408731e-06   -6.628488153316292e-06
-1.6997707628681434e-05   4.075257231408731e-06   -6.628488153316292e-06
-1.7118801242894303e-05   4.466892574592207e-06   -3.741497461968791e-05
-1.7118801242894303e-05   4.466892574592207e-06   -3.741497461968791e-05
-1.7118801242894303e-05   4.466892574592207e-06   -3.741497461968791e-05
-1.7118801242894303e-05   4.466892574592207e-06   -3.741497461968791e-05
-3.60775710198248e-05   5.03388833537701e-06   -6.157222447941322e-06
-3.60775710198248e-05   5.03388833537701e-06   -6.157222447941322e-06
-3.60775710198248e-05   5.03388833537701e-06   -6.157222447941322e-06
-3.60775710198248e-05   5.03388833537701e-06   -6.157222447941322e-06
-2.625645426901668e-05   4.166224606659769e-06   -2.2005152128724443e-05
-2.625645426901668e-05   4.166224606659769e-06   -2.2005152128724443e-05
-2.625645426901668e-05   4.166224606659769e-06   -2.2005152128724443e-05
-2.625645426901668e-05   4.166224606659769e-06   -2.2005152128724443e-05
-3.60775710198248e-05   4.466892574592207e-06   -3.77551720761588e-05
-3.60775710198248e-05   4.466892574592207e-06   -3.77551720761588e-05
-3.60775710198248e-05   4.466892574592207e-06   -3.77551720761588e-05
-3.60775710198248e-05   4.466892574592207e-06   -3.77551720761588e-05
-1.7118801242894364e-05   5.033888335377037e-06   -5.8170249914704735e-06
-1.7118801242894364e-05   5.033888335377037e-06   -5.8170249914704735e-06
-1.7118801242894364e-05   5.033888335377037e-06   -5.8170249914704735e-06
-1.7118801242894364e-05   5.033888335377037e-06   -5.8170249914704735e-06
-1.70737351289277e-05   5.199251051008543e-06   -3.703399833852373e-05
-1.70737351289277e-05   5.199251051008543e-06   -3.703399833852373e-05
-1.70737351289277e-05   5.199251051008543e-06   -3.703399833852373e-05
-1.70737351289277e-05   5.199251051008543e-06   -3.703399833852373e-05
-3.5868776646633455e-05   6.065697579300697e-06   -6.228797059322781e-06
-3.5868776646633455e-05   6.065697579300697e-06   -6.228797059322781e-06
-3.5868776646633455e-05   6.065697579300697e-06   -6.228797059322781e-06
-3.5868776646633455e-05   6.065697579300697e-06   -6.228797059322781e-06
-2.6407653394098328e-05   4.967384148946358e-06   -2.1338347755335506e-05
-2.6407653394098328e-05   4.967384148946358e-06   -2.1338347755335506e-05
-2.6407653394098328e-05   4.967384148946358e-06   -2.1338347755335506e-05
-2.6407653394098328e-05   4.967384148946358e-06   -2.1338347755335506e-05
-1.6604498447786622e-05   -3.292025185593189e-07   -3.9988978649031196e-05
-1.6604498447786622e-05   -3.292025185593189e-07   -3.9988978649031196e-05
-1.6604498447786622e-05   -3.292025185593189e-07   -3.9988978649031196e-05
-1.6604498447786622e-05   -3.292025185593189e-07   -3.9988978649031196e-05
1.577445969423135e-06   -8.79327752774427e-08   -9.54097610771246e-06
1.577445969423135e-06   -8.79327752774427e-08   -9.54097610771246e-06
1.577445969423135e-06   -8.79327752774427e-08   -9.54097610771246e-06
1.577445969423135e-06   -8.79327752774427e-08   -9.54097610771246e-06
1.5058002393199876e-06   6.466691156150001e-07   -4.020902144001184e-05
1.5058002393199876e-06   6.466691156150001e-07   -4.020902144001184e-05
1.5058002393199876e-06   6.466691156150001e-07   -4.020902144001184e-05
1.5058002393199876e-06   6.466691156150001e-07   -4.020902144001184e-05
-1.6997707628681403e-05   9.788476012687975e-07   -9.569148751401661e-06
-1.6997707628681403e-05   9.788476012687975e-07   -9.569148751401661e-06
-1.6997707628681403e-05   9.788476012687975e-07   -9.569148751401661e-06
-1.6997707628681403e-05   9.788476012687975e-07   -9.569148751401661e-06
-7.67535299578438e-06   3.253751159080565e-07   -2.4714322981680342e-05
-7.67535299578438e-06   3.253751159080565e-07   -2.4714322981680342e-05
-7.67535299578438e-06   3.253751159080565e-07   -2.4714322981680342e-05
-7.67535299578438e-06   3.253751159080565e-07   -2.4714322981680342e-05
-1.6997707628681403e-05   6.466691156149933e-07   -4.040832853140406e-05
-1.6997707628681403e-05   6.466691156149933e-07   -4.040832853140406e-05
-1.6997707628681403e-05   6.466691156149933e-07   -4.040832853140406e-05
-1.6997707628681403e-05   6.466691156149933e-07   -4.040832853140406e-05
1.5058002393199876e-06   9.788476012688246e-07   -9.369841660009386e-06
1.5058002393199876e-06   9.788476012688246e-07   -9.369841660009386e-06
1.5058002393199876e-06   9.788476012688246e-07   -9.369841660009386e-06
1.5058002393199876e-06   9.788476012688246e-07   -9.369841660009386e-06
1.4074216188738053e-06   1.506233429200342e-06   -4.0292122914606946e-05
1.4074216188738053e-06   1.506233429200342e-06   -4.0292122914606946e-05
1.4074216188738053e-06   1.506233429200342e-06   -4.0292122914606946e-05
1.4074216188738053e-06   1.506233429200342e-06   -4.0292122914606946e-05
-1.7118801242894303e-05   2.0212954046555166e-06   -9.72412199693325e-06
-1.7118801242894303e-05   2.0212954046555166e-06   -9.72412199693325e-06
-1.7118801242894303e-05   2.0212954046555166e-06   -9.72412199693325e-06
-1.7118801242894303e-05   2.0212954046555166e-06   -9.72412199693325e-06
-7.81524636876392e-06   1.2291319637945447e-06   -2.4754748722633874e-05
-7.81524636876392e-06   1.2291319637945447e-06   -2.4754748722633874e-05
-7.81524636876392e-06   1.2291319637945447e-06   -2.4754748722633874e-05
-7.81524636876392e-06   1.2291319637945447e-06   -2.4754748722633874e-05
-1.7118801242894303e-05   1.506233429200342e-06   -4.0601160099880056e-05
-1.7118801242894303e-05   1.506233429200342e-06   -4.0601160099880056e-05
-1.7118801242894303e-05   1.506233429200342e-06   -4.0601160099880056e-05
-1.7118801242894303e-05   1.506233429200342e-06   -4.0601160099880056e-05
1.4074216188738078e-06   2.0212954046555166e-06   -9.415084811660147e-06
1.4074216188738078e-06   2.0212954046555166e-06   -9.415084811660147e-06
1.4074216188738078e-06   2.0212954046555166e-06   -9.415084811660147e-06
1.4074216188738078e-06   2.0212954046555166e-06   -9.415084811660147e-06
1.2055086085401055e-06   2.5014519304157606e-06   -4.022327023355718e-05
1.2055086085401055e-06   2.5014519304157606e-06   -4.022327023355718e-05
1.2055086085401055e-06   2.5014519304157606e-06   -4.022327023355718e-05
1.2055086085401055e-06   2.5014519304157606e-06   -4.022327023355718e-05
-1.707373512892772e-05   3.1072776865348408e-06   -1.012135945811563e-05
-1.707373512892772e-05   3.1072776865348408e-06   -1.012135945811563e-05
-1.707373512892772e-05   3.1072776865348408e-06   -1.012135945811563e-05
-1.707373512892772e-05   3.1072776865348408e-06   -1.012135945811563e-05
-7.898621197452946e-06   2.157570013621129e-06   -2.484339140682532e-05
-7.898621197452946e-06   2.157570013621129e-06   -2.484339140682532e-05
-7.898621197452946e-06   2.157570013621129e-06   -2.484339140682532e-05
-7.898621197452946e-06   2.157570013621129e-06   -2.484339140682532e-05
1.577445969423135e-06   -2.904060653176571e-06   -3.689507154018446e-05
1.577445969423135e-06   -2.904060653176571e-06   -3.689507154018446e-05
1.577445969423135e-06   -2.904060653176571e-06   -3.689507154018446e-05
1.577445969423135e-06   -2.904060653176571e-06   -3.689507154018446e-05
2.031405046875479e-05   -2.9853573450678423e-06   -5.716175389766469e-06
2.031405046875479e-05   -2.9853573450678423e-06   -5.716175389766469e-06
2.031405046875479e-05   -2.9853573450678423e-06   -5.716175389766469e-06
2.031405046875479e-05   -2.9853573450678423e-06   -5.716175389766469e-06
2.0484385814117327e-05   -2.1874946865316447e-06   -3.7405298178954135e-05
2.0484385814117327e-05   -2.1874946865316447e-06   -3.7405298178954135e-05
2.0484385814117327e-05   -2.1874946865316447e-06   -3.7405298178954135e-05
2.0484385814117327e-05   -2.1874946865316447e-06   -3.7405298178954135e-05
1.5058002393199876e-06   -2.015349656710717e-06   -5.877609238851068e-06
1.5058002393199876e-06   -2.015349656710717e-06   -5.877609238851068e-06
1.5058002393199876e-06   -2.015349656710717e-06   -5.877609238851068e-06
1.5058002393199876e-06   -2.015349656710717e-06   -5.877609238851068e-06
1.0830299294305408e-05   -2.4136982092043662e-06   -2.1179431865663976e-05
1.0830299294305408e-05   -2.4136982092043662e-06   -2.1179431865663976e-05
1.0830299294305408e-05   -2.4136982092043662e-06   -2.1179431865663976e-05
1.0830299294305408e-05   -2.4136982092043662e-06   -2.1179431865663976e-05
1.505800239319985e-06   -2.1874946865316515e-06   -3.750858519684677e-05
1.505800239319985e-06   -2.1874946865316515e-06   -3.750858519684677e-05
1.505800239319985e-06   -2.1874946865316515e-06   -3.750858519684677e-05
1.505800239319985e-06   -2.1874946865316515e-06   -3.750858519684677e-05
2.0484385814117364e-05   -2.01534965671069e-06   -5.774322220958495e-06
2.0484385814117364e-05   -2.01534965671069e-06   -5.774322220958495e-06
2.0484385814117364e-05   -2.01534965671069e-06   -5.774322220958495e-06
2.0484385814117364e-05   -2.01534965671069e-06   -5.774322220958495e-06
2.0387136817132324e-05   -1.3735240753252258e-06   -3.810323710446006e-05
2.0387136817132324e-05   -1.3735240753252258e-06   -3.810323710446006e-05
2.0387136817132324e-05   -1.3735240753252258e-06   -3.810323710446006e-05
2.0387136817132324e-05   -1.3735240753252258e-06   -3.810323710446006e-05
1.4074216188738053e-06   -1.0656369898077067e-06   -6.655110692006422e-06
1.4074216188738053e-06   -1.0656369898077067e-06   -6.655110692006422e-06
1.4074216188738053e-06   -1.0656369898077067e-06   -6.655110692006422e-06
1.4074216188738053e-06   -1.0656369898077067e-06   -6.655110692006422e-06
1.0717480359067447e-05   -1.6399743896097177e-06   -2.1827272819114562e-05
1.0717480359067447e-05   -1.6399743896097177e-06   -2.1827272819114562e-05
1.0717480359067447e-05   -1.6399743896097177e-06   -2.1827272819114562e-05
1.0717480359067447e-05   -1.6399743896097177e-06   -2.1827272819114562e-05
1.407421618873804e-06   -1.3735240753252325e-06   -3.828796935577059e-05
1.407421618873804e-06   -1.3735240753252325e-06   -3.828796935577059e-05
1.407421618873804e-06   -1.3735240753252325e-06   -3.828796935577059e-05
1.407421618873804e-06   -1.3735240753252325e-06   -3.828796935577059e-05
2.0387136817132395e-05   -1.0656369898077067e-06   -6.470378440695906e-06
2.0387136817132395e-05   -1.0656369898077067e-06   -6.470378440695906e-06
2.0387136817132395e-05   -1.0656369898077067e-06   -6.470378440695906e-06
2.0387136817132395e-05   -1.0656369898077067e-06   -6.470378440695906e-06
1.9793868926042506e-05   -2.801266839271669e-07   -3.8171141221842e-05
1.9793868926042506e-05   -2.801266839271669e-07   -3.8171141221842e-05
1.9793868926042506e-05   -2.801266839271669e-07   -3.8171141221842e-05
1.9793868926042506e-05   -2.801266839271669e-07   -3.8171141221842e-05
1.2055086085401055e-06   1.08469030086762e-07   -7.423698121079747e-06
1.2055086085401055e-06   1.08469030086762e-07   -7.423698121079747e-06
1.2055086085401055e-06   1.08469030086762e-07   -7.423698121079747e-06
1.2055086085401055e-06   1.08469030086762e-07   -7.423698121079747e-06
1.0603115799523453e-05   -7.363311765337481e-07   -2.2579496648746317e-05
1.0603115799523453e-05   -7.363311765337481e-07   -2.2579496648746317e-05
1.0603115799523453e-05   -7.363311765337481e-07   -2.2579496648746317e-05
1.0603115799523453e-05   -7.363311765337481e-07   -2.2579496648746317e-05
2.031405046875479e-05   -7.3668707103873325e-06   -2.2322923513672545e-05
2.031405046875479e-05   -7.3668707103873325e-06   -2.2322923513672545e-05
2.031405046875479e-05   -7.3668707103873325e-06   -2.2322923513672545e-05
2.031405046875479e-05   -7.3668707103873325e-06   -2.2322923513672545e-05
3.879887084289659e-05   -5.545402664324249e-06   9.577991270868266e-06
3.879887084289659e-05   -5.545402664324249e-06   9.577991270868266e-06
3.879887084289659e-05   -5.545402664324249e-06   9.577991270868266e-06
3.879887084289659e-05   -5.545402664324249e-06   9.577991270868266e-06
4.028321191091739e-05   -6.26403821242371e-06   -2.711527810366372e-05
4.028321191091739e-05   -6.26403821242371e-06   -2.711527810366372e-05
4.028321191091739e-05   -6.26403821242371e-06   -2.711527810366372e-05
4.028321191091739e-05   -6.26403821242371e-06   -2.711527810366372e-05
2.0484385814117395e-05   -5.02744138005458e-06   5.14080729158152e-06
2.0484385814117395e-05   -5.02744138005458e-06   5.14080729158152e-06
2.0484385814117395e-05   -5.02744138005458e-06   5.14080729158152e-06
2.0484385814117395e-05   -5.02744138005458e-06   5.14080729158152e-06
2.857615537263796e-05   -6.024428238625586e-06   -7.747283190810204e-06
2.857615537263796e-05   -6.024428238625586e-06   -7.747283190810204e-06
2.857615537263796e-05   -6.024428238625586e-06   -7.747283190810204e-06
2.857615537263796e-05   -6.024428238625586e-06   -7.747283190810204e-06
2.0484385814117344e-05   -6.264038212423683e-06   -2.7857236203085107e-05
2.0484385814117344e-05   -6.264038212423683e-06   -2.7857236203085107e-05
2.0484385814117344e-05   -6.264038212423683e-06   -2.7857236203085107e-05
2.0484385814117344e-05   -6.264038212423683e-06   -2.7857236203085107e-05
4.028321191091739e-05   -5.02744138005458e-06   5.882765391003014e-06
4.028321191091739e-05   -5.02744138005458e-06   5.882765391003014e-06
4.028321191091739e-05   -5.02744138005458e-06   5.882765391003014e-06
4.028321191091739e-05   -5.02744138005458e-06   5.882765391003014e-06
4.01374567478591e-05   -5.722502930646534e-06   -2.9483855960094205e-05
4.01374567478591e-05   -5.722502930646534e-06   -2.9483855960094205e-05
4.01374567478591e-05   -5.722502930646534e-06   -2.9483855960094205e-05
4.01374567478591e-05   -5.722502930646534e-06   -2.9483855960094205e-05
2.0387136817132395e-05   -4.480997605236928e-06   2.688440729204473e-06
2.0387136817132395e-05   -4.480997605236928e-06   2.688440729204473e-06
2.0387136817132395e-05   -4.480997605236928e-06   2.688440729204473e-06
2.0387136817132395e-05   -4.480997605236928e-06   2.688440729204473e-06
2.9579857903804823e-05   -5.318055432422059e-06   -1.2130526385605128e-05
2.9579857903804823e-05   -5.318055432422059e-06   -1.2130526385605128e-05
2.9579857903804823e-05   -5.318055432422059e-06   -1.2130526385605128e-05
2.9579857903804823e-05   -5.318055432422059e-06   -1.2130526385605128e-05
2.0387136817132364e-05   -5.722502930646521e-06   -3.0228759155339932e-05
2.0387136817132364e-05   -5.722502930646521e-06   -3.0228759155339932e-05
2.0387136817132364e-05   -5.722502930646521e-06   -3.0228759155339932e-05
2.0387136817132364e-05   -5.722502930646521e-06   -3.0228759155339932e-05
4.01374567478591e-05   -4.480997605236928e-06   3.4333439244502585e-06
4.01374567478591e-05   -4.480997605236928e-06   3.4333439244502585e-06
4.01374567478591e-05   -4.480997605236928e-06   3.4333439244502585e-06
4.01374567478591e-05   -4.480997605236928e-06   3.4333439244502585e-06
3.990056967010159e-05   -4.442969708292738e-06   -3.431332242116645e-05
3.990056967010159e-05   -4.442969708292738e-06   -3.431332242116645e-05
3.990056967010159e-05   -4.442969708292738e-06   -3.431332242116645e-05
3.990056967010159e-05   -4.442969708292738e-06   -3.431332242116645e-05
1.9793868926042574e-05   -3.305375522268957e-06   -1.4847110260157221e-06
1.9793868926042574e-05   -3.305375522268957e-06   -1.4847110260157221e-06
1.9793868926042574e-05   -3.305375522268957e-06   -1.4847110260157221e-06
1.9793868926042574e-05   -3.305375522268957e-06   -1.4847110260157221e-06
2.873655907266464e-05   -4.577388566124067e-06   -1.5625986777406084e-05
2.873655907266464e-05   -4.577388566124067e-06   -1.5625986777406084e-05
2.873655907266464e-05   -4.577388566124067e-06   -1.5625986777406084e-05
2.873655907266464e-05   -4.577388566124067e-06   -1.5625986777406084e-05
-4.349385453363488e-05   6.269964815418954e-06   -3.0060755707151337e-05
-4.349385453363488e-05   6.269964815418954e-06   -3.0060755707151337e-05
-4.349385453363488e-05   6.269964815418954e-06   -3.0060755707151337e-05
-4.349385453363488e-05   6.269964815418954e-06   -3.0060755707151337e-05
-2.852701250268077e-05   4.786275088327664e-06   -6.006232825149266e-06
-2.852701250268077e-05   4.786275088327664e-06   -6.006232825149266e-06
-2.852701250268077e-05   4.786275088327664e-06   -6.006232825149266e-06
-2.852701250268077e-05   4.786275088327664e-06   -6.006232825149266e-06
-2.866306971194373e-05   7.528937406489671e-06   -2.4961902610484178e-05
-2.866306971194373e-05   7.528937406489671e-06   -2.4961902610484178e-05
-2.866306971194373e-05   7.528937406489671e-06   -2.4961902610484178e-05
-2.866306971194373e-05   7.528937406489671e-06   -2.4961902610484178e-05
-4.2829383554508595e-05   5.792518312687002e-06   -3.09528083261134e-07
-4.2829383554508595e-05   5.792518312687002e-06   -3.09528083261134e-07
-4.2829383554508595e-05   5.792518312687002e-06   -3.09528083261134e-07
-4.2829383554508595e-05   5.792518312687002e-06   -3.09528083261134e-07
-3.436068133418335e-05   6.376882056493541e-06   -1.4774650030087243e-05
-3.436068133418335e-05   6.376882056493541e-06   -1.4774650030087243e-05
-3.436068133418335e-05   6.376882056493541e-06   -1.4774650030087243e-05
-3.436068133418335e-05   6.376882056493541e-06   -1.4774650030087243e-05
-4.2829383554508595e-05   7.528937406489671e-06   -2.392005115420262e-05
-4.2829383554508595e-05   7.528937406489671e-06   -2.392005115420262e-05
-4.2829383554508595e-05   7.528937406489671e-06   -2.392005115420262e-05
-4.2829383554508595e-05   7.528937406489671e-06   -2.392005115420262e-05
-2.866306971194373e-05   5.792518312687056e-06   -1.351379539542665e-06
-2.866306971194373e-05   5.792518312687056e-06   -1.351379539542665e-06
-2.866306971194373e-05   5.792518312687056e-06   -1.351379539542665e-06
-2.866306971194373e-05   5.792518312687056e-06   -1.351379539542665e-06
-2.8632060759795476e-05   8.09728378082901e-06   -2.1356966106077127e-05
-2.8632060759795476e-05   8.09728378082901e-06   -2.1356966106077127e-05
-2.8632060759795476e-05   8.09728378082901e-06   -2.1356966106077127e-05
-2.8632060759795476e-05   8.09728378082901e-06   -2.1356966106077127e-05
-4.218274700245215e-05   6.235056937897265e-06   2.3448470707762505e-06
-4.218274700245215e-05   6.235056937897265e-06   2.3448470707762505e-06
-4.218274700245215e-05   6.235056937897265e-06   2.3448470707762505e-06
-4.218274700245215e-05   6.235056937897265e-06   2.3448470707762505e-06
-3.4654738084767706e-05   6.9601701549187205e-06   -1.0636902388910297e-05
-3.4654738084767706e-05   6.9601701549187205e-06   -1.0636902388910297e-05
-3.4654738084767706e-05   6.9601701549187205e-06   -1.0636902388910297e-05
-3.4654738084767706e-05   6.9601701549187205e-06   -1.0636902388910297e-05
-4.218274700245215e-05   8.09728378082901e-06   -2.0239630000318048e-05
-4.218274700245215e-05   8.09728378082901e-06   -2.0239630000318048e-05
-4.218274700245215e-05   8.09728378082901e-06   -2.0239630000318048e-05
-4.218274700245215e-05   8.09728378082901e-06   -2.0239630000318048e-05
-2.8632060759795544e-05   6.235056937897265e-06   1.2275109650173612e-06
-2.8632060759795544e-05   6.235056937897265e-06   1.2275109650173612e-06
-2.8632060759795544e-05   6.235056937897265e-06   1.2275109650173612e-06
-2.8632060759795544e-05   6.235056937897265e-06   1.2275109650173612e-06
-2.8659786596565374e-05   8.551123842485183e-06   -1.6312444448576184e-05
-2.8659786596565374e-05   8.551123842485183e-06   -1.6312444448576184e-05
-2.8659786596565374e-05   8.551123842485183e-06   -1.6312444448576184e-05
-2.8659786596565374e-05   8.551123842485183e-06   -1.6312444448576184e-05
-4.133985084569806e-05   6.672088329737343e-06   5.948417274293384e-06
-4.133985084569806e-05   6.672088329737343e-06   5.948417274293384e-06
-4.133985084569806e-05   6.672088329737343e-06   5.948417274293384e-06
-4.133985084569806e-05   6.672088329737343e-06   5.948417274293384e-06
-3.3862968028844375e-05   7.268250741818908e-06   -6.870751534377828e-06
-3.3862968028844375e-05   7.268250741818908e-06   -6.870751534377828e-06
-3.3862968028844375e-05   7.268250741818908e-06   -6.870751534377828e-06
-3.3862968028844375e-05   7.268250741818908e-06   -6.870751534377828e-06
-2.852701250268077e-05   2.9176337840999757e-06   -3.484193075106311e-05
-2.852701250268077e-05   2.9176337840999757e-06   -3.484193075106311e-05
-2.852701250268077e-05   2.9176337840999757e-06   -3.484193075106311e-05
-2.852701250268077e-05   2.9176337840999757e-06   -3.484193075106311e-05
-1.4533156459639594e-05   2.3883287663091306e-06   -1.1836420356668995e-05
-1.4533156459639594e-05   2.3883287663091306e-06   -1.1836420356668995e-05
-1.4533156459639594e-05   2.3883287663091306e-06   -1.1836420356668995e-05
-1.4533156459639594e-05   2.3883287663091306e-06   -1.1836420356668995e-05
-1.4708179021200454e-05   4.075257231408731e-06   -3.434706453782376e-05
-1.4708179021200454e-05   4.075257231408731e-06   -3.434706453782376e-05
-1.4708179021200454e-05   4.075257231408731e-06   -3.434706453782376e-05
-1.4708179021200454e-05   4.075257231408731e-06   -3.434706453782376e-05
-2.866306971194369e-05   3.378332756655191e-06   -1.0670758701732819e-05
-2.866306971194369e-05   3.378332756655191e-06   -1.0670758701732819e-05
-2.866306971194369e-05   3.378332756655191e-06   -1.0670758701732819e-05
-2.866306971194369e-05   3.378332756655191e-06   -1.0670758701732819e-05
-2.142262878378373e-05   3.3672590794625243e-06   -2.273151604235057e-05
-2.142262878378373e-05   3.3672590794625243e-06   -2.273151604235057e-05
-2.142262878378373e-05   3.3672590794625243e-06   -2.273151604235057e-05
-2.142262878378373e-05   3.3672590794625243e-06   -2.273151604235057e-05
-2.8663069711943717e-05   4.075257231408731e-06   -3.392890985297159e-05
-2.8663069711943717e-05   4.075257231408731e-06   -3.392890985297159e-05
-2.8663069711943717e-05   4.075257231408731e-06   -3.392890985297159e-05
-2.8663069711943717e-05   4.075257231408731e-06   -3.392890985297159e-05
-1.4708179021200474e-05   3.3783327566552454e-06   -1.1088913386584916e-05
-1.4708179021200474e-05   3.3783327566552454e-06   -1.1088913386584916e-05
-1.4708179021200474e-05   3.3783327566552454e-06   -1.1088913386584916e-05
-1.4708179021200474e-05   3.3783327566552454e-06   -1.1088913386584916e-05
-1.4821162618151759e-05   5.03388833537701e-06   -3.3438581446025605e-05
-1.4821162618151759e-05   5.03388833537701e-06   -3.3438581446025605e-05
-1.4821162618151759e-05   5.03388833537701e-06   -3.3438581446025605e-05
-1.4821162618151759e-05   5.03388833537701e-06   -3.3438581446025605e-05
-2.8632060759795476e-05   4.258424934874545e-06   -9.955139836318139e-06
-2.8632060759795476e-05   4.258424934874545e-06   -9.955139836318139e-06
-2.8632060759795476e-05   4.258424934874545e-06   -9.955139836318139e-06
-2.8632060759795476e-05   4.258424934874545e-06   -9.955139836318139e-06
-2.1460931109811277e-05   4.182110191302353e-06   -2.1861233740148086e-05
-2.1460931109811277e-05   4.182110191302353e-06   -2.1861233740148086e-05
-2.1460931109811277e-05   4.182110191302353e-06   -2.1861233740148086e-05
-2.1460931109811277e-05   4.182110191302353e-06   -2.1861233740148086e-05
-2.8632060759795476e-05   5.03388833537701e-06   -3.297330340572422e-05
-2.8632060759795476e-05   5.03388833537701e-06   -3.297330340572422e-05
-2.8632060759795476e-05   5.03388833537701e-06   -3.297330340572422e-05
-2.8632060759795476e-05   5.03388833537701e-06   -3.297330340572422e-05
-1.4821162618151806e-05   4.258424934874545e-06   -1.0420417876619465e-05
-1.4821162618151806e-05   4.258424934874545e-06   -1.0420417876619465e-05
-1.4821162618151806e-05   4.258424934874545e-06   -1.0420417876619465e-05
-1.4821162618151806e-05   4.258424934874545e-06   -1.0420417876619465e-05
-1.496791612151782e-05   6.065697579300724e-06   -3.335828383614159e-05
-1.496791612151782e-05   6.065697579300724e-06   -3.335828383614159e-05
-1.496791612151782e-05   6.065697579300724e-06   -3.335828383614159e-05
-1.496791612151782e-05   6.065697579300724e-06   -3.335828383614159e-05
-2.865978659656536e-05   5.195211988319036e-06   -1.001620835647333e-05
-2.865978659656536e-05   5.195211988319036e-06   -1.001620835647333e-05
-2.865978659656536e-05   5.195211988319036e-06   -1.001620835647333e-05
-2.865978659656536e-05   5.195211988319036e-06   -1.001620835647333e-05
-2.171385288999103e-05   4.989710513475694e-06   -2.1469463649190934e-05
-2.171385288999103e-05   4.989710513475694e-06   -2.1469463649190934e-05
-2.171385288999103e-05   4.989710513475694e-06   -2.1469463649190934e-05
-2.171385288999103e-05   4.989710513475694e-06   -2.1469463649190934e-05
-1.4533156459639567e-05   -8.79327752774427e-08   -3.7566210545449265e-05
-1.4533156459639567e-05   -8.79327752774427e-08   -3.7566210545449265e-05
-1.4533156459639567e-05   -8.79327752774427e-08   -3.7566210545449265e-05
-1.4533156459639567e-05   -8.79327752774427e-08   -3.7566210545449265e-05
-6.942459957872364e-07   1.274970945404916e-07   -1.4372101850471339e-05
-6.942459957872364e-07   1.274970945404916e-07   -1.4372101850471339e-05
-6.942459957872364e-07   1.274970945404916e-07   -1.4372101850471339e-05
-6.942459957872364e-07   1.274970945404916e-07   -1.4372101850471339e-05
-8.34489570800355e-07   9.788476012687975e-07   -3.721351994932906e-05
-8.34489570800355e-07   9.788476012687975e-07   -3.721351994932906e-05
-8.34489570800355e-07   9.788476012687975e-07   -3.721351994932906e-05
-8.34489570800355e-07   9.788476012687975e-07   -3.721351994932906e-05
-1.4708179021200454e-05   1.102522912235543e-06   -1.4164909385242357e-05
-1.4708179021200454e-05   1.102522912235543e-06   -1.4164909385242357e-05
-1.4708179021200454e-05   1.102522912235543e-06   -1.4164909385242357e-05
-1.4708179021200454e-05   1.102522912235543e-06   -1.4164909385242357e-05
-7.649045181375205e-06   6.427611490825895e-07   -2.5654275393726007e-05
-7.649045181375205e-06   6.427611490825895e-07   -2.5654275393726007e-05
-7.649045181375205e-06   6.427611490825895e-07   -2.5654275393726007e-05
-7.649045181375205e-06   6.427611490825895e-07   -2.5654275393726007e-05
-1.4708179021200454e-05   9.788476012687975e-07   -3.7287725135909175e-05
-1.4708179021200454e-05   9.788476012687975e-07   -3.7287725135909175e-05
-1.4708179021200454e-05   9.788476012687975e-07   -3.7287725135909175e-05
-1.4708179021200454e-05   9.788476012687975e-07   -3.7287725135909175e-05
-8.344895708003566e-07   1.1025229122355973e-06   -1.4090704198662228e-05
-8.344895708003566e-07   1.1025229122355973e-06   -1.4090704198662228e-05
-8.344895708003566e-07   1.1025229122355973e-06   -1.4090704198662228e-05
-8.344895708003566e-07   1.1025229122355973e-06   -1.4090704198662228e-05
-9.353078385783952e-07   2.0212954046555166e-06   -3.731363849840389e-05
-9.353078385783952e-07   2.0212954046555166e-06   -3.731363849840389e-05
-9.353078385783952e-07   2.0212954046555166e-06   -3.731363849840389e-05
-9.353078385783952e-07   2.0212954046555166e-06   -3.731363849840389e-05
-1.4821162618151786e-05   2.0746953264630407e-06   -1.4202587152199606e-05
-1.4821162618151786e-05   2.0746953264630407e-06   -1.4202587152199606e-05
-1.4821162618151786e-05   2.0746953264630407e-06   -1.4202587152199606e-05
-1.4821162618151786e-05   2.0746953264630407e-06   -1.4202587152199606e-05
-7.830489296866187e-06   1.5027711091521309e-06   -2.551055482395548e-05
-7.830489296866187e-06   1.5027711091521309e-06   -2.551055482395548e-05
-7.830489296866187e-06   1.5027711091521309e-06   -2.551055482395548e-05
-7.830489296866187e-06   1.5027711091521309e-06   -2.551055482395548e-05
-1.4821162618151786e-05   2.0212954046555166e-06   -3.734567845148849e-05
-1.4821162618151786e-05   2.0212954046555166e-06   -3.734567845148849e-05
-1.4821162618151786e-05   2.0212954046555166e-06   -3.734567845148849e-05
-1.4821162618151786e-05   2.0212954046555166e-06   -3.734567845148849e-05
-9.353078385783965e-07   2.074695326463095e-06   -1.4170547199114899e-05
-9.353078385783965e-07   2.074695326463095e-06   -1.4170547199114899e-05
-9.353078385783965e-07   2.074695326463095e-06   -1.4170547199114899e-05
-9.353078385783965e-07   2.074695326463095e-06   -1.4170547199114899e-05
-1.0945647369829903e-06   3.1072776865348408e-06   -3.779343418014244e-05
-1.0945647369829903e-06   3.1072776865348408e-06   -3.779343418014244e-05
-1.0945647369829903e-06   3.1072776865348408e-06   -3.779343418014244e-05
-1.0945647369829903e-06   3.1072776865348408e-06   -3.779343418014244e-05
-1.4967916121517806e-05   3.0694109728134186e-06   -1.4648461844351716e-05
-1.4967916121517806e-05   3.0694109728134186e-06   -1.4648461844351716e-05
-1.4967916121517806e-05   3.0694109728134186e-06   -1.4648461844351716e-05
-1.4967916121517806e-05   3.0694109728134186e-06   -1.4648461844351716e-05
-8.023328119993382e-06   2.3730024451225134e-06   -2.5804930063610998e-05
-8.023328119993382e-06   2.3730024451225134e-06   -2.5804930063610998e-05
-8.023328119993382e-06   2.3730024451225134e-06   -2.5804930063610998e-05
-8.023328119993382e-06   2.3730024451225134e-06   -2.5804930063610998e-05
-6.942459957872372e-07   -2.9853573450678423e-06   -3.3563373890477786e-05
-6.942459957872372e-07   -2.9853573450678423e-06   -3.3563373890477786e-05
-6.942459957872372e-07   -2.9853573450678423e-06   -3.3563373890477786e-05
-6.942459957872372e-07   -2.9853573450678423e-06   -3.3563373890477786e-05
1.30716248647813e-05   -1.9987512051597802e-06   -1.0028292105585413e-05
1.30716248647813e-05   -1.9987512051597802e-06   -1.0028292105585413e-05
1.30716248647813e-05   -1.9987512051597802e-06   -1.0028292105585413e-05
1.30716248647813e-05   -1.9987512051597802e-06   -1.0028292105585413e-05
1.3063080063022808e-05   -2.015349656710717e-06   -3.3174648298984474e-05
1.3063080063022808e-05   -2.015349656710717e-06   -3.3174648298984474e-05
1.3063080063022808e-05   -2.015349656710717e-06   -3.3174648298984474e-05
1.3063080063022808e-05   -2.015349656710717e-06   -3.3174648298984474e-05
-8.344895708003566e-07   -1.104284274733346e-06   -1.0558671471798915e-05
-8.344895708003566e-07   -1.104284274733346e-06   -1.0558671471798915e-05
-8.344895708003566e-07   -1.104284274733346e-06   -1.0558671471798915e-05
-8.344895708003566e-07   -1.104284274733346e-06   -1.0558671471798915e-05
6.1047909738857955e-06   -1.9552320087226627e-06   -2.1613570405882268e-05
6.1047909738857955e-06   -1.9552320087226627e-06   -2.1613570405882268e-05
6.1047909738857955e-06   -1.9552320087226627e-06   -2.1613570405882268e-05
6.1047909738857955e-06   -1.9552320087226627e-06   -2.1613570405882268e-05
-8.344895708003566e-07   -2.01534965671069e-06   -3.372128752817084e-05
-8.344895708003566e-07   -2.01534965671069e-06   -3.372128752817084e-05
-8.344895708003566e-07   -2.01534965671069e-06   -3.372128752817084e-05
-8.344895708003566e-07   -2.01534965671069e-06   -3.372128752817084e-05
1.3063080063022808e-05   -1.1042842747334002e-06   -1.0012032242612441e-05
1.3063080063022808e-05   -1.1042842747334002e-06   -1.0012032242612441e-05
1.3063080063022808e-05   -1.1042842747334002e-06   -1.0012032242612441e-05
1.3063080063022808e-05   -1.1042842747334002e-06   -1.0012032242612441e-05
1.312710202074796e-05   -1.0656369898077067e-06   -3.404987186980439e-05
1.312710202074796e-05   -1.0656369898077067e-06   -3.404987186980439e-05
1.312710202074796e-05   -1.0656369898077067e-06   -3.404987186980439e-05
1.312710202074796e-05   -1.0656369898077067e-06   -3.404987186980439e-05
-9.353078385783977e-07   -2.2598280823119292e-07   -1.1116314613206452e-05
-9.353078385783977e-07   -2.2598280823119292e-07   -1.1116314613206452e-05
-9.353078385783977e-07   -2.2598280823119292e-07   -1.1116314613206452e-05
-9.353078385783977e-07   -2.2598280823119292e-07   -1.1116314613206452e-05
5.917882867545654e-06   -1.1798042817643133e-06   -2.196600623929314e-05
5.917882867545654e-06   -1.1798042817643133e-06   -2.196600623929314e-05
5.917882867545654e-06   -1.1798042817643133e-06   -2.196600623929314e-05
5.917882867545654e-06   -1.1798042817643133e-06   -2.196600623929314e-05
-9.353078385783956e-07   -1.0656369898077067e-06   -3.455366437875014e-05
-9.353078385783956e-07   -1.0656369898077067e-06   -3.455366437875014e-05
-9.353078385783956e-07   -1.0656369898077067e-06   -3.455366437875014e-05
-9.353078385783956e-07   -1.0656369898077067e-06   -3.455366437875014e-05
1.312710202074796e-05   -2.2598280823119292e-07   -1.0612522104260392e-05
1.312710202074796e-05   -2.2598280823119292e-07   -1.0612522104260392e-05
1.312710202074796e-05   -2.2598280823119292e-07   -1.0612522104260392e-05
1.312710202074796e-05   -2.2598280823119292e-07   -1.0612522104260392e-05
1.3028021600459551e-05   1.08469030086762e-07   -3.5044173405061955e-05
1.3028021600459551e-05   1.08469030086762e-07   -3.5044173405061955e-05
1.3028021600459551e-05   1.08469030086762e-07   -3.5044173405061955e-05
1.3028021600459551e-05   1.08469030086762e-07   -3.5044173405061955e-05
-1.0945647369829924e-06   8.00293849613715e-07   -1.1921624401040637e-05
-1.0945647369829924e-06   8.00293849613715e-07   -1.1921624401040637e-05
-1.0945647369829924e-06   8.00293849613715e-07   -1.1921624401040637e-05
-1.0945647369829924e-06   8.00293849613715e-07   -1.1921624401040637e-05
5.853149967627769e-06   -3.5065563147335544e-07   -2.281057922007279e-05
5.853149967627769e-06   -3.5065563147335544e-07   -2.281057922007279e-05
5.853149967627769e-06   -3.5065563147335544e-07   -2.281057922007279e-05
5.853149967627769e-06   -3.5065563147335544e-07   -2.281057922007279e-05
1.307162486478128e-05   -5.545402664324249e-06   -1.8770124373536086e-05
1.307162486478128e-05   -5.545402664324249e-06   -1.8770124373536086e-05
1.307162486478128e-05   -5.545402664324249e-06   -1.8770124373536086e-05
1.307162486478128e-05   -5.545402664324249e-06   -1.8770124373536086e-05
2.5948474883396756e-05   -3.6203767055379885e-06   3.846307899428179e-06
2.5948474883396756e-05   -3.6203767055379885e-06   3.846307899428179e-06
2.5948474883396756e-05   -3.6203767055379885e-06   3.846307899428179e-06
2.5948474883396756e-05   -3.6203767055379885e-06   3.846307899428179e-06
2.682965782459163e-05   -5.027441380054553e-06   -2.1105317286613875e-05
2.682965782459163e-05   -5.027441380054553e-06   -2.1105317286613875e-05
2.682965782459163e-05   -5.027441380054553e-06   -2.1105317286613875e-05
2.682965782459163e-05   -5.027441380054553e-06   -2.1105317286613875e-05
1.3063080063022787e-05   -3.1037722136704094e-06   6.847774828370719e-07
1.3063080063022787e-05   -3.1037722136704094e-06   6.847774828370719e-07
1.3063080063022787e-05   -3.1037722136704094e-06   6.847774828370719e-07
1.3063080063022787e-05   -3.1037722136704094e-06   6.847774828370719e-07
1.888516838881741e-05   -4.272769016784757e-06   -8.317304978285419e-06
1.888516838881741e-05   -4.272769016784757e-06   -8.317304978285419e-06
1.888516838881741e-05   -4.272769016784757e-06   -8.317304978285419e-06
1.888516838881741e-05   -4.272769016784757e-06   -8.317304978285419e-06
1.3063080063022774e-05   -5.02744138005458e-06   -2.2259518786444283e-05
1.3063080063022774e-05   -5.02744138005458e-06   -2.2259518786444283e-05
1.3063080063022774e-05   -5.02744138005458e-06   -2.2259518786444283e-05
1.3063080063022774e-05   -5.02744138005458e-06   -2.2259518786444283e-05
2.682965782459163e-05   -3.1037722136704094e-06   1.8389789826676558e-06
2.682965782459163e-05   -3.1037722136704094e-06   1.8389789826676558e-06
2.682965782459163e-05   -3.1037722136704094e-06   1.8389789826676558e-06
2.682965782459163e-05   -3.1037722136704094e-06   1.8389789826676558e-06
2.7508188754534174e-05   -4.480997605236928e-06   -2.3799684346300928e-05
2.7508188754534174e-05   -4.480997605236928e-06   -2.3799684346300928e-05
2.7508188754534174e-05   -4.480997605236928e-06   -2.3799684346300928e-05
2.7508188754534174e-05   -4.480997605236928e-06   -2.3799684346300928e-05
1.3127102020747913e-05   -2.6620503492319003e-06   -9.225748102603324e-07
1.3127102020747913e-05   -2.6620503492319003e-06   -9.225748102603324e-07
1.3127102020747913e-05   -2.6620503492319003e-06   -9.225748102603324e-07
1.3127102020747913e-05   -2.6620503492319003e-06   -9.225748102603324e-07
1.95303179485584e-05   -3.939589514137e-06   -1.0828077857667875e-05
1.95303179485584e-05   -3.939589514137e-06   -1.0828077857667875e-05
1.95303179485584e-05   -3.939589514137e-06   -1.0828077857667875e-05
1.95303179485584e-05   -3.939589514137e-06   -1.0828077857667875e-05
1.312710202074794e-05   -4.480997605236928e-06   -2.4891052699903946e-05
1.312710202074794e-05   -4.480997605236928e-06   -2.4891052699903946e-05
1.312710202074794e-05   -4.480997605236928e-06   -2.4891052699903946e-05
1.312710202074794e-05   -4.480997605236928e-06   -2.4891052699903946e-05
2.7508188754534133e-05   -2.6620503492319003e-06   1.6879354334289583e-07
2.7508188754534133e-05   -2.6620503492319003e-06   1.6879354334289583e-07
2.7508188754534133e-05   -2.6620503492319003e-06   1.6879354334289583e-07
2.7508188754534133e-05   -2.6620503492319003e-06   1.6879354334289583e-07
2.823231447863608e-05   -3.305375522268957e-06   -2.8386848577394485e-05
2.823231447863608e-05   -3.305375522268957e-06   -2.8386848577394485e-05
2.823231447863608e-05   -3.305375522268957e-06   -2.8386848577394485e-05
2.823231447863608e-05   -3.305375522268957e-06   -2.8386848577394485e-05
1.3028021600459504e-05   -1.719550253916069e-06   -3.9978556081120525e-06
1.3028021600459504e-05   -1.719550253916069e-06   -3.9978556081120525e-06
1.3028021600459504e-05   -1.719550253916069e-06   -3.9978556081120525e-06
1.3028021600459504e-05   -1.719550253916069e-06   -3.9978556081120525e-06
1.9450604485405814e-05   -3.392172671977693e-06   -1.3698586965518809e-05
1.9450604485405814e-05   -3.392172671977693e-06   -1.3698586965518809e-05
1.9450604485405814e-05   -3.392172671977693e-06   -1.3698586965518809e-05
1.9450604485405814e-05   -3.392172671977693e-06   -1.3698586965518809e-05
-3.1209206900081546e-05   4.786275088327664e-06   -2.377379521631366e-05
-3.1209206900081546e-05   4.786275088327664e-06   -2.377379521631366e-05
-3.1209206900081546e-05   4.786275088327664e-06   -2.377379521631366e-05
-3.1209206900081546e-05   4.786275088327664e-06   -2.377379521631366e-05
-2.1268370553639612e-05   3.0403102358069313e-06   -8.253313550422856e-06
-2.1268370553639612e-05   3.0403102358069313e-06   -8.253313550422856e-06
-2.1268370553639612e-05   3.0403102358069313e-06   -8.253313550422856e-06
-2.1268370553639612e-05   3.0403102358069313e-06   -8.253313550422856e-06
-2.1190595954625145e-05   5.792518312687002e-06   -2.0197691674136813e-05
-2.1190595954625145e-05   5.792518312687002e-06   -2.0197691674136813e-05
-2.1190595954625145e-05   5.792518312687002e-06   -2.0197691674136813e-05
-2.1190595954625145e-05   5.792518312687002e-06   -2.0197691674136813e-05
-3.0271421505864157e-05   3.872210534106566e-06   -3.910797754923517e-06
-3.0271421505864157e-05   3.872210534106566e-06   -3.910797754923517e-06
-3.0271421505864157e-05   3.872210534106566e-06   -3.910797754923517e-06
-3.0271421505864157e-05   3.872210534106566e-06   -3.910797754923517e-06
-2.4882384732941953e-05   4.609714390067538e-06   -1.3335028023370307e-05
-2.4882384732941953e-05   4.609714390067538e-06   -1.3335028023370307e-05
-2.4882384732941953e-05   4.609714390067538e-06   -1.3335028023370307e-05
-2.4882384732941953e-05   4.609714390067538e-06   -1.3335028023370307e-05
-3.0271421505864157e-05   5.792518312687002e-06   -1.9045507006988454e-05
-3.0271421505864157e-05   5.792518312687002e-06   -1.9045507006988454e-05
-3.0271421505864157e-05   5.792518312687002e-06   -1.9045507006988454e-05
-3.0271421505864157e-05   5.792518312687002e-06   -1.9045507006988454e-05
-2.1190595954625173e-05   3.872210534106675e-06   -5.062982422071774e-06
-2.1190595954625173e-05   3.872210534106675e-06   -5.062982422071774e-06
-2.1190595954625173e-05   3.872210534106675e-06   -5.062982422071774e-06
-2.1190595954625173e-05   3.872210534106675e-06   -5.062982422071774e-06
-2.1029650511761392e-05   6.235056937897265e-06   -1.7612631539587627e-05
-2.1029650511761392e-05   6.235056937897265e-06   -1.7612631539587627e-05
-2.1029650511761392e-05   6.235056937897265e-06   -1.7612631539587627e-05
-2.1029650511761392e-05   6.235056937897265e-06   -1.7612631539587627e-05
-2.957116878283335e-05   4.260454961710629e-06   -2.192006568755775e-06
-2.957116878283335e-05   4.260454961710629e-06   -2.192006568755775e-06
-2.957116878283335e-05   4.260454961710629e-06   -2.192006568755775e-06
-2.957116878283335e-05   4.260454961710629e-06   -2.192006568755775e-06
-2.4882365736382582e-05   5.0740442024866e-06   -1.0494831857306073e-05
-2.4882365736382582e-05   5.0740442024866e-06   -1.0494831857306073e-05
-2.4882365736382582e-05   5.0740442024866e-06   -1.0494831857306073e-05
-2.4882365736382582e-05   5.0740442024866e-06   -1.0494831857306073e-05
-2.957116878283335e-05   6.235056937897265e-06   -1.6427870353875732e-05
-2.957116878283335e-05   6.235056937897265e-06   -1.6427870353875732e-05
-2.957116878283335e-05   6.235056937897265e-06   -1.6427870353875732e-05
-2.957116878283335e-05   6.235056937897265e-06   -1.6427870353875732e-05
-2.102965051176142e-05   4.260454961710629e-06   -3.376767754467626e-06
-2.102965051176142e-05   4.260454961710629e-06   -3.376767754467626e-06
-2.102965051176142e-05   4.260454961710629e-06   -3.376767754467626e-06
-2.102965051176142e-05   4.260454961710629e-06   -3.376767754467626e-06
-2.0965724475609888e-05   6.672088329737343e-06   -1.4036627265556919e-05
-2.0965724475609888e-05   6.672088329737343e-06   -1.4036627265556919e-05
-2.0965724475609888e-05   6.672088329737343e-06   -1.4036627265556919e-05
-2.0965724475609888e-05   6.672088329737343e-06   -1.4036627265556919e-05
-2.865583785920922e-05   4.7496501523565035e-06   -6.630871979604715e-08
-2.865583785920922e-05   4.7496501523565035e-06   -6.630871979604715e-08
-2.865583785920922e-05   4.7496501523565035e-06   -6.630871979604715e-08
-2.865583785920922e-05   4.7496501523565035e-06   -6.630871979604715e-08
-2.4145458855319267e-05   5.3268647243541836e-06   -7.929935802811352e-06
-2.4145458855319267e-05   5.3268647243541836e-06   -7.929935802811352e-06
-2.4145458855319267e-05   5.3268647243541836e-06   -7.929935802811352e-06
-2.4145458855319267e-05   5.3268647243541836e-06   -7.929935802811352e-06
-2.126837055363957e-05   2.3883287663091306e-06   -3.033397864867136e-05
-2.126837055363957e-05   2.3883287663091306e-06   -3.033397864867136e-05
-2.126837055363957e-05   2.3883287663091306e-06   -3.033397864867136e-05
-2.126837055363957e-05   2.3883287663091306e-06   -3.033397864867136e-05
-1.2252283170807926e-05   1.574837504473496e-06   -1.57952611010533e-05
-1.2252283170807926e-05   1.574837504473496e-06   -1.57952611010533e-05
-1.2252283170807926e-05   1.574837504473496e-06   -1.57952611010533e-05
-1.2252283170807926e-05   1.574837504473496e-06   -1.57952611010533e-05
-1.2258409788808765e-05   3.3783327566552454e-06   -3.0071947574663487e-05
-1.2258409788808765e-05   3.3783327566552454e-06   -3.0071947574663487e-05
-1.2258409788808765e-05   3.3783327566552454e-06   -3.0071947574663487e-05
-1.2258409788808765e-05   3.3783327566552454e-06   -3.0071947574663487e-05
-2.1190595954625145e-05   2.4535381927608905e-06   -1.4630093893299508e-05
-2.1190595954625145e-05   2.4535381927608905e-06   -1.4630093893299508e-05
-2.1190595954625145e-05   2.4535381927608905e-06   -1.4630093893299508e-05
-2.1190595954625145e-05   2.4535381927608905e-06   -1.4630093893299508e-05
-1.658790586921626e-05   2.6142335953556906e-06   -2.2397661277204607e-05
-1.658790586921626e-05   2.6142335953556906e-06   -2.2397661277204607e-05
-1.658790586921626e-05   2.6142335953556906e-06   -2.2397661277204607e-05
-1.658790586921626e-05   2.6142335953556906e-06   -2.2397661277204607e-05
-2.119059595462512e-05   3.3783327566552454e-06   -2.9517070836326722e-05
-2.119059595462512e-05   3.3783327566552454e-06   -2.9517070836326722e-05
-2.119059595462512e-05   3.3783327566552454e-06   -2.9517070836326722e-05
-2.119059595462512e-05   3.3783327566552454e-06   -2.9517070836326722e-05
-1.2258409788808765e-05   2.4535381927608905e-06   -1.5184970631636137e-05
-1.2258409788808765e-05   2.4535381927608905e-06   -1.5184970631636137e-05
-1.2258409788808765e-05   2.4535381927608905e-06   -1.5184970631636137e-05
-1.2258409788808765e-05   2.4535381927608905e-06   -1.5184970631636137e-05
-1.2249593441222118e-05   4.258424934874545e-06   -2.939809507092133e-05
-1.2249593441222118e-05   4.258424934874545e-06   -2.939809507092133e-05
-1.2249593441222118e-05   4.258424934874545e-06   -2.939809507092133e-05
-1.2249593441222118e-05   4.258424934874545e-06   -2.939809507092133e-05
-2.1029650511761392e-05   3.2537370515439744e-06   -1.4161853890024202e-05
-2.1029650511761392e-05   3.2537370515439744e-06   -1.4161853890024202e-05
-2.1029650511761392e-05   3.2537370515439744e-06   -1.4161853890024202e-05
-2.1029650511761392e-05   3.2537370515439744e-06   -1.4161853890024202e-05
-1.651090591723694e-05   3.3364453705843214e-06   -2.174271987232234e-05
-1.651090591723694e-05   3.3364453705843214e-06   -2.174271987232234e-05
-1.651090591723694e-05   3.3364453705843214e-06   -2.174271987232234e-05
-1.651090591723694e-05   3.3364453705843214e-06   -2.174271987232234e-05
-2.1029650511761392e-05   4.258424934874545e-06   -2.879528234092302e-05
-2.1029650511761392e-05   4.258424934874545e-06   -2.879528234092302e-05
-2.1029650511761392e-05   4.258424934874545e-06   -2.879528234092302e-05
-2.1029650511761392e-05   4.258424934874545e-06   -2.879528234092302e-05
-1.2249593441222132e-05   3.2537370515439744e-06   -1.4764666620022552e-05
-1.2249593441222132e-05   3.2537370515439744e-06   -1.4764666620022552e-05
-1.2249593441222132e-05   3.2537370515439744e-06   -1.4764666620022552e-05
-1.2249593441222132e-05   3.2537370515439744e-06   -1.4764666620022552e-05
-1.2259759146514306e-05   5.195211988319036e-06   -2.951681198480236e-05
-1.2259759146514306e-05   5.195211988319036e-06   -2.951681198480236e-05
-1.2259759146514306e-05   5.195211988319036e-06   -2.951681198480236e-05
-1.2259759146514306e-05   5.195211988319036e-06   -2.951681198480236e-05
-2.09657244756099e-05   4.123577994773436e-06   -1.4363889373515519e-05
-2.09657244756099e-05   4.123577994773436e-06   -1.4363889373515519e-05
-2.09657244756099e-05   4.123577994773436e-06   -1.4363889373515519e-05
-2.09657244756099e-05   4.123577994773436e-06   -1.4363889373515519e-05
-1.6618083111770293e-05   4.051594543454215e-06   -2.1566768242456673e-05
-1.6618083111770293e-05   4.051594543454215e-06   -2.1566768242456673e-05
-1.6618083111770293e-05   4.051594543454215e-06   -2.1566768242456673e-05
-1.6618083111770293e-05   4.051594543454215e-06   -2.1566768242456673e-05
-1.2252283170807905e-05   1.274970945404916e-07   -3.3487012821465826e-05
-1.2252283170807905e-05   1.274970945404916e-07   -3.3487012821465826e-05
-1.2252283170807905e-05   1.274970945404916e-07   -3.3487012821465826e-05
-1.2252283170807905e-05   1.274970945404916e-07   -3.3487012821465826e-05
-3.3587262326430763e-06   2.729936308849823e-07   -1.8577120002717732e-05
-3.3587262326430763e-06   2.729936308849823e-07   -1.8577120002717732e-05
-3.3587262326430763e-06   2.729936308849823e-07   -1.8577120002717732e-05
-3.3587262326430763e-06   2.729936308849823e-07   -1.8577120002717732e-05
-3.3653982310811543e-06   1.102522912235543e-06   -3.311517840986122e-05
-3.3653982310811543e-06   1.102522912235543e-06   -3.311517840986122e-05
-3.3653982310811543e-06   1.102522912235543e-06   -3.311517840986122e-05
-3.3653982310811543e-06   1.102522912235543e-06   -3.311517840986122e-05
-1.2258409788808738e-05   1.1571315180016785e-06   -1.8326257643774845e-05
-1.2258409788808738e-05   1.1571315180016785e-06   -1.8326257643774845e-05
-1.2258409788808738e-05   1.1571315180016785e-06   -1.8326257643774845e-05
-1.2258409788808738e-05   1.1571315180016785e-06   -1.8326257643774845e-05
-7.756673373825888e-06   7.799627710623237e-07   -2.5602850420582712e-05
-7.756673373825888e-06   7.799627710623237e-07   -2.5602850420582712e-05
-7.756673373825888e-06   7.799627710623237e-07   -2.5602850420582712e-05
-7.756673373825888e-06   7.799627710623237e-07   -2.5602850420582712e-05
-1.2258409788808738e-05   1.102522912235543e-06   -3.314794357332082e-05
-1.2258409788808738e-05   1.102522912235543e-06   -3.314794357332082e-05
-1.2258409788808738e-05   1.102522912235543e-06   -3.314794357332082e-05
-1.2258409788808738e-05   1.102522912235543e-06   -3.314794357332082e-05
-3.3653982310811543e-06   1.1571315180016785e-06   -1.8293492480315245e-05
-3.3653982310811543e-06   1.1571315180016785e-06   -1.8293492480315245e-05
-3.3653982310811543e-06   1.1571315180016785e-06   -1.8293492480315245e-05
-3.3653982310811543e-06   1.1571315180016785e-06   -1.8293492480315245e-05
-3.353870097968246e-06   2.074695326463095e-06   -3.3198617696694646e-05
-3.353870097968246e-06   2.074695326463095e-06   -3.3198617696694646e-05
-3.353870097968246e-06   2.074695326463095e-06   -3.3198617696694646e-05
-3.353870097968246e-06   2.074695326463095e-06   -3.3198617696694646e-05
-1.2249593441222118e-05   2.044106409474205e-06   -1.8354058774411547e-05
-1.2249593441222118e-05   2.044106409474205e-06   -1.8354058774411547e-05
-1.2249593441222118e-05   2.044106409474205e-06   -1.8354058774411547e-05
-1.2249593441222118e-05   2.044106409474205e-06   -1.8354058774411547e-05
-7.808803145778611e-06   1.5537784676214234e-06   -2.546117916837242e-05
-7.808803145778611e-06   1.5537784676214234e-06   -2.546117916837242e-05
-7.808803145778611e-06   1.5537784676214234e-06   -2.546117916837242e-05
-7.808803145778611e-06   1.5537784676214234e-06   -2.546117916837242e-05
-1.2249593441222118e-05   2.0746953264630407e-06   -3.3180264346501344e-05
-1.2249593441222118e-05   2.0746953264630407e-06   -3.3180264346501344e-05
-1.2249593441222118e-05   2.0746953264630407e-06   -3.3180264346501344e-05
-1.2249593441222118e-05   2.0746953264630407e-06   -3.3180264346501344e-05
-3.353870097968252e-06   2.0441064094740965e-06   -1.837241212460485e-05
-3.353870097968252e-06   2.0441064094740965e-06   -1.837241212460485e-05
-3.353870097968252e-06   2.0441064094740965e-06   -1.837241212460485e-05
-3.353870097968252e-06   2.0441064094740965e-06   -1.837241212460485e-05
-3.3592329064668893e-06   3.0694109728134186e-06   -3.370046742522646e-05
-3.3592329064668893e-06   3.0694109728134186e-06   -3.370046742522646e-05
-3.3592329064668893e-06   3.0694109728134186e-06   -3.370046742522646e-05
-3.3592329064668893e-06   3.0694109728134186e-06   -3.370046742522646e-05
-1.22597591465143e-05   2.9465887942555207e-06   -1.8792563718012596e-05
-1.22597591465143e-05   2.9465887942555207e-06   -1.8792563718012596e-05
-1.22597591465143e-05   2.9465887942555207e-06   -1.8792563718012596e-05
-1.22597591465143e-05   2.9465887942555207e-06   -1.8792563718012596e-05
-7.876129313789781e-06   2.3377620838819905e-06   -2.573331741299608e-05
-7.876129313789781e-06   2.3377620838819905e-06   -2.573331741299608e-05
-7.876129313789781e-06   2.3377620838819905e-06   -2.573331741299608e-05
-7.876129313789781e-06   2.3377620838819905e-06   -2.573331741299608e-05
-3.358726232643071e-06   -1.9987512051597802e-06   -2.9647868838718035e-05
-3.358726232643071e-06   -1.9987512051597802e-06   -2.9647868838718035e-05
-3.358726232643071e-06   -1.9987512051597802e-06   -2.9647868838718035e-05
-3.358726232643071e-06   -1.9987512051597802e-06   -2.9647868838718035e-05
5.401118536400291e-06   -9.17078742828357e-07   -1.4399124079580332e-05
5.401118536400291e-06   -9.17078742828357e-07   -1.4399124079580332e-05
5.401118536400291e-06   -9.17078742828357e-07   -1.4399124079580332e-05
5.401118536400291e-06   -9.17078742828357e-07   -1.4399124079580332e-05
5.4724884143345545e-06   -1.104284274733346e-06   -2.8970755509422237e-05
5.4724884143345545e-06   -1.104284274733346e-06   -2.8970755509422237e-05
5.4724884143345545e-06   -1.104284274733346e-06   -2.8970755509422237e-05
5.4724884143345545e-06   -1.104284274733346e-06   -2.8970755509422237e-05
-3.3653982310811543e-06   -8.363398544086569e-08   -1.4853334607304961e-05
-3.3653982310811543e-06   -8.363398544086569e-08   -1.4853334607304961e-05
-3.3653982310811543e-06   -8.363398544086569e-08   -1.4853334607304961e-05
-3.3653982310811543e-06   -8.363398544086569e-08   -1.4853334607304961e-05
1.0431044177410787e-06   -9.48988095798289e-07   -2.168162655579421e-05
1.0431044177410787e-06   -9.48988095798289e-07   -2.168162655579421e-05
1.0431044177410787e-06   -9.48988095798289e-07   -2.168162655579421e-05
1.0431044177410787e-06   -9.48988095798289e-07   -2.168162655579421e-05
-3.3653982310811543e-06   -1.104284274733346e-06   -2.95831456829978e-05
-3.3653982310811543e-06   -1.104284274733346e-06   -2.95831456829978e-05
-3.3653982310811543e-06   -1.104284274733346e-06   -2.95831456829978e-05
-3.3653982310811543e-06   -1.104284274733346e-06   -2.95831456829978e-05
5.472488414334568e-06   -8.363398544075726e-08   -1.4240944433729463e-05
5.472488414334568e-06   -8.363398544075726e-08   -1.4240944433729463e-05
5.472488414334568e-06   -8.363398544075726e-08   -1.4240944433729463e-05
5.472488414334568e-06   -8.363398544075726e-08   -1.4240944433729463e-05
5.641777576702715e-06   -2.2598280823124713e-07   -2.9578268804803063e-05
5.641777576702715e-06   -2.2598280823124713e-07   -2.9578268804803063e-05
5.641777576702715e-06   -2.2598280823124713e-07   -2.9578268804803063e-05
5.641777576702715e-06   -2.2598280823124713e-07   -2.9578268804803063e-05
-3.353870097968252e-06   7.175443684070276e-07   -1.5151638986334429e-05
-3.353870097968252e-06   7.175443684070276e-07   -1.5151638986334429e-05
-3.353870097968252e-06   7.175443684070276e-07   -1.5151638986334429e-05
-3.353870097968252e-06   7.175443684070276e-07   -1.5151638986334429e-05
9.921864281342423e-07   -2.555049077741225e-07   -2.181123696412993e-05
9.921864281342423e-07   -2.555049077741225e-07   -2.181123696412993e-05
9.921864281342423e-07   -2.555049077741225e-07   -2.181123696412993e-05
9.921864281342423e-07   -2.555049077741225e-07   -2.181123696412993e-05
-3.353870097968249e-06   -2.2598280823119292e-07   -3.014438511078594e-05
-3.353870097968249e-06   -2.2598280823119292e-07   -3.014438511078594e-05
-3.353870097968249e-06   -2.2598280823119292e-07   -3.014438511078594e-05
-3.353870097968249e-06   -2.2598280823119292e-07   -3.014438511078594e-05
5.641777576702729e-06   7.175443684070276e-07   -1.458552268035143e-05
5.641777576702729e-06   7.175443684070276e-07   -1.458552268035143e-05
5.641777576702729e-06   7.175443684070276e-07   -1.458552268035143e-05
5.641777576702729e-06   7.175443684070276e-07   -1.458552268035143e-05
5.72490601348925e-06   8.00293849613715e-07   -3.0450021510676224e-05
5.72490601348925e-06   8.00293849613715e-07   -3.0450021510676224e-05
5.72490601348925e-06   8.00293849613715e-07   -3.0450021510676224e-05
5.72490601348925e-06   8.00293849613715e-07   -3.0450021510676224e-05
-3.3592329064668834e-06   1.635107921290767e-06   -1.5810678420422155e-05
-3.3592329064668834e-06   1.635107921290767e-06   -1.5810678420422155e-05
-3.3592329064668834e-06   1.635107921290767e-06   -1.5810678420422155e-05
-3.3592329064668834e-06   1.635107921290767e-06   -1.5810678420422155e-05
1.0223992835057883e-06   4.855659492679658e-07   -2.2423673553829585e-05
1.0223992835057883e-06   4.855659492679658e-07   -2.2423673553829585e-05
1.0223992835057883e-06   4.855659492679658e-07   -2.2423673553829585e-05
1.0223992835057883e-06   4.855659492679658e-07   -2.2423673553829585e-05
5.401118536400284e-06   -3.6203767055379885e-06   -1.6279280931577356e-05
5.401118536400284e-06   -3.6203767055379885e-06   -1.6279280931577356e-05
5.401118536400284e-06   -3.6203767055379885e-06   -1.6279280931577356e-05
5.401118536400284e-06   -3.6203767055379885e-06   -1.6279280931577356e-05
1.316496154812366e-05   -1.6813311532167322e-06   -2.176115247312237e-06
1.316496154812366e-05   -1.6813311532167322e-06   -2.176115247312237e-06
1.316496154812366e-05   -1.6813311532167322e-06   -2.176115247312237e-06
1.316496154812366e-05   -1.6813311532167322e-06   -2.176115247312237e-06
1.4092868929695639e-05   -3.1037722136704094e-06   -1.708125129311778e-05
1.4092868929695639e-05   -3.1037722136704094e-06   -1.708125129311778e-05
1.4092868929695639e-05   -3.1037722136704094e-06   -1.708125129311778e-05
1.4092868929695639e-05   -3.1037722136704094e-06   -1.708125129311778e-05
5.472488414334561e-06   -1.1159480622454547e-06   -3.906644925037595e-06
5.472488414334561e-06   -1.1159480622454547e-06   -3.906644925037595e-06
5.472488414334561e-06   -1.1159480622454547e-06   -3.906644925037595e-06
5.472488414334561e-06   -1.1159480622454547e-06   -3.906644925037595e-06
9.126384648655606e-06   -2.306468970909132e-06   -9.282159437041176e-06
9.126384648655606e-06   -2.306468970909132e-06   -9.282159437041176e-06
9.126384648655606e-06   -2.306468970909132e-06   -9.282159437041176e-06
9.126384648655606e-06   -2.306468970909132e-06   -9.282159437041176e-06
5.4724884143345545e-06   -3.1037722136704094e-06   -1.827394578397259e-05
5.4724884143345545e-06   -3.1037722136704094e-06   -1.827394578397259e-05
5.4724884143345545e-06   -3.1037722136704094e-06   -1.827394578397259e-05
5.4724884143345545e-06   -3.1037722136704094e-06   -1.827394578397259e-05
1.4092868929695585e-05   -1.1159480622455632e-06   -2.71395043418269e-06
1.4092868929695585e-05   -1.1159480622455632e-06   -2.71395043418269e-06
1.4092868929695585e-05   -1.1159480622455632e-06   -2.71395043418269e-06
1.4092868929695585e-05   -1.1159480622455632e-06   -2.71395043418269e-06
1.48078071461532e-05   -2.662050349231846e-06   -1.8726933436343584e-05
1.48078071461532e-05   -2.662050349231846e-06   -1.8726933436343584e-05
1.48078071461532e-05   -2.662050349231846e-06   -1.8726933436343584e-05
1.48078071461532e-05   -2.662050349231846e-06   -1.8726933436343584e-05
5.641777576702729e-06   -7.264035584662052e-07   -4.6116055617188525e-06
5.641777576702729e-06   -7.264035584662052e-07   -4.6116055617188525e-06
5.641777576702729e-06   -7.264035584662052e-07   -4.6116055617188525e-06
5.641777576702729e-06   -7.264035584662052e-07   -4.6116055617188525e-06
9.692085806132454e-06   -2.0157843970064005e-06   -1.0588490774310908e-05
9.692085806132454e-06   -2.0157843970064005e-06   -1.0588490774310908e-05
9.692085806132454e-06   -2.0157843970064005e-06   -1.0588490774310908e-05
9.692085806132454e-06   -2.0157843970064005e-06   -1.0588490774310908e-05
5.641777576702722e-06   -2.662050349231846e-06   -1.9888321510802922e-05
5.641777576702722e-06   -2.662050349231846e-06   -1.9888321510802922e-05
5.641777576702722e-06   -2.662050349231846e-06   -1.9888321510802922e-05
5.641777576702722e-06   -2.662050349231846e-06   -1.9888321510802922e-05
1.4807807146153146e-05   -7.264035584662052e-07   -3.4502174872593785e-06
1.4807807146153146e-05   -7.264035584662052e-07   -3.4502174872593785e-06
1.4807807146153146e-05   -7.264035584662052e-07   -3.4502174872593785e-06
1.4807807146153146e-05   -7.264035584662052e-07   -3.4502174872593785e-06
1.5758932187857403e-05   -1.719550253916069e-06   -2.188687225104651e-05
1.5758932187857403e-05   -1.719550253916069e-06   -2.188687225104651e-05
1.5758932187857403e-05   -1.719550253916069e-06   -2.188687225104651e-05
1.5758932187857403e-05   -1.719550253916069e-06   -2.188687225104651e-05
5.724906013489257e-06   3.790867677958606e-08   -6.2179706521835735e-06
5.724906013489257e-06   3.790867677958606e-08   -6.2179706521835735e-06
5.724906013489257e-06   3.790867677958606e-08   -6.2179706521835735e-06
5.724906013489257e-06   3.790867677958606e-08   -6.2179706521835735e-06
9.882854190189031e-06   -1.5854239959685085e-06   -1.2173884676367706e-05
9.882854190189031e-06   -1.5854239959685085e-06   -1.2173884676367706e-05
9.882854190189031e-06   -1.5854239959685085e-06   -1.2173884676367706e-05
9.882854190189031e-06   -1.5854239959685085e-06   -1.2173884676367706e-05
-1.88500287183714e-05   3.040310235806823e-06   -1.769350332757124e-05
-1.88500287183714e-05   3.040310235806823e-06   -1.769350332757124e-05
-1.88500287183714e-05   3.040310235806823e-06   -1.769350332757124e-05
-1.88500287183714e-05   3.040310235806823e-06   -1.769350332757124e-05
-1.394382114881996e-05   1.2344863468292597e-06   -1.0599985045038672e-05
-1.394382114881996e-05   1.2344863468292597e-06   -1.0599985045038672e-05
-1.394382114881996e-05   1.2344863468292597e-06   -1.0599985045038672e-05
-1.394382114881996e-05   1.2344863468292597e-06   -1.0599985045038672e-05
-1.3740143210646725e-05   3.872210534106566e-06   -1.5609031477839086e-05
-1.3740143210646725e-05   3.872210534106566e-06   -1.5609031477839086e-05
-1.3740143210646725e-05   3.872210534106566e-06   -1.5609031477839086e-05
-1.3740143210646725e-05   3.872210534106566e-06   -1.5609031477839086e-05
-1.7822644328592346e-05   1.9258063771750546e-06   -7.637020453770576e-06
-1.7822644328592346e-05   1.9258063771750546e-06   -7.637020453770576e-06
-1.7822644328592346e-05   1.9258063771750546e-06   -7.637020453770576e-06
-1.7822644328592346e-05   1.9258063771750546e-06   -7.637020453770576e-06
-1.5407574667699193e-05   2.7280111019277724e-06   -1.2143459390111559e-05
-1.5407574667699193e-05   2.7280111019277724e-06   -1.2143459390111559e-05
-1.5407574667699193e-05   2.7280111019277724e-06   -1.2143459390111559e-05
-1.5407574667699193e-05   2.7280111019277724e-06   -1.2143459390111559e-05
-1.7822644328592346e-05   3.872210534106566e-06   -1.4441188983680125e-05
-1.7822644328592346e-05   3.872210534106566e-06   -1.4441188983680125e-05
-1.7822644328592346e-05   3.872210534106566e-06   -1.4441188983680125e-05
-1.7822644328592346e-05   3.872210534106566e-06   -1.4441188983680125e-05
-1.3740143210646752e-05   1.9258063771750546e-06   -8.804862947929618e-06
-1.3740143210646752e-05   1.9258063771750546e-06   -8.804862947929618e-06
-1.3740143210646752e-05   1.9258063771750546e-06   -8.804862947929618e-06
-1.3740143210646752e-05   1.9258063771750546e-06   -8.804862947929618e-06
-1.3449014601229229e-05   4.260454961710629e-06   -1.393742522619887e-05
-1.3449014601229229e-05   4.260454961710629e-06   -1.393742522619887e-05
-1.3449014601229229e-05   4.260454961710629e-06   -1.393742522619887e-05
-1.3449014601229229e-05   4.260454961710629e-06   -1.393742522619887e-05
-1.7004399644549105e-05   2.2758941339544184e-06   -6.821046990678609e-06
-1.7004399644549105e-05   2.2758941339544184e-06   -6.821046990678609e-06
-1.7004399644549105e-05   2.2758941339544184e-06   -6.821046990678609e-06
-1.7004399644549105e-05   2.2758941339544184e-06   -6.821046990678609e-06
-1.5137312832564094e-05   3.1013674559576257e-06   -1.0428142337188953e-05
-1.5137312832564094e-05   3.1013674559576257e-06   -1.0428142337188953e-05
-1.5137312832564094e-05   3.1013674559576257e-06   -1.0428142337188953e-05
-1.5137312832564094e-05   3.1013674559576257e-06   -1.0428142337188953e-05
-1.700439964454905e-05   4.260454961710629e-06   -1.2746688729545132e-05
-1.700439964454905e-05   4.260454961710629e-06   -1.2746688729545132e-05
-1.700439964454905e-05   4.260454961710629e-06   -1.2746688729545132e-05
-1.700439964454905e-05   4.260454961710629e-06   -1.2746688729545132e-05
-1.3449014601229256e-05   2.2758941339544184e-06   -8.011783487332333e-06
-1.3449014601229256e-05   2.2758941339544184e-06   -8.011783487332333e-06
-1.3449014601229256e-05   2.2758941339544184e-06   -8.011783487332333e-06
-1.3449014601229256e-05   2.2758941339544184e-06   -8.011783487332333e-06
-1.3251807472562514e-05   4.749650152356395e-06   -1.1794703135058291e-05
-1.3251807472562514e-05   4.749650152356395e-06   -1.1794703135058291e-05
-1.3251807472562514e-05   4.749650152356395e-06   -1.1794703135058291e-05
-1.3251807472562514e-05   4.749650152356395e-06   -1.1794703135058291e-05
-1.5962790692568637e-05   2.830841597205227e-06   -6.125112635290526e-06
-1.5962790692568637e-05   2.830841597205227e-06   -6.125112635290526e-06
-1.5962790692568637e-05   2.830841597205227e-06   -6.125112635290526e-06
-1.5962790692568637e-05   2.830841597205227e-06   -6.125112635290526e-06
-1.4430818228389783e-05   3.3614701908666125e-06   -8.996777231785923e-06
-1.4430818228389783e-05   3.3614701908666125e-06   -8.996777231785923e-06
-1.4430818228389783e-05   3.3614701908666125e-06   -8.996777231785923e-06
-1.4430818228389783e-05   3.3614701908666125e-06   -8.996777231785923e-06
-1.394382114881996e-05   1.574837504473496e-06   -2.5830850454486797e-05
-1.394382114881996e-05   1.574837504473496e-06   -2.5830850454486797e-05
-1.394382114881996e-05   1.574837504473496e-06   -2.5830850454486797e-05
-1.394382114881996e-05   1.574837504473496e-06   -2.5830850454486797e-05
-9.954338311755326e-06   7.130459468212766e-07   -1.969878732730387e-05
-9.954338311755326e-06   7.130459468212766e-07   -1.969878732730387e-05
-9.954338311755326e-06   7.130459468212766e-07   -1.969878732730387e-05
-9.954338311755326e-06   7.130459468212766e-07   -1.969878732730387e-05
-9.821949825441307e-06   2.4535381927608905e-06   -2.5744553095758717e-05
-9.821949825441307e-06   2.4535381927608905e-06   -2.5744553095758717e-05
-9.821949825441307e-06   2.4535381927608905e-06   -2.5744553095758717e-05
-9.821949825441307e-06   2.4535381927608905e-06   -2.5744553095758717e-05
-1.3740143210646779e-05   1.5061879482744251e-06   -1.8645820640390977e-05
-1.3740143210646779e-05   1.5061879482744251e-06   -1.8645820640390977e-05
-1.3740143210646779e-05   1.5061879482744251e-06   -1.8645820640390977e-05
-1.3740143210646779e-05   1.5061879482744251e-06   -1.8645820640390977e-05
-1.1749351793630358e-05   1.7151753878337115e-06   -2.2089198799154477e-05
-1.1749351793630358e-05   1.7151753878337115e-06   -2.2089198799154477e-05
-1.1749351793630358e-05   1.7151753878337115e-06   -2.2089198799154477e-05
-1.1749351793630358e-05   1.7151753878337115e-06   -2.2089198799154477e-05
-1.3740143210646725e-05   2.4535381927608905e-06   -2.5176142949066664e-05
-1.3740143210646725e-05   2.4535381927608905e-06   -2.5176142949066664e-05
-1.3740143210646725e-05   2.4535381927608905e-06   -2.5176142949066664e-05
-1.3740143210646725e-05   2.4535381927608905e-06   -2.5176142949066664e-05
-9.821949825441307e-06   1.5061879482744251e-06   -1.9214230787082922e-05
-9.821949825441307e-06   1.5061879482744251e-06   -1.9214230787082922e-05
-9.821949825441307e-06   1.5061879482744251e-06   -1.9214230787082922e-05
-9.821949825441307e-06   1.5061879482744251e-06   -1.9214230787082922e-05
-9.675605885365484e-06   3.2537370515439744e-06   -2.5328140185036565e-05
-9.675605885365484e-06   3.2537370515439744e-06   -2.5328140185036565e-05
-9.675605885365484e-06   3.2537370515439744e-06   -2.5328140185036565e-05
-9.675605885365484e-06   3.2537370515439744e-06   -2.5328140185036565e-05
-1.3449014601229283e-05   2.244355679408873e-06   -1.8433496835315718e-05
-1.3449014601229283e-05   2.244355679408873e-06   -1.8433496835315718e-05
-1.3449014601229283e-05   2.244355679408873e-06   -1.8433496835315718e-05
-1.3449014601229283e-05   2.244355679408873e-06   -1.8433496835315718e-05
-1.1574750314958e-05   2.3571837225996655e-06   -2.162496747168212e-05
-1.1574750314958e-05   2.3571837225996655e-06   -2.162496747168212e-05
-1.1574750314958e-05   2.3571837225996655e-06   -2.162496747168212e-05
-1.1574750314958e-05   2.3571837225996655e-06   -2.162496747168212e-05
-1.3449014601229229e-05   3.2537370515439744e-06   -2.472251136175532e-05
-1.3449014601229229e-05   3.2537370515439744e-06   -2.472251136175532e-05
-1.3449014601229229e-05   3.2537370515439744e-06   -2.472251136175532e-05
-1.3449014601229229e-05   3.2537370515439744e-06   -2.472251136175532e-05
-9.675605885365457e-06   2.244355679408873e-06   -1.903912565859672e-05
-9.675605885365457e-06   2.244355679408873e-06   -1.903912565859672e-05
-9.675605885365457e-06   2.244355679408873e-06   -1.903912565859672e-05
-9.675605885365457e-06   2.244355679408873e-06   -1.903912565859672e-05
-9.545838609302529e-06   4.123577994773436e-06   -2.5573821890725597e-05
-9.545838609302529e-06   4.123577994773436e-06   -2.5573821890725597e-05
-9.545838609302529e-06   4.123577994773436e-06   -2.5573821890725597e-05
-9.545838609302529e-06   4.123577994773436e-06   -2.5573821890725597e-05
-1.325180747256254e-05   3.0652429808129995e-06   -1.8762206110249088e-05
-1.325180747256254e-05   3.0652429808129995e-06   -1.8762206110249088e-05
-1.325180747256254e-05   3.0652429808129995e-06   -1.8762206110249088e-05
-1.325180747256254e-05   3.0652429808129995e-06   -1.8762206110249088e-05
-1.1507850758620165e-05   3.0081880638896386e-06   -2.1634567683332637e-05
-1.1507850758620165e-05   3.0081880638896386e-06   -2.1634567683332637e-05
-1.1507850758620165e-05   3.0081880638896386e-06   -2.1634567683332637e-05
-1.1507850758620165e-05   3.0081880638896386e-06   -2.1634567683332637e-05
-9.954338311755285e-06   2.729936308849823e-07   -2.9217082212549324e-05
-9.954338311755285e-06   2.729936308849823e-07   -2.9217082212549324e-05
-9.954338311755285e-06   2.729936308849823e-07   -2.9217082212549324e-05
-9.954338311755285e-06   2.729936308849823e-07   -2.9217082212549324e-05
-6.06411757488068e-06   4.115165713079391e-07   -2.2650267220171265e-05
-6.06411757488068e-06   4.115165713079391e-07   -2.2650267220171265e-05
-6.06411757488068e-06   4.115165713079391e-07   -2.2650267220171265e-05
-6.06411757488068e-06   4.115165713079391e-07   -2.2650267220171265e-05
-5.935328439093523e-06   1.15713151800157e-06   -2.8848059927812542e-05
-5.935328439093523e-06   1.15713151800157e-06   -2.8848059927812542e-05
-5.935328439093523e-06   1.15713151800157e-06   -2.8848059927812542e-05
-5.935328439093523e-06   1.15713151800157e-06   -2.8848059927812542e-05
-9.821949825441307e-06   1.2200984848099528e-06   -2.240813779731767e-05
-9.821949825441307e-06   1.2200984848099528e-06   -2.240813779731767e-05
-9.821949825441307e-06   1.2200984848099528e-06   -2.240813779731767e-05
-9.821949825441307e-06   1.2200984848099528e-06   -2.240813779731767e-05
-7.892938738524407e-06   8.784293758900413e-07   -2.5418154810161197e-05
-7.892938738524407e-06   8.784293758900413e-07   -2.5418154810161197e-05
-7.892938738524407e-06   8.784293758900413e-07   -2.5418154810161197e-05
-7.892938738524407e-06   8.784293758900413e-07   -2.5418154810161197e-05
-9.821949825441294e-06   1.1571315180016785e-06   -2.8885840107897452e-05
-9.821949825441294e-06   1.1571315180016785e-06   -2.8885840107897452e-05
-9.821949825441294e-06   1.1571315180016785e-06   -2.8885840107897452e-05
-9.821949825441294e-06   1.1571315180016785e-06   -2.8885840107897452e-05
-5.935328439093523e-06   1.2200984848099528e-06   -2.2370357617232774e-05
-5.935328439093523e-06   1.2200984848099528e-06   -2.2370357617232774e-05
-5.935328439093523e-06   1.2200984848099528e-06   -2.2370357617232774e-05
-5.935328439093523e-06   1.2200984848099528e-06   -2.2370357617232774e-05
-5.790004530044251e-06   2.044106409474205e-06   -2.8922558473702524e-05
-5.790004530044251e-06   2.044106409474205e-06   -2.8922558473702524e-05
-5.790004530044251e-06   2.044106409474205e-06   -2.8922558473702524e-05
-5.790004530044251e-06   2.044106409474205e-06   -2.8922558473702524e-05
-9.675605885365457e-06   2.035729519012314e-06   -2.244153008055665e-05
-9.675605885365457e-06   2.035729519012314e-06   -2.244153008055665e-05
-9.675605885365457e-06   2.035729519012314e-06   -2.244153008055665e-05
-9.675605885365457e-06   2.035729519012314e-06   -2.244153008055665e-05
-7.807284487369754e-06   1.5736517411975163e-06   -2.527815241052734e-05
-7.807284487369754e-06   1.5736517411975163e-06   -2.527815241052734e-05
-7.807284487369754e-06   1.5736517411975163e-06   -2.527815241052734e-05
-7.807284487369754e-06   1.5736517411975163e-06   -2.527815241052734e-05
-9.675605885365443e-06   2.044106409474205e-06   -2.891753233942541e-05
-9.675605885365443e-06   2.044106409474205e-06   -2.891753233942541e-05
-9.675605885365443e-06   2.044106409474205e-06   -2.891753233942541e-05
-9.675605885365443e-06   2.044106409474205e-06   -2.891753233942541e-05
-5.790004530044262e-06   2.035729519012314e-06   -2.2446556214833816e-05
-5.790004530044262e-06   2.035729519012314e-06   -2.2446556214833816e-05
-5.790004530044262e-06   2.035729519012314e-06   -2.2446556214833816e-05
-5.790004530044262e-06   2.035729519012314e-06   -2.2446556214833816e-05
-5.6595650008913955e-06   2.9465887942555207e-06   -2.9409243321102513e-05
-5.6595650008913955e-06   2.9465887942555207e-06   -2.9409243321102513e-05
-5.6595650008913955e-06   2.9465887942555207e-06   -2.9409243321102513e-05
-5.6595650008913955e-06   2.9465887942555207e-06   -2.9409243321102513e-05
-9.545838609302529e-06   2.8637096575768193e-06   -2.288239315840987e-05
-9.545838609302529e-06   2.8637096575768193e-06   -2.288239315840987e-05
-9.545838609302529e-06   2.8637096575768193e-06   -2.288239315840987e-05
-9.545838609302529e-06   2.8637096575768193e-06   -2.288239315840987e-05
-7.736900134676926e-06   2.278129260323996e-06   -2.5545942377767726e-05
-7.736900134676926e-06   2.278129260323996e-06   -2.5545942377767726e-05
-7.736900134676926e-06   2.278129260323996e-06   -2.5545942377767726e-05
-7.736900134676926e-06   2.278129260323996e-06   -2.5545942377767726e-05
-6.064117574880659e-06   -9.17078742828357e-07   -2.5604976002556966e-05
-6.064117574880659e-06   -9.17078742828357e-07   -2.5604976002556966e-05
-6.064117574880659e-06   -9.17078742828357e-07   -2.5604976002556966e-05
-6.064117574880659e-06   -9.17078742828357e-07   -2.5604976002556966e-05
-2.2965752149217076e-06   1.8103900321724507e-07   -1.866686808833139e-05
-2.2965752149217076e-06   1.8103900321724507e-07   -1.866686808833139e-05
-2.2965752149217076e-06   1.8103900321724507e-07   -1.866686808833139e-05
-2.2965752149217076e-06   1.8103900321724507e-07   -1.866686808833139e-05
-2.1031227221668776e-06   -8.363398544075726e-08   -2.4778803008789873e-05
-2.1031227221668776e-06   -8.363398544075726e-08   -2.4778803008789873e-05
-2.1031227221668776e-06   -8.363398544075726e-08   -2.4778803008789873e-05
-2.1031227221668776e-06   -8.363398544075726e-08   -2.4778803008789873e-05
-5.9353284390935125e-06   9.648644245797674e-07   -1.9020892526591016e-05
-5.9353284390935125e-06   9.648644245797674e-07   -1.9020892526591016e-05
-5.9353284390935125e-06   9.648644245797674e-07   -1.9020892526591016e-05
-5.9353284390935125e-06   9.648644245797674e-07   -1.9020892526591016e-05
-4.05837588344226e-06   1.1799817211093772e-07   -2.1641027034528945e-05
-4.05837588344226e-06   1.1799817211093772e-07   -2.1641027034528945e-05
-4.05837588344226e-06   1.1799817211093772e-07   -2.1641027034528945e-05
-4.05837588344226e-06   1.1799817211093772e-07   -2.1641027034528945e-05
-5.935328439093502e-06   -8.363398544086569e-08   -2.5407902054802188e-05
-5.935328439093502e-06   -8.363398544086569e-08   -2.5407902054802188e-05
-5.935328439093502e-06   -8.363398544086569e-08   -2.5407902054802188e-05
-5.935328439093502e-06   -8.363398544086569e-08   -2.5407902054802188e-05
-2.103122722166891e-06   9.648644245797674e-07   -1.839179348057875e-05
-2.103122722166891e-06   9.648644245797674e-07   -1.839179348057875e-05
-2.103122722166891e-06   9.648644245797674e-07   -1.839179348057875e-05
-2.103122722166891e-06   9.648644245797674e-07   -1.839179348057875e-05
-1.8142383160008513e-06   7.175443684069192e-07   -2.511055587324588e-05
-1.8142383160008513e-06   7.175443684069192e-07   -2.511055587324588e-05
-1.8142383160008513e-06   7.175443684069192e-07   -2.511055587324588e-05
-1.8142383160008513e-06   7.175443684069192e-07   -2.511055587324588e-05
-5.790004530044251e-06   1.7029268053838677e-06   -1.9075508312026293e-05
-5.790004530044251e-06   1.7029268053838677e-06   -1.9075508312026293e-05
-5.790004530044251e-06   1.7029268053838677e-06   -1.9075508312026293e-05
-5.790004530044251e-06   1.7029268053838677e-06   -1.9075508312026293e-05
-3.941906107596094e-06   7.511957040269926e-07   -2.15846336886258e-05
-3.941906107596094e-06   7.511957040269926e-07   -2.15846336886258e-05
-3.941906107596094e-06   7.511957040269926e-07   -2.15846336886258e-05
-3.941906107596094e-06   7.511957040269926e-07   -2.15846336886258e-05
-5.790004530044237e-06   7.175443684069192e-07   -2.570178533543193e-05
-5.790004530044237e-06   7.175443684069192e-07   -2.570178533543193e-05
-5.790004530044237e-06   7.175443684069192e-07   -2.570178533543193e-05
-5.790004530044237e-06   7.175443684069192e-07   -2.570178533543193e-05
-1.8142383160008513e-06   1.7029268053838677e-06   -1.8484278849840226e-05
-1.8142383160008513e-06   1.7029268053838677e-06   -1.8484278849840226e-05
-1.8142383160008513e-06   1.7029268053838677e-06   -1.8484278849840226e-05
-1.8142383160008513e-06   1.7029268053838677e-06   -1.8484278849840226e-05
-1.6128218848125513e-06   1.635107921290767e-06   -2.581268188517604e-05
-1.6128218848125513e-06   1.635107921290767e-06   -2.581268188517604e-05
-1.6128218848125513e-06   1.635107921290767e-06   -2.581268188517604e-05
-1.6128218848125513e-06   1.635107921290767e-06   -2.581268188517604e-05
-5.6595650008913955e-06   2.5367459732927172e-06   -1.960909285624576e-05
-5.6595650008913955e-06   2.5367459732927172e-06   -1.960909285624576e-05
-5.6595650008913955e-06   2.5367459732927172e-06   -1.960909285624576e-05
-5.6595650008913955e-06   2.5367459732927172e-06   -1.960909285624576e-05
-3.820286259040532e-06   1.4141152745399512e-06   -2.200097900674562e-05
-3.820286259040532e-06   1.4141152745399512e-06   -2.200097900674562e-05
-3.820286259040532e-06   1.4141152745399512e-06   -2.200097900674562e-05
-3.820286259040532e-06   1.4141152745399512e-06   -2.200097900674562e-05
-2.2965752149217076e-06   -1.6813311532166237e-06   -1.3886523854054382e-05
-2.2965752149217076e-06   -1.6813311532166237e-06   -1.3886523854054382e-05
-2.2965752149217076e-06   -1.6813311532166237e-06   -1.3886523854054382e-05
-2.2965752149217076e-06   -1.6813311532166237e-06   -1.3886523854054382e-05
4.688888392809004e-07   2.567857008147585e-07   -8.11454698463113e-06
4.688888392809004e-07   2.567857008147585e-07   -8.11454698463113e-06
4.688888392809004e-07   2.567857008147585e-07   -8.11454698463113e-06
4.688888392809004e-07   2.567857008147585e-07   -8.11454698463113e-06
1.5004253093734766e-06   -1.1159480622454547e-06   -1.3248713202660821e-05
1.5004253093734766e-06   -1.1159480622454547e-06   -1.3248713202660821e-05
1.5004253093734766e-06   -1.1159480622454547e-06   -1.3248713202660821e-05
1.5004253093734766e-06   -1.1159480622454547e-06   -1.3248713202660821e-05
-2.1031227221668776e-06   8.770357668165226e-07   -8.438590114197257e-06
-2.1031227221668776e-06   8.770357668165226e-07   -8.438590114197257e-06
-2.1031227221668776e-06   8.770357668165226e-07   -8.438590114197257e-06
-2.1031227221668776e-06   8.770357668165226e-07   -8.438590114197257e-06
-5.904152853476407e-07   -3.3285202997730256e-07   -1.0233836497486765e-05
-5.904152853476407e-07   -3.3285202997730256e-07   -1.0233836497486765e-05
-5.904152853476407e-07   -3.3285202997730256e-07   -1.0233836497486765e-05
-5.904152853476407e-07   -3.3285202997730256e-07   -1.0233836497486765e-05
-2.1031227221668776e-06   -1.1159480622454547e-06   -1.4444503500097964e-05
-2.1031227221668776e-06   -1.1159480622454547e-06   -1.4444503500097964e-05
-2.1031227221668776e-06   -1.1159480622454547e-06   -1.4444503500097964e-05
-2.1031227221668776e-06   -1.1159480622454547e-06   -1.4444503500097964e-05
1.5004253093734766e-06   8.770357668165226e-07   -7.242799816760208e-06
1.5004253093734766e-06   8.770357668165226e-07   -7.242799816760208e-06
1.5004253093734766e-06   8.770357668165226e-07   -7.242799816760208e-06
1.5004253093734766e-06   8.770357668165226e-07   -7.242799816760208e-06
2.315172489952247e-06   -7.264035584662052e-07   -1.3965501400561159e-05
2.315172489952247e-06   -7.264035584662052e-07   -1.3965501400561159e-05
2.315172489952247e-06   -7.264035584662052e-07   -1.3965501400561159e-05
2.315172489952247e-06   -7.264035584662052e-07   -1.3965501400561159e-05
-1.8142383160008513e-06   1.2254920316206227e-06   -8.254287411357984e-06
-1.8142383160008513e-06   1.2254920316206227e-06   -8.254287411357984e-06
-1.8142383160008513e-06   1.2254920316206227e-06   -8.254287411357984e-06
-1.8142383160008513e-06   1.2254920316206227e-06   -8.254287411357984e-06
-6.921256317403483e-08   -3.5236707778820917e-08   -1.0406226422429629e-05
-6.921256317403483e-08   -3.5236707778820917e-08   -1.0406226422429629e-05
-6.921256317403483e-08   -3.5236707778820917e-08   -1.0406226422429629e-05
-6.921256317403483e-08   -3.5236707778820917e-08   -1.0406226422429629e-05
-1.8142383160008513e-06   -7.264035584662052e-07   -1.5136638754613288e-05
-1.8142383160008513e-06   -7.264035584662052e-07   -1.5136638754613288e-05
-1.8142383160008513e-06   -7.264035584662052e-07   -1.5136638754613288e-05
-1.8142383160008513e-06   -7.264035584662052e-07   -1.5136638754613288e-05
2.315172489952247e-06   1.2254920316206227e-06   -7.083150057305841e-06
2.315172489952247e-06   1.2254920316206227e-06   -7.083150057305841e-06
2.315172489952247e-06   1.2254920316206227e-06   -7.083150057305841e-06
2.315172489952247e-06   1.2254920316206227e-06   -7.083150057305841e-06
3.3447404993465068e-06   3.790867677958606e-08   -1.5638586402301854e-05
3.3447404993465068e-06   3.790867677958606e-08   -1.5638586402301854e-05
3.3447404993465068e-06   3.790867677958606e-08   -1.5638586402301854e-05
3.3447404993465068e-06   3.790867677958606e-08   -1.5638586402301854e-05
-1.6128218848125513e-06   1.8417022728493956e-06   -8.458258586345092e-06
-1.6128218848125513e-06   1.8417022728493956e-06   -8.458258586345092e-06
-1.6128218848125513e-06   1.8417022728493956e-06   -8.458258586345092e-06
-1.6128218848125513e-06   1.8417022728493956e-06   -8.458258586345092e-06
3.81748702040627e-07   3.0274726839428327e-07   -1.0859169895094221e-05
3.81748702040627e-07   3.0274726839428327e-07   -1.0859169895094221e-05
3.81748702040627e-07   3.0274726839428327e-07   -1.0859169895094221e-05
3.81748702040627e-07   3.0274726839428327e-07   -1.0859169895094221e-05
-6.521445603751002e-06   1.2344863468292597e-06   -1.1758874828575038e-05
-6.521445603751002e-06   1.2344863468292597e-06   -1.1758874828575038e-05
-6.521445603751002e-06   1.2344863468292597e-06   -1.1758874828575038e-05
-6.521445603751002e-06   1.2344863468292597e-06   -1.1758874828575038e-05
-6.652958623567764e-06   -5.808263037810658e-07   -1.3067250785302588e-05
-6.652958623567764e-06   -5.808263037810658e-07   -1.3067250785302588e-05
-6.652958623567764e-06   -5.808263037810658e-07   -1.3067250785302588e-05
-6.652958623567764e-06   -5.808263037810658e-07   -1.3067250785302588e-05
-6.322275801936341e-06   1.9258063771750546e-06   -1.1049397474253769e-05
-6.322275801936341e-06   1.9258063771750546e-06   -1.1049397474253769e-05
-6.322275801936341e-06   1.9258063771750546e-06   -1.1049397474253769e-05
-6.322275801936341e-06   1.9258063771750546e-06   -1.1049397474253769e-05
-5.374451026957013e-06   -2.2437807332617576e-08   -1.1460158921847987e-05
-5.374451026957013e-06   -2.2437807332617576e-08   -1.1460158921847987e-05
-5.374451026957013e-06   -2.2437807332617576e-08   -1.1460158921847987e-05
-5.374451026957013e-06   -2.2437807332617576e-08   -1.1460158921847987e-05
-5.946202631836698e-06   8.501050711390117e-07   -1.1030765307465276e-05
-5.946202631836698e-06   8.501050711390117e-07   -1.1030765307465276e-05
-5.946202631836698e-06   8.501050711390117e-07   -1.1030765307465276e-05
-5.946202631836698e-06   8.501050711390117e-07   -1.1030765307465276e-05
-5.374451026956986e-06   1.9258063771750546e-06   -9.880450963549144e-06
-5.374451026956986e-06   1.9258063771750546e-06   -9.880450963549144e-06
-5.374451026956986e-06   1.9258063771750546e-06   -9.880450963549144e-06
-5.374451026956986e-06   1.9258063771750546e-06   -9.880450963549144e-06
-6.322275801936341e-06   -2.2437807332617576e-08   -1.262910543255272e-05
-6.322275801936341e-06   -2.2437807332617576e-08   -1.262910543255272e-05
-6.322275801936341e-06   -2.2437807332617576e-08   -1.262910543255272e-05
-6.322275801936341e-06   -2.2437807332617576e-08   -1.262910543255272e-05
-5.904608489474698e-06   2.275894133954527e-06   -1.0253520377807791e-05
-5.904608489474698e-06   2.275894133954527e-06   -1.0253520377807791e-05
-5.904608489474698e-06   2.275894133954527e-06   -1.0253520377807791e-05
-5.904608489474698e-06   2.275894133954527e-06   -1.0253520377807791e-05
-4.427431527125736e-06   2.9435498071959075e-07   -1.1526558489781858e-05
-4.427431527125736e-06   2.9435498071959075e-07   -1.1526558489781858e-05
-4.427431527125736e-06   2.9435498071959075e-07   -1.1526558489781858e-05
-4.427431527125736e-06   2.9435498071959075e-07   -1.1526558489781858e-05
-5.404571163182022e-06   1.1372963130325004e-06   -1.0403757229076292e-05
-5.404571163182022e-06   1.1372963130325004e-06   -1.0403757229076292e-05
-5.404571163182022e-06   1.1372963130325004e-06   -1.0403757229076292e-05
-5.404571163182022e-06   1.1372963130325004e-06   -1.0403757229076292e-05
-4.427431527125709e-06   2.275894133954527e-06   -9.064596885866938e-06
-4.427431527125709e-06   2.275894133954527e-06   -9.064596885866938e-06
-4.427431527125709e-06   2.275894133954527e-06   -9.064596885866938e-06
-4.427431527125709e-06   2.275894133954527e-06   -9.064596885866938e-06
-5.904608489474698e-06   2.9435498071959075e-07   -1.2715481981722765e-05
-5.904608489474698e-06   2.9435498071959075e-07   -1.2715481981722765e-05
-5.904608489474698e-06   2.9435498071959075e-07   -1.2715481981722765e-05
-5.904608489474698e-06   2.9435498071959075e-07   -1.2715481981722765e-05
-5.580073903022818e-06   2.8308415972053353e-06   -9.515274669517578e-06
-5.580073903022818e-06   2.8308415972053353e-06   -9.515274669517578e-06
-5.580073903022818e-06   2.8308415972053353e-06   -9.515274669517578e-06
-5.580073903022818e-06   2.8308415972053353e-06   -9.515274669517578e-06
-3.258164602474434e-06   9.258584090594737e-07   -1.224213359087722e-05
-3.258164602474434e-06   9.258584090594737e-07   -1.224213359087722e-05
-3.258164602474434e-06   9.258584090594737e-07   -1.224213359087722e-05
-3.258164602474434e-06   9.258584090594737e-07   -1.224213359087722e-05
-4.7286682965651e-06   1.4136796611234105e-06   -1.0083986851964545e-05
-4.7286682965651e-06   1.4136796611234105e-06   -1.0083986851964545e-05
-4.7286682965651e-06   1.4136796611234105e-06   -1.0083986851964545e-05
-4.7286682965651e-06   1.4136796611234105e-06   -1.0083986851964545e-05
-6.6529586235677366e-06   7.130459468212766e-07   -2.1429789766614954e-05
-6.6529586235677366e-06   7.130459468212766e-07   -2.1429789766614954e-05
-6.6529586235677366e-06   7.130459468212766e-07   -2.1429789766614954e-05
-6.6529586235677366e-06   7.130459468212766e-07   -2.1429789766614954e-05
-7.699532924762597e-06   -1.2281757894657026e-07   -2.3675598384067143e-05
-7.699532924762597e-06   -1.2281757894657026e-07   -2.3675598384067143e-05
-7.699532924762597e-06   -1.2281757894657026e-07   -2.3675598384067143e-05
-7.699532924762597e-06   -1.2281757894657026e-07   -2.3675598384067143e-05
-7.433333912391411e-06   1.5061879482744251e-06   -2.144467242854982e-05
-7.433333912391411e-06   1.5061879482744251e-06   -2.144467242854982e-05
-7.433333912391411e-06   1.5061879482744251e-06   -2.144467242854982e-05
-7.433333912391411e-06   1.5061879482744251e-06   -2.144467242854982e-05
-6.322275801936368e-06   5.823258452165338e-07   -2.2742118684140173e-05
-6.322275801936368e-06   5.823258452165338e-07   -2.2742118684140173e-05
-6.322275801936368e-06   5.823258452165338e-07   -2.2742118684140173e-05
-6.322275801936368e-06   5.823258452165338e-07   -2.2742118684140173e-05
-6.9452573004089135e-06   8.253009304609767e-07   -2.1849601237832985e-05
-6.9452573004089135e-06   8.253009304609767e-07   -2.1849601237832985e-05
-6.9452573004089135e-06   8.253009304609767e-07   -2.1849601237832985e-05
-6.9452573004089135e-06   8.253009304609767e-07   -2.1849601237832985e-05
-6.322275801936314e-06   1.5061879482743167e-06   -2.0890355166714965e-05
-6.322275801936314e-06   1.5061879482743167e-06   -2.0890355166714965e-05
-6.322275801936314e-06   1.5061879482743167e-06   -2.0890355166714965e-05
-6.322275801936314e-06   1.5061879482743167e-06   -2.0890355166714965e-05
-7.433333912391398e-06   5.823258452165338e-07   -2.329643594597492e-05
-7.433333912391398e-06   5.823258452165338e-07   -2.329643594597492e-05
-7.433333912391398e-06   5.823258452165338e-07   -2.329643594597492e-05
-7.433333912391398e-06   5.823258452165338e-07   -2.329643594597492e-05
-7.156387878533231e-06   2.2443556794087645e-06   -2.1264750257872e-05
-7.156387878533231e-06   2.2443556794087645e-06   -2.1264750257872e-05
-7.156387878533231e-06   2.2443556794087645e-06   -2.1264750257872e-05
-7.156387878533231e-06   2.2443556794087645e-06   -2.1264750257872e-05
-5.904608489474698e-06   1.2618281259408823e-06   -2.2761532707555308e-05
-5.904608489474698e-06   1.2618281259408823e-06   -2.2761532707555308e-05
-5.904608489474698e-06   1.2618281259408823e-06   -2.2761532707555308e-05
-5.904608489474698e-06   1.2618281259408823e-06   -2.2761532707555308e-05
-6.678599941857491e-06   1.394576186829091e-06   -2.1551195790117135e-05
-6.678599941857491e-06   1.394576186829091e-06   -2.1551195790117135e-05
-6.678599941857491e-06   1.394576186829091e-06   -2.1551195790117135e-05
-6.678599941857491e-06   1.394576186829091e-06   -2.1551195790117135e-05
-5.904608489474698e-06   2.2443556794087645e-06   -2.0675233725791218e-05
-5.904608489474698e-06   2.2443556794087645e-06   -2.0675233725791218e-05
-5.904608489474698e-06   2.2443556794087645e-06   -2.0675233725791218e-05
-5.904608489474698e-06   2.2443556794087645e-06   -2.0675233725791218e-05
-7.156387878533204e-06   1.2618281259406654e-06   -2.3351049239636037e-05
-7.156387878533204e-06   1.2618281259406654e-06   -2.3351049239636037e-05
-7.156387878533204e-06   1.2618281259406654e-06   -2.3351049239636037e-05
-7.156387878533204e-06   1.2618281259406654e-06   -2.3351049239636037e-05
-6.895899383873292e-06   3.065242980812891e-06   -2.1617206905253164e-05
-6.895899383873292e-06   3.065242980812891e-06   -2.1617206905253164e-05
-6.895899383873292e-06   3.065242980812891e-06   -2.1617206905253164e-05
-6.895899383873292e-06   3.065242980812891e-06   -2.1617206905253164e-05
-5.580073903022845e-06   2.0383698243664396e-06   -2.31941254794693e-05
-5.580073903022845e-06   2.0383698243664396e-06   -2.31941254794693e-05
-5.580073903022845e-06   2.0383698243664396e-06   -2.31941254794693e-05
-5.580073903022845e-06   2.0383698243664396e-06   -2.31941254794693e-05
-6.4443980163301684e-06   1.992444124048658e-06   -2.1726029870433047e-05
-6.4443980163301684e-06   1.992444124048658e-06   -2.1726029870433047e-05
-6.4443980163301684e-06   1.992444124048658e-06   -2.1726029870433047e-05
-6.4443980163301684e-06   1.992444124048658e-06   -2.1726029870433047e-05
-7.69953292476257e-06   4.115165713079391e-07   -2.4965901539196814e-05
-7.69953292476257e-06   4.115165713079391e-07   -2.4965901539196814e-05
-7.69953292476257e-06   4.115165713079391e-07   -2.4965901539196814e-05
-7.69953292476257e-06   4.115165713079391e-07   -2.4965901539196814e-05
-8.796951713105808e-06   5.889352011432397e-07   -2.6688481675201108e-05
-8.796951713105808e-06   5.889352011432397e-07   -2.6688481675201108e-05
-8.796951713105808e-06   5.889352011432397e-07   -2.6688481675201108e-05
-8.796951713105808e-06   5.889352011432397e-07   -2.6688481675201108e-05
-8.535574678223783e-06   1.2200984848099528e-06   -2.4579513360230244e-05
-8.535574678223783e-06   1.2200984848099528e-06   -2.4579513360230244e-05
-8.535574678223783e-06   1.2200984848099528e-06   -2.4579513360230244e-05
-8.535574678223783e-06   1.2200984848099528e-06   -2.4579513360230244e-05
-7.433333912391411e-06   1.3185419490673728e-06   -2.6475647381838546e-05
-7.433333912391411e-06   1.3185419490673728e-06   -2.6475647381838546e-05
-7.433333912391411e-06   1.3185419490673728e-06   -2.6475647381838546e-05
-7.433333912391411e-06   1.3185419490673728e-06   -2.6475647381838546e-05
-8.06745883985659e-06   9.986450059847052e-07   -2.522683433688061e-05
-8.06745883985659e-06   9.986450059847052e-07   -2.522683433688061e-05
-8.06745883985659e-06   9.986450059847052e-07   -2.522683433688061e-05
-8.06745883985659e-06   9.986450059847052e-07   -2.522683433688061e-05
-7.433333912391384e-06   1.2200984848099528e-06   -2.463857943878461e-05
-7.433333912391384e-06   1.2200984848099528e-06   -2.463857943878461e-05
-7.433333912391384e-06   1.2200984848099528e-06   -2.463857943878461e-05
-7.433333912391384e-06   1.2200984848099528e-06   -2.463857943878461e-05
-8.535574678223796e-06   1.3185419490673728e-06   -2.6416581303284235e-05
-8.535574678223796e-06   1.3185419490673728e-06   -2.6416581303284235e-05
-8.535574678223796e-06   1.3185419490673728e-06   -2.6416581303284235e-05
-8.535574678223796e-06   1.3185419490673728e-06   -2.6416581303284235e-05
-8.260311913966998e-06   2.035729519012314e-06   -2.4650154195923475e-05
-8.260311913966998e-06   2.035729519012314e-06   -2.4650154195923475e-05
-8.260311913966998e-06   2.035729519012314e-06   -2.4650154195923475e-05
-8.260311913966998e-06   2.035729519012314e-06   -2.4650154195923475e-05
-7.156387878533231e-06   2.0640636588596228e-06   -2.650702807222141e-05
-7.156387878533231e-06   2.0640636588596228e-06   -2.650702807222141e-05
-7.156387878533231e-06   2.0640636588596228e-06   -2.650702807222141e-05
-7.156387878533231e-06   2.0640636588596228e-06   -2.650702807222141e-05
-7.848640238319473e-06   1.6233164963512297e-06   -2.5088825841739734e-05
-7.848640238319473e-06   1.6233164963512297e-06   -2.5088825841739734e-05
-7.848640238319473e-06   1.6233164963512297e-06   -2.5088825841739734e-05
-7.848640238319473e-06   1.6233164963512297e-06   -2.5088825841739734e-05
-7.156387878533204e-06   2.035729519012314e-06   -2.466715467983185e-05
-7.156387878533204e-06   2.035729519012314e-06   -2.466715467983185e-05
-7.156387878533204e-06   2.035729519012314e-06   -2.466715467983185e-05
-7.156387878533204e-06   2.035729519012314e-06   -2.466715467983185e-05
-8.260311913966998e-06   2.0640636588596228e-06   -2.649002758831309e-05
-8.260311913966998e-06   2.0640636588596228e-06   -2.649002758831309e-05
-8.260311913966998e-06   2.0640636588596228e-06   -2.649002758831309e-05
-8.260311913966998e-06   2.0640636588596228e-06   -2.649002758831309e-05
-8.000793965213075e-06   2.8637096575769277e-06   -2.5128640801098836e-05
-8.000793965213075e-06   2.8637096575769277e-06   -2.5128640801098836e-05
-8.000793965213075e-06   2.8637096575769277e-06   -2.5128640801098836e-05
-8.000793965213075e-06   2.8637096575769277e-06   -2.5128640801098836e-05
-6.895899383873306e-06   2.8199632308083082e-06   -2.6943883913937137e-05
-6.895899383873306e-06   2.8199632308083082e-06   -2.6943883913937137e-05
-6.895899383873306e-06   2.8199632308083082e-06   -2.6943883913937137e-05
-6.895899383873306e-06   2.8199632308083082e-06   -2.6943883913937137e-05
-7.647569486876696e-06   2.2567549455821366e-06   -2.5353175437795868e-05
-7.647569486876696e-06   2.2567549455821366e-06   -2.5353175437795868e-05
-7.647569486876696e-06   2.2567549455821366e-06   -2.5353175437795868e-05
-7.647569486876696e-06   2.2567549455821366e-06   -2.5353175437795868e-05
-8.79695171310578e-06   1.8103900321724507e-07   -2.1534921877083217e-05
-8.79695171310578e-06   1.8103900321724507e-07   -2.1534921877083217e-05
-8.79695171310578e-06   1.8103900321724507e-07   -2.1534921877083217e-05
-8.79695171310578e-06   1.8103900321724507e-07   -2.1534921877083217e-05
-9.959039571124058e-06   1.3073071357745832e-06   -2.279597409424606e-05
-9.959039571124058e-06   1.3073071357745832e-06   -2.279597409424606e-05
-9.959039571124058e-06   1.3073071357745832e-06   -2.279597409424606e-05
-9.959039571124058e-06   1.3073071357745832e-06   -2.279597409424606e-05
-9.642085942617626e-06   9.648644245797674e-07   -2.0585092360142965e-05
-9.642085942617626e-06   9.648644245797674e-07   -2.0585092360142965e-05
-9.642085942617626e-06   9.648644245797674e-07   -2.0585092360142965e-05
-9.642085942617626e-06   9.648644245797674e-07   -2.0585092360142965e-05
-8.535574678223783e-06   2.0397909403224723e-06   -2.3074233710244733e-05
-8.535574678223783e-06   2.0397909403224723e-06   -2.3074233710244733e-05
-8.535574678223783e-06   2.0397909403224723e-06   -2.3074233710244733e-05
-8.535574678223783e-06   2.0397909403224723e-06   -2.3074233710244733e-05
-9.161942884296374e-06   1.2045431347780218e-06   -2.152913801679754e-05
-9.161942884296374e-06   1.2045431347780218e-06   -2.152913801679754e-05
-9.161942884296374e-06   1.2045431347780218e-06   -2.152913801679754e-05
-9.161942884296374e-06   1.2045431347780218e-06   -2.152913801679754e-05
-8.535574678223769e-06   9.648644245797674e-07   -2.123004826958848e-05
-8.535574678223769e-06   9.648644245797674e-07   -2.123004826958848e-05
-8.535574678223769e-06   9.648644245797674e-07   -2.123004826958848e-05
-8.535574678223769e-06   9.648644245797674e-07   -2.123004826958848e-05
-9.642085942617626e-06   2.0397909403224723e-06   -2.2429277800799317e-05
-9.642085942617626e-06   2.0397909403224723e-06   -2.2429277800799317e-05
-9.642085942617626e-06   2.0397909403224723e-06   -2.2429277800799317e-05
-9.642085942617626e-06   2.0397909403224723e-06   -2.2429277800799317e-05
-9.230891633754126e-06   1.702926805383976e-06   -2.0671851531694433e-05
-9.230891633754126e-06   1.702926805383976e-06   -2.0671851531694433e-05
-9.230891633754126e-06   1.702926805383976e-06   -2.0671851531694433e-05
-9.230891633754126e-06   1.702926805383976e-06   -2.0671851531694433e-05
-8.260311913966985e-06   2.7150180744199212e-06   -2.2896739159427803e-05
-8.260311913966985e-06   2.7150180744199212e-06   -2.2896739159427803e-05
-8.260311913966985e-06   2.7150180744199212e-06   -2.2896739159427803e-05
-8.260311913966985e-06   2.7150180744199212e-06   -2.2896739159427803e-05
-8.878575637479483e-06   1.7861220118112848e-06   -2.130896198267553e-05
-8.878575637479483e-06   1.7861220118112848e-06   -2.130896198267553e-05
-8.878575637479483e-06   1.7861220118112848e-06   -2.130896198267553e-05
-8.878575637479483e-06   1.7861220118112848e-06   -2.130896198267553e-05
-8.260311913966962e-06   1.7029268053838677e-06   -2.127910629311588e-05
-8.260311913966962e-06   1.7029268053838677e-06   -2.127910629311588e-05
-8.260311913966962e-06   1.7029268053838677e-06   -2.127910629311588e-05
-8.260311913966962e-06   1.7029268053838677e-06   -2.127910629311588e-05
-9.23089163375414e-06   2.7150180744199212e-06   -2.2289484398006288e-05
-9.23089163375414e-06   2.7150180744199212e-06   -2.2289484398006288e-05
-9.23089163375414e-06   2.7150180744199212e-06   -2.2289484398006288e-05
-9.23089163375414e-06   2.7150180744199212e-06   -2.2289484398006288e-05
-8.908263856782367e-06   2.5367459732927172e-06   -2.1245088778837503e-05
-8.908263856782367e-06   2.5367459732927172e-06   -2.1245088778837503e-05
-8.908263856782367e-06   2.5367459732927172e-06   -2.1245088778837503e-05
-8.908263856782367e-06   2.5367459732927172e-06   -2.1245088778837503e-05
-8.000793965213075e-06   3.470953036776225e-06   -2.3318062836209593e-05
-8.000793965213075e-06   3.470953036776225e-06   -2.3318062836209593e-05
-8.000793965213075e-06   3.470953036776225e-06   -2.3318062836209593e-05
-8.000793965213075e-06   3.470953036776225e-06   -2.3318062836209593e-05
-8.667672485969082e-06   2.3798082084437993e-06   -2.1551911737949892e-05
-8.667672485969082e-06   2.3798082084437993e-06   -2.1551911737949892e-05
-8.667672485969082e-06   2.3798082084437993e-06   -2.1551911737949892e-05
-8.667672485969082e-06   2.3798082084437993e-06   -2.1551911737949892e-05
-9.959039571124017e-06   2.567857008147585e-07   -1.1469710006267546e-05
-9.959039571124017e-06   2.567857008147585e-07   -1.1469710006267546e-05
-9.959039571124017e-06   2.567857008147585e-07   -1.1469710006267546e-05
-9.959039571124017e-06   2.567857008147585e-07   -1.1469710006267546e-05
-1.2091143568947763e-05   2.199929631455837e-06   -1.3857330310922426e-05
-1.2091143568947763e-05   2.199929631455837e-06   -1.3857330310922426e-05
-1.2091143568947763e-05   2.199929631455837e-06   -1.3857330310922426e-05
-1.2091143568947763e-05   2.199929631455837e-06   -1.3857330310922426e-05
-1.0955169946855355e-05   8.770357668165226e-07   -9.439297081363716e-06
-1.0955169946855355e-05   8.770357668165226e-07   -9.439297081363716e-06
-1.0955169946855355e-05   8.770357668165226e-07   -9.439297081363716e-06
-1.0955169946855355e-05   8.770357668165226e-07   -9.439297081363716e-06
-9.64208594261762e-06   2.8646889541461117e-06   -1.2820362334157689e-05
-9.64208594261762e-06   2.8646889541461117e-06   -1.2820362334157689e-05
-9.64208594261762e-06   2.8646889541461117e-06   -1.2820362334157689e-05
-9.64208594261762e-06   2.8646889541461117e-06   -1.2820362334157689e-05
-1.0230403102894348e-05   1.6291946820812817e-06   -1.1098537170457822e-05
-1.0230403102894348e-05   1.6291946820812817e-06   -1.1098537170457822e-05
-1.0230403102894348e-05   1.6291946820812817e-06   -1.1098537170457822e-05
-1.0230403102894348e-05   1.6291946820812817e-06   -1.1098537170457822e-05
-9.642085942617592e-06   8.770357668165226e-07   -1.0631888993761405e-05
-9.642085942617592e-06   8.770357668165226e-07   -1.0631888993761405e-05
-9.642085942617592e-06   8.770357668165226e-07   -1.0631888993761405e-05
-9.642085942617592e-06   8.770357668165226e-07   -1.0631888993761405e-05
-1.0955169946855355e-05   2.8646889541463286e-06   -1.1627770421759973e-05
-1.0955169946855355e-05   2.8646889541463286e-06   -1.1627770421759973e-05
-1.0955169946855355e-05   2.8646889541463286e-06   -1.1627770421759973e-05
-1.0955169946855355e-05   2.8646889541463286e-06   -1.1627770421759973e-05
-1.0031215441440783e-05   1.2254920316206227e-06   -9.275755450612543e-06
-1.0031215441440783e-05   1.2254920316206227e-06   -9.275755450612543e-06
-1.0031215441440783e-05   1.2254920316206227e-06   -9.275755450612543e-06
-1.0031215441440783e-05   1.2254920316206227e-06   -9.275755450612543e-06
-9.230891633754126e-06   3.16899976928668e-06   -1.177573310602329e-05
-9.230891633754126e-06   3.16899976928668e-06   -1.177573310602329e-05
-9.230891633754126e-06   3.16899976928668e-06   -1.177573310602329e-05
-9.230891633754126e-06   3.16899976928668e-06   -1.177573310602329e-05
-9.748956751889535e-06   1.937780907009662e-06   -1.0173559925098134e-05
-9.748956751889535e-06   1.937780907009662e-06   -1.0173559925098134e-05
-9.748956751889535e-06   1.937780907009662e-06   -1.0173559925098134e-05
-9.748956751889535e-06   1.937780907009662e-06   -1.0173559925098134e-05
-9.230891633754105e-06   1.2254920316206227e-06   -1.0441860093212232e-05
-9.230891633754105e-06   1.2254920316206227e-06   -1.0441860093212232e-05
-9.230891633754105e-06   1.2254920316206227e-06   -1.0441860093212232e-05
-9.230891633754105e-06   1.2254920316206227e-06   -1.0441860093212232e-05
-1.0031215441440783e-05   3.168999769286897e-06   -1.060962846342352e-05
-1.0031215441440783e-05   3.168999769286897e-06   -1.060962846342352e-05
-1.0031215441440783e-05   3.168999769286897e-06   -1.060962846342352e-05
-1.0031215441440783e-05   3.168999769286897e-06   -1.060962846342352e-05
-8.899440713090083e-06   1.8417022728492872e-06   -9.557091277559448e-06
-8.899440713090083e-06   1.8417022728492872e-06   -9.557091277559448e-06
-8.899440713090083e-06   1.8417022728492872e-06   -9.557091277559448e-06
-8.899440713090083e-06   1.8417022728492872e-06   -9.557091277559448e-06
-8.90826385678236e-06   3.6386123771470734e-06   -1.0620532100650748e-05
-8.90826385678236e-06   3.6386123771470734e-06   -1.0620532100650748e-05
-8.90826385678236e-06   3.6386123771470734e-06   -1.0620532100650748e-05
-8.90826385678236e-06   3.6386123771470734e-06   -1.0620532100650748e-05
-9.034592773951325e-06   2.185978388971328e-06   -9.538403512463829e-06
-9.034592773951325e-06   2.185978388971328e-06   -9.538403512463829e-06
-9.034592773951325e-06   2.185978388971328e-06   -9.538403512463829e-06
-9.034592773951325e-06   2.185978388971328e-06   -9.538403512463829e-06
5.880432800128518e-06   -5.808263037810658e-07   -5.912941900791473e-06
5.880432800128518e-06   -5.808263037810658e-07   -5.912941900791473e-06
5.880432800128518e-06   -5.808263037810658e-07   -5.912941900791473e-06
5.880432800128518e-06   -5.808263037810658e-07   -5.912941900791473e-06
6.114421031958744e-07   -2.424441411373818e-06   -1.5800762126901523e-05
6.114421031958744e-07   -2.424441411373818e-06   -1.5800762126901523e-05
6.114421031958744e-07   -2.424441411373818e-06   -1.5800762126901523e-05
6.114421031958744e-07   -2.424441411373818e-06   -1.5800762126901523e-05
1.0641910898536594e-06   -2.2437807332617576e-08   -6.542172303682938e-06
1.0641910898536594e-06   -2.2437807332617576e-08   -6.542172303682938e-06
1.0641910898536594e-06   -2.2437807332617576e-08   -6.542172303682938e-06
1.0641910898536594e-06   -2.2437807332617576e-08   -6.542172303682938e-06
7.153580740506578e-06   -1.993449837575656e-06   -1.5508547836625417e-05
7.153580740506578e-06   -1.993449837575656e-06   -1.5508547836625417e-05
7.153580740506578e-06   -1.993449837575656e-06   -1.5508547836625417e-05
7.153580740506578e-06   -1.993449837575656e-06   -1.5508547836625417e-05
3.539814138416752e-06   -1.0134968174819146e-06   -1.007357531186508e-05
3.539814138416752e-06   -1.0134968174819146e-06   -1.007357531186508e-05
3.539814138416752e-06   -1.0134968174819146e-06   -1.007357531186508e-05
3.539814138416752e-06   -1.0134968174819146e-06   -1.007357531186508e-05
7.153580740506605e-06   -2.2437807332617576e-08   -5.359565085537093e-06
7.153580740506605e-06   -2.2437807332617576e-08   -5.359565085537093e-06
7.153580740506605e-06   -2.2437807332617576e-08   -5.359565085537093e-06
7.153580740506605e-06   -2.2437807332617576e-08   -5.359565085537093e-06
1.0641910898536594e-06   -1.993449837575656e-06   -1.6691155054771262e-05
1.0641910898536594e-06   -1.993449837575656e-06   -1.6691155054771262e-05
1.0641910898536594e-06   -1.993449837575656e-06   -1.6691155054771262e-05
1.0641910898536594e-06   -1.993449837575656e-06   -1.6691155054771262e-05
1.5983778856766963e-06   2.9435498071959075e-07   -6.595509917398318e-06
1.5983778856766963e-06   2.9435498071959075e-07   -6.595509917398318e-06
1.5983778856766963e-06   2.9435498071959075e-07   -6.595509917398318e-06
1.5983778856766963e-06   2.9435498071959075e-07   -6.595509917398318e-06
8.228150083106008e-06   -1.7050524426347191e-06   -1.6445485792434622e-05
8.228150083106008e-06   -1.7050524426347191e-06   -1.6445485792434622e-05
8.228150083106008e-06   -1.7050524426347191e-06   -1.6445485792434622e-05
8.228150083106008e-06   -1.7050524426347191e-06   -1.6445485792434622e-05
4.34626181444064e-06   -8.114468324942666e-07   -1.0511835377410524e-05
4.34626181444064e-06   -8.114468324942666e-07   -1.0511835377410524e-05
4.34626181444064e-06   -8.114468324942666e-07   -1.0511835377410524e-05
4.34626181444064e-06   -8.114468324942666e-07   -1.0511835377410524e-05
8.228150083106008e-06   2.9435498071959075e-07   -5.395865463385689e-06
8.228150083106008e-06   2.9435498071959075e-07   -5.395865463385689e-06
8.228150083106008e-06   2.9435498071959075e-07   -5.395865463385689e-06
8.228150083106008e-06   2.9435498071959075e-07   -5.395865463385689e-06
1.5983778856766963e-06   -1.7050524426347191e-06   -1.7645130246447306e-05
1.5983778856766963e-06   -1.7050524426347191e-06   -1.7645130246447306e-05
1.5983778856766963e-06   -1.7050524426347191e-06   -1.7645130246447306e-05
1.5983778856766963e-06   -1.7050524426347191e-06   -1.7645130246447306e-05
2.0369063595137465e-06   9.258584090594737e-07   -7.235503645617474e-06
2.0369063595137465e-06   9.258584090594737e-07   -7.235503645617474e-06
2.0369063595137465e-06   9.258584090594737e-07   -7.235503645617474e-06
2.0369063595137465e-06   9.258584090594737e-07   -7.235503645617474e-06
9.519113830919423e-06   -9.79400505995466e-07   -1.8562694082260487e-05
9.519113830919423e-06   -9.79400505995466e-07   -1.8562694082260487e-05
9.519113830919423e-06   -9.79400505995466e-07   -1.8562694082260487e-05
9.519113830919423e-06   -9.79400505995466e-07   -1.8562694082260487e-05
4.9852464707193295e-06   -5.138091497746897e-07   -1.1285603295659995e-05
4.9852464707193295e-06   -5.138091497746897e-07   -1.1285603295659995e-05
4.9852464707193295e-06   -5.138091497746897e-07   -1.1285603295659995e-05
4.9852464707193295e-06   -5.138091497746897e-07   -1.1285603295659995e-05
6.114421031959015e-07   -1.2281757894635342e-07   -1.7125940448651134e-05
6.114421031959015e-07   -1.2281757894635342e-07   -1.7125940448651134e-05
6.114421031959015e-07   -1.2281757894635342e-07   -1.7125940448651134e-05
6.114421031959015e-07   -1.2281757894635342e-07   -1.7125940448651134e-05
-5.517788407990201e-06   -9.546163312402264e-07   -2.784040388533745e-05
-5.517788407990201e-06   -9.546163312402264e-07   -2.784040388533745e-05
-5.517788407990201e-06   -9.546163312402264e-07   -2.784040388533745e-05
-5.517788407990201e-06   -9.546163312402264e-07   -2.784040388533745e-05
-5.121561655224913e-06   5.823258452167506e-07   -1.7222114906211504e-05
-5.121561655224913e-06   5.823258452167506e-07   -1.7222114906211504e-05
-5.121561655224913e-06   5.823258452167506e-07   -1.7222114906211504e-05
-5.121561655224913e-06   5.823258452167506e-07   -1.7222114906211504e-05
1.0641910898536594e-06   -3.625564063518272e-07   -2.696477346373488e-05
1.0641910898536594e-06   -3.625564063518272e-07   -2.696477346373488e-05
1.0641910898536594e-06   -3.625564063518272e-07   -2.696477346373488e-05
1.0641910898536594e-06   -3.625564063518272e-07   -2.696477346373488e-05
-2.1894127130739506e-06   -3.274420077811237e-08   -2.173998778219976e-05
-2.1894127130739506e-06   -3.274420077811237e-08   -2.173998778219976e-05
-2.1894127130739506e-06   -3.274420077811237e-08   -2.173998778219976e-05
-2.1894127130739506e-06   -3.274420077811237e-08   -2.173998778219976e-05
1.0641910898536594e-06   5.823258452165338e-07   -1.6655185555270445e-05
1.0641910898536594e-06   5.823258452165338e-07   -1.6655185555270445e-05
1.0641910898536594e-06   5.823258452165338e-07   -1.6655185555270445e-05
1.0641910898536594e-06   5.823258452165338e-07   -1.6655185555270445e-05
-5.121561655224913e-06   -3.625564063518272e-07   -2.7531702814675995e-05
-5.121561655224913e-06   -3.625564063518272e-07   -2.7531702814675995e-05
-5.121561655224913e-06   -3.625564063518272e-07   -2.7531702814675995e-05
-5.121561655224913e-06   -3.625564063518272e-07   -2.7531702814675995e-05
-4.723036626748132e-06   1.2618281259408823e-06   -1.724864537864211e-05
-4.723036626748132e-06   1.2618281259408823e-06   -1.724864537864211e-05
-4.723036626748132e-06   1.2618281259408823e-06   -1.724864537864211e-05
-4.723036626748132e-06   1.2618281259408823e-06   -1.724864537864211e-05
1.5983778856766963e-06   2.5002023358870924e-07   -2.71772514972722e-05
1.5983778856766963e-06   2.5002023358870924e-07   -2.71772514972722e-05
1.5983778856766963e-06   2.5002023358870924e-07   -2.71772514972722e-05
1.5983778856766963e-06   2.5002023358870924e-07   -2.71772514972722e-05
-1.8390515093716586e-06   4.5427363533660434e-07   -2.1570754546573713e-05
-1.8390515093716586e-06   4.5427363533660434e-07   -2.1570754546573713e-05
-1.8390515093716586e-06   4.5427363533660434e-07   -2.1570754546573713e-05
-1.8390515093716586e-06   4.5427363533660434e-07   -2.1570754546573713e-05
1.5983778856766963e-06   1.2618281259408823e-06   -1.6641560643230915e-05
1.5983778856766963e-06   1.2618281259408823e-06   -1.6641560643230915e-05
1.5983778856766963e-06   1.2618281259408823e-06   -1.6641560643230915e-05
1.5983778856766963e-06   1.2618281259408823e-06   -1.6641560643230915e-05
-4.723036626748132e-06   2.5002023358870924e-07   -2.778433623268356e-05
-4.723036626748132e-06   2.5002023358870924e-07   -2.778433623268356e-05
-4.723036626748132e-06   2.5002023358870924e-07   -2.778433623268356e-05
-4.723036626748132e-06   2.5002023358870924e-07   -2.778433623268356e-05
-4.342577230031995e-06   2.0383698243664396e-06   -1.7681902895147397e-05
-4.342577230031995e-06   2.0383698243664396e-06   -1.7681902895147397e-05
-4.342577230031995e-06   2.0383698243664396e-06   -1.7681902895147397e-05
-4.342577230031995e-06   2.0383698243664396e-06   -1.7681902895147397e-05
2.0369063595137465e-06   9.760410346569808e-07   -2.7676978270564894e-05
2.0369063595137465e-06   9.760410346569808e-07   -2.7676978270564894e-05
2.0369063595137465e-06   9.760410346569808e-07   -2.7676978270564894e-05
2.0369063595137465e-06   9.760410346569808e-07   -2.7676978270564894e-05
-1.4482667977298272e-06   9.947224473118646e-07   -2.1879565189418797e-05
-1.4482667977298272e-06   9.947224473118646e-07   -2.1879565189418797e-05
-1.4482667977298272e-06   9.947224473118646e-07   -2.1879565189418797e-05
-1.4482667977298272e-06   9.947224473118646e-07   -2.1879565189418797e-05
-5.5177884079902145e-06   5.889352011432397e-07   -2.0744354169062516e-05
-5.5177884079902145e-06   5.889352011432397e-07   -2.0744354169062516e-05
-5.5177884079902145e-06   5.889352011432397e-07   -2.0744354169062516e-05
-5.5177884079902145e-06   5.889352011432397e-07   -2.0744354169062516e-05
-1.1592112140929918e-05   7.421288554644665e-07   -3.0776310864702515e-05
-1.1592112140929918e-05   7.421288554644665e-07   -3.0776310864702515e-05
-1.1592112140929918e-05   7.421288554644665e-07   -3.0776310864702515e-05
-1.1592112140929918e-05   7.421288554644665e-07   -3.0776310864702515e-05
-1.1193275889753754e-05   1.3185419490673728e-06   -2.0370878747614845e-05
-1.1193275889753754e-05   1.3185419490673728e-06   -2.0370878747614845e-05
-1.1193275889753754e-05   1.3185419490673728e-06   -2.0370878747614845e-05
-1.1193275889753754e-05   1.3185419490673728e-06   -2.0370878747614845e-05
-5.121561655224927e-06   1.3692879398347155e-06   -3.0520850066290036e-05
-5.121561655224927e-06   1.3692879398347155e-06   -3.0520850066290036e-05
-5.121561655224927e-06   1.3692879398347155e-06   -3.0520850066290036e-05
-5.121561655224927e-06   1.3692879398347155e-06   -3.0520850066290036e-05
-8.307848175979989e-06   1.1325126127229284e-06   -2.5068307335431137e-05
-8.307848175979989e-06   1.1325126127229284e-06   -2.5068307335431137e-05
-8.307848175979989e-06   1.1325126127229284e-06   -2.5068307335431137e-05
-8.307848175979989e-06   1.1325126127229284e-06   -2.5068307335431137e-05
-5.121561655224927e-06   1.3185419490673728e-06   -2.0401326342075294e-05
-5.121561655224927e-06   1.3185419490673728e-06   -2.0401326342075294e-05
-5.121561655224927e-06   1.3185419490673728e-06   -2.0401326342075294e-05
-5.121561655224927e-06   1.3185419490673728e-06   -2.0401326342075294e-05
-1.1193275889753754e-05   1.3692879398347155e-06   -3.049040247182983e-05
-1.1193275889753754e-05   1.3692879398347155e-06   -3.049040247182983e-05
-1.1193275889753754e-05   1.3692879398347155e-06   -3.049040247182983e-05
-1.1193275889753754e-05   1.3692879398347155e-06   -3.049040247182983e-05
-1.0787738303744674e-05   2.0640636588596228e-06   -2.042330095789141e-05
-1.0787738303744674e-05   2.0640636588596228e-06   -2.042330095789141e-05
-1.0787738303744674e-05   2.0640636588596228e-06   -2.042330095789141e-05
-1.0787738303744674e-05   2.0640636588596228e-06   -2.042330095789141e-05
-4.723036626748132e-06   2.032935747753057e-06   -3.0512460339555166e-05
-4.723036626748132e-06   2.032935747753057e-06   -3.0512460339555166e-05
-4.723036626748132e-06   2.032935747753057e-06   -3.0512460339555166e-05
-4.723036626748132e-06   2.032935747753057e-06   -3.0512460339555166e-05
-7.95730893942576e-06   1.6803766239520748e-06   -2.491047101081217e-05
-7.95730893942576e-06   1.6803766239520748e-06   -2.491047101081217e-05
-7.95730893942576e-06   1.6803766239520748e-06   -2.491047101081217e-05
-7.95730893942576e-06   1.6803766239520748e-06   -2.491047101081217e-05
-4.723036626748132e-06   2.0640636588596228e-06   -2.0404624211227537e-05
-4.723036626748132e-06   2.0640636588596228e-06   -2.0404624211227537e-05
-4.723036626748132e-06   2.0640636588596228e-06   -2.0404624211227537e-05
-4.723036626748132e-06   2.0640636588596228e-06   -2.0404624211227537e-05
-1.0787738303744657e-05   2.032935747753057e-06   -3.0531137086219095e-05
-1.0787738303744657e-05   2.032935747753057e-06   -3.0531137086219095e-05
-1.0787738303744657e-05   2.032935747753057e-06   -3.0531137086219095e-05
-1.0787738303744657e-05   2.032935747753057e-06   -3.0531137086219095e-05
-1.0401089922461607e-05   2.8199632308083082e-06   -2.0882659809838447e-05
-1.0401089922461607e-05   2.8199632308083082e-06   -2.0882659809838447e-05
-1.0401089922461607e-05   2.8199632308083082e-06   -2.0882659809838447e-05
-1.0401089922461607e-05   2.8199632308083082e-06   -2.0882659809838447e-05
-4.3425772300320224e-06   2.7080926073236398e-06   -3.0913058589796894e-05
-4.3425772300320224e-06   2.7080926073236398e-06   -3.0913058589796894e-05
-4.3425772300320224e-06   2.7080926073236398e-06   -3.0913058589796894e-05
-4.3425772300320224e-06   2.7080926073236398e-06   -3.0913058589796894e-05
-7.631527112561412e-06   2.2366055514259214e-06   -2.514858321870972e-05
-7.631527112561412e-06   2.2366055514259214e-06   -2.514858321870972e-05
-7.631527112561412e-06   2.2366055514259214e-06   -2.514858321870972e-05
-7.631527112561412e-06   2.2366055514259214e-06   -2.514858321870972e-05
-1.159211214092994e-05   1.3073071357743663e-06   -1.743569127504892e-05
-1.159211214092994e-05   1.3073071357743663e-06   -1.743569127504892e-05
-1.159211214092994e-05   1.3073071357743663e-06   -1.743569127504892e-05
-1.159211214092994e-05   1.3073071357743663e-06   -1.743569127504892e-05
-1.760069567687034e-05   2.390870499092198e-06   -2.6799859150292236e-05
-1.760069567687034e-05   2.390870499092198e-06   -2.6799859150292236e-05
-1.760069567687034e-05   2.390870499092198e-06   -2.6799859150292236e-05
-1.760069567687034e-05   2.390870499092198e-06   -2.6799859150292236e-05
-1.7144469841801e-05   2.0397909403224723e-06   -1.6416188743199455e-05
-1.7144469841801e-05   2.0397909403224723e-06   -1.6416188743199455e-05
-1.7144469841801e-05   2.0397909403224723e-06   -1.6416188743199455e-05
-1.7144469841801e-05   2.0397909403224723e-06   -1.6416188743199455e-05
-1.1193275889753754e-05   3.0603616259494964e-06   -2.6947187741321036e-05
-1.1193275889753754e-05   3.0603616259494964e-06   -2.6947187741321036e-05
-1.1193275889753754e-05   3.0603616259494964e-06   -2.6947187741321036e-05
-1.1193275889753754e-05   3.0603616259494964e-06   -2.6947187741321036e-05
-1.4282926750987906e-05   2.2860115913188317e-06   -2.1333159618485645e-05
-1.4282926750987906e-05   2.2860115913188317e-06   -2.1333159618485645e-05
-1.4282926750987906e-05   2.2860115913188317e-06   -2.1333159618485645e-05
-1.4282926750987906e-05   2.2860115913188317e-06   -2.1333159618485645e-05
-1.1193275889753772e-05   2.0397909403224723e-06   -1.7028531154575713e-05
-1.1193275889753772e-05   2.0397909403224723e-06   -1.7028531154575713e-05
-1.1193275889753772e-05   2.0397909403224723e-06   -1.7028531154575713e-05
-1.1193275889753772e-05   2.0397909403224723e-06   -1.7028531154575713e-05
-1.7144469841801028e-05   3.0603616259494964e-06   -2.6334845329945076e-05
-1.7144469841801028e-05   3.0603616259494964e-06   -2.6334845329945076e-05
-1.7144469841801028e-05   3.0603616259494964e-06   -2.6334845329945076e-05
-1.7144469841801028e-05   3.0603616259494964e-06   -2.6334845329945076e-05
-1.659678208476427e-05   2.7150180744199212e-06   -1.6261219155463036e-05
-1.659678208476427e-05   2.7150180744199212e-06   -1.6261219155463036e-05
-1.659678208476427e-05   2.7150180744199212e-06   -1.6261219155463036e-05
-1.659678208476427e-05   2.7150180744199212e-06   -1.6261219155463036e-05
-1.0787738303744674e-05   3.6630070303252105e-06   -2.6511752164038895e-05
-1.0787738303744674e-05   3.6630070303252105e-06   -2.6511752164038895e-05
-1.0787738303744674e-05   3.6630070303252105e-06   -2.6511752164038895e-05
-1.0787738303744674e-05   3.6630070303252105e-06   -2.6511752164038895e-05
-1.3822405696446199e-05   2.815099809928747e-06   -2.0945228843965557e-05
-1.3822405696446199e-05   2.815099809928747e-06   -2.0945228843965557e-05
-1.3822405696446199e-05   2.815099809928747e-06   -2.0945228843965557e-05
-1.3822405696446199e-05   2.815099809928747e-06   -2.0945228843965557e-05
-1.0787738303744665e-05   2.7150180744199212e-06   -1.6830012529006166e-05
-1.0787738303744665e-05   2.7150180744199212e-06   -1.6830012529006166e-05
-1.0787738303744665e-05   2.7150180744199212e-06   -1.6830012529006166e-05
-1.0787738303744665e-05   2.7150180744199212e-06   -1.6830012529006166e-05
-1.659678208476427e-05   3.6630070303252105e-06   -2.5942958790495826e-05
-1.659678208476427e-05   3.6630070303252105e-06   -2.5942958790495826e-05
-1.659678208476427e-05   3.6630070303252105e-06   -2.5942958790495826e-05
-1.659678208476427e-05   3.6630070303252105e-06   -2.5942958790495826e-05
-1.6140860916438072e-05   3.470953036776225e-06   -1.6711324149526322e-05
-1.6140860916438072e-05   3.470953036776225e-06   -1.6711324149526322e-05
-1.6140860916438072e-05   3.470953036776225e-06   -1.6711324149526322e-05
-1.6140860916438072e-05   3.470953036776225e-06   -1.6711324149526322e-05
-1.0401089922461607e-05   4.3363975809815585e-06   -2.6796875866010354e-05
-1.0401089922461607e-05   4.3363975809815585e-06   -2.6796875866010354e-05
-1.0401089922461607e-05   4.3363975809815585e-06   -2.6796875866010354e-05
-1.0401089922461607e-05   4.3363975809815585e-06   -2.6796875866010354e-05
-1.3516129296576833e-05   3.335863889846087e-06   -2.100482336113695e-05
-1.3516129296576833e-05   3.335863889846087e-06   -2.100482336113695e-05
-1.3516129296576833e-05   3.335863889846087e-06   -2.100482336113695e-05
-1.3516129296576833e-05   3.335863889846087e-06   -2.100482336113695e-05
-1.760069567687034e-05   2.199929631455837e-06   -9.012795832119363e-06
-1.760069567687034e-05   2.199929631455837e-06   -9.012795832119363e-06
-1.760069567687034e-05   2.199929631455837e-06   -9.012795832119363e-06
-1.760069567687034e-05   2.199929631455837e-06   -9.012795832119363e-06
-2.4455808457721987e-05   4.111740674523669e-06   -1.929089717436479e-05
-2.4455808457721987e-05   4.111740674523669e-06   -1.929089717436479e-05
-2.4455808457721987e-05   4.111740674523669e-06   -1.929089717436479e-05
-2.4455808457721987e-05   4.111740674523669e-06   -1.929089717436479e-05
-2.3193002479950998e-05   2.8646889541463286e-06   -5.641568195163468e-06
-2.3193002479950998e-05   2.8646889541463286e-06   -5.641568195163468e-06
-2.3193002479950998e-05   2.8646889541463286e-06   -5.641568195163468e-06
-2.3193002479950998e-05   2.8646889541463286e-06   -5.641568195163468e-06
-1.7144469841801e-05   4.807530756470359e-06   -1.688816100680792e-05
-1.7144469841801e-05   4.807530756470359e-06   -1.688816100680792e-05
-1.7144469841801e-05   4.807530756470359e-06   -1.688816100680792e-05
-1.7144469841801e-05   4.807530756470359e-06   -1.688816100680792e-05
-1.9760637425522325e-05   3.5744110655744864e-06   -1.178800988606819e-05
-1.9760637425522325e-05   3.5744110655744864e-06   -1.178800988606819e-05
-1.9760637425522325e-05   3.5744110655744864e-06   -1.178800988606819e-05
-1.9760637425522325e-05   3.5744110655744864e-06   -1.178800988606819e-05
-1.7144469841801015e-05   2.8646889541463286e-06   -6.807273276558017e-06
-1.7144469841801015e-05   2.8646889541463286e-06   -6.807273276558017e-06
-1.7144469841801015e-05   2.8646889541463286e-06   -6.807273276558017e-06
-1.7144469841801015e-05   2.8646889541463286e-06   -6.807273276558017e-06
-2.3193002479950916e-05   4.807530756470359e-06   -1.572245592541344e-05
-2.3193002479950916e-05   4.807530756470359e-06   -1.572245592541344e-05
-2.3193002479950916e-05   4.807530756470359e-06   -1.572245592541344e-05
-2.3193002479950916e-05   4.807530756470359e-06   -1.572245592541344e-05
-2.2149342203096217e-05   3.16899976928668e-06   -4.614622336869762e-06
-2.2149342203096217e-05   3.16899976928668e-06   -4.614622336869762e-06
-2.2149342203096217e-05   3.16899976928668e-06   -4.614622336869762e-06
-2.2149342203096217e-05   3.16899976928668e-06   -4.614622336869762e-06
-1.6596782084764235e-05   5.05707564697061e-06   -1.5001734727366798e-05
-1.6596782084764235e-05   5.05707564697061e-06   -1.5001734727366798e-05
-1.6596782084764235e-05   5.05707564697061e-06   -1.5001734727366798e-05
-1.6596782084764235e-05   5.05707564697061e-06   -1.5001734727366798e-05
-1.930283198403339e-05   3.888292260302399e-06   -9.790381529917386e-06
-1.930283198403339e-05   3.888292260302399e-06   -9.790381529917386e-06
-1.930283198403339e-05   3.888292260302399e-06   -9.790381529917386e-06
-1.930283198403339e-05   3.888292260302399e-06   -9.790381529917386e-06
-1.659678208476427e-05   3.168999769286897e-06   -5.74746786348012e-06
-1.659678208476427e-05   3.168999769286897e-06   -5.74746786348012e-06
-1.659678208476427e-05   3.168999769286897e-06   -5.74746786348012e-06
-1.659678208476427e-05   3.168999769286897e-06   -5.74746786348012e-06
-2.2149342203096176e-05   5.05707564697061e-06   -1.3868889200756534e-05
-2.2149342203096176e-05   5.05707564697061e-06   -1.3868889200756534e-05
-2.2149342203096176e-05   5.05707564697061e-06   -1.3868889200756534e-05
-2.2149342203096176e-05   5.05707564697061e-06   -1.3868889200756534e-05
-2.0913233383094447e-05   3.6386123771470734e-06   -3.5346055177708224e-06
-2.0913233383094447e-05   3.6386123771470734e-06   -3.5346055177708224e-06
-2.0913233383094447e-05   3.6386123771470734e-06   -3.5346055177708224e-06
-2.0913233383094447e-05   3.6386123771470734e-06   -3.5346055177708224e-06
-1.6140860916438072e-05   5.3714659342916915e-06   -1.2528271763151587e-05
-1.6140860916438072e-05   5.3714659342916915e-06   -1.2528271763151587e-05
-1.6140860916438072e-05   5.3714659342916915e-06   -1.2528271763151587e-05
-1.6140860916438072e-05   5.3714659342916915e-06   -1.2528271763151587e-05
-1.8319860858769068e-05   4.039116708084555e-06   -8.097195656875833e-06
-1.8319860858769068e-05   4.039116708084555e-06   -8.097195656875833e-06
-1.8319860858769068e-05   4.039116708084555e-06   -8.097195656875833e-06
-1.8319860858769068e-05   4.039116708084555e-06   -8.097195656875833e-06
1.8504499814951035e-05   -2.424441411373818e-06   -7.038590246776812e-08
1.8504499814951035e-05   -2.424441411373818e-06   -7.038590246776812e-08
1.8504499814951035e-05   -2.424441411373818e-06   -7.038590246776812e-08
1.8504499814951035e-05   -2.424441411373818e-06   -7.038590246776812e-08
7.874205314279439e-06   -4.364176740553807e-06   -1.895138460109502e-05
7.874205314279439e-06   -4.364176740553807e-06   -1.895138460109502e-05
7.874205314279439e-06   -4.364176740553807e-06   -1.895138460109502e-05
7.874205314279439e-06   -4.364176740553807e-06   -1.895138460109502e-05
8.425972171582794e-06   -1.993449837575656e-06   -2.016986306464536e-06
8.425972171582794e-06   -1.993449837575656e-06   -2.016986306464536e-06
8.425972171582794e-06   -1.993449837575656e-06   -2.016986306464536e-06
8.425972171582794e-06   -1.993449837575656e-06   -2.016986306464536e-06
1.9893652753367845e-05   -4.059759102602442e-06   -1.989000171709023e-05
1.9893652753367845e-05   -4.059759102602442e-06   -1.989000171709023e-05
1.9893652753367845e-05   -4.059759102602442e-06   -1.989000171709023e-05
1.9893652753367845e-05   -4.059759102602442e-06   -1.989000171709023e-05
1.31225387098324e-05   -2.8791757293762654e-06   -9.313161668466805e-06
1.31225387098324e-05   -2.8791757293762654e-06   -9.313161668466805e-06
1.31225387098324e-05   -2.8791757293762654e-06   -9.313161668466805e-06
1.31225387098324e-05   -2.8791757293762654e-06   -9.313161668466805e-06
1.9893652753367872e-05   -1.993449837575656e-06   -7.77200747448378e-07
1.9893652753367872e-05   -1.993449837575656e-06   -7.77200747448378e-07
1.9893652753367872e-05   -1.993449837575656e-06   -7.77200747448378e-07
1.9893652753367872e-05   -1.993449837575656e-06   -7.77200747448378e-07
8.42597217158274e-06   -4.059759102602442e-06   -2.1129787276106334e-05
8.42597217158274e-06   -4.059759102602442e-06   -2.1129787276106334e-05
8.42597217158274e-06   -4.059759102602442e-06   -2.1129787276106334e-05
8.42597217158274e-06   -4.059759102602442e-06   -2.1129787276106334e-05
9.037544570287127e-06   -1.7050524426347191e-06   -2.8722658533301363e-06
9.037544570287127e-06   -1.7050524426347191e-06   -2.8722658533301363e-06
9.037544570287127e-06   -1.7050524426347191e-06   -2.8722658533301363e-06
9.037544570287127e-06   -1.7050524426347191e-06   -2.8722658533301363e-06
2.105927238764147e-05   -3.796838048044293e-06   -2.1653407519008343e-05
2.105927238764147e-05   -3.796838048044293e-06   -2.1653407519008343e-05
2.105927238764147e-05   -3.796838048044293e-06   -2.1653407519008343e-05
2.105927238764147e-05   -3.796838048044293e-06   -2.1653407519008343e-05
1.4165689889788293e-05   -2.762058806008794e-06   -1.0784970901140962e-05
1.4165689889788293e-05   -2.762058806008794e-06   -1.0784970901140962e-05
1.4165689889788293e-05   -2.762058806008794e-06   -1.0784970901140962e-05
1.4165689889788293e-05   -2.762058806008794e-06   -1.0784970901140962e-05
2.1059272387641525e-05   -1.7050524426347191e-06   -1.617194490084392e-06
2.1059272387641525e-05   -1.7050524426347191e-06   -1.617194490084392e-06
2.1059272387641525e-05   -1.7050524426347191e-06   -1.617194490084392e-06
2.1059272387641525e-05   -1.7050524426347191e-06   -1.617194490084392e-06
9.037544570287127e-06   -3.796838048044293e-06   -2.2908478882254033e-05
9.037544570287127e-06   -3.796838048044293e-06   -2.2908478882254033e-05
9.037544570287127e-06   -3.796838048044293e-06   -2.2908478882254033e-05
9.037544570287127e-06   -3.796838048044293e-06   -2.2908478882254033e-05
9.542014150191812e-06   -9.79400505995466e-07   -4.841966538296667e-06
9.542014150191812e-06   -9.79400505995466e-07   -4.841966538296667e-06
9.542014150191812e-06   -9.79400505995466e-07   -4.841966538296667e-06
9.542014150191812e-06   -9.79400505995466e-07   -4.841966538296667e-06
2.241287859648341e-05   -2.9668362190372367e-06   -2.5100945854290792e-05
2.241287859648341e-05   -2.9668362190372367e-06   -2.5100945854290792e-05
2.241287859648341e-05   -2.9668362190372367e-06   -2.5100945854290792e-05
2.241287859648341e-05   -2.9668362190372367e-06   -2.5100945854290792e-05
1.4727143881337925e-05   -2.4364826601073857e-06   -1.2609600131073702e-05
1.4727143881337925e-05   -2.4364826601073857e-06   -1.2609600131073702e-05
1.4727143881337925e-05   -2.4364826601073857e-06   -1.2609600131073702e-05
1.4727143881337925e-05   -2.4364826601073857e-06   -1.2609600131073702e-05
7.874205314279439e-06   -9.546163312402264e-07   -1.2774789607035365e-05
7.874205314279439e-06   -9.546163312402264e-07   -1.2774789607035365e-05
7.874205314279439e-06   -9.546163312402264e-07   -1.2774789607035365e-05
7.874205314279439e-06   -9.546163312402264e-07   -1.2774789607035365e-05
-3.3655871537394122e-06   -2.0370159106053876e-06   -3.2157216801352475e-05
-3.3655871537394122e-06   -2.0370159106053876e-06   -3.2157216801352475e-05
-3.3655871537394122e-06   -2.0370159106053876e-06   -3.2157216801352475e-05
-3.3655871537394122e-06   -2.0370159106053876e-06   -3.2157216801352475e-05
-2.8529664674397076e-06   -3.625564063518272e-07   -1.3040326030567964e-05
-2.8529664674397076e-06   -3.625564063518272e-07   -1.3040326030567964e-05
-2.8529664674397076e-06   -3.625564063518272e-07   -1.3040326030567964e-05
-2.8529664674397076e-06   -3.625564063518272e-07   -1.3040326030567964e-05
8.42597217158274e-06   -1.6120919315845347e-06   -3.1088835780465775e-05
8.42597217158274e-06   -1.6120919315845347e-06   -3.1088835780465775e-05
8.42597217158274e-06   -1.6120919315845347e-06   -3.1088835780465775e-05
8.42597217158274e-06   -1.6120919315845347e-06   -3.1088835780465775e-05
2.5480053694141926e-06   -9.837165717238062e-07   -2.1669249659434333e-05
2.5480053694141926e-06   -9.837165717238062e-07   -2.1669249659434333e-05
2.5480053694141926e-06   -9.837165717238062e-07   -2.1669249659434333e-05
2.5480053694141926e-06   -9.837165717238062e-07   -2.1669249659434333e-05
8.425972171582767e-06   -3.625564063518272e-07   -1.229060471542821e-05
8.425972171582767e-06   -3.625564063518272e-07   -1.229060471542821e-05
8.425972171582767e-06   -3.625564063518272e-07   -1.229060471542821e-05
8.425972171582767e-06   -3.625564063518272e-07   -1.229060471542821e-05
-2.852966467439694e-06   -1.6120919315845347e-06   -3.1838557095605286e-05
-2.852966467439694e-06   -1.6120919315845347e-06   -3.1838557095605286e-05
-2.852966467439694e-06   -1.6120919315845347e-06   -3.1838557095605286e-05
-2.852966467439694e-06   -1.6120919315845347e-06   -3.1838557095605286e-05
-2.363546897087151e-06   2.5002023358870924e-07   -1.3210125095141322e-05
-2.363546897087151e-06   2.5002023358870924e-07   -1.3210125095141322e-05
-2.363546897087151e-06   2.5002023358870924e-07   -1.3210125095141322e-05
-2.363546897087151e-06   2.5002023358870924e-07   -1.3210125095141322e-05
9.037544570287127e-06   -1.092876418055163e-06   -3.14062062164456e-05
9.037544570287127e-06   -1.092876418055163e-06   -3.14062062164456e-05
9.037544570287127e-06   -1.092876418055163e-06   -3.14062062164456e-05
9.037544570287127e-06   -1.092876418055163e-06   -3.14062062164456e-05
2.953753012650251e-06   -6.07369445593817e-07   -2.155785780386056e-05
2.953753012650251e-06   -6.07369445593817e-07   -2.155785780386056e-05
2.953753012650251e-06   -6.07369445593817e-07   -2.155785780386056e-05
2.953753012650251e-06   -6.07369445593817e-07   -2.155785780386056e-05
9.037544570287127e-06   2.5002023358870924e-07   -1.2404387104155085e-05
9.037544570287127e-06   2.5002023358870924e-07   -1.2404387104155085e-05
9.037544570287127e-06   2.5002023358870924e-07   -1.2404387104155085e-05
9.037544570287127e-06   2.5002023358870924e-07   -1.2404387104155085e-05
-2.363546897087151e-06   -1.092876418055163e-06   -3.221194420743195e-05
-2.363546897087151e-06   -1.092876418055163e-06   -3.221194420743195e-05
-2.363546897087151e-06   -1.092876418055163e-06   -3.221194420743195e-05
-2.363546897087151e-06   -1.092876418055163e-06   -3.221194420743195e-05
-1.9041078339445604e-06   9.760410346571977e-07   -1.3662199528001115e-05
-1.9041078339445604e-06   9.760410346571977e-07   -1.3662199528001115e-05
-1.9041078339445604e-06   9.760410346571977e-07   -1.3662199528001115e-05
-1.9041078339445604e-06   9.760410346571977e-07   -1.3662199528001115e-05
9.54201415019184e-06   -4.3913254939818847e-07   -3.1889965351128766e-05
9.54201415019184e-06   -4.3913254939818847e-07   -3.1889965351128766e-05
9.54201415019184e-06   -4.3913254939818847e-07   -3.1889965351128766e-05
9.54201415019184e-06   -4.3913254939818847e-07   -3.1889965351128766e-05
3.4615167040586556e-06   -1.4291954099224582e-07   -2.1933530745950683e-05
3.4615167040586556e-06   -1.4291954099224582e-07   -2.1933530745950683e-05
3.4615167040586556e-06   -1.4291954099224582e-07   -2.1933530745950683e-05
3.4615167040586556e-06   -1.4291954099224582e-07   -2.1933530745950683e-05
-3.3655871537394122e-06   7.421288554646834e-07   -1.6452052526612316e-05
-3.3655871537394122e-06   7.421288554646834e-07   -1.6452052526612316e-05
-3.3655871537394122e-06   7.421288554646834e-07   -1.6452052526612316e-05
-3.3655871537394122e-06   7.421288554646834e-07   -1.6452052526612316e-05
-1.4407352043438613e-05   3.841172762978056e-07   -3.5069800956944526e-05
-1.4407352043438613e-05   3.841172762978056e-07   -3.5069800956944526e-05
-1.4407352043438613e-05   3.841172762978056e-07   -3.5069800956944526e-05
-1.4407352043438613e-05   3.841172762978056e-07   -3.5069800956944526e-05
-1.3855691496178242e-05   1.3692879398347155e-06   -1.6333913266185435e-05
-1.3855691496178242e-05   1.3692879398347155e-06   -1.6333913266185435e-05
-1.3855691496178242e-05   1.3692879398347155e-06   -1.6333913266185435e-05
-1.3855691496178242e-05   1.3692879398347155e-06   -1.6333913266185435e-05
-2.852966467439694e-06   8.618879664954761e-07   -3.4367348330079615e-05
-2.852966467439694e-06   8.618879664954761e-07   -3.4367348330079615e-05
-2.852966467439694e-06   8.618879664954761e-07   -3.4367348330079615e-05
-2.852966467439694e-06   8.618879664954761e-07   -3.4367348330079615e-05
-8.561650602861383e-06   1.0180779977347724e-06   -2.494658878978692e-05
-8.561650602861383e-06   1.0180779977347724e-06   -2.494658878978692e-05
-8.561650602861383e-06   1.0180779977347724e-06   -2.494658878978692e-05
-8.561650602861383e-06   1.0180779977347724e-06   -2.494658878978692e-05
-2.8529664674397076e-06   1.3692879398347155e-06   -1.6029473282181978e-05
-2.8529664674397076e-06   1.3692879398347155e-06   -1.6029473282181978e-05
-2.8529664674397076e-06   1.3692879398347155e-06   -1.6029473282181978e-05
-2.8529664674397076e-06   1.3692879398347155e-06   -1.6029473282181978e-05
-1.3855691496178242e-05   8.618879664954761e-07   -3.467178831408318e-05
-1.3855691496178242e-05   8.618879664954761e-07   -3.467178831408318e-05
-1.3855691496178242e-05   8.618879664954761e-07   -3.467178831408318e-05
-1.3855691496178242e-05   8.618879664954761e-07   -3.467178831408318e-05
-1.3323426515496943e-05   2.032935747753057e-06   -1.630937016460193e-05
-1.3323426515496943e-05   2.032935747753057e-06   -1.630937016460193e-05
-1.3323426515496943e-05   2.032935747753057e-06   -1.630937016460193e-05
-1.3323426515496943e-05   2.032935747753057e-06   -1.630937016460193e-05
-2.3635468970871644e-06   1.41440081010487e-06   -3.420471523269604e-05
-2.3635468970871644e-06   1.41440081010487e-06   -3.420471523269604e-05
-2.3635468970871644e-06   1.41440081010487e-06   -3.420471523269604e-05
-2.3635468970871644e-06   1.41440081010487e-06   -3.420471523269604e-05
-8.087349172643121e-06   1.465510778373997e-06   -2.4695710754397482e-05
-8.087349172643121e-06   1.465510778373997e-06   -2.4695710754397482e-05
-8.087349172643121e-06   1.465510778373997e-06   -2.4695710754397482e-05
-8.087349172643121e-06   1.465510778373997e-06   -2.4695710754397482e-05
-2.3635468970871644e-06   2.032935747753057e-06   -1.5938249202013038e-05
-2.3635468970871644e-06   2.032935747753057e-06   -1.5938249202013038e-05
-2.3635468970871644e-06   2.032935747753057e-06   -1.5938249202013038e-05
-2.3635468970871644e-06   2.032935747753057e-06   -1.5938249202013038e-05
-1.3323426515496943e-05   1.4144008101046532e-06   -3.457583619528501e-05
-1.3323426515496943e-05   1.4144008101046532e-06   -3.457583619528501e-05
-1.3323426515496943e-05   1.4144008101046532e-06   -3.457583619528501e-05
-1.3323426515496943e-05   1.4144008101046532e-06   -3.457583619528501e-05
-1.2831615615829336e-05   2.708092607323423e-06   -1.669458122436848e-05
-1.2831615615829336e-05   2.708092607323423e-06   -1.669458122436848e-05
-1.2831615615829336e-05   2.708092607323423e-06   -1.669458122436848e-05
-1.2831615615829336e-05   2.708092607323423e-06   -1.669458122436848e-05
-1.9041078339445604e-06   1.985261522388735e-06   -3.447339554321565e-05
-1.9041078339445604e-06   1.985261522388735e-06   -3.447339554321565e-05
-1.9041078339445604e-06   1.985261522388735e-06   -3.447339554321565e-05
-1.9041078339445604e-06   1.985261522388735e-06   -3.447339554321565e-05
-7.663950602131309e-06   1.9245967857778497e-06   -2.483725875427142e-05
-7.663950602131309e-06   1.9245967857778497e-06   -2.483725875427142e-05
-7.663950602131309e-06   1.9245967857778497e-06   -2.483725875427142e-05
-7.663950602131309e-06   1.9245967857778497e-06   -2.483725875427142e-05
-1.4407352043438634e-05   2.390870499092198e-06   -1.334054577769282e-05
-1.4407352043438634e-05   2.390870499092198e-06   -1.334054577769282e-05
-1.4407352043438634e-05   2.390870499092198e-06   -1.334054577769282e-05
-1.4407352043438634e-05   2.390870499092198e-06   -1.334054577769282e-05
-2.5252320263251508e-05   2.8921501189934067e-06   -3.111472503877365e-05
-2.5252320263251508e-05   2.8921501189934067e-06   -3.111472503877365e-05
-2.5252320263251508e-05   2.8921501189934067e-06   -3.111472503877365e-05
-2.5252320263251508e-05   2.8921501189934067e-06   -3.111472503877365e-05
-2.4586907008289504e-05   3.0603616259494964e-06   -1.2528163808900187e-05
-2.4586907008289504e-05   3.0603616259494964e-06   -1.2528163808900187e-05
-2.4586907008289504e-05   3.0603616259494964e-06   -1.2528163808900187e-05
-2.4586907008289504e-05   3.0603616259494964e-06   -1.2528163808900187e-05
-1.3855691496178266e-05   3.4979195039108214e-06   -3.067605772252911e-05
-1.3855691496178266e-05   3.4979195039108214e-06   -3.067605772252911e-05
-1.3855691496178266e-05   3.4979195039108214e-06   -3.067605772252911e-05
-1.3855691496178266e-05   3.4979195039108214e-06   -3.067605772252911e-05
-1.9383070493539968e-05   3.0857703911700216e-06   -2.1216469925948477e-05
-1.9383070493539968e-05   3.0857703911700216e-06   -2.1216469925948477e-05
-1.9383070493539968e-05   3.0857703911700216e-06   -2.1216469925948477e-05
-1.9383070493539968e-05   3.0857703911700216e-06   -2.1216469925948477e-05
-1.3855691496178266e-05   3.0603616259492795e-06   -1.2790698535677047e-05
-1.3855691496178266e-05   3.0603616259492795e-06   -1.2790698535677047e-05
-1.3855691496178266e-05   3.0603616259492795e-06   -1.2790698535677047e-05
-1.3855691496178266e-05   3.0603616259492795e-06   -1.2790698535677047e-05
-2.4586907008289548e-05   3.4979195039108214e-06   -3.041352299575225e-05
-2.4586907008289548e-05   3.4979195039108214e-06   -3.041352299575225e-05
-2.4586907008289548e-05   3.4979195039108214e-06   -3.041352299575225e-05
-2.4586907008289548e-05   3.4979195039108214e-06   -3.041352299575225e-05
-2.3849515998095768e-05   3.6630070303252105e-06   -1.2076111170049265e-05
-2.3849515998095768e-05   3.6630070303252105e-06   -1.2076111170049265e-05
-2.3849515998095768e-05   3.6630070303252105e-06   -1.2076111170049265e-05
-2.3849515998095768e-05   3.6630070303252105e-06   -1.2076111170049265e-05
-1.332342651549697e-05   4.01946381761286e-06   -2.9833467713419898e-05
-1.332342651549697e-05   4.01946381761286e-06   -2.9833467713419898e-05
-1.332342651549697e-05   4.01946381761286e-06   -2.9833467713419898e-05
-1.332342651549697e-05   4.01946381761286e-06   -2.9833467713419898e-05
-1.8708905370810364e-05   3.5580116430308003e-06   -2.058079831648163e-05
-1.8708905370810364e-05   3.5580116430308003e-06   -2.058079831648163e-05
-1.8708905370810364e-05   3.5580116430308003e-06   -2.058079831648163e-05
-1.8708905370810364e-05   3.5580116430308003e-06   -2.058079831648163e-05
-1.3323426515496957e-05   3.6630070303252105e-06   -1.228998524242179e-05
-1.3323426515496957e-05   3.6630070303252105e-06   -1.228998524242179e-05
-1.3323426515496957e-05   3.6630070303252105e-06   -1.228998524242179e-05
-1.3323426515496957e-05   3.6630070303252105e-06   -1.228998524242179e-05
-2.3849515998095768e-05   4.019463817612643e-06   -2.9619593641047387e-05
-2.3849515998095768e-05   4.019463817612643e-06   -2.9619593641047387e-05
-2.3849515998095768e-05   4.019463817612643e-06   -2.9619593641047387e-05
-2.3849515998095768e-05   4.019463817612643e-06   -2.9619593641047387e-05
-2.3226705909549894e-05   4.3363975809815585e-06   -1.2355700476929634e-05
-2.3226705909549894e-05   4.3363975809815585e-06   -1.2355700476929634e-05
-2.3226705909549894e-05   4.3363975809815585e-06   -1.2355700476929634e-05
-2.3226705909549894e-05   4.3363975809815585e-06   -1.2355700476929634e-05
-1.2831615615829357e-05   4.595690330250679e-06   -2.9836426616025476e-05
-1.2831615615829357e-05   4.595690330250679e-06   -2.9836426616025476e-05
-1.2831615615829357e-05   4.595690330250679e-06   -2.9836426616025476e-05
-1.2831615615829357e-05   4.595690330250679e-06   -2.9836426616025476e-05
-1.8292259505487344e-05   3.992698757351431e-06   -2.0373558522855965e-05
-1.8292259505487344e-05   3.992698757351431e-06   -2.0373558522855965e-05
-1.8292259505487344e-05   3.992698757351431e-06   -2.0373558522855965e-05
-1.8292259505487344e-05   3.992698757351431e-06   -2.0373558522855965e-05
-2.5252320263251508e-05   4.1117406745238855e-06   -6.677902655665563e-06
-2.5252320263251508e-05   4.1117406745238855e-06   -6.677902655665563e-06
-2.5252320263251508e-05   4.1117406745238855e-06   -6.677902655665563e-06
-2.5252320263251508e-05   4.1117406745238855e-06   -6.677902655665563e-06
-3.6686112098230906e-05   5.673370571156102e-06   -2.4797244442652006e-05
-3.6686112098230906e-05   5.673370571156102e-06   -2.4797244442652006e-05
-3.6686112098230906e-05   5.673370571156102e-06   -2.4797244442652006e-05
-3.6686112098230906e-05   5.673370571156102e-06   -2.4797244442652006e-05
-3.515018294248645e-05   4.807530756470359e-06   -2.078967416743044e-06
-3.515018294248645e-05   4.807530756470359e-06   -2.078967416743044e-06
-3.515018294248645e-05   4.807530756470359e-06   -2.078967416743044e-06
-3.515018294248645e-05   4.807530756470359e-06   -2.078967416743044e-06
-2.4586907008289504e-05   6.478384204837298e-06   -2.0686939376091445e-05
-2.4586907008289504e-05   6.478384204837298e-06   -2.0686939376091445e-05
-2.4586907008289504e-05   6.478384204837298e-06   -2.0686939376091445e-05
-2.4586907008289504e-05   6.478384204837298e-06   -2.0686939376091445e-05
-2.9161749878629732e-05   5.404576958379162e-06   -1.2417916910982822e-05
-2.9161749878629732e-05   5.404576958379162e-06   -1.2417916910982822e-05
-2.9161749878629732e-05   5.404576958379162e-06   -1.2417916910982822e-05
-2.9161749878629732e-05   5.404576958379162e-06   -1.2417916910982822e-05
-2.458690700828953e-05   4.807530756470576e-06   -3.081479485763099e-06
-2.458690700828953e-05   4.807530756470576e-06   -3.081479485763099e-06
-2.458690700828953e-05   4.807530756470576e-06   -3.081479485763099e-06
-2.458690700828953e-05   4.807530756470576e-06   -3.081479485763099e-06
-3.515018294248638e-05   6.478384204837298e-06   -1.96844273070713e-05
-3.515018294248638e-05   6.478384204837298e-06   -1.96844273070713e-05
-3.515018294248638e-05   6.478384204837298e-06   -1.96844273070713e-05
-3.515018294248638e-05   6.478384204837298e-06   -1.96844273070713e-05
-3.388643194683607e-05   5.05707564697061e-06   -1.5479727882264545e-07
-3.388643194683607e-05   5.05707564697061e-06   -1.5479727882264545e-07
-3.388643194683607e-05   5.05707564697061e-06   -1.5479727882264545e-07
-3.388643194683607e-05   5.05707564697061e-06   -1.5479727882264545e-07
-2.3849515998095768e-05   6.690558693799942e-06   -1.7863080354820743e-05
-2.3849515998095768e-05   6.690558693799942e-06   -1.7863080354820743e-05
-2.3849515998095768e-05   6.690558693799942e-06   -1.7863080354820743e-05
-2.3849515998095768e-05   6.690558693799942e-06   -1.7863080354820743e-05
-2.8644609179238594e-05   5.7265931010480435e-06   -9.292879030597977e-06
-2.8644609179238594e-05   5.7265931010480435e-06   -9.292879030597977e-06
-2.8644609179238594e-05   5.7265931010480435e-06   -9.292879030597977e-06
-2.8644609179238594e-05   5.7265931010480435e-06   -9.292879030597977e-06
-2.3849515998095768e-05   5.05707564697061e-06   -1.134887106920223e-06
-2.3849515998095768e-05   5.05707564697061e-06   -1.134887106920223e-06
-2.3849515998095768e-05   5.05707564697061e-06   -1.134887106920223e-06
-2.3849515998095768e-05   5.05707564697061e-06   -1.134887106920223e-06
-3.388643194683596e-05   6.690558693799942e-06   -1.6882990526723217e-05
-3.388643194683596e-05   6.690558693799942e-06   -1.6882990526723217e-05
-3.388643194683596e-05   6.690558693799942e-06   -1.6882990526723217e-05
-3.388643194683596e-05   6.690558693799942e-06   -1.6882990526723217e-05
-3.252114041030557e-05   5.3714659342916915e-06   2.293369012050517e-06
-3.252114041030557e-05   5.3714659342916915e-06   2.293369012050517e-06
-3.252114041030557e-05   5.3714659342916915e-06   2.293369012050517e-06
-3.252114041030557e-05   5.3714659342916915e-06   2.293369012050517e-06
-2.3226705909549894e-05   6.871019455366228e-06   -1.4097087268520254e-05
-2.3226705909549894e-05   6.871019455366228e-06   -1.4097087268520254e-05
-2.3226705909549894e-05   6.871019455366228e-06   -1.4097087268520254e-05
-2.3226705909549894e-05   6.871019455366228e-06   -1.4097087268520254e-05
-2.736008750320256e-05   5.778815609222641e-06   -6.552795638079998e-06
-2.736008750320256e-05   5.778815609222641e-06   -6.552795638079998e-06
-2.736008750320256e-05   5.778815609222641e-06   -6.552795638079998e-06
-2.736008750320256e-05   5.778815609222641e-06   -6.552795638079998e-06
3.1325791609735216e-05   -4.3641767405540235e-06   6.278237783321865e-06
3.1325791609735216e-05   -4.3641767405540235e-06   6.278237783321865e-06
3.1325791609735216e-05   -4.3641767405540235e-06   6.278237783321865e-06
3.1325791609735216e-05   -4.3641767405540235e-06   6.278237783321865e-06
1.5081215818822598e-05   -6.451831504159346e-06   -2.204864805969585e-05
1.5081215818822598e-05   -6.451831504159346e-06   -2.204864805969585e-05
1.5081215818822598e-05   -6.451831504159346e-06   -2.204864805969585e-05
1.5081215818822598e-05   -6.451831504159346e-06   -2.204864805969585e-05
1.56922956260625e-05   -4.059759102602659e-06   3.063255934370032e-06
1.56922956260625e-05   -4.059759102602659e-06   3.063255934370032e-06
1.56922956260625e-05   -4.059759102602659e-06   3.063255934370032e-06
1.56922956260625e-05   -4.059759102602659e-06   3.063255934370032e-06
3.2750438867146274e-05   -6.302363697260373e-06   -2.4021420043975126e-05
3.2750438867146274e-05   -6.302363697260373e-06   -2.4021420043975126e-05
3.2750438867146274e-05   -6.302363697260373e-06   -2.4021420043975126e-05
3.2750438867146274e-05   -6.302363697260373e-06   -2.4021420043975126e-05
2.274765329390759e-05   -4.7761463401736585e-06   -8.265841169496067e-06
2.274765329390759e-05   -4.7761463401736585e-06   -8.265841169496067e-06
2.274765329390759e-05   -4.7761463401736585e-06   -8.265841169496067e-06
2.274765329390759e-05   -4.7761463401736585e-06   -8.265841169496067e-06
3.275043886714633e-05   -4.059759102602659e-06   4.408818691164682e-06
3.275043886714633e-05   -4.059759102602659e-06   4.408818691164682e-06
3.275043886714633e-05   -4.059759102602659e-06   4.408818691164682e-06
3.275043886714633e-05   -4.059759102602659e-06   4.408818691164682e-06
1.5692295626062473e-05   -6.302363697260373e-06   -2.5366982800769777e-05
1.5692295626062473e-05   -6.302363697260373e-06   -2.5366982800769777e-05
1.5692295626062473e-05   -6.302363697260373e-06   -2.5366982800769777e-05
1.5692295626062473e-05   -6.302363697260373e-06   -2.5366982800769777e-05
1.6300350324015744e-05   -3.796838048044293e-06   1.4875366683624134e-06
1.6300350324015744e-05   -3.796838048044293e-06   1.4875366683624134e-06
1.6300350324015744e-05   -3.796838048044293e-06   1.4875366683624134e-06
1.6300350324015744e-05   -3.796838048044293e-06   1.4875366683624134e-06
3.38430483172722e-05   -6.083157708155389e-06   -2.6378501524331637e-05
3.38430483172722e-05   -6.083157708155389e-06   -2.6378501524331637e-05
3.38430483172722e-05   -6.083157708155389e-06   -2.6378501524331637e-05
3.38430483172722e-05   -6.083157708155389e-06   -2.6378501524331637e-05
2.3948462205757224e-05   -4.760110289258983e-06   -1.0681353123144402e-05
2.3948462205757224e-05   -4.760110289258983e-06   -1.0681353123144402e-05
2.3948462205757224e-05   -4.760110289258983e-06   -1.0681353123144402e-05
2.3948462205757224e-05   -4.760110289258983e-06   -1.0681353123144402e-05
3.38430483172722e-05   -3.796838048044293e-06   2.859328464429071e-06
3.38430483172722e-05   -3.796838048044293e-06   2.859328464429071e-06
3.38430483172722e-05   -3.796838048044293e-06   2.859328464429071e-06
3.38430483172722e-05   -3.796838048044293e-06   2.859328464429071e-06
1.6300350324015744e-05   -6.083157708155389e-06   -2.775029332039835e-05
1.6300350324015744e-05   -6.083157708155389e-06   -2.775029332039835e-05
1.6300350324015744e-05   -6.083157708155389e-06   -2.775029332039835e-05
1.6300350324015744e-05   -6.083157708155389e-06   -2.775029332039835e-05
1.671231438417993e-05   -2.9668362190374536e-06   -1.6815338470402633e-06
1.671231438417993e-05   -2.9668362190374536e-06   -1.6815338470402633e-06
1.671231438417993e-05   -2.9668362190374536e-06   -1.6815338470402633e-06
1.671231438417993e-05   -2.9668362190374536e-06   -1.6815338470402633e-06
3.499875020054641e-05   -5.229623403861126e-06   -3.080125456342357e-05
3.499875020054641e-05   -5.229623403861126e-06   -3.080125456342357e-05
3.499875020054641e-05   -5.229623403861126e-06   -3.080125456342357e-05
3.499875020054641e-05   -5.229623403861126e-06   -3.080125456342357e-05
2.4279613648678755e-05   -4.393478776301045e-06   -1.3437713753513744e-05
2.4279613648678755e-05   -4.393478776301045e-06   -1.3437713753513744e-05
2.4279613648678755e-05   -4.393478776301045e-06   -1.3437713753513744e-05
2.4279613648678755e-05   -4.393478776301045e-06   -1.3437713753513744e-05
1.5081215818822625e-05   -2.0370159106051708e-06   -7.530747527480079e-06
1.5081215818822625e-05   -2.0370159106051708e-06   -7.530747527480079e-06
1.5081215818822625e-05   -2.0370159106051708e-06   -7.530747527480079e-06
1.5081215818822625e-05   -2.0370159106051708e-06   -7.530747527480079e-06
-9.396663337612245e-07   -4.1649779375201035e-06   -3.550899499793524e-05
-9.396663337612245e-07   -4.1649779375201035e-06   -3.550899499793524e-05
-9.396663337612245e-07   -4.1649779375201035e-06   -3.550899499793524e-05
-9.396663337612245e-07   -4.1649779375201035e-06   -3.550899499793524e-05
-3.129833405325291e-07   -1.6120919315843179e-06   -8.306544639610997e-06
-3.129833405325291e-07   -1.6120919315843179e-06   -8.306544639610997e-06
-3.129833405325291e-07   -1.6120919315843179e-06   -8.306544639610997e-06
-3.129833405325291e-07   -1.6120919315843179e-06   -8.306544639610997e-06
1.56922956260625e-05   -3.963345380953928e-06   -3.357125751431462e-05
1.56922956260625e-05   -3.963345380953928e-06   -3.357125751431462e-05
1.56922956260625e-05   -3.963345380953928e-06   -3.357125751431462e-05
1.56922956260625e-05   -3.963345380953928e-06   -3.357125751431462e-05
7.401929099637577e-06   -2.520531682572314e-06   -2.0619668189301944e-05
7.401929099637577e-06   -2.520531682572314e-06   -2.0619668189301944e-05
7.401929099637577e-06   -2.520531682572314e-06   -2.0619668189301944e-05
7.401929099637577e-06   -2.520531682572314e-06   -2.0619668189301944e-05
1.5692295626062473e-05   -1.6120919315843179e-06   -6.895792569989274e-06
1.5692295626062473e-05   -1.6120919315843179e-06   -6.895792569989274e-06
1.5692295626062473e-05   -1.6120919315843179e-06   -6.895792569989274e-06
1.5692295626062473e-05   -1.6120919315843179e-06   -6.895792569989274e-06
-3.129833405325291e-07   -3.963345380953928e-06   -3.498200958393621e-05
-3.129833405325291e-07   -3.963345380953928e-06   -3.498200958393621e-05
-3.129833405325291e-07   -3.963345380953928e-06   -3.498200958393621e-05
-3.129833405325291e-07   -3.963345380953928e-06   -3.498200958393621e-05
2.3902076042378465e-07   -1.092876418055163e-06   -8.508220058640534e-06
2.3902076042378465e-07   -1.092876418055163e-06   -8.508220058640534e-06
2.3902076042378465e-07   -1.092876418055163e-06   -8.508220058640534e-06
2.3902076042378465e-07   -1.092876418055163e-06   -8.508220058640534e-06
1.6300350324015744e-05   -3.5895920727411178e-06   -3.377907327181578e-05
1.6300350324015744e-05   -3.5895920727411178e-06   -3.377907327181578e-05
1.6300350324015744e-05   -3.5895920727411178e-06   -3.377907327181578e-05
1.6300350324015744e-05   -3.5895920727411178e-06   -3.377907327181578e-05
7.827122154469677e-06   -2.311351418769368e-06   -2.0423970714954698e-05
7.827122154469677e-06   -2.311351418769368e-06   -2.0423970714954698e-05
7.827122154469677e-06   -2.311351418769368e-06   -2.0423970714954698e-05
7.827122154469677e-06   -2.311351418769368e-06   -2.0423970714954698e-05
1.6300350324015744e-05   -1.092876418055163e-06   -7.010190665829156e-06
1.6300350324015744e-05   -1.092876418055163e-06   -7.010190665829156e-06
1.6300350324015744e-05   -1.092876418055163e-06   -7.010190665829156e-06
1.6300350324015744e-05   -1.092876418055163e-06   -7.010190665829156e-06
2.3902076042378465e-07   -3.5895920727411178e-06   -3.527710266462735e-05
2.3902076042378465e-07   -3.5895920727411178e-06   -3.527710266462735e-05
2.3902076042378465e-07   -3.5895920727411178e-06   -3.527710266462735e-05
2.3902076042378465e-07   -3.5895920727411178e-06   -3.527710266462735e-05
6.31536707294643e-07   -4.391325493979716e-07   -8.84923123542318e-06
6.31536707294643e-07   -4.391325493979716e-07   -8.84923123542318e-06
6.31536707294643e-07   -4.391325493979716e-07   -8.84923123542318e-06
6.31536707294643e-07   -4.391325493979716e-07   -8.84923123542318e-06
1.6712314384179956e-05   -3.057698081681973e-06   -3.407938804419523e-05
1.6712314384179956e-05   -3.057698081681973e-06   -3.407938804419523e-05
1.6712314384179956e-05   -3.057698081681973e-06   -3.407938804419523e-05
1.6712314384179956e-05   -3.057698081681973e-06   -3.407938804419523e-05
8.338226593161505e-06   -1.9437690625730836e-06   -2.0790932470629976e-05
8.338226593161505e-06   -1.9437690625730836e-06   -2.0790932470629976e-05
8.338226593161505e-06   -1.9437690625730836e-06   -2.0790932470629976e-05
8.338226593161505e-06   -1.9437690625730836e-06   -2.0790932470629976e-05
-9.396663337612245e-07   3.8411727629758877e-07   -1.1505301951720659e-05
-9.396663337612245e-07   3.8411727629758877e-07   -1.1505301951720659e-05
-9.396663337612245e-07   3.8411727629758877e-07   -1.1505301951720659e-05
-9.396663337612245e-07   3.8411727629758877e-07   -1.1505301951720659e-05
-1.6723961077704666e-05   -2.1621270288572653e-06   -3.9340206441386134e-05
-1.6723961077704666e-05   -2.1621270288572653e-06   -3.9340206441386134e-05
-1.6723961077704666e-05   -2.1621270288572653e-06   -3.9340206441386134e-05
-1.6723961077704666e-05   -2.1621270288572653e-06   -3.9340206441386134e-05
-1.5971841762963064e-05   8.618879664954761e-07   -1.2506780335741572e-05
-1.5971841762963064e-05   8.618879664954761e-07   -1.2506780335741572e-05
-1.5971841762963064e-05   8.618879664954761e-07   -1.2506780335741572e-05
-1.5971841762963064e-05   8.618879664954761e-07   -1.2506780335741572e-05
-3.129833405325291e-07   -1.923852802931383e-06   -3.693343324480294e-05
-3.129833405325291e-07   -1.923852802931383e-06   -3.693343324480294e-05
-3.129833405325291e-07   -1.923852802931383e-06   -3.693343324480294e-05
-3.129833405325291e-07   -1.923852802931383e-06   -3.693343324480294e-05
-8.387245395784357e-06   -4.018645113367837e-07   -2.438952279433987e-05
-8.387245395784357e-06   -4.018645113367837e-07   -2.438952279433987e-05
-8.387245395784357e-06   -4.018645113367837e-07   -2.438952279433987e-05
-8.387245395784357e-06   -4.018645113367837e-07   -2.438952279433987e-05
-3.129833405325291e-07   8.618879664952592e-07   -1.0835335874085435e-05
-3.129833405325291e-07   8.618879664952592e-07   -1.0835335874085435e-05
-3.129833405325291e-07   8.618879664952592e-07   -1.0835335874085435e-05
-3.129833405325291e-07   8.618879664952592e-07   -1.0835335874085435e-05
-1.5971841762963064e-05   -1.923852802931383e-06   -3.860487770645908e-05
-1.5971841762963064e-05   -1.923852802931383e-06   -3.860487770645908e-05
-1.5971841762963064e-05   -1.923852802931383e-06   -3.860487770645908e-05
-1.5971841762963064e-05   -1.923852802931383e-06   -3.860487770645908e-05
-1.5281837068604683e-05   1.4144008101046532e-06   -1.2282800011800907e-05
-1.5281837068604683e-05   1.4144008101046532e-06   -1.2282800011800907e-05
-1.5281837068604683e-05   1.4144008101046532e-06   -1.2282800011800907e-05
-1.5281837068604683e-05   1.4144008101046532e-06   -1.2282800011800907e-05
2.3902076042378465e-07   -1.5552807363888692e-06   -3.636908746561894e-05
2.3902076042378465e-07   -1.5552807363888692e-06   -3.636908746561894e-05
2.3902076042378465e-07   -1.5552807363888692e-06   -3.636908746561894e-05
2.3902076042378465e-07   -1.5552807363888692e-06   -3.636908746561894e-05
-7.77514018057903e-06   -1.2993690421195248e-07   -2.3867358863253845e-05
-7.77514018057903e-06   -1.2993690421195248e-07   -2.3867358863253845e-05
-7.77514018057903e-06   -1.2993690421195248e-07   -2.3867358863253845e-05
-7.77514018057903e-06   -1.2993690421195248e-07   -2.3867358863253845e-05
2.3902076042378465e-07   1.4144008101046532e-06   -1.0500991083904816e-05
2.3902076042378465e-07   1.4144008101046532e-06   -1.0500991083904816e-05
2.3902076042378465e-07   1.4144008101046532e-06   -1.0500991083904816e-05
2.3902076042378465e-07   1.4144008101046532e-06   -1.0500991083904816e-05
-1.5281837068604703e-05   -1.5552807363888692e-06   -3.815089639351522e-05
-1.5281837068604703e-05   -1.5552807363888692e-06   -3.815089639351522e-05
-1.5281837068604703e-05   -1.5552807363888692e-06   -3.815089639351522e-05
-1.5281837068604703e-05   -1.5552807363888692e-06   -3.815089639351522e-05
-1.4816798208181716e-05   1.985261522388518e-06   -1.2497974219855164e-05
-1.4816798208181716e-05   1.985261522388518e-06   -1.2497974219855164e-05
-1.4816798208181716e-05   1.985261522388518e-06   -1.2497974219855164e-05
-1.4816798208181716e-05   1.985261522388518e-06   -1.2497974219855164e-05
6.315367072946566e-07   -1.2054333822417683e-06   -3.6330782136204245e-05
6.315367072946566e-07   -1.2054333822417683e-06   -3.6330782136204245e-05
6.315367072946566e-07   -1.2054333822417683e-06   -3.6330782136204245e-05
6.315367072946566e-07   -1.2054333822417683e-06   -3.6330782136204245e-05
-7.3390721512895295e-06   1.7507696242779515e-07   -2.3874740245366153e-05
-7.3390721512895295e-06   1.7507696242779515e-07   -2.3874740245366153e-05
-7.3390721512895295e-06   1.7507696242779515e-07   -2.3874740245366153e-05
-7.3390721512895295e-06   1.7507696242779515e-07   -2.3874740245366153e-05
-1.6723961077704632e-05   2.8921501189934067e-06   -9.378740388583549e-06
-1.6723961077704632e-05   2.8921501189934067e-06   -9.378740388583549e-06
-1.6723961077704632e-05   2.8921501189934067e-06   -9.378740388583549e-06
-1.6723961077704632e-05   2.8921501189934067e-06   -9.378740388583549e-06
-3.273163043997798e-05   6.021761277408017e-07   -3.7432173720457294e-05
-3.273163043997798e-05   6.021761277408017e-07   -3.7432173720457294e-05
-3.273163043997798e-05   6.021761277408017e-07   -3.7432173720457294e-05
-3.273163043997798e-05   6.021761277408017e-07   -3.7432173720457294e-05
-3.1660639433060366e-05   3.4979195039108214e-06   -9.986121852548365e-06
-3.1660639433060366e-05   3.4979195039108214e-06   -9.986121852548365e-06
-3.1660639433060366e-05   3.4979195039108214e-06   -9.986121852548365e-06
-3.1660639433060366e-05   3.4979195039108214e-06   -9.986121852548365e-06
-1.597184176296303e-05   1.039465989975761e-06   -3.4659045861016246e-05
-1.597184176296303e-05   1.039465989975761e-06   -3.4659045861016246e-05
-1.597184176296303e-05   1.039465989975761e-06   -3.4659045861016246e-05
-1.597184176296303e-05   1.039465989975761e-06   -3.4659045861016246e-05
-2.402136486920758e-05   2.2140630743286947e-06   -2.194793226788721e-05
-2.402136486920758e-05   2.2140630743286947e-06   -2.194793226788721e-05
-2.402136486920758e-05   2.2140630743286947e-06   -2.194793226788721e-05
-2.402136486920758e-05   2.2140630743286947e-06   -2.194793226788721e-05
-1.597184176296303e-05   3.4979195039108214e-06   -8.511049744187394e-06
-1.597184176296303e-05   3.4979195039108214e-06   -8.511049744187394e-06
-1.597184176296303e-05   3.4979195039108214e-06   -8.511049744187394e-06
-1.597184176296303e-05   3.4979195039108214e-06   -8.511049744187394e-06
-3.166063943306042e-05   1.039465989975761e-06   -3.613411796937738e-05
-3.166063943306042e-05   1.039465989975761e-06   -3.613411796937738e-05
-3.166063943306042e-05   1.039465989975761e-06   -3.613411796937738e-05
-3.166063943306042e-05   1.039465989975761e-06   -3.613411796937738e-05
-3.062420438080276e-05   4.01946381761286e-06   -9.08710505888961e-06
-3.062420438080276e-05   4.01946381761286e-06   -9.08710505888961e-06
-3.062420438080276e-05   4.01946381761286e-06   -9.08710505888961e-06
-3.062420438080276e-05   4.01946381761286e-06   -9.08710505888961e-06
-1.5281837068604703e-05   1.441674602689928e-06   -3.3111043716932745e-05
-1.5281837068604703e-05   1.441674602689928e-06   -3.3111043716932745e-05
-1.5281837068604703e-05   1.441674602689928e-06   -3.3111043716932745e-05
-1.5281837068604703e-05   1.441674602689928e-06   -3.3111043716932745e-05
-2.3051761680800002e-05   2.594586145502004e-06   -2.0852916288960962e-05
-2.3051761680800002e-05   2.594586145502004e-06   -2.0852916288960962e-05
-2.3051761680800002e-05   2.594586145502004e-06   -2.0852916288960962e-05
-2.3051761680800002e-05   2.594586145502004e-06   -2.0852916288960962e-05
-1.528183706860467e-05   4.01946381761286e-06   -7.540431529935807e-06
-1.528183706860467e-05   4.01946381761286e-06   -7.540431529935807e-06
-1.528183706860467e-05   4.01946381761286e-06   -7.540431529935807e-06
-1.528183706860467e-05   4.01946381761286e-06   -7.540431529935807e-06
-3.062420438080281e-05   1.441674602689928e-06   -3.4657717245886494e-05
-3.062420438080281e-05   1.441674602689928e-06   -3.4657717245886494e-05
-3.062420438080281e-05   1.441674602689928e-06   -3.4657717245886494e-05
-3.062420438080281e-05   1.441674602689928e-06   -3.4657717245886494e-05
-2.983961573274619e-05   4.595690330250679e-06   -9.116023047361639e-06
-2.983961573274619e-05   4.595690330250679e-06   -9.116023047361639e-06
-2.983961573274619e-05   4.595690330250679e-06   -9.116023047361639e-06
-2.983961573274619e-05   4.595690330250679e-06   -9.116023047361639e-06
-1.481679820818175e-05   1.7811629874880507e-06   -3.246533584931156e-05
-1.481679820818175e-05   1.7811629874880507e-06   -3.246533584931156e-05
-1.481679820818175e-05   1.7811629874880507e-06   -3.246533584931156e-05
-1.481679820818175e-05   1.7811629874880507e-06   -3.246533584931156e-05
-2.2512420099200202e-05   2.860399971978426e-06   -2.0286841554975014e-05
-2.2512420099200202e-05   2.860399971978426e-06   -2.0286841554975014e-05
-2.2512420099200202e-05   2.860399971978426e-06   -2.0286841554975014e-05
-2.2512420099200202e-05   2.860399971978426e-06   -2.0286841554975014e-05
-3.273163043997798e-05   5.673370571156102e-06   -5.372222125192712e-06
-3.273163043997798e-05   5.673370571156102e-06   -5.372222125192712e-06
-3.273163043997798e-05   5.673370571156102e-06   -5.372222125192712e-06
-3.273163043997798e-05   5.673370571156102e-06   -5.372222125192712e-06
-4.946585124671193e-05   5.366472773765587e-06   -3.3446728814850286e-05
-4.946585124671193e-05   5.366472773765587e-06   -3.3446728814850286e-05
-4.946585124671193e-05   5.366472773765587e-06   -3.3446728814850286e-05
-4.946585124671193e-05   5.366472773765587e-06   -3.3446728814850286e-05
-4.734414120686701e-05   6.478384204837298e-06   -7.896188444235768e-08
-4.734414120686701e-05   6.478384204837298e-06   -7.896188444235768e-08
-4.734414120686701e-05   6.478384204837298e-06   -7.896188444235768e-08
-4.734414120686701e-05   6.478384204837298e-06   -7.896188444235768e-08
-3.166063943306031e-05   6.77934478557937e-06   -2.63987078558988e-05
-3.166063943306031e-05   6.77934478557937e-06   -2.63987078558988e-05
-3.166063943306031e-05   6.77934478557937e-06   -2.63987078558988e-05
-3.166063943306031e-05   6.77934478557937e-06   -2.63987078558988e-05
-3.8563126148792e-05   6.3903729368704025e-06   -1.4661180220454189e-05
-3.8563126148792e-05   6.3903729368704025e-06   -1.4661180220454189e-05
-3.8563126148792e-05   6.3903729368704025e-06   -1.4661180220454189e-05
-3.8563126148792e-05   6.3903729368704025e-06   -1.4661180220454189e-05
-3.1660639433060393e-05   6.478384204837298e-06   -2.595382328874707e-07
-3.1660639433060393e-05   6.478384204837298e-06   -2.595382328874707e-07
-3.1660639433060393e-05   6.478384204837298e-06   -2.595382328874707e-07
-3.1660639433060393e-05   6.478384204837298e-06   -2.595382328874707e-07
-4.734414120686701e-05   6.77934478557937e-06   -2.6218131507453526e-05
-4.734414120686701e-05   6.77934478557937e-06   -2.6218131507453526e-05
-4.734414120686701e-05   6.77934478557937e-06   -2.6218131507453526e-05
-4.734414120686701e-05   6.77934478557937e-06   -2.6218131507453526e-05
-4.558575609077356e-05   6.690558693799942e-06   2.9135838987297182e-06
-4.558575609077356e-05   6.690558693799942e-06   2.9135838987297182e-06
-4.558575609077356e-05   6.690558693799942e-06   2.9135838987297182e-06
-4.558575609077356e-05   6.690558693799942e-06   2.9135838987297182e-06
-3.062420438080276e-05   7.097518146121241e-06   -2.2266511289281217e-05
-3.062420438080276e-05   7.097518146121241e-06   -2.2266511289281217e-05
-3.062420438080276e-05   7.097518146121241e-06   -2.2266511289281217e-05
-3.062420438080276e-05   7.097518146121241e-06   -2.2266511289281217e-05
-3.77679574708644e-05   6.8530724171868545e-06   -1.0213588701817457e-05
-3.77679574708644e-05   6.8530724171868545e-06   -1.0213588701817457e-05
-3.77679574708644e-05   6.8530724171868545e-06   -1.0213588701817457e-05
-3.77679574708644e-05   6.8530724171868545e-06   -1.0213588701817457e-05
-3.062420438080281e-05   6.690558693799942e-06   2.6694082273367656e-06
-3.062420438080281e-05   6.690558693799942e-06   2.6694082273367656e-06
-3.062420438080281e-05   6.690558693799942e-06   2.6694082273367656e-06
-3.062420438080281e-05   6.690558693799942e-06   2.6694082273367656e-06
-4.558575609077348e-05   7.097518146121241e-06   -2.202233561788842e-05
-4.558575609077348e-05   7.097518146121241e-06   -2.202233561788842e-05
-4.558575609077348e-05   7.097518146121241e-06   -2.202233561788842e-05
-4.558575609077348e-05   7.097518146121241e-06   -2.202233561788842e-05
-4.374530723408692e-05   6.871019455366228e-06   6.9289474790938926e-06
-4.374530723408692e-05   6.871019455366228e-06   6.9289474790938926e-06
-4.374530723408692e-05   6.871019455366228e-06   6.9289474790938926e-06
-4.374530723408692e-05   6.871019455366228e-06   6.9289474790938926e-06
-2.983961573274619e-05   7.639697502886001e-06   -1.6708411851652686e-05
-2.983961573274619e-05   7.639697502886001e-06   -1.6708411851652686e-05
-2.983961573274619e-05   7.639697502886001e-06   -1.6708411851652686e-05
-2.983961573274619e-05   7.639697502886001e-06   -1.6708411851652686e-05
-3.5988274382454496e-05   7.006845603851203e-06   -6.080936296051645e-06
-3.5988274382454496e-05   7.006845603851203e-06   -6.080936296051645e-06
-3.5988274382454496e-05   7.006845603851203e-06   -6.080936296051645e-06
-3.5988274382454496e-05   7.006845603851203e-06   -6.080936296051645e-06
4.300553922089492e-05   -6.451831504159346e-06   1.4724737214614797e-05
4.300553922089492e-05   -6.451831504159346e-06   1.4724737214614797e-05
4.300553922089492e-05   -6.451831504159346e-06   1.4724737214614797e-05
4.300553922089492e-05   -6.451831504159346e-06   1.4724737214614797e-05
2.1600998723972592e-05   -8.151396586968855e-06   -2.1969235996607936e-05
2.1600998723972592e-05   -8.151396586968855e-06   -2.1969235996607936e-05
2.1600998723972592e-05   -8.151396586968855e-06   -2.1969235996607936e-05
2.1600998723972592e-05   -8.151396586968855e-06   -2.1969235996607936e-05
2.2123404015105515e-05   -6.302363697260373e-06   1.0575208877417397e-05
2.2123404015105515e-05   -6.302363697260373e-06   1.0575208877417397e-05
2.2123404015105515e-05   -6.302363697260373e-06   1.0575208877417397e-05
2.2123404015105515e-05   -6.302363697260373e-06   1.0575208877417397e-05
4.407022219097946e-05   -8.355367429721452e-06   -2.4771019176229137e-05
4.407022219097946e-05   -8.355367429721452e-06   -2.4771019176229137e-05
4.407022219097946e-05   -8.355367429721452e-06   -2.4771019176229137e-05
4.407022219097946e-05   -8.355367429721452e-06   -2.4771019176229137e-05
3.1396297568923355e-05   -6.590109967605229e-06   -4.706965950071929e-06
3.1396297568923355e-05   -6.590109967605229e-06   -4.706965950071929e-06
3.1396297568923355e-05   -6.590109967605229e-06   -4.706965950071929e-06
3.1396297568923355e-05   -6.590109967605229e-06   -4.706965950071929e-06
4.407022219097946e-05   -6.302363697260373e-06   1.1807011116894044e-05
4.407022219097946e-05   -6.302363697260373e-06   1.1807011116894044e-05
4.407022219097946e-05   -6.302363697260373e-06   1.1807011116894044e-05
4.407022219097946e-05   -6.302363697260373e-06   1.1807011116894044e-05
2.2123404015105515e-05   -8.355367429721452e-06   -2.6002821415705758e-05
2.2123404015105515e-05   -8.355367429721452e-06   -2.6002821415705758e-05
2.2123404015105515e-05   -8.355367429721452e-06   -2.6002821415705758e-05
2.2123404015105515e-05   -8.355367429721452e-06   -2.6002821415705758e-05
2.2564839231141242e-05   -6.083157708155389e-06   8.35125431847294e-06
2.2564839231141242e-05   -6.083157708155389e-06   8.35125431847294e-06
2.2564839231141242e-05   -6.083157708155389e-06   8.35125431847294e-06
2.2564839231141242e-05   -6.083157708155389e-06   8.35125431847294e-06
4.4733196655184304e-05   -8.278624617262878e-06   -2.727872790946753e-05
4.4733196655184304e-05   -8.278624617262878e-06   -2.727872790946753e-05
4.4733196655184304e-05   -8.278624617262878e-06   -2.727872790946753e-05
4.4733196655184304e-05   -8.278624617262878e-06   -2.727872790946753e-05
3.249832094515022e-05   -6.7969753516415685e-06   -7.77625795211678e-06
3.249832094515022e-05   -6.7969753516415685e-06   -7.77625795211678e-06
3.249832094515022e-05   -6.7969753516415685e-06   -7.77625795211678e-06
3.249832094515022e-05   -6.7969753516415685e-06   -7.77625795211678e-06
4.4733196655184304e-05   -6.083157708155389e-06   9.668534463937628e-06
4.4733196655184304e-05   -6.083157708155389e-06   9.668534463937628e-06
4.4733196655184304e-05   -6.083157708155389e-06   9.668534463937628e-06
4.4733196655184304e-05   -6.083157708155389e-06   9.668534463937628e-06
2.2564839231141242e-05   -8.278624617262878e-06   -2.859600805493203e-05
2.2564839231141242e-05   -8.278624617262878e-06   -2.859600805493203e-05
2.2564839231141242e-05   -8.278624617262878e-06   -2.859600805493203e-05
2.2564839231141242e-05   -8.278624617262878e-06   -2.859600805493203e-05
2.3025248007021702e-05   -5.229623403861126e-06   4.042143166862154e-06
2.3025248007021702e-05   -5.229623403861126e-06   4.042143166862154e-06
2.3025248007021702e-05   -5.229623403861126e-06   4.042143166862154e-06
2.3025248007021702e-05   -5.229623403861126e-06   4.042143166862154e-06
4.538606271530287e-05   -7.815031575066338e-06   -3.167463644421667e-05
4.538606271530287e-05   -7.815031575066338e-06   -3.167463644421667e-05
4.538606271530287e-05   -7.815031575066338e-06   -3.167463644421667e-05
4.538606271530287e-05   -7.815031575066338e-06   -3.167463644421667e-05
3.250928571750061e-05   -6.539670488008714e-06   -1.0978558100114004e-05
3.250928571750061e-05   -6.539670488008714e-06   -1.0978558100114004e-05
3.250928571750061e-05   -6.539670488008714e-06   -1.0978558100114004e-05
3.250928571750061e-05   -6.539670488008714e-06   -1.0978558100114004e-05
2.1600998723972592e-05   -4.1649779375201035e-06   1.5214284428387032e-06
2.1600998723972592e-05   -4.1649779375201035e-06   1.5214284428387032e-06
2.1600998723972592e-05   -4.1649779375201035e-06   1.5214284428387032e-06
2.1600998723972592e-05   -4.1649779375201035e-06   1.5214284428387032e-06
2.5198277970600596e-06   -8.139480179842392e-06   -3.266522444740909e-05
2.5198277970600596e-06   -8.139480179842392e-06   -3.266522444740909e-05
2.5198277970600596e-06   -8.139480179842392e-06   -3.266522444740909e-05
2.5198277970600596e-06   -8.139480179842392e-06   -3.266522444740909e-05
3.1281773935236455e-06   -3.963345380953928e-06   -1.0840102313393676e-07
3.1281773935236455e-06   -3.963345380953928e-06   -1.0840102313393676e-07
3.1281773935236455e-06   -3.963345380953928e-06   -1.0840102313393676e-07
3.1281773935236455e-06   -3.963345380953928e-06   -1.0840102313393676e-07
2.2123404015105555e-05   -8.095570692631887e-06   -2.9287776872097e-05
2.2123404015105555e-05   -8.095570692631887e-06   -2.9287776872097e-05
2.2123404015105555e-05   -8.095570692631887e-06   -2.9287776872097e-05
2.2123404015105555e-05   -8.095570692631887e-06   -2.9287776872097e-05
1.2390202512235051e-05   -5.493504140566827e-06   -1.4627014298551893e-05
1.2390202512235051e-05   -5.493504140566827e-06   -1.4627014298551893e-05
1.2390202512235051e-05   -5.493504140566827e-06   -1.4627014298551893e-05
1.2390202512235051e-05   -5.493504140566827e-06   -1.4627014298551893e-05
2.21234040151055e-05   -3.963345380953928e-06   2.370934163872904e-06
2.21234040151055e-05   -3.963345380953928e-06   2.370934163872904e-06
2.21234040151055e-05   -3.963345380953928e-06   2.370934163872904e-06
2.21234040151055e-05   -3.963345380953928e-06   2.370934163872904e-06
3.128177393523632e-06   -8.095570692631887e-06   -3.176711205910368e-05
3.128177393523632e-06   -8.095570692631887e-06   -3.176711205910368e-05
3.128177393523632e-06   -8.095570692631887e-06   -3.176711205910368e-05
3.128177393523632e-06   -8.095570692631887e-06   -3.176711205910368e-05
3.6772488507026436e-06   -3.5895920727411178e-06   -3.1417105693051263e-07
3.6772488507026436e-06   -3.5895920727411178e-06   -3.1417105693051263e-07
3.6772488507026436e-06   -3.5895920727411178e-06   -3.1417105693051263e-07
3.6772488507026436e-06   -3.5895920727411178e-06   -3.1417105693051263e-07
2.2564839231141242e-05   -7.984001112718367e-06   -2.9156842933675243e-05
2.2564839231141242e-05   -7.984001112718367e-06   -2.9156842933675243e-05
2.2564839231141242e-05   -7.984001112718367e-06   -2.9156842933675243e-05
2.2564839231141242e-05   -7.984001112718367e-06   -2.9156842933675243e-05
1.2733765095632169e-05   -5.551386029539621e-06   -1.4231288424400431e-05
1.2733765095632169e-05   -5.551386029539621e-06   -1.4231288424400431e-05
1.2733765095632169e-05   -5.551386029539621e-06   -1.4231288424400431e-05
1.2733765095632169e-05   -5.551386029539621e-06   -1.4231288424400431e-05
2.2564839231141242e-05   -3.5895920727411178e-06   2.3224743670556417e-06
2.2564839231141242e-05   -3.5895920727411178e-06   2.3224743670556417e-06
2.2564839231141242e-05   -3.5895920727411178e-06   2.3224743670556417e-06
2.2564839231141242e-05   -3.5895920727411178e-06   2.3224743670556417e-06
3.67724885070263e-06   -7.984001112718367e-06   -3.1793488357661614e-05
3.67724885070263e-06   -7.984001112718367e-06   -3.1793488357661614e-05
3.67724885070263e-06   -7.984001112718367e-06   -3.1793488357661614e-05
3.67724885070263e-06   -7.984001112718367e-06   -3.1793488357661614e-05
4.497156380934075e-06   -3.057698081681973e-06   -7.014892901776888e-07
4.497156380934075e-06   -3.057698081681973e-06   -7.014892901776888e-07
4.497156380934075e-06   -3.057698081681973e-06   -7.014892901776888e-07
4.497156380934075e-06   -3.057698081681973e-06   -7.014892901776888e-07
2.3025248007021675e-05   -7.762983560286084e-06   -2.875847071316117e-05
2.3025248007021675e-05   -7.762983560286084e-06   -2.875847071316117e-05
2.3025248007021675e-05   -7.762983560286084e-06   -2.875847071316117e-05
2.3025248007021675e-05   -7.762983560286084e-06   -2.875847071316117e-05
1.339355682689732e-05   -5.461834293960747e-06   -1.4086341639415827e-05
1.339355682689732e-05   -5.461834293960747e-06   -1.4086341639415827e-05
1.339355682689732e-05   -5.461834293960747e-06   -1.4086341639415827e-05
1.339355682689732e-05   -5.461834293960747e-06   -1.4086341639415827e-05
2.5198277970600596e-06   -2.1621270288572653e-06   -3.166737762912478e-06
2.5198277970600596e-06   -2.1621270288572653e-06   -3.166737762912478e-06
2.5198277970600596e-06   -2.1621270288572653e-06   -3.166737762912478e-06
2.5198277970600596e-06   -2.1621270288572653e-06   -3.166737762912478e-06
-1.6362247527366974e-05   -9.778651993719864e-06   -3.9206778282541784e-05
-1.6362247527366974e-05   -9.778651993719864e-06   -3.9206778282541784e-05
-1.6362247527366974e-05   -9.778651993719864e-06   -3.9206778282541784e-05
-1.6362247527366974e-05   -9.778651993719864e-06   -3.9206778282541784e-05
-1.5414156652074523e-05   -1.923852802931383e-06   -6.9005045950963975e-06
-1.5414156652074523e-05   -1.923852802931383e-06   -6.9005045950963975e-06
-1.5414156652074523e-05   -1.923852802931383e-06   -6.9005045950963975e-06
-1.5414156652074523e-05   -1.923852802931383e-06   -6.9005045950963975e-06
3.128177393523632e-06   -9.991652654757705e-06   -3.2963714759997584e-05
3.128177393523632e-06   -9.991652654757705e-06   -3.2963714759997584e-05
3.128177393523632e-06   -9.991652654757705e-06   -3.2963714759997584e-05
3.128177393523632e-06   -9.991652654757705e-06   -3.2963714759997584e-05
-6.315937614173008e-06   -5.518981201975935e-06   -1.9907125952172192e-05
-6.315937614173008e-06   -5.518981201975935e-06   -1.9907125952172192e-05
-6.315937614173008e-06   -5.518981201975935e-06   -1.9907125952172192e-05
-6.315937614173008e-06   -5.518981201975935e-06   -1.9907125952172192e-05
3.128177393523632e-06   -1.923852802931383e-06   -2.0598246840006695e-06
3.128177393523632e-06   -1.923852802931383e-06   -2.0598246840006695e-06
3.128177393523632e-06   -1.923852802931383e-06   -2.0598246840006695e-06
3.128177393523632e-06   -1.923852802931383e-06   -2.0598246840006695e-06
-1.5414156652074544e-05   -9.991652654757922e-06   -3.7804394671093556e-05
-1.5414156652074544e-05   -9.991652654757922e-06   -3.7804394671093556e-05
-1.5414156652074544e-05   -9.991652654757922e-06   -3.7804394671093556e-05
-1.5414156652074544e-05   -9.991652654757922e-06   -3.7804394671093556e-05
-1.4596626401412823e-05   -1.5552807363886523e-06   -6.4375756200713355e-06
-1.4596626401412823e-05   -1.5552807363886523e-06   -6.4375756200713355e-06
-1.4596626401412823e-05   -1.5552807363886523e-06   -6.4375756200713355e-06
-1.4596626401412823e-05   -1.5552807363886523e-06   -6.4375756200713355e-06
3.67724885070263e-06   -9.940980339971043e-06   -3.186261461144804e-05
3.67724885070263e-06   -9.940980339971043e-06   -3.186261461144804e-05
3.67724885070263e-06   -9.940980339971043e-06   -3.186261461144804e-05
3.67724885070263e-06   -9.940980339971043e-06   -3.186261461144804e-05
-5.642954183254017e-06   -5.641221218304331e-06   -1.890879836118699e-05
-5.642954183254017e-06   -5.641221218304331e-06   -1.890879836118699e-05
-5.642954183254017e-06   -5.641221218304331e-06   -1.890879836118699e-05
-5.642954183254017e-06   -5.641221218304331e-06   -1.890879836118699e-05
3.67724885070263e-06   -1.5552807363888692e-06   -1.406155857922183e-06
3.67724885070263e-06   -1.5552807363888692e-06   -1.406155857922183e-06
3.67724885070263e-06   -1.5552807363888692e-06   -1.406155857922183e-06
3.67724885070263e-06   -1.5552807363888692e-06   -1.406155857922183e-06
-1.459662640141287e-05   -9.940980339970826e-06   -3.689403437359738e-05
-1.459662640141287e-05   -9.940980339970826e-06   -3.689403437359738e-05
-1.459662640141287e-05   -9.940980339970826e-06   -3.689403437359738e-05
-1.459662640141287e-05   -9.940980339970826e-06   -3.689403437359738e-05
-1.3185749133696093e-05   -1.2054333822419851e-06   -6.411160601650255e-06
-1.3185749133696093e-05   -1.2054333822419851e-06   -6.411160601650255e-06
-1.3185749133696093e-05   -1.2054333822419851e-06   -6.411160601650255e-06
-1.3185749133696093e-05   -1.2054333822419851e-06   -6.411160601650255e-06
4.497156380934075e-06   -9.58779428029792e-06   -3.085325325386689e-05
4.497156380934075e-06   -9.58779428029792e-06   -3.085325325386689e-05
4.497156380934075e-06   -9.58779428029792e-06   -3.085325325386689e-05
4.497156380934075e-06   -9.58779428029792e-06   -3.085325325386689e-05
-4.768172112131251e-06   -5.51252220510408e-06   -1.7856202343874362e-05
-4.768172112131251e-06   -5.51252220510408e-06   -1.7856202343874362e-05
-4.768172112131251e-06   -5.51252220510408e-06   -1.7856202343874362e-05
-4.768172112131251e-06   -5.51252220510408e-06   -1.7856202343874362e-05
-1.636224752736694e-05   6.021761277408017e-07   -4.4546356261496774e-06
-1.636224752736694e-05   6.021761277408017e-07   -4.4546356261496774e-06
-1.636224752736694e-05   6.021761277408017e-07   -4.4546356261496774e-06
-1.636224752736694e-05   6.021761277408017e-07   -4.4546356261496774e-06
-3.741224323775859e-05   -1.2153038346607564e-05   -4.7191090494744866e-05
-3.741224323775859e-05   -1.2153038346607564e-05   -4.7191090494744866e-05
-3.741224323775859e-05   -1.2153038346607564e-05   -4.7191090494744866e-05
-3.741224323775859e-05   -1.2153038346607564e-05   -4.7191090494744866e-05
-3.627685949464397e-05   1.039465989975761e-06   -1.1730069407669876e-05
-3.627685949464397e-05   1.039465989975761e-06   -1.1730069407669876e-05
-3.627685949464397e-05   1.039465989975761e-06   -1.1730069407669876e-05
-3.627685949464397e-05   1.039465989975761e-06   -1.1730069407669876e-05
-1.5414156652074523e-05   -1.3586195106717784e-05   -3.772584415393627e-05
-1.5414156652074523e-05   -1.3586195106717784e-05   -3.772584415393627e-05
-1.5414156652074523e-05   -1.3586195106717784e-05   -3.772584415393627e-05
-1.5414156652074523e-05   -1.3586195106717784e-05   -3.772584415393627e-05
-2.598918227874253e-05   -6.159738293138803e-06   -2.455667553097026e-05
-2.598918227874253e-05   -6.159738293138803e-06   -2.455667553097026e-05
-2.598918227874253e-05   -6.159738293138803e-06   -2.455667553097026e-05
-2.598918227874253e-05   -6.159738293138803e-06   -2.455667553097026e-05
-1.5414156652074523e-05   1.039465989975761e-06   -2.9546727496538357e-06
-1.5414156652074523e-05   1.039465989975761e-06   -2.9546727496538357e-06
-1.5414156652074523e-05   1.039465989975761e-06   -2.9546727496538357e-06
-1.5414156652074523e-05   1.039465989975761e-06   -2.9546727496538357e-06
-3.627685949464397e-05   -1.3586195106717568e-05   -4.650124081195231e-05
-3.627685949464397e-05   -1.3586195106717568e-05   -4.650124081195231e-05
-3.627685949464397e-05   -1.3586195106717568e-05   -4.650124081195231e-05
-3.627685949464397e-05   -1.3586195106717568e-05   -4.650124081195231e-05
-3.5188838719553474e-05   1.441674602689928e-06   -1.0457541413353777e-05
-3.5188838719553474e-05   1.441674602689928e-06   -1.0457541413353777e-05
-3.5188838719553474e-05   1.441674602689928e-06   -1.0457541413353777e-05
-3.5188838719553474e-05   1.441674602689928e-06   -1.0457541413353777e-05
-1.459662640141285e-05   -1.3658022847084844e-05   -3.571807680705681e-05
-1.459662640141285e-05   -1.3658022847084844e-05   -3.571807680705681e-05
-1.459662640141285e-05   -1.3658022847084844e-05   -3.571807680705681e-05
-1.459662640141285e-05   -1.3658022847084844e-05   -3.571807680705681e-05
-2.4882021115781476e-05   -6.177032951285369e-06   -2.306434622058876e-05
-2.4882021115781476e-05   -6.177032951285369e-06   -2.306434622058876e-05
-2.4882021115781476e-05   -6.177032951285369e-06   -2.306434622058876e-05
-2.4882021115781476e-05   -6.177032951285369e-06   -2.306434622058876e-05
-1.459662640141283e-05   1.441674602689928e-06   -1.3977229434889143e-06
-1.459662640141283e-05   1.441674602689928e-06   -1.3977229434889143e-06
-1.459662640141283e-05   1.441674602689928e-06   -1.3977229434889143e-06
-1.459662640141283e-05   1.441674602689928e-06   -1.3977229434889143e-06
-3.5188838719553535e-05   -1.3658022847084844e-05   -4.4777895276921576e-05
-3.5188838719553535e-05   -1.3658022847084844e-05   -4.4777895276921576e-05
-3.5188838719553535e-05   -1.3658022847084844e-05   -4.4777895276921576e-05
-3.5188838719553535e-05   -1.3658022847084844e-05   -4.4777895276921576e-05
-3.340304978921829e-05   1.7811629874880507e-06   -9.16445336367742e-06
-3.340304978921829e-05   1.7811629874880507e-06   -9.16445336367742e-06
-3.340304978921829e-05   1.7811629874880507e-06   -9.16445336367742e-06
-3.340304978921829e-05   1.7811629874880507e-06   -9.16445336367742e-06
-1.318574913369614e-05   -1.2440763665342181e-05   -3.432679846451645e-05
-1.318574913369614e-05   -1.2440763665342181e-05   -3.432679846451645e-05
-1.318574913369614e-05   -1.2440763665342181e-05   -3.432679846451645e-05
-1.318574913369614e-05   -1.2440763665342181e-05   -3.432679846451645e-05
-2.3791756900023523e-05   -5.438859875323693e-06   -2.085126112798117e-05
-2.3791756900023523e-05   -5.438859875323693e-06   -2.085126112798117e-05
-2.3791756900023523e-05   -5.438859875323693e-06   -2.085126112798117e-05
-2.3791756900023523e-05   -5.438859875323693e-06   -2.085126112798117e-05
-3.741224323775859e-05   5.366472773765804e-06   -7.938180726717856e-06
-3.741224323775859e-05   5.366472773765804e-06   -7.938180726717856e-06
-3.741224323775859e-05   5.366472773765804e-06   -7.938180726717856e-06
-3.741224323775859e-05   5.366472773765804e-06   -7.938180726717856e-06
-6.4324394339967e-05   0.0   -5.6011649561324775e-05
-6.4324394339967e-05   0.0   -5.6011649561324775e-05
-6.4324394339967e-05   0.0   -5.6011649561324775e-05
-6.4324394339967e-05   0.0   -5.6011649561324775e-05
-6.266602531426285e-05   6.77934478557937e-06   -6.062266165538866e-06
-6.266602531426285e-05   6.77934478557937e-06   -6.062266165538866e-06
-6.266602531426285e-05   6.77934478557937e-06   -6.062266165538866e-06
-6.266602531426285e-05   6.77934478557937e-06   -6.062266165538866e-06
-3.627685949464391e-05   0.0   -4.5976602326889627e-05
-3.627685949464391e-05   0.0   -4.5976602326889627e-05
-3.627685949464391e-05   0.0   -4.5976602326889627e-05
-3.627685949464391e-05   0.0   -4.5976602326889627e-05
-4.8039015084916496e-05   2.0802842720601088e-06   -2.7621180239671196e-05
-4.8039015084916496e-05   2.0802842720601088e-06   -2.7621180239671196e-05
-4.8039015084916496e-05   2.0802842720601088e-06   -2.7621180239671196e-05
-4.8039015084916496e-05   2.0802842720601088e-06   -2.7621180239671196e-05
-3.6276859494643944e-05   6.77934478557937e-06   -1.9946592941912436e-06
-3.6276859494643944e-05   6.77934478557937e-06   -1.9946592941912436e-06
-3.6276859494643944e-05   6.77934478557937e-06   -1.9946592941912436e-06
-3.6276859494643944e-05   6.77934478557937e-06   -1.9946592941912436e-06
-6.266602531426274e-05   0.0   -5.004420919823714e-05
-6.266602531426274e-05   0.0   -5.004420919823714e-05
-6.266602531426274e-05   0.0   -5.004420919823714e-05
-6.266602531426274e-05   0.0   -5.004420919823714e-05
-6.126125292332427e-05   7.097518146121241e-06   -2.324846344421358e-06
-6.126125292332427e-05   7.097518146121241e-06   -2.324846344421358e-06
-6.126125292332427e-05   7.097518146121241e-06   -2.324846344421358e-06
-6.126125292332427e-05   7.097518146121241e-06   -2.324846344421358e-06
-3.5188838719553535e-05   0.0   -4.152035912969997e-05
-3.5188838719553535e-05   0.0   -4.152035912969997e-05
-3.5188838719553535e-05   0.0   -4.152035912969997e-05
-3.5188838719553535e-05   0.0   -4.152035912969997e-05
-4.755284088601354e-05   3.284899693518353e-06   -2.2884628668377047e-05
-4.755284088601354e-05   3.284899693518353e-06   -2.2884628668377047e-05
-4.755284088601354e-05   3.284899693518353e-06   -2.2884628668377047e-05
-4.755284088601354e-05   3.284899693518353e-06   -2.2884628668377047e-05
-3.5188838719553535e-05   7.097518146121241e-06   1.933664543251343e-06
-3.5188838719553535e-05   7.097518146121241e-06   1.933664543251343e-06
-3.5188838719553535e-05   7.097518146121241e-06   1.933664543251343e-06
-3.5188838719553535e-05   7.097518146121241e-06   1.933664543251343e-06
-6.126125292332417e-05   0.0   -4.5778870017372606e-05
-6.126125292332417e-05   0.0   -4.5778870017372606e-05
-6.126125292332417e-05   0.0   -4.5778870017372606e-05
-6.126125292332417e-05   0.0   -4.5778870017372606e-05
-5.845653214308583e-05   7.639697502886001e-06   3.6973685379073197e-06
-5.845653214308583e-05   7.639697502886001e-06   3.6973685379073197e-06
-5.845653214308583e-05   7.639697502886001e-06   3.6973685379073197e-06
-5.845653214308583e-05   7.639697502886001e-06   3.6973685379073197e-06
-3.3403049789218354e-05   0.0   -3.347461688347372e-05
-3.3403049789218354e-05   0.0   -3.347461688347372e-05
-3.3403049789218354e-05   0.0   -3.347461688347372e-05
-3.3403049789218354e-05   0.0   -3.347461688347372e-05
-4.509827390201428e-05   4.048329127535324e-06   -1.641157417200164e-05
-4.509827390201428e-05   4.048329127535324e-06   -1.641157417200164e-05
-4.509827390201428e-05   4.048329127535324e-06   -1.641157417200164e-05
-4.509827390201428e-05   4.048329127535324e-06   -1.641157417200164e-05
4.757734823479019e-05   -8.151396586968855e-06   2.8366334610968754e-05
4.757734823479019e-05   -8.151396586968855e-06   2.8366334610968754e-05
4.757734823479019e-05   -8.151396586968855e-06   2.8366334610968754e-05
4.757734823479019e-05   -8.151396586968855e-06   2.8366334610968754e-05
2.466326388452956e-05   -6.297932362664665e-06   -8.711727438216548e-06
2.466326388452956e-05   -6.297932362664665e-06   -8.711727438216548e-06
2.466326388452956e-05   -6.297932362664665e-06   -8.711727438216548e-06
2.466326388452956e-05   -6.297932362664665e-06   -8.711727438216548e-06
2.4047179980599592e-05   -8.355367429721452e-06   2.503332698065787e-05
2.4047179980599592e-05   -8.355367429721452e-06   2.503332698065787e-05
2.4047179980599592e-05   -8.355367429721452e-06   2.503332698065787e-05
2.4047179980599592e-05   -8.355367429721452e-06   2.503332698065787e-05
4.707456678515286e-05   -6.921234496063853e-06   -1.420613078712533e-05
4.707456678515286e-05   -6.921234496063853e-06   -1.420613078712533e-05
4.707456678515286e-05   -6.921234496063853e-06   -1.420613078712533e-05
4.707456678515286e-05   -6.921234496063853e-06   -1.420613078712533e-05
3.437295121914222e-05   -7.032797009846924e-06   7.030165997828702e-06
3.437295121914222e-05   -7.032797009846924e-06   7.030165997828702e-06
3.437295121914222e-05   -7.032797009846924e-06   7.030165997828702e-06
3.437295121914222e-05   -7.032797009846924e-06   7.030165997828702e-06
4.707456678515286e-05   -8.355367429721452e-06   2.417284722046342e-05
4.707456678515286e-05   -8.355367429721452e-06   2.417284722046342e-05
4.707456678515286e-05   -8.355367429721452e-06   2.417284722046342e-05
4.707456678515286e-05   -8.355367429721452e-06   2.417284722046342e-05
2.4047179980599592e-05   -6.921234496063853e-06   -1.3345651026930934e-05
2.4047179980599592e-05   -6.921234496063853e-06   -1.3345651026930934e-05
2.4047179980599592e-05   -6.921234496063853e-06   -1.3345651026930934e-05
2.4047179980599592e-05   -6.921234496063853e-06   -1.3345651026930934e-05
2.3489443587235566e-05   -8.278624617262878e-06   2.24658918219333e-05
2.3489443587235566e-05   -8.278624617262878e-06   2.24658918219333e-05
2.3489443587235566e-05   -8.278624617262878e-06   2.24658918219333e-05
2.3489443587235566e-05   -8.278624617262878e-06   2.24658918219333e-05
4.649150190619209e-05   -6.977316765984128e-06   -1.665165675376147e-05
4.649150190619209e-05   -6.977316765984128e-06   -1.665165675376147e-05
4.649150190619209e-05   -6.977316765984128e-06   -1.665165675376147e-05
4.649150190619209e-05   -6.977316765984128e-06   -1.665165675376147e-05
3.4352025796199526e-05   -7.156182772282034e-06   3.6881230333381926e-06
3.4352025796199526e-05   -7.156182772282034e-06   3.6881230333381926e-06
3.4352025796199526e-05   -7.156182772282034e-06   3.6881230333381926e-06
3.4352025796199526e-05   -7.156182772282034e-06   3.6881230333381926e-06
4.649150190619217e-05   -8.278624617262661e-06   2.1685107111166094e-05
4.649150190619217e-05   -8.278624617262661e-06   2.1685107111166094e-05
4.649150190619217e-05   -8.278624617262661e-06   2.1685107111166094e-05
4.649150190619217e-05   -8.278624617262661e-06   2.1685107111166094e-05
2.3489443587235566e-05   -6.977316765984128e-06   -1.5870872042994316e-05
2.3489443587235566e-05   -6.977316765984128e-06   -1.5870872042994316e-05
2.3489443587235566e-05   -6.977316765984128e-06   -1.5870872042994316e-05
2.3489443587235566e-05   -6.977316765984128e-06   -1.5870872042994316e-05
2.2808767611349337e-05   -7.815031575066338e-06   1.828885288936025e-05
2.2808767611349337e-05   -7.815031575066338e-06   1.828885288936025e-05
2.2808767611349337e-05   -7.815031575066338e-06   1.828885288936025e-05
2.2808767611349337e-05   -7.815031575066338e-06   1.828885288936025e-05
4.557779670160893e-05   -6.827403341249554e-06   -2.0252105868029128e-05
4.557779670160893e-05   -6.827403341249554e-06   -2.0252105868029128e-05
4.557779670160893e-05   -6.827403341249554e-06   -2.0252105868029128e-05
4.557779670160893e-05   -6.827403341249554e-06   -2.0252105868029128e-05
3.3183969503049304e-05   -6.804358681776566e-06   3.9044600055312744e-07
3.3183969503049304e-05   -6.804358681776566e-06   3.9044600055312744e-07
3.3183969503049304e-05   -6.804358681776566e-06   3.9044600055312744e-07
3.3183969503049304e-05   -6.804358681776566e-06   3.9044600055312744e-07
2.466326388452956e-05   -8.139480179842392e-06   2.1167126040143487e-05
2.466326388452956e-05   -8.139480179842392e-06   2.1167126040143487e-05
2.466326388452956e-05   -8.139480179842392e-06   2.1167126040143487e-05
2.466326388452956e-05   -8.139480179842392e-06   2.1167126040143487e-05
5.1925635375149116e-06   -3.875067280400407e-06   -8.725393465215604e-06
5.1925635375149116e-06   -3.875067280400407e-06   -8.725393465215604e-06
5.1925635375149116e-06   -3.875067280400407e-06   -8.725393465215604e-06
5.1925635375149116e-06   -3.875067280400407e-06   -8.725393465215604e-06
4.217624732419026e-06   -8.095570692631887e-06   2.414048123409833e-05
4.217624732419026e-06   -8.095570692631887e-06   2.414048123409833e-05
4.217624732419026e-06   -8.095570692631887e-06   2.414048123409833e-05
4.217624732419026e-06   -8.095570692631887e-06   2.414048123409833e-05
2.4047179980599592e-05   -4.108721176245738e-06   -1.1300887222700855e-05
2.4047179980599592e-05   -4.108721176245738e-06   -1.1300887222700855e-05
2.4047179980599592e-05   -4.108721176245738e-06   -1.1300887222700855e-05
2.4047179980599592e-05   -4.108721176245738e-06   -1.1300887222700855e-05
1.4509030914626558e-05   -5.830247791697822e-06   5.62894385652547e-06
1.4509030914626558e-05   -5.830247791697822e-06   5.62894385652547e-06
1.4509030914626558e-05   -5.830247791697822e-06   5.62894385652547e-06
1.4509030914626558e-05   -5.830247791697822e-06   5.62894385652547e-06
2.404717998059962e-05   -8.095570692631887e-06   2.1748371524266574e-05
2.404717998059962e-05   -8.095570692631887e-06   2.1748371524266574e-05
2.404717998059962e-05   -8.095570692631887e-06   2.1748371524266574e-05
2.404717998059962e-05   -8.095570692631887e-06   2.1748371524266574e-05
4.217624732419026e-06   -4.108721176245738e-06   -8.908777512869263e-06
4.217624732419026e-06   -4.108721176245738e-06   -8.908777512869263e-06
4.217624732419026e-06   -4.108721176245738e-06   -8.908777512869263e-06
4.217624732419026e-06   -4.108721176245738e-06   -8.908777512869263e-06
3.5217136949990097e-06   -7.984001112718367e-06   2.4168909983940823e-05
3.5217136949990097e-06   -7.984001112718367e-06   2.4168909983940823e-05
3.5217136949990097e-06   -7.984001112718367e-06   2.4168909983940823e-05
3.5217136949990097e-06   -7.984001112718367e-06   2.4168909983940823e-05
2.3489443587235566e-05   -4.210912711466886e-06   -1.1374492877204236e-05
2.3489443587235566e-05   -4.210912711466886e-06   -1.1374492877204236e-05
2.3489443587235566e-05   -4.210912711466886e-06   -1.1374492877204236e-05
2.3489443587235566e-05   -4.210912711466886e-06   -1.1374492877204236e-05
1.3671703621098999e-05   -5.709494917667838e-06   5.887556390077721e-06
1.3671703621098999e-05   -5.709494917667838e-06   5.887556390077721e-06
1.3671703621098999e-05   -5.709494917667838e-06   5.887556390077721e-06
1.3671703621098999e-05   -5.709494917667838e-06   5.887556390077721e-06
2.3489443587235606e-05   -7.984001112718584e-06   2.190505694318998e-05
2.3489443587235606e-05   -7.984001112718584e-06   2.190505694318998e-05
2.3489443587235606e-05   -7.984001112718584e-06   2.190505694318998e-05
2.3489443587235606e-05   -7.984001112718584e-06   2.190505694318998e-05
3.5217136949990097e-06   -4.210912711466886e-06   -9.11063983645335e-06
3.5217136949990097e-06   -4.210912711466886e-06   -9.11063983645335e-06
3.5217136949990097e-06   -4.210912711466886e-06   -9.11063983645335e-06
3.5217136949990097e-06   -4.210912711466886e-06   -9.11063983645335e-06
2.7478564001080753e-06   -7.762983560286084e-06   2.4946299170602437e-05
2.7478564001080753e-06   -7.762983560286084e-06   2.4946299170602437e-05
2.7478564001080753e-06   -7.762983560286084e-06   2.4946299170602437e-05
2.7478564001080753e-06   -7.762983560286084e-06   2.4946299170602437e-05
2.2808767611349324e-05   -4.112924147846699e-06   -1.0678588495596704e-05
2.2808767611349324e-05   -4.112924147846699e-06   -1.0678588495596704e-05
2.2808767611349324e-05   -4.112924147846699e-06   -1.0678588495596704e-05
2.2808767611349324e-05   -4.112924147846699e-06   -1.0678588495596704e-05
1.3160958391706981e-05   -5.456647141533974e-06   6.207327333353013e-06
1.3160958391706981e-05   -5.456647141533974e-06   6.207327333353013e-06
1.3160958391706981e-05   -5.456647141533974e-06   6.207327333353013e-06
1.3160958391706981e-05   -5.456647141533974e-06   6.207327333353013e-06
5.192563537514939e-06   -9.778651993719864e-06   2.1754134923593696e-05
5.192563537514939e-06   -9.778651993719864e-06   2.1754134923593696e-05
5.192563537514939e-06   -9.778651993719864e-06   2.1754134923593696e-05
5.192563537514939e-06   -9.778651993719864e-06   2.1754134923593696e-05
-1.351585735602829e-05   -1.6000108786183576e-06   -4.519381896584047e-06
-1.351585735602829e-05   -1.6000108786183576e-06   -4.519381896584047e-06
-1.351585735602829e-05   -1.6000108786183576e-06   -4.519381896584047e-06
-1.351585735602829e-05   -1.6000108786183576e-06   -4.519381896584047e-06
-1.5031983984745313e-05   -9.991652654757922e-06   2.792571726837386e-05
-1.5031983984745313e-05   -9.991652654757922e-06   2.792571726837386e-05
-1.5031983984745313e-05   -9.991652654757922e-06   2.792571726837386e-05
-1.5031983984745313e-05   -9.991652654757922e-06   2.792571726837386e-05
4.2176247324190395e-06   -1.6885880961417868e-06   -9.138802662069466e-06
4.2176247324190395e-06   -1.6885880961417868e-06   -9.138802662069466e-06
4.2176247324190395e-06   -1.6885880961417868e-06   -9.138802662069466e-06
4.2176247324190395e-06   -1.6885880961417868e-06   -9.138802662069466e-06
-4.6186127708665415e-06   -5.578548850112717e-06   7.922236295788976e-06
-4.6186127708665415e-06   -5.578548850112717e-06   7.922236295788976e-06
-4.6186127708665415e-06   -5.578548850112717e-06   7.922236295788976e-06
-4.6186127708665415e-06   -5.578548850112717e-06   7.922236295788976e-06
4.217624732419026e-06   -9.991652654757705e-06   2.2943878533204396e-05
4.217624732419026e-06   -9.991652654757705e-06   2.2943878533204396e-05
4.217624732419026e-06   -9.991652654757705e-06   2.2943878533204396e-05
4.217624732419026e-06   -9.991652654757705e-06   2.2943878533204396e-05
-1.5031983984745286e-05   -1.6885880961420036e-06   -4.156963926899948e-06
-1.5031983984745286e-05   -1.6885880961420036e-06   -4.156963926899948e-06
-1.5031983984745286e-05   -1.6885880961420036e-06   -4.156963926899948e-06
-1.5031983984745286e-05   -1.6885880961420036e-06   -4.156963926899948e-06
-1.5959767028886994e-05   -9.940980339970826e-06   2.898584827176103e-05
-1.5959767028886994e-05   -9.940980339970826e-06   2.898584827176103e-05
-1.5959767028886994e-05   -9.940980339970826e-06   2.898584827176103e-05
-1.5959767028886994e-05   -9.940980339970826e-06   2.898584827176103e-05
3.5217136949990097e-06   -1.797539437293225e-06   -8.369350809655211e-06
3.5217136949990097e-06   -1.797539437293225e-06   -8.369350809655211e-06
3.5217136949990097e-06   -1.797539437293225e-06   -8.369350809655211e-06
3.5217136949990097e-06   -1.797539437293225e-06   -8.369350809655211e-06
-5.645571430802034e-06   -5.557729819211359e-06   9.165571962497219e-06
-5.645571430802034e-06   -5.557729819211359e-06   9.165571962497219e-06
-5.645571430802034e-06   -5.557729819211359e-06   9.165571962497219e-06
-5.645571430802034e-06   -5.557729819211359e-06   9.165571962497219e-06
3.521713694998996e-06   -9.940980339970826e-06   2.4099783730154533e-05
3.521713694998996e-06   -9.940980339970826e-06   2.4099783730154533e-05
3.521713694998996e-06   -9.940980339970826e-06   2.4099783730154533e-05
3.521713694998996e-06   -9.940980339970826e-06   2.4099783730154533e-05
-1.5959767028886953e-05   -1.797539437293225e-06   -3.4832862680487424e-06
-1.5959767028886953e-05   -1.797539437293225e-06   -3.4832862680487424e-06
-1.5959767028886953e-05   -1.797539437293225e-06   -3.4832862680487424e-06
-1.5959767028886953e-05   -1.797539437293225e-06   -3.4832862680487424e-06
-1.7049642227089874e-05   -9.58779428029792e-06   3.0356668428744476e-05
-1.7049642227089874e-05   -9.58779428029792e-06   3.0356668428744476e-05
-1.7049642227089874e-05   -9.58779428029792e-06   3.0356668428744476e-05
-1.7049642227089874e-05   -9.58779428029792e-06   3.0356668428744476e-05
2.7478564001080753e-06   -1.784493427489306e-06   -7.321143128270703e-06
2.7478564001080753e-06   -1.784493427489306e-06   -7.321143128270703e-06
2.7478564001080753e-06   -1.784493427489306e-06   -7.321143128270703e-06
2.7478564001080753e-06   -1.784493427489306e-06   -7.321143128270703e-06
-6.482401367937289e-06   -5.332435889387772e-06   1.0191385295610681e-05
-6.482401367937289e-06   -5.332435889387772e-06   1.0191385295610681e-05
-6.482401367937289e-06   -5.332435889387772e-06   1.0191385295610681e-05
-6.482401367937289e-06   -5.332435889387772e-06   1.0191385295610681e-05
-1.3515857356028303e-05   -1.2153038346607564e-05   2.6330136065060667e-05
-1.3515857356028303e-05   -1.2153038346607564e-05   2.6330136065060667e-05
-1.3515857356028303e-05   -1.2153038346607564e-05   2.6330136065060667e-05
-1.3515857356028303e-05   -1.2153038346607564e-05   2.6330136065060667e-05
-3.478662163303785e-05   1.8048004548417308e-06   -7.464344490855758e-07
-3.478662163303785e-05   1.8048004548417308e-06   -7.464344490855758e-07
-3.478662163303785e-05   1.8048004548417308e-06   -7.464344490855758e-07
-3.478662163303785e-05   1.8048004548417308e-06   -7.464344490855758e-07
-3.6612693672233675e-05   -1.3586195106717568e-05   3.717880094631677e-05
-3.6612693672233675e-05   -1.3586195106717568e-05   3.717880094631677e-05
-3.6612693672233675e-05   -1.3586195106717568e-05   3.717880094631677e-05
-3.6612693672233675e-05   -1.3586195106717568e-05   3.717880094631677e-05
-1.5031983984745286e-05   1.7046934945915554e-06   -7.963581693615983e-06
-1.5031983984745286e-05   1.7046934945915554e-06   -7.963581693615983e-06
-1.5031983984745286e-05   1.7046934945915554e-06   -7.963581693615983e-06
-1.5031983984745286e-05   1.7046934945915554e-06   -7.963581693615983e-06
-2.4640257847956997e-05   -5.0068895094327985e-06   1.2077157880817835e-05
-2.4640257847956997e-05   -5.0068895094327985e-06   1.2077157880817835e-05
-2.4640257847956997e-05   -5.0068895094327985e-06   1.2077157880817835e-05
-2.4640257847956997e-05   -5.0068895094327985e-06   1.2077157880817835e-05
-1.5031983984745313e-05   -1.3586195106717568e-05   2.8004267785531256e-05
-1.5031983984745313e-05   -1.3586195106717568e-05   2.8004267785531256e-05
-1.5031983984745313e-05   -1.3586195106717568e-05   2.8004267785531256e-05
-1.5031983984745313e-05   -1.3586195106717568e-05   2.8004267785531256e-05
-3.6612693672233675e-05   1.7046934945913386e-06   1.2109514671694533e-06
-3.6612693672233675e-05   1.7046934945913386e-06   1.2109514671694533e-06
-3.6612693672233675e-05   1.7046934945913386e-06   1.2109514671694533e-06
-3.6612693672233675e-05   1.7046934945913386e-06   1.2109514671694533e-06
-3.77248755876095e-05   -1.3658022847084844e-05   3.9265532088266376e-05
-3.77248755876095e-05   -1.3658022847084844e-05   3.9265532088266376e-05
-3.77248755876095e-05   -1.3658022847084844e-05   3.9265532088266376e-05
-3.77248755876095e-05   -1.3658022847084844e-05   3.9265532088266376e-05
-1.5959767028886953e-05   1.5148542361893662e-06   -6.113375092902567e-06
-1.5959767028886953e-05   1.5148542361893662e-06   -6.113375092902567e-06
-1.5959767028886953e-05   1.5148542361893662e-06   -6.113375092902567e-06
-1.5959767028886953e-05   1.5148542361893662e-06   -6.113375092902567e-06
-2.5823707953930454e-05   -5.778616036419045e-06   1.4702608612401804e-05
-2.5823707953930454e-05   -5.778616036419045e-06   1.4702608612401804e-05
-2.5823707953930454e-05   -5.778616036419045e-06   1.4702608612401804e-05
-2.5823707953930454e-05   -5.778616036419045e-06   1.4702608612401804e-05
-1.5959767028886953e-05   -1.3658022847084844e-05   3.016180583830159e-05
-1.5959767028886953e-05   -1.3658022847084844e-05   3.016180583830159e-05
-1.5959767028886953e-05   -1.3658022847084844e-05   3.016180583830159e-05
-1.5959767028886953e-05   -1.3658022847084844e-05   3.016180583830159e-05
-3.772487558760943e-05   1.5148542361893662e-06   2.9903511570620028e-06
-3.772487558760943e-05   1.5148542361893662e-06   2.9903511570620028e-06
-3.772487558760943e-05   1.5148542361893662e-06   2.9903511570620028e-06
-3.772487558760943e-05   1.5148542361893662e-06   2.9903511570620028e-06
-3.8924158145209075e-05   -1.2440763665342181e-05   4.0156532875836514e-05
-3.8924158145209075e-05   -1.2440763665342181e-05   4.0156532875836514e-05
-3.8924158145209075e-05   -1.2440763665342181e-05   4.0156532875836514e-05
-3.8924158145209075e-05   -1.2440763665342181e-05   4.0156532875836514e-05
-1.704964222708982e-05   1.2992248661705674e-06   -4.544986773269774e-06
-1.704964222708982e-05   1.2992248661705674e-06   -4.544986773269774e-06
-1.704964222708982e-05   1.2992248661705674e-06   -4.544986773269774e-06
-1.704964222708982e-05   1.2992248661705674e-06   -4.544986773269774e-06
-2.7046425560446692e-05   -5.81916802104912e-06   1.638735451465719e-05
-2.7046425560446692e-05   -5.81916802104912e-06   1.638735451465719e-05
-2.7046425560446692e-05   -5.81916802104912e-06   1.638735451465719e-05
-2.7046425560446692e-05   -5.81916802104912e-06   1.638735451465719e-05
-3.478662163303773e-05   0.0   2.9104163943609513e-05
-3.478662163303773e-05   0.0   2.9104163943609513e-05
-3.478662163303773e-05   0.0   2.9104163943609513e-05
-3.478662163303773e-05   0.0   2.9104163943609513e-05
-6.116832304068349e-05   8.0317164684535e-06   -1.004630852139473e-05
-6.116832304068349e-05   8.0317164684535e-06   -1.004630852139473e-05
-6.116832304068349e-05   8.0317164684535e-06   -1.004630852139473e-05
-6.116832304068349e-05   8.0317164684535e-06   -1.004630852139473e-05
-6.367881278215599e-05   0.0   4.236022203051243e-05
-6.367881278215599e-05   0.0   4.236022203051243e-05
-6.367881278215599e-05   0.0   4.236022203051243e-05
-6.367881278215599e-05   0.0   4.236022203051243e-05
-3.6612693672233614e-05   7.761304331888692e-06   -7.406759085158097e-06
-3.6612693672233614e-05   7.761304331888692e-06   -7.406759085158097e-06
-3.6612693672233614e-05   7.761304331888692e-06   -7.406759085158097e-06
-3.6612693672233614e-05   7.761304331888692e-06   -7.406759085158097e-06
-4.6971105375207944e-05   4.764459982449683e-06   1.1655367029462388e-05
-4.6971105375207944e-05   4.764459982449683e-06   1.1655367029462388e-05
-4.6971105375207944e-05   4.764459982449683e-06   1.1655367029462388e-05
-4.6971105375207944e-05   4.764459982449683e-06   1.1655367029462388e-05
-3.661269367223358e-05   0.0   3.770343943137935e-05
-3.661269367223358e-05   0.0   3.770343943137935e-05
-3.661269367223358e-05   0.0   3.770343943137935e-05
-3.661269367223358e-05   0.0   3.770343943137935e-05
-6.36788127821561e-05   7.761304331888692e-06   -2.7499764860249845e-06
-6.36788127821561e-05   7.761304331888692e-06   -2.7499764860249845e-06
-6.36788127821561e-05   7.761304331888692e-06   -2.7499764860249845e-06
-6.36788127821561e-05   7.761304331888692e-06   -2.7499764860249845e-06
-6.494221021532707e-05   0.0   4.706252529073393e-05
-6.494221021532707e-05   0.0   4.706252529073393e-05
-6.494221021532707e-05   0.0   4.706252529073393e-05
-6.494221021532707e-05   0.0   4.706252529073393e-05
-3.772487558760943e-05   7.565761758743933e-06   -2.839156144041657e-06
-3.772487558760943e-05   7.565761758743933e-06   -2.839156144041657e-06
-3.772487558760943e-05   7.565761758743933e-06   -2.839156144041657e-06
-3.772487558760943e-05   7.565761758743933e-06   -2.839156144041657e-06
-4.940286081288575e-05   3.980929519199457e-06   1.8775051908479152e-05
-4.940286081288575e-05   3.980929519199457e-06   1.8775051908479152e-05
-4.940286081288575e-05   3.980929519199457e-06   1.8775051908479152e-05
-4.940286081288575e-05   3.980929519199457e-06   1.8775051908479152e-05
-3.772487558760943e-05   0.0   4.252306823548783e-05
-3.772487558760943e-05   0.0   4.252306823548783e-05
-3.772487558760943e-05   0.0   4.252306823548783e-05
-3.772487558760943e-05   0.0   4.252306823548783e-05
-6.494221021532729e-05   7.565761758743933e-06   1.700300911204578e-06
-6.494221021532729e-05   7.565761758743933e-06   1.700300911204578e-06
-6.494221021532729e-05   7.565761758743933e-06   1.700300911204578e-06
-6.494221021532729e-05   7.565761758743933e-06   1.700300911204578e-06
-6.634538422978109e-05   0.0   5.333103003133505e-05
-6.634538422978109e-05   0.0   5.333103003133505e-05
-6.634538422978109e-05   0.0   5.333103003133505e-05
-6.634538422978109e-05   0.0   5.333103003133505e-05
-3.8924158145209075e-05   6.315265971263469e-06   3.839826974290291e-06
-3.8924158145209075e-05   6.315265971263469e-06   3.839826974290291e-06
-3.8924158145209075e-05   6.315265971263469e-06   3.839826974290291e-06
-3.8924158145209075e-05   6.315265971263469e-06   3.839826974290291e-06
-4.9801252454438315e-05   2.801419679159022e-06   2.4076625264935142e-05
-4.9801252454438315e-05   2.801419679159022e-06   2.4076625264935142e-05
-4.9801252454438315e-05   2.801419679159022e-06   2.4076625264935142e-05
-4.9801252454438315e-05   2.801419679159022e-06   2.4076625264935142e-05
4.1919346747837735e-05   -6.297932362664665e-06   2.9697356431969088e-05
4.1919346747837735e-05   -6.297932362664665e-06   2.9697356431969088e-05
4.1919346747837735e-05   -6.297932362664665e-06   2.9697356431969088e-05
4.1919346747837735e-05   -6.297932362664665e-06   2.9697356431969088e-05
2.118595914896067e-05   -4.763576889858442e-06   -3.937676282475522e-06
2.118595914896067e-05   -4.763576889858442e-06   -3.937676282475522e-06
2.118595914896067e-05   -4.763576889858442e-06   -3.937676282475522e-06
2.118595914896067e-05   -4.763576889858442e-06   -3.937676282475522e-06
2.0631098671734452e-05   -6.92123449606407e-06   2.5907917143504515e-05
2.0631098671734452e-05   -6.92123449606407e-06   2.5907917143504515e-05
2.0631098671734452e-05   -6.92123449606407e-06   2.5907917143504515e-05
2.0631098671734452e-05   -6.92123449606407e-06   2.5907917143504515e-05
4.093057375840778e-05   -5.3953076016902655e-06   -8.840097470908579e-06
4.093057375840778e-05   -5.3953076016902655e-06   -8.840097470908579e-06
4.093057375840778e-05   -5.3953076016902655e-06   -8.840097470908579e-06
4.093057375840778e-05   -5.3953076016902655e-06   -8.840097470908579e-06
2.9779258594087127e-05   -5.6119936261435875e-06   9.87543941763109e-06
2.9779258594087127e-05   -5.6119936261435875e-06   9.87543941763109e-06
2.9779258594087127e-05   -5.6119936261435875e-06   9.87543941763109e-06
2.9779258594087127e-05   -5.6119936261435875e-06   9.87543941763109e-06
4.093057375840772e-05   -6.92123449606407e-06   2.4992361006880254e-05
4.093057375840772e-05   -6.92123449606407e-06   2.4992361006880254e-05
4.093057375840772e-05   -6.92123449606407e-06   2.4992361006880254e-05
4.093057375840772e-05   -6.92123449606407e-06   2.4992361006880254e-05
2.06310986717345e-05   -5.3953076016902655e-06   -7.924541334284338e-06
2.06310986717345e-05   -5.3953076016902655e-06   -7.924541334284338e-06
2.06310986717345e-05   -5.3953076016902655e-06   -7.924541334284338e-06
2.06310986717345e-05   -5.3953076016902655e-06   -7.924541334284338e-06
1.991620990212663e-05   -6.977316765983911e-06   2.3246346242052594e-05
1.991620990212663e-05   -6.977316765983911e-06   2.3246346242052594e-05
1.991620990212663e-05   -6.977316765983911e-06   2.3246346242052594e-05
1.991620990212663e-05   -6.977316765983911e-06   2.3246346242052594e-05
3.992969504092364e-05   -5.488332789885817e-06   -1.100285270826784e-05
3.992969504092364e-05   -5.488332789885817e-06   -1.100285270826784e-05
3.992969504092364e-05   -5.488332789885817e-06   -1.100285270826784e-05
3.992969504092364e-05   -5.488332789885817e-06   -1.100285270826784e-05
2.9506076683070834e-05   -5.856190303946043e-06   6.590559063256196e-06
2.9506076683070834e-05   -5.856190303946043e-06   6.590559063256196e-06
2.9506076683070834e-05   -5.856190303946043e-06   6.590559063256196e-06
2.9506076683070834e-05   -5.856190303946043e-06   6.590559063256196e-06
3.992969504092364e-05   -6.977316765984128e-06   2.2352955856393933e-05
3.992969504092364e-05   -6.977316765984128e-06   2.2352955856393933e-05
3.992969504092364e-05   -6.977316765984128e-06   2.2352955856393933e-05
3.992969504092364e-05   -6.977316765984128e-06   2.2352955856393933e-05
1.991620990212663e-05   -5.488332789885817e-06   -1.0109462322608915e-05
1.991620990212663e-05   -5.488332789885817e-06   -1.0109462322608915e-05
1.991620990212663e-05   -5.488332789885817e-06   -1.0109462322608915e-05
1.991620990212663e-05   -5.488332789885817e-06   -1.0109462322608915e-05
1.9165843967176754e-05   -6.827403341249337e-06   1.929504477269717e-05
1.9165843967176754e-05   -6.827403341249337e-06   1.929504477269717e-05
1.9165843967176754e-05   -6.827403341249337e-06   1.929504477269717e-05
1.9165843967176754e-05   -6.827403341249337e-06   1.929504477269717e-05
3.867654257491342e-05   -5.449728460632129e-06   -1.4049391168567786e-05
3.867654257491342e-05   -5.449728460632129e-06   -1.4049391168567786e-05
3.867654257491342e-05   -5.449728460632129e-06   -1.4049391168567786e-05
3.867654257491342e-05   -5.449728460632129e-06   -1.4049391168567786e-05
2.819811886267731e-05   -5.7015897306606726e-06   3.565765113843454e-06
2.819811886267731e-05   -5.7015897306606726e-06   3.565765113843454e-06
2.819811886267731e-05   -5.7015897306606726e-06   3.565765113843454e-06
2.819811886267731e-05   -5.7015897306606726e-06   3.565765113843454e-06
2.118595914896071e-05   -3.875067280400407e-06   2.8045655948988682e-05
2.118595914896071e-05   -3.875067280400407e-06   2.8045655948988682e-05
2.118595914896071e-05   -3.875067280400407e-06   2.8045655948988682e-05
2.118595914896071e-05   -3.875067280400407e-06   2.8045655948988682e-05
2.2861235062360524e-06   -1.6760267722872296e-06   -2.134645817351193e-06
2.2861235062360524e-06   -1.6760267722872296e-06   -2.134645817351193e-06
2.2861235062360524e-06   -1.6760267722872296e-06   -2.134645817351193e-06
2.2861235062360524e-06   -1.6760267722872296e-06   -2.134645817351193e-06
1.734503359405922e-06   -4.108721176245738e-06   2.9209128676211706e-05
1.734503359405922e-06   -4.108721176245738e-06   2.9209128676211706e-05
1.734503359405922e-06   -4.108721176245738e-06   2.9209128676211706e-05
1.734503359405922e-06   -4.108721176245738e-06   2.9209128676211706e-05
2.06310986717345e-05   -2.0146416287833598e-06   -3.5416445728132274e-06
2.06310986717345e-05   -2.0146416287833598e-06   -3.5416445728132274e-06
2.06310986717345e-05   -2.0146416287833598e-06   -3.5416445728132274e-06
2.06310986717345e-05   -2.0146416287833598e-06   -3.5416445728132274e-06
1.1349390409752574e-05   -2.714442387773998e-06   1.2347749652550928e-05
1.1349390409752574e-05   -2.714442387773998e-06   1.2347749652550928e-05
1.1349390409752574e-05   -2.714442387773998e-06   1.2347749652550928e-05
1.1349390409752574e-05   -2.714442387773998e-06   1.2347749652550928e-05
2.063109867173448e-05   -4.108721176245738e-06   2.7952680947734322e-05
2.063109867173448e-05   -4.108721176245738e-06   2.7952680947734322e-05
2.063109867173448e-05   -4.108721176245738e-06   2.7952680947734322e-05
2.063109867173448e-05   -4.108721176245738e-06   2.7952680947734322e-05
1.734503359405922e-06   -2.0146416287833598e-06   -2.285196844335844e-06
1.734503359405922e-06   -2.0146416287833598e-06   -2.285196844335844e-06
1.734503359405922e-06   -2.0146416287833598e-06   -2.285196844335844e-06
1.734503359405922e-06   -2.0146416287833598e-06   -2.285196844335844e-06
1.030805375547728e-06   -4.210912711466886e-06   2.8927972879086742e-05
1.030805375547728e-06   -4.210912711466886e-06   2.8927972879086742e-05
1.030805375547728e-06   -4.210912711466886e-06   2.8927972879086742e-05
1.030805375547728e-06   -4.210912711466886e-06   2.8927972879086742e-05
1.991620990212663e-05   -2.2355002593937596e-06   -3.732948803122262e-06
1.991620990212663e-05   -2.2355002593937596e-06   -3.732948803122262e-06
1.991620990212663e-05   -2.2355002593937596e-06   -3.732948803122262e-06
1.991620990212663e-05   -2.2355002593937596e-06   -3.732948803122262e-06
1.0649121484912817e-05   -2.8419888379285947e-06   1.2076091706022195e-05
1.0649121484912817e-05   -2.8419888379285947e-06   1.2076091706022195e-05
1.0649121484912817e-05   -2.8419888379285947e-06   1.2076091706022195e-05
1.0649121484912817e-05   -2.8419888379285947e-06   1.2076091706022195e-05
1.9916209902126595e-05   -4.210912711467103e-06   2.7742725407842606e-05
1.9916209902126595e-05   -4.210912711467103e-06   2.7742725407842606e-05
1.9916209902126595e-05   -4.210912711467103e-06   2.7742725407842606e-05
1.9916209902126595e-05   -4.210912711467103e-06   2.7742725407842606e-05
1.030805375547728e-06   -2.2355002593937596e-06   -2.5477013318781936e-06
1.030805375547728e-06   -2.2355002593937596e-06   -2.5477013318781936e-06
1.030805375547728e-06   -2.2355002593937596e-06   -2.5477013318781936e-06
1.030805375547728e-06   -2.2355002593937596e-06   -2.5477013318781936e-06
2.5349196691207244e-07   -4.112924147846916e-06   2.934670425454376e-05
2.5349196691207244e-07   -4.112924147846916e-06   2.934670425454376e-05
2.5349196691207244e-07   -4.112924147846916e-06   2.934670425454376e-05
2.5349196691207244e-07   -4.112924147846916e-06   2.934670425454376e-05
1.9165843967176734e-05   -2.3283923983397417e-06   -3.244601462268416e-06
1.9165843967176734e-05   -2.3283923983397417e-06   -3.244601462268416e-06
1.9165843967176734e-05   -2.3283923983397417e-06   -3.244601462268416e-06
1.9165843967176734e-05   -2.3283923983397417e-06   -3.244601462268416e-06
1.0080568673052155e-05   -2.813374219996518e-06   1.2188513120933871e-05
1.0080568673052155e-05   -2.813374219996518e-06   1.2188513120933871e-05
1.0080568673052155e-05   -2.813374219996518e-06   1.2188513120933871e-05
1.0080568673052155e-05   -2.813374219996518e-06   1.2188513120933871e-05
2.2861235062360524e-06   -1.6000108786183576e-06   2.8663907153426982e-05
2.2861235062360524e-06   -1.6000108786183576e-06   2.8663907153426982e-05
2.2861235062360524e-06   -1.6000108786183576e-06   2.8663907153426982e-05
2.2861235062360524e-06   -1.6000108786183576e-06   2.8663907153426982e-05
-1.602721843933765e-05   1.4999386376628957e-06   1.6402872396936372e-09
-1.602721843933765e-05   1.4999386376628957e-06   1.6402872396936372e-09
-1.602721843933765e-05   1.4999386376628957e-06   1.6402872396936372e-09
-1.602721843933765e-05   1.4999386376628957e-06   1.6402872396936372e-09
-1.6648914095552432e-05   -1.6885880961417868e-06   3.0737673505414065e-05
-1.6648914095552432e-05   -1.6885880961417868e-06   3.0737673505414065e-05
-1.6648914095552432e-05   -1.6885880961417868e-06   3.0737673505414065e-05
-1.6648914095552432e-05   -1.6885880961417868e-06   3.0737673505414065e-05
1.734503359405922e-06   1.2423618678621042e-06   -1.6599255645856597e-06
1.734503359405922e-06   1.2423618678621042e-06   -1.6599255645856597e-06
1.734503359405922e-06   1.2423618678621042e-06   -1.6599255645856597e-06
1.734503359405922e-06   1.2423618678621042e-06   -1.6599255645856597e-06
-7.150891753720086e-06   -8.929188857493414e-10   1.3895019162673064e-05
-7.150891753720086e-06   -8.929188857493414e-10   1.3895019162673064e-05
-7.150891753720086e-06   -8.929188857493414e-10   1.3895019162673064e-05
-7.150891753720086e-06   -8.929188857493414e-10   1.3895019162673064e-05
1.734503359405922e-06   -1.6885880961417868e-06   2.8979103527011665e-05
1.734503359405922e-06   -1.6885880961417868e-06   2.8979103527011665e-05
1.734503359405922e-06   -1.6885880961417868e-06   2.8979103527011665e-05
1.734503359405922e-06   -1.6885880961417868e-06   2.8979103527011665e-05
-1.6648914095552432e-05   1.2423618678621042e-06   9.864441381692967e-08
-1.6648914095552432e-05   1.2423618678621042e-06   9.864441381692967e-08
-1.6648914095552432e-05   1.2423618678621042e-06   9.864441381692967e-08
-1.6648914095552432e-05   1.2423618678621042e-06   9.864441381692967e-08
-1.7481337260481292e-05   -1.797539437293225e-06   3.1349345785541436e-05
-1.7481337260481292e-05   -1.797539437293225e-06   3.1349345785541436e-05
-1.7481337260481292e-05   -1.797539437293225e-06   3.1349345785541436e-05
-1.7481337260481292e-05   -1.797539437293225e-06   3.1349345785541436e-05
1.030805375547728e-06   1.0026003621345196e-06   -1.1843091541636618e-06
1.030805375547728e-06   1.0026003621345196e-06   -1.1843091541636618e-06
1.030805375547728e-06   1.0026003621345196e-06   -1.1843091541636618e-06
1.030805375547728e-06   1.0026003621345196e-06   -1.1843091541636618e-06
-7.763853236466567e-06   -7.220553480710538e-08   1.4118338737358397e-05
-7.763853236466567e-06   -7.220553480710538e-08   1.4118338737358397e-05
-7.763853236466567e-06   -7.220553480710538e-08   1.4118338737358397e-05
-7.763853236466567e-06   -7.220553480710538e-08   1.4118338737358397e-05
1.030805375547728e-06   -1.797539437293225e-06   2.9669261905884638e-05
1.030805375547728e-06   -1.797539437293225e-06   2.9669261905884638e-05
1.030805375547728e-06   -1.797539437293225e-06   2.9669261905884638e-05
1.030805375547728e-06   -1.797539437293225e-06   2.9669261905884638e-05
-1.7481337260481265e-05   1.0026003621345196e-06   4.95774725492947e-07
-1.7481337260481265e-05   1.0026003621345196e-06   4.95774725492947e-07
-1.7481337260481265e-05   1.0026003621345196e-06   4.95774725492947e-07
-1.7481337260481265e-05   1.0026003621345196e-06   4.95774725492947e-07
-1.8368197377943943e-05   -1.7844934274890891e-06   3.208298841557585e-05
-1.8368197377943943e-05   -1.7844934274890891e-06   3.208298841557585e-05
-1.8368197377943943e-05   -1.7844934274890891e-06   3.208298841557585e-05
-1.8368197377943943e-05   -1.7844934274890891e-06   3.208298841557585e-05
2.534919669120589e-07   8.302973077934598e-07   -5.220349336870799e-07
2.534919669120589e-07   8.302973077934598e-07   -5.220349336870799e-07
2.534919669120589e-07   8.302973077934598e-07   -5.220349336870799e-07
2.534919669120589e-07   8.302973077934598e-07   -5.220349336870799e-07
-8.545142054745937e-06   -1.2278308112617133e-07   1.4714203335761892e-05
-8.545142054745937e-06   -1.2278308112617133e-07   1.4714203335761892e-05
-8.545142054745937e-06   -1.2278308112617133e-07   1.4714203335761892e-05
-8.545142054745937e-06   -1.2278308112617133e-07   1.4714203335761892e-05
-1.6027218439337596e-05   1.804800454841514e-06   2.592212102982467e-05
-1.6027218439337596e-05   1.804800454841514e-06   2.592212102982467e-05
-1.6027218439337596e-05   1.804800454841514e-06   2.592212102982467e-05
-1.6027218439337596e-05   1.804800454841514e-06   2.592212102982467e-05
-3.39804471366924e-05   4.872769751229286e-06   -2.15914522126747e-06
-3.39804471366924e-05   4.872769751229286e-06   -2.15914522126747e-06
-3.39804471366924e-05   4.872769751229286e-06   -2.15914522126747e-06
-3.39804471366924e-05   4.872769751229286e-06   -2.15914522126747e-06
-3.4883657271317516e-05   1.7046934945913386e-06   2.8677498384312942e-05
-3.4883657271317516e-05   1.7046934945913386e-06   2.8677498384312942e-05
-3.4883657271317516e-05   1.7046934945913386e-06   2.8677498384312942e-05
-3.4883657271317516e-05   1.7046934945913386e-06   2.8677498384312942e-05
-1.6648914095552365e-05   4.6154312372827765e-06   -3.460182887577069e-06
-1.6648914095552365e-05   4.6154312372827765e-06   -3.460182887577069e-06
-1.6648914095552365e-05   4.6154312372827765e-06   -3.460182887577069e-06
-1.6648914095552365e-05   4.6154312372827765e-06   -3.460182887577069e-06
-2.5186392894392956e-05   3.30354765641595e-06   1.155607859234381e-05
-2.5186392894392956e-05   3.30354765641595e-06   1.155607859234381e-05
-2.5186392894392956e-05   3.30354765641595e-06   1.155607859234381e-05
-2.5186392894392956e-05   3.30354765641595e-06   1.155607859234381e-05
-1.6648914095552405e-05   1.7046934945915554e-06   2.693105573869795e-05
-1.6648914095552405e-05   1.7046934945915554e-06   2.693105573869795e-05
-1.6648914095552405e-05   1.7046934945915554e-06   2.693105573869795e-05
-1.6648914095552405e-05   1.7046934945915554e-06   2.693105573869795e-05
-3.488365727131746e-05   4.6154312372827765e-06   -1.7137402419622116e-06
-3.488365727131746e-05   4.6154312372827765e-06   -1.7137402419622116e-06
-3.488365727131746e-05   4.6154312372827765e-06   -1.7137402419622116e-06
-3.488365727131746e-05   4.6154312372827765e-06   -1.7137402419622116e-06
-3.5991317212006745e-05   1.5148542361893662e-06   3.0436315344125383e-05
-3.5991317212006745e-05   1.5148542361893662e-06   3.0436315344125383e-05
-3.5991317212006745e-05   1.5148542361893662e-06   3.0436315344125383e-05
-3.5991317212006745e-05   1.5148542361893662e-06   3.0436315344125383e-05
-1.7481337260481265e-05   4.376618208585615e-06   -2.1307096251880467e-06
-1.7481337260481265e-05   4.376618208585615e-06   -2.1307096251880467e-06
-1.7481337260481265e-05   4.376618208585615e-06   -2.1307096251880467e-06
-1.7481337260481265e-05   4.376618208585615e-06   -2.1307096251880467e-06
-2.585759325714976e-05   3.2460391014971484e-06   1.2508064500179174e-05
-2.585759325714976e-05   3.2460391014971484e-06   1.2508064500179174e-05
-2.585759325714976e-05   3.2460391014971484e-06   1.2508064500179174e-05
-2.585759325714976e-05   3.2460391014971484e-06   1.2508064500179174e-05
-1.7481337260481238e-05   1.5148542361893662e-06   2.8719256960687612e-05
-1.7481337260481238e-05   1.5148542361893662e-06   2.8719256960687612e-05
-1.7481337260481238e-05   1.5148542361893662e-06   2.8719256960687612e-05
-1.7481337260481238e-05   1.5148542361893662e-06   2.8719256960687612e-05
-3.5991317212006745e-05   4.376618208585615e-06   -4.1365124175019464e-07
-3.5991317212006745e-05   4.376618208585615e-06   -4.1365124175019464e-07
-3.5991317212006745e-05   4.376618208585615e-06   -4.1365124175019464e-07
-3.5991317212006745e-05   4.376618208585615e-06   -4.1365124175019464e-07
-3.716244614106942e-05   1.2992248661705674e-06   3.1830420084285336e-05
-3.716244614106942e-05   1.2992248661705674e-06   3.1830420084285336e-05
-3.716244614106942e-05   1.2992248661705674e-06   3.1830420084285336e-05
-3.716244614106942e-05   1.2992248661705674e-06   3.1830420084285336e-05
-1.8368197377943875e-05   4.0546512418272555e-06   -1.146583679651126e-06
-1.8368197377943875e-05   4.0546512418272555e-06   -1.146583679651126e-06
-1.8368197377943875e-05   4.0546512418272555e-06   -1.146583679651126e-06
-1.8368197377943875e-05   4.0546512418272555e-06   -1.146583679651126e-06
-2.698105835387239e-05   3.0529161905595327e-06   1.3809225644324612e-05
-2.698105835387239e-05   3.0529161905595327e-06   1.3809225644324612e-05
-2.698105835387239e-05   3.0529161905595327e-06   1.3809225644324612e-05
-2.698105835387239e-05   3.0529161905595327e-06   1.3809225644324612e-05
-3.39804471366924e-05   8.031716468453716e-06   1.3643998654275843e-05
-3.39804471366924e-05   8.031716468453716e-06   1.3643998654275843e-05
-3.39804471366924e-05   8.031716468453716e-06   1.3643998654275843e-05
-3.39804471366924e-05   8.031716468453716e-06   1.3643998654275843e-05
-5.1189453198099275e-05   7.924741303709255e-06   -1.5101863213582106e-05
-5.1189453198099275e-05   7.924741303709255e-06   -1.5101863213582106e-05
-5.1189453198099275e-05   7.924741303709255e-06   -1.5101863213582106e-05
-5.1189453198099275e-05   7.924741303709255e-06   -1.5101863213582106e-05
-5.281211023601279e-05   7.761304331888692e-06   2.0251530611388154e-05
-5.281211023601279e-05   7.761304331888692e-06   2.0251530611388154e-05
-5.281211023601279e-05   7.761304331888692e-06   2.0251530611388154e-05
-5.281211023601279e-05   7.761304331888692e-06   2.0251530611388154e-05
-3.488365727131746e-05   8.080875630893684e-06   -9.82096710917368e-06
-3.488365727131746e-05   8.080875630893684e-06   -9.82096710917368e-06
-3.488365727131746e-05   8.080875630893684e-06   -9.82096710917368e-06
-3.488365727131746e-05   8.080875630893684e-06   -9.82096710917368e-06
-4.147687570510199e-05   8.07111208317923e-06   1.173588409095574e-06
-4.147687570510199e-05   8.07111208317923e-06   1.173588409095574e-06
-4.147687570510199e-05   8.07111208317923e-06   1.173588409095574e-06
-4.147687570510199e-05   8.07111208317923e-06   1.173588409095574e-06
-3.488365727131741e-05   7.761304331888692e-06   2.0059787831985202e-05
-3.488365727131741e-05   7.761304331888692e-06   2.0059787831985202e-05
-3.488365727131741e-05   7.761304331888692e-06   2.0059787831985202e-05
-3.488365727131741e-05   7.761304331888692e-06   2.0059787831985202e-05
-5.281211023601279e-05   8.080875630893684e-06   -9.629224329770945e-06
-5.281211023601279e-05   8.080875630893684e-06   -9.629224329770945e-06
-5.281211023601279e-05   8.080875630893684e-06   -9.629224329770945e-06
-5.281211023601279e-05   8.080875630893684e-06   -9.629224329770945e-06
-5.44032773162778e-05   7.565761758743933e-06   2.4881756088703617e-05
-5.44032773162778e-05   7.565761758743933e-06   2.4881756088703617e-05
-5.44032773162778e-05   7.565761758743933e-06   2.4881756088703617e-05
-5.44032773162778e-05   7.565761758743933e-06   2.4881756088703617e-05
-3.599131721200669e-05   8.024008501547261e-06   -6.079792130763578e-06
-3.599131721200669e-05   8.024008501547261e-06   -6.079792130763578e-06
-3.599131721200669e-05   8.024008501547261e-06   -6.079792130763578e-06
-3.599131721200669e-05   8.024008501547261e-06   -6.079792130763578e-06
-4.334448392180063e-05   8.073552781479162e-06   6.145759150934325e-06
-4.334448392180063e-05   8.073552781479162e-06   6.145759150934325e-06
-4.334448392180063e-05   8.073552781479162e-06   6.145759150934325e-06
-4.334448392180063e-05   8.073552781479162e-06   6.145759150934325e-06
-3.599131721200669e-05   7.565761758743933e-06   2.4606808043021642e-05
-3.599131721200669e-05   7.565761758743933e-06   2.4606808043021642e-05
-3.599131721200669e-05   7.565761758743933e-06   2.4606808043021642e-05
-3.599131721200669e-05   7.565761758743933e-06   2.4606808043021642e-05
-5.44032773162778e-05   8.024008501547044e-06   -5.804844085081765e-06
-5.44032773162778e-05   8.024008501547044e-06   -5.804844085081765e-06
-5.44032773162778e-05   8.024008501547044e-06   -5.804844085081765e-06
-5.44032773162778e-05   8.024008501547044e-06   -5.804844085081765e-06
-5.628051594186627e-05   6.315265971263253e-06   3.261653425072771e-05
-5.628051594186627e-05   6.315265971263253e-06   3.261653425072771e-05
-5.628051594186627e-05   6.315265971263253e-06   3.261653425072771e-05
-5.628051594186627e-05   6.315265971263253e-06   3.261653425072771e-05
-3.7162446141069286e-05   7.3907552009134375e-06   1.0779104494244461e-07
-3.7162446141069286e-05   7.3907552009134375e-06   1.0779104494244461e-07
-3.7162446141069286e-05   7.3907552009134375e-06   1.0779104494244461e-07
-3.7162446141069286e-05   7.3907552009134375e-06   1.0779104494244461e-07
-4.4003984851106746e-05   7.693253133010019e-06   1.132885680241413e-05
-4.4003984851106746e-05   7.693253133010019e-06   1.132885680241413e-05
-4.4003984851106746e-05   7.693253133010019e-06   1.132885680241413e-05
-4.4003984851106746e-05   7.693253133010019e-06   1.132885680241413e-05
3.4077219474061835e-05   -4.763576889858442e-06   2.6230385688730978e-05
3.4077219474061835e-05   -4.763576889858442e-06   2.6230385688730978e-05
3.4077219474061835e-05   -4.763576889858442e-06   2.6230385688730978e-05
3.4077219474061835e-05   -4.763576889858442e-06   2.6230385688730978e-05
1.6859114514761926e-05   -3.5030811019621383e-06   -1.7101584373643928e-06
1.6859114514761926e-05   -3.5030811019621383e-06   -1.7101584373643928e-06
1.6859114514761926e-05   -3.5030811019621383e-06   -1.7101584373643928e-06
1.6859114514761926e-05   -3.5030811019621383e-06   -1.7101584373643928e-06
1.6219732310454588e-05   -5.395307601690482e-06   2.280007847554877e-05
1.6219732310454588e-05   -5.395307601690482e-06   2.280007847554877e-05
1.6219732310454588e-05   -5.395307601690482e-06   2.280007847554877e-05
1.6219732310454588e-05   -5.395307601690482e-06   2.280007847554877e-05
3.290191044542777e-05   -4.061277867085326e-06   -5.803969590169306e-06
3.290191044542777e-05   -4.061277867085326e-06   -5.803969590169306e-06
3.290191044542777e-05   -4.061277867085326e-06   -5.803969590169306e-06
3.290191044542777e-05   -4.061277867085326e-06   -5.803969590169306e-06
2.38694680326611e-05   -4.38523198010069e-06   9.444473565584316e-06
2.38694680326611e-05   -4.38523198010069e-06   9.444473565584316e-06
2.38694680326611e-05   -4.38523198010069e-06   9.444473565584316e-06
2.38694680326611e-05   -4.38523198010069e-06   9.444473565584316e-06
3.2901910445427717e-05   -5.3953076016902655e-06   2.1999660634785894e-05
3.2901910445427717e-05   -5.3953076016902655e-06   2.1999660634785894e-05
3.2901910445427717e-05   -5.3953076016902655e-06   2.1999660634785894e-05
3.2901910445427717e-05   -5.3953076016902655e-06   2.1999660634785894e-05
1.6219732310454642e-05   -4.061277867085326e-06   -5.003551749406315e-06
1.6219732310454642e-05   -4.061277867085326e-06   -5.003551749406315e-06
1.6219732310454642e-05   -4.061277867085326e-06   -5.003551749406315e-06
1.6219732310454642e-05   -4.061277867085326e-06   -5.003551749406315e-06
1.5508902677197463e-05   -5.488332789885817e-06   2.042658278147958e-05
1.5508902677197463e-05   -5.488332789885817e-06   2.042658278147958e-05
1.5508902677197463e-05   -5.488332789885817e-06   2.042658278147958e-05
1.5508902677197463e-05   -5.488332789885817e-06   2.042658278147958e-05
3.183689221952613e-05   -4.1728274529316805e-06   -7.576036324573967e-06
3.183689221952613e-05   -4.1728274529316805e-06   -7.576036324573967e-06
3.183689221952613e-05   -4.1728274529316805e-06   -7.576036324573967e-06
3.183689221952613e-05   -4.1728274529316805e-06   -7.576036324573967e-06
2.3431086388054404e-05   -4.601829036715273e-06   6.691041011482263e-06
2.3431086388054404e-05   -4.601829036715273e-06   6.691041011482263e-06
2.3431086388054404e-05   -4.601829036715273e-06   6.691041011482263e-06
2.3431086388054404e-05   -4.601829036715273e-06   6.691041011482263e-06
3.183689221952602e-05   -5.488332789886034e-06   1.9637279579306946e-05
3.183689221952602e-05   -5.488332789886034e-06   1.9637279579306946e-05
3.183689221952602e-05   -5.488332789886034e-06   1.9637279579306946e-05
3.183689221952602e-05   -5.488332789886034e-06   1.9637279579306946e-05
1.550890267719749e-05   -4.1728274529316805e-06   -6.786733122401381e-06
1.550890267719749e-05   -4.1728274529316805e-06   -6.786733122401381e-06
1.550890267719749e-05   -4.1728274529316805e-06   -6.786733122401381e-06
1.550890267719749e-05   -4.1728274529316805e-06   -6.786733122401381e-06
1.482489608643378e-05   -5.449728460632129e-06   1.7111857806013714e-05
1.482489608643378e-05   -5.449728460632129e-06   1.7111857806013714e-05
1.482489608643378e-05   -5.449728460632129e-06   1.7111857806013714e-05
1.482489608643378e-05   -5.449728460632129e-06   1.7111857806013714e-05
3.062997385442867e-05   -4.214912567492924e-06   -9.970828009861167e-06
3.062997385442867e-05   -4.214912567492924e-06   -9.970828009861167e-06
3.062997385442867e-05   -4.214912567492924e-06   -9.970828009861167e-06
3.062997385442867e-05   -4.214912567492924e-06   -9.970828009861167e-06
2.2232636777137194e-05   -4.522833836772926e-06   4.20948654719297e-06
2.2232636777137194e-05   -4.522833836772926e-06   4.20948654719297e-06
2.2232636777137194e-05   -4.522833836772926e-06   4.20948654719297e-06
2.2232636777137194e-05   -4.522833836772926e-06   4.20948654719297e-06
1.6859114514761926e-05   -1.6760267722872296e-06   2.7470289321725248e-05
1.6859114514761926e-05   -1.6760267722872296e-06   2.7470289321725248e-05
1.6859114514761926e-05   -1.6760267722872296e-06   2.7470289321725248e-05
1.6859114514761926e-05   -1.6760267722872296e-06   2.7470289321725248e-05
6.967102972976855e-07   -6.712170489196843e-07   1.1358347933053186e-06
6.967102972976855e-07   -6.712170489196843e-07   1.1358347933053186e-06
6.967102972976855e-07   -6.712170489196843e-07   1.1358347933053186e-06
6.967102972976855e-07   -6.712170489196843e-07   1.1358347933053186e-06
8.254798075684388e-08   -2.0146416287833598e-06   2.775199594440606e-05
8.254798075684388e-08   -2.0146416287833598e-06   2.775199594440606e-05
8.254798075684388e-08   -2.0146416287833598e-06   2.775199594440606e-05
8.254798075684388e-08   -2.0146416287833598e-06   2.775199594440606e-05
1.6219732310454642e-05   -1.06627378313991e-06   2.8766802085706123e-07
1.6219732310454642e-05   -1.06627378313991e-06   2.8766802085706123e-07
1.6219732310454642e-05   -1.06627378313991e-06   2.8766802085706123e-07
1.6219732310454642e-05   -1.06627378313991e-06   2.8766802085706123e-07
8.361610568526697e-06   -1.307187905988166e-06   1.3529086064445906e-05
8.361610568526697e-06   -1.307187905988166e-06   1.3529086064445906e-05
8.361610568526697e-06   -1.307187905988166e-06   1.3529086064445906e-05
8.361610568526697e-06   -1.307187905988166e-06   1.3529086064445906e-05
1.621973231045463e-05   -2.0146416287833598e-06   2.718297523701999e-05
1.621973231045463e-05   -2.0146416287833598e-06   2.718297523701999e-05
1.621973231045463e-05   -2.0146416287833598e-06   2.718297523701999e-05
1.621973231045463e-05   -2.0146416287833598e-06   2.718297523701999e-05
8.254798075684388e-08   -1.06627378313991e-06   8.566887282430904e-07
8.254798075684388e-08   -1.06627378313991e-06   8.566887282430904e-07
8.254798075684388e-08   -1.06627378313991e-06   8.566887282430904e-07
8.254798075684388e-08   -1.06627378313991e-06   8.566887282430904e-07
-5.558623810849293e-07   -2.2355002593937596e-06   2.7329124318429664e-05
-5.558623810849293e-07   -2.2355002593937596e-06   2.7329124318429664e-05
-5.558623810849293e-07   -2.2355002593937596e-06   2.7329124318429664e-05
-5.558623810849293e-07   -2.2355002593937596e-06   2.7329124318429664e-05
1.550890267719749e-05   -1.3587868969546293e-06   2.848787049584045e-08
1.550890267719749e-05   -1.3587868969546293e-06   2.848787049584045e-08
1.550890267719749e-05   -1.3587868969546293e-06   2.848787049584045e-08
1.550890267719749e-05   -1.3587868969546293e-06   2.848787049584045e-08
7.655699818831384e-06   -1.5137379710983712e-06   1.3210129945592634e-05
7.655699818831384e-06   -1.5137379710983712e-06   1.3210129945592634e-05
7.655699818831384e-06   -1.5137379710983712e-06   1.3210129945592634e-05
7.655699818831384e-06   -1.5137379710983712e-06   1.3210129945592634e-05
1.5508902677197463e-05   -2.2355002593935427e-06   2.680309630096649e-05
1.5508902677197463e-05   -2.2355002593935427e-06   2.680309630096649e-05
1.5508902677197463e-05   -2.2355002593935427e-06   2.680309630096649e-05
1.5508902677197463e-05   -2.2355002593935427e-06   2.680309630096649e-05
-5.558623810849293e-07   -1.3587868969546293e-06   5.54515887959137e-07
-5.558623810849293e-07   -1.3587868969546293e-06   5.54515887959137e-07
-5.558623810849293e-07   -1.3587868969546293e-06   5.54515887959137e-07
-5.558623810849293e-07   -1.3587868969546293e-06   5.54515887959137e-07
-1.2205028140849428e-06   -2.3283923983399585e-06   2.7534044501309387e-05
-1.2205028140849428e-06   -2.3283923983399585e-06   2.7534044501309387e-05
-1.2205028140849428e-06   -2.3283923983399585e-06   2.7534044501309387e-05
-1.2205028140849428e-06   -2.3283923983399585e-06   2.7534044501309387e-05
1.4824896086433814e-05   -1.5883892027287062e-06   3.477110830780081e-07
1.4824896086433814e-05   -1.5883892027287062e-06   3.477110830780081e-07
1.4824896086433814e-05   -1.5883892027287062e-06   3.477110830780081e-07
1.4824896086433814e-05   -1.5883892027287062e-06   3.477110830780081e-07
7.12644393324615e-06   -1.623500611052037e-06   1.3199531516718747e-05
7.12644393324615e-06   -1.623500611052037e-06   1.3199531516718747e-05
7.12644393324615e-06   -1.623500611052037e-06   1.3199531516718747e-05
7.12644393324615e-06   -1.623500611052037e-06   1.3199531516718747e-05
6.967102972976855e-07   1.4999386376628957e-06   2.8349491550567823e-05
6.967102972976855e-07   1.4999386376628957e-06   2.8349491550567823e-05
6.967102972976855e-07   1.4999386376628957e-06   2.8349491550567823e-05
6.967102972976855e-07   1.4999386376628957e-06   2.8349491550567823e-05
-1.4996213809330379e-05   2.1695068683639032e-06   2.5963589779415567e-06
-1.4996213809330379e-05   2.1695068683639032e-06   2.5963589779415567e-06
-1.4996213809330379e-05   2.1695068683639032e-06   2.5963589779415567e-06
-1.4996213809330379e-05   2.1695068683639032e-06   2.5963589779415567e-06
-1.5638137718678382e-05   1.2423618678621042e-06   2.8736973453684757e-05
-1.5638137718678382e-05   1.2423618678621042e-06   2.8736973453684757e-05
-1.5638137718678382e-05   1.2423618678621042e-06   2.8736973453684757e-05
-1.5638137718678382e-05   1.2423618678621042e-06   2.8736973453684757e-05
8.254798075684388e-08   1.841872250409743e-06   2.1761243917643594e-06
8.254798075684388e-08   1.841872250409743e-06   2.1761243917643594e-06
8.254798075684388e-08   1.841872250409743e-06   2.1761243917643594e-06
8.254798075684388e-08   1.841872250409743e-06   2.1761243917643594e-06
-7.475247924444584e-06   1.7066468768998921e-06   1.4853586124539367e-05
-7.475247924444584e-06   1.7066468768998921e-06   1.4853586124539367e-05
-7.475247924444584e-06   1.7066468768998921e-06   1.4853586124539367e-05
-7.475247924444584e-06   1.7066468768998921e-06   1.4853586124539367e-05
8.254798075684388e-08   1.2423618678621042e-06   2.8377267224156326e-05
8.254798075684388e-08   1.2423618678621042e-06   2.8377267224156326e-05
8.254798075684388e-08   1.2423618678621042e-06   2.8377267224156326e-05
8.254798075684388e-08   1.2423618678621042e-06   2.8377267224156326e-05
-1.5638137718678382e-05   1.841872250409743e-06   2.5358306212928993e-06
-1.5638137718678382e-05   1.841872250409743e-06   2.5358306212928993e-06
-1.5638137718678382e-05   1.841872250409743e-06   2.5358306212928993e-06
-1.5638137718678382e-05   1.841872250409743e-06   2.5358306212928993e-06
-1.6315699426018427e-05   1.0026003621345196e-06   2.9005229767344824e-05
-1.6315699426018427e-05   1.0026003621345196e-06   2.9005229767344824e-05
-1.6315699426018427e-05   1.0026003621345196e-06   2.9005229767344824e-05
-1.6315699426018427e-05   1.0026003621345196e-06   2.9005229767344824e-05
-5.558623810849158e-07   1.523789147468528e-06   2.4261214212549747e-06
-5.558623810849158e-07   1.523789147468528e-06   2.4261214212549747e-06
-5.558623810849158e-07   1.523789147468528e-06   2.4261214212549747e-06
-5.558623810849158e-07   1.523789147468528e-06   2.4261214212549747e-06
-8.07137459909502e-06   1.520224557833563e-06   1.4954113871719474e-05
-8.07137459909502e-06   1.520224557833563e-06   1.4954113871719474e-05
-8.07137459909502e-06   1.520224557833563e-06   1.4954113871719474e-05
-8.07137459909502e-06   1.520224557833563e-06   1.4954113871719474e-05
-5.558623810849293e-07   1.0026003621345196e-06   2.8692516496144223e-05
-5.558623810849293e-07   1.0026003621345196e-06   2.8692516496144223e-05
-5.558623810849293e-07   1.0026003621345196e-06   2.8692516496144223e-05
-5.558623810849293e-07   1.0026003621345196e-06   2.8692516496144223e-05
-1.6315699426018454e-05   1.523789147468528e-06   2.7388346924555208e-06
-1.6315699426018454e-05   1.523789147468528e-06   2.7388346924555208e-06
-1.6315699426018454e-05   1.523789147468528e-06   2.7388346924555208e-06
-1.6315699426018454e-05   1.523789147468528e-06   2.7388346924555208e-06
-1.7014718972058928e-05   8.302973077934598e-07   2.9432149475670365e-05
-1.7014718972058928e-05   8.302973077934598e-07   2.9432149475670365e-05
-1.7014718972058928e-05   8.302973077934598e-07   2.9432149475670365e-05
-1.7014718972058928e-05   8.302973077934598e-07   2.9432149475670365e-05
-1.2205028140849293e-06   1.240726466933276e-06   2.862198383562928e-06
-1.2205028140849293e-06   1.240726466933276e-06   2.862198383562928e-06
-1.2205028140849293e-06   1.240726466933276e-06   2.862198383562928e-06
-1.2205028140849293e-06   1.240726466933276e-06   2.862198383562928e-06
-8.716510084533283e-06   1.3417524511293716e-06   1.529492824379336e-05
-8.716510084533283e-06   1.3417524511293716e-06   1.529492824379336e-05
-8.716510084533283e-06   1.3417524511293716e-06   1.529492824379336e-05
-8.716510084533283e-06   1.3417524511293716e-06   1.529492824379336e-05
-1.4996213809330446e-05   4.872769751229069e-06   2.4749665402648796e-05
-1.4996213809330446e-05   4.872769751229069e-06   2.4749665402648796e-05
-1.4996213809330446e-05   4.872769751229069e-06   2.4749665402648796e-05
-1.4996213809330446e-05   4.872769751229069e-06   2.4749665402648796e-05
-3.0206128134185488e-05   4.934706635018353e-06   -5.630296751695223e-07
-3.0206128134185488e-05   4.934706635018353e-06   -5.630296751695223e-07
-3.0206128134185488e-05   4.934706635018353e-06   -5.630296751695223e-07
-3.0206128134185488e-05   4.934706635018353e-06   -5.630296751695223e-07
-3.0951214811278014e-05   4.6154312372827765e-06   2.5182577575113066e-05
-3.0951214811278014e-05   4.6154312372827765e-06   2.5182577575113066e-05
-3.0951214811278014e-05   4.6154312372827765e-06   2.5182577575113066e-05
-3.0951214811278014e-05   4.6154312372827765e-06   2.5182577575113066e-05
-1.563813771867841e-05   4.6228169419861975e-06   -3.4364900204178505e-07
-1.563813771867841e-05   4.6228169419861975e-06   -3.4364900204178505e-07
-1.563813771867841e-05   4.6228169419861975e-06   -3.4364900204178505e-07
-1.563813771867841e-05   4.6228169419861975e-06   -3.4364900204178505e-07
-2.2845426588574702e-05   4.7485058553941965e-06   1.159308576640744e-05
-2.2845426588574702e-05   4.7485058553941965e-06   1.159308576640744e-05
-2.2845426588574702e-05   4.7485058553941965e-06   1.159308576640744e-05
-2.2845426588574702e-05   4.7485058553941965e-06   1.159308576640744e-05
-1.563813771867841e-05   4.6154312372827765e-06   2.517814615229084e-05
-1.563813771867841e-05   4.6154312372827765e-06   2.517814615229084e-05
-1.563813771867841e-05   4.6154312372827765e-06   2.517814615229084e-05
-1.563813771867841e-05   4.6154312372827765e-06   2.517814615229084e-05
-3.095121481127793e-05   4.6228169419861975e-06   -3.392175792196403e-07
-3.095121481127793e-05   4.6228169419861975e-06   -3.392175792196403e-07
-3.095121481127793e-05   4.6228169419861975e-06   -3.392175792196403e-07
-3.095121481127793e-05   4.6228169419861975e-06   -3.392175792196403e-07
-3.1776461367262525e-05   4.376618208585615e-06   2.635344429065072e-05
-3.1776461367262525e-05   4.376618208585615e-06   2.635344429065072e-05
-3.1776461367262525e-05   4.376618208585615e-06   2.635344429065072e-05
-3.1776461367262525e-05   4.376618208585615e-06   2.635344429065072e-05
-1.6315699426018454e-05   4.334449665230984e-06   6.108088479235714e-07
-1.6315699426018454e-05   4.334449665230984e-06   6.108088479235714e-07
-1.6315699426018454e-05   4.334449665230984e-06   6.108088479235714e-07
-1.6315699426018454e-05   4.334449665230984e-06   6.108088479235714e-07
-2.338239553422082e-05   4.57292870281842e-06   1.2245548272374904e-05
-2.338239553422082e-05   4.57292870281842e-06   1.2245548272374904e-05
-2.338239553422082e-05   4.57292870281842e-06   1.2245548272374904e-05
-2.338239553422082e-05   4.57292870281842e-06   1.2245548272374904e-05
-1.631569942601844e-05   4.376618208585615e-06   2.6378745416663586e-05
-1.631569942601844e-05   4.376618208585615e-06   2.6378745416663586e-05
-1.631569942601844e-05   4.376618208585615e-06   2.6378745416663586e-05
-1.631569942601844e-05   4.376618208585615e-06   2.6378745416663586e-05
-3.1776461367262444e-05   4.334449665230984e-06   5.855077219107333e-07
-3.1776461367262444e-05   4.334449665230984e-06   5.855077219107333e-07
-3.1776461367262444e-05   4.334449665230984e-06   5.855077219107333e-07
-3.1776461367262444e-05   4.334449665230984e-06   5.855077219107333e-07
-3.256263167943511e-05   4.0546512418272555e-06   2.7194849862476967e-05
-3.256263167943511e-05   4.0546512418272555e-06   2.7194849862476967e-05
-3.256263167943511e-05   4.0546512418272555e-06   2.7194849862476967e-05
-3.256263167943511e-05   4.0546512418272555e-06   2.7194849862476967e-05
-1.7014718972058982e-05   3.981523865060829e-06   1.3255384429099334e-06
-1.7014718972058982e-05   3.981523865060829e-06   1.3255384429099334e-06
-1.7014718972058982e-05   3.981523865060829e-06   1.3255384429099334e-06
-1.7014718972058982e-05   3.981523865060829e-06   1.3255384429099334e-06
-2.4240466611623816e-05   4.343780260321166e-06   1.3151097338362722e-05
-2.4240466611623816e-05   4.343780260321166e-06   1.3151097338362722e-05
-2.4240466611623816e-05   4.343780260321166e-06   1.3151097338362722e-05
-2.4240466611623816e-05   4.343780260321166e-06   1.3151097338362722e-05
-3.020612813418546e-05   7.924741303709255e-06   1.1908294639454255e-05
-3.020612813418546e-05   7.924741303709255e-06   1.1908294639454255e-05
-3.020612813418546e-05   7.924741303709255e-06   1.1908294639454255e-05
-3.020612813418546e-05   7.924741303709255e-06   1.1908294639454255e-05
-4.467848013481085e-05   7.114300406181389e-06   -1.2698556566771626e-05
-4.467848013481085e-05   7.114300406181389e-06   -1.2698556566771626e-05
-4.467848013481085e-05   7.114300406181389e-06   -1.2698556566771626e-05
-4.467848013481085e-05   7.114300406181389e-06   -1.2698556566771626e-05
-4.5852057011226504e-05   8.080875630893684e-06   1.6542511295856814e-05
-4.5852057011226504e-05   8.080875630893684e-06   1.6542511295856814e-05
-4.5852057011226504e-05   8.080875630893684e-06   1.6542511295856814e-05
-4.5852057011226504e-05   8.080875630893684e-06   1.6542511295856814e-05
-3.0951214811278014e-05   7.192809944152594e-06   -7.759386292013112e-06
-3.0951214811278014e-05   7.192809944152594e-06   -7.759386292013112e-06
-3.0951214811278014e-05   7.192809944152594e-06   -7.759386292013112e-06
-3.0951214811278014e-05   7.192809944152594e-06   -7.759386292013112e-06
-3.646941304309961e-05   7.532212543174448e-06   1.2339692016097087e-06
-3.646941304309961e-05   7.532212543174448e-06   1.2339692016097087e-06
-3.646941304309961e-05   7.532212543174448e-06   1.2339692016097087e-06
-3.646941304309961e-05   7.532212543174448e-06   1.2339692016097087e-06
-3.095121481127793e-05   8.080875630893467e-06   1.7075350707901273e-05
-3.095121481127793e-05   8.080875630893467e-06   1.7075350707901273e-05
-3.095121481127793e-05   8.080875630893467e-06   1.7075350707901273e-05
-3.095121481127793e-05   8.080875630893467e-06   1.7075350707901273e-05
-4.585205701122669e-05   7.192809944152594e-06   -8.292225704057787e-06
-4.585205701122669e-05   7.192809944152594e-06   -8.292225704057787e-06
-4.585205701122669e-05   7.192809944152594e-06   -8.292225704057787e-06
-4.585205701122669e-05   7.192809944152594e-06   -8.292225704057787e-06
-4.6997183090243634e-05   8.024008501547044e-06   2.0141598136975926e-05
-4.6997183090243634e-05   8.024008501547044e-06   2.0141598136975926e-05
-4.6997183090243634e-05   8.024008501547044e-06   2.0141598136975926e-05
-4.6997183090243634e-05   8.024008501547044e-06   2.0141598136975926e-05
-3.1776461367262525e-05   7.114499727111593e-06   -4.680566136664854e-06
-3.1776461367262525e-05   7.114499727111593e-06   -4.680566136664854e-06
-3.1776461367262525e-05   7.114499727111593e-06   -4.680566136664854e-06
-3.1776461367262525e-05   7.114499727111593e-06   -4.680566136664854e-06
-3.791696914855165e-05   7.670898806535261e-06   5.219774051163652e-06
-3.791696914855165e-05   7.670898806535261e-06   5.219774051163652e-06
-3.791696914855165e-05   7.670898806535261e-06   5.219774051163652e-06
-3.791696914855165e-05   7.670898806535261e-06   5.219774051163652e-06
-3.1776461367262525e-05   8.024008501547044e-06   2.068730340163739e-05
-3.1776461367262525e-05   8.024008501547044e-06   2.068730340163739e-05
-3.1776461367262525e-05   8.024008501547044e-06   2.068730340163739e-05
-3.1776461367262525e-05   8.024008501547044e-06   2.068730340163739e-05
-4.6997183090243796e-05   7.114499727111593e-06   -5.226271401326211e-06
-4.6997183090243796e-05   7.114499727111593e-06   -5.226271401326211e-06
-4.6997183090243796e-05   7.114499727111593e-06   -5.226271401326211e-06
-4.6997183090243796e-05   7.114499727111593e-06   -5.226271401326211e-06
-4.833373597533855e-05   7.3907552009134375e-06   2.6302368786564837e-05
-4.833373597533855e-05   7.3907552009134375e-06   2.6302368786564837e-05
-4.833373597533855e-05   7.3907552009134375e-06   2.6302368786564837e-05
-4.833373597533855e-05   7.3907552009134375e-06   2.6302368786564837e-05
-3.256263167943511e-05   6.568088575727464e-06   5.107949351706477e-07
-3.256263167943511e-05   6.568088575727464e-06   5.107949351706477e-07
-3.256263167943511e-05   6.568088575727464e-06   5.107949351706477e-07
-3.256263167943511e-05   6.568088575727464e-06   5.107949351706477e-07
-3.827622179373366e-05   7.445278345429409e-06   9.507131263847789e-06
-3.827622179373366e-05   7.445278345429409e-06   9.507131263847789e-06
-3.827622179373366e-05   7.445278345429409e-06   9.507131263847789e-06
-3.827622179373366e-05   7.445278345429409e-06   9.507131263847789e-06
2.594366048975524e-05   -3.5030811019621383e-06   2.1953637047382305e-05
2.594366048975524e-05   -3.5030811019621383e-06   2.1953637047382305e-05
2.594366048975524e-05   -3.5030811019621383e-06   2.1953637047382305e-05
2.594366048975524e-05   -3.5030811019621383e-06   2.1953637047382305e-05
1.2207002695400723e-05   -2.324249677532284e-06   -2.334937552174671e-07
1.2207002695400723e-05   -2.324249677532284e-06   -2.334937552174671e-07
1.2207002695400723e-05   -2.324249677532284e-06   -2.334937552174671e-07
1.2207002695400723e-05   -2.324249677532284e-06   -2.334937552174671e-07
1.1635324704420225e-05   -4.0612778670855425e-06   1.928194652319349e-05
1.1635324704420225e-05   -4.0612778670855425e-06   1.928194652319349e-05
1.1635324704420225e-05   -4.0612778670855425e-06   1.928194652319349e-05
1.1635324704420225e-05   -4.0612778670855425e-06   1.928194652319349e-05
2.4837077002743303e-05   -2.8176882880088464e-06   -3.467127721457521e-06
2.4837077002743303e-05   -2.8176882880088464e-06   -3.467127721457521e-06
2.4837077002743303e-05   -2.8176882880088464e-06   -3.467127721457521e-06
2.4837077002743303e-05   -2.8176882880088464e-06   -3.467127721457521e-06
1.7778448149654036e-05   -3.200131456254163e-06   8.52671960130505e-06
1.7778448149654036e-05   -3.200131456254163e-06   8.52671960130505e-06
1.7778448149654036e-05   -3.200131456254163e-06   8.52671960130505e-06
1.7778448149654036e-05   -3.200131456254163e-06   8.52671960130505e-06
2.4837077002743303e-05   -4.061277867085326e-06   1.853579277574758e-05
2.4837077002743303e-05   -4.061277867085326e-06   1.853579277574758e-05
2.4837077002743303e-05   -4.061277867085326e-06   1.853579277574758e-05
2.4837077002743303e-05   -4.061277867085326e-06   1.853579277574758e-05
1.1635324704420249e-05   -2.8176882880088464e-06   -2.7209739740115778e-06
1.1635324704420249e-05   -2.8176882880088464e-06   -2.7209739740115778e-06
1.1635324704420249e-05   -2.8176882880088464e-06   -2.7209739740115778e-06
1.1635324704420249e-05   -2.8176882880088464e-06   -2.7209739740115778e-06
1.1003846122687942e-05   -4.1728274529316805e-06   1.7404774325897724e-05
1.1003846122687942e-05   -4.1728274529316805e-06   1.7404774325897724e-05
1.1003846122687942e-05   -4.1728274529316805e-06   1.7404774325897724e-05
1.1003846122687942e-05   -4.1728274529316805e-06   1.7404774325897724e-05
2.386665733211676e-05   -2.94901608488031e-06   -4.7675311773142615e-06
2.386665733211676e-05   -2.94901608488031e-06   -4.7675311773142615e-06
2.386665733211676e-05   -2.94901608488031e-06   -4.7675311773142615e-06
2.386665733211676e-05   -2.94901608488031e-06   -4.7675311773142615e-06
1.7323235685779663e-05   -3.400607265616022e-06   6.409126275022745e-06
1.7323235685779663e-05   -3.400607265616022e-06   6.409126275022745e-06
1.7323235685779663e-05   -3.400607265616022e-06   6.409126275022745e-06
1.7323235685779663e-05   -3.400607265616022e-06   6.409126275022745e-06
2.3866657332116715e-05   -4.1728274529316805e-06   1.667048750506712e-05
2.3866657332116715e-05   -4.1728274529316805e-06   1.667048750506712e-05
2.3866657332116715e-05   -4.1728274529316805e-06   1.667048750506712e-05
2.3866657332116715e-05   -4.1728274529316805e-06   1.667048750506712e-05
1.1003846122687959e-05   -2.94901608488031e-06   -4.0332443564835814e-06
1.1003846122687959e-05   -2.94901608488031e-06   -4.0332443564835814e-06
1.1003846122687959e-05   -2.94901608488031e-06   -4.0332443564835814e-06
1.1003846122687959e-05   -2.94901608488031e-06   -4.0332443564835814e-06
1.0420486904203193e-05   -4.214912567492924e-06   1.485781178288013e-05
1.0420486904203193e-05   -4.214912567492924e-06   1.485781178288013e-05
1.0420486904203193e-05   -4.214912567492924e-06   1.485781178288013e-05
1.0420486904203193e-05   -4.214912567492924e-06   1.485781178288013e-05
2.2781511568504826e-05   -3.0694586017386907e-06   -6.431168370408415e-06
2.2781511568504826e-05   -3.0694586017386907e-06   -6.431168370408415e-06
2.2781511568504826e-05   -3.0694586017386907e-06   -6.431168370408415e-06
2.2781511568504826e-05   -3.0694586017386907e-06   -6.431168370408415e-06
1.6306770629484104e-05   -3.3799845323789855e-06   4.5463820863439214e-06
1.6306770629484104e-05   -3.3799845323789855e-06   4.5463820863439214e-06
1.6306770629484104e-05   -3.3799845323789855e-06   4.5463820863439214e-06
1.6306770629484104e-05   -3.3799845323789855e-06   4.5463820863439214e-06
1.2207002695400682e-05   -6.712170489196843e-07   2.490404329868925e-05
1.2207002695400682e-05   -6.712170489196843e-07   2.490404329868925e-05
1.2207002695400682e-05   -6.712170489196843e-07   2.490404329868925e-05
1.2207002695400682e-05   -6.712170489196843e-07   2.490404329868925e-05
-7.912379610834007e-07   -1.6712183118503324e-08   3.633011790696631e-06
-7.912379610834007e-07   -1.6712183118503324e-08   3.633011790696631e-06
-7.912379610834007e-07   -1.6712183118503324e-08   3.633011790696631e-06
-7.912379610834007e-07   -1.6712183118503324e-08   3.633011790696631e-06
-1.3289663871280202e-06   -1.06627378313991e-06   2.4945897697557524e-05
-1.3289663871280202e-06   -1.06627378313991e-06   2.4945897697557524e-05
-1.3289663871280202e-06   -1.06627378313991e-06   2.4945897697557524e-05
-1.3289663871280202e-06   -1.06627378313991e-06   2.4945897697557524e-05
1.1635324704420249e-05   -4.450547763054126e-07   2.9660144742098065e-06
1.1635324704420249e-05   -4.450547763054126e-07   2.9660144742098065e-06
1.1635324704420249e-05   -4.450547763054126e-07   2.9660144742098065e-06
1.1635324704420249e-05   -4.450547763054126e-07   2.9660144742098065e-06
5.342407418786886e-06   -5.655035965577981e-07   1.3526479242416726e-05
5.342407418786886e-06   -5.655035965577981e-07   1.3526479242416726e-05
5.342407418786886e-06   -5.655035965577981e-07   1.3526479242416726e-05
5.342407418786886e-06   -5.655035965577981e-07   1.3526479242416726e-05
1.1635324704420218e-05   -1.06627378313991e-06   2.4573166293456825e-05
1.1635324704420218e-05   -1.06627378313991e-06   2.4573166293456825e-05
1.1635324704420218e-05   -1.06627378313991e-06   2.4573166293456825e-05
1.1635324704420218e-05   -1.06627378313991e-06   2.4573166293456825e-05
-1.3289663871280202e-06   -4.450547763054126e-07   3.338745878310478e-06
-1.3289663871280202e-06   -4.450547763054126e-07   3.338745878310478e-06
-1.3289663871280202e-06   -4.450547763054126e-07   3.338745878310478e-06
-1.3289663871280202e-06   -4.450547763054126e-07   3.338745878310478e-06
-1.8782465272848038e-06   -1.3587868969546293e-06   2.456614021943877e-05
-1.8782465272848038e-06   -1.3587868969546293e-06   2.456614021943877e-05
-1.8782465272848038e-06   -1.3587868969546293e-06   2.456614021943877e-05
-1.8782465272848038e-06   -1.3587868969546293e-06   2.456614021943877e-05
1.1003846122687959e-05   -7.818787292150891e-07   2.749840902173757e-06
1.1003846122687959e-05   -7.818787292150891e-07   2.749840902173757e-06
1.1003846122687959e-05   -7.818787292150891e-07   2.749840902173757e-06
1.1003846122687959e-05   -7.818787292150891e-07   2.749840902173757e-06
4.738513578421941e-06   -8.294256513233667e-07   1.3220589962549664e-05
4.738513578421941e-06   -8.294256513233667e-07   1.3220589962549664e-05
4.738513578421941e-06   -8.294256513233667e-07   1.3220589962549664e-05
4.738513578421941e-06   -8.294256513233667e-07   1.3220589962549664e-05
1.1003846122687942e-05   -1.3587868969546293e-06   2.421999531879496e-05
1.1003846122687942e-05   -1.3587868969546293e-06   2.421999531879496e-05
1.1003846122687942e-05   -1.3587868969546293e-06   2.421999531879496e-05
1.1003846122687942e-05   -1.3587868969546293e-06   2.421999531879496e-05
-1.8782465272848038e-06   -7.818787292150891e-07   3.095985802817466e-06
-1.8782465272848038e-06   -7.818787292150891e-07   3.095985802817466e-06
-1.8782465272848038e-06   -7.818787292150891e-07   3.095985802817466e-06
-1.8782465272848038e-06   -7.818787292150891e-07   3.095985802817466e-06
-2.4305745187200485e-06   -1.5883892027287062e-06   2.4732805947472354e-05
-2.4305745187200485e-06   -1.5883892027287062e-06   2.4732805947472354e-05
-2.4305745187200485e-06   -1.5883892027287062e-06   2.4732805947472354e-05
-2.4305745187200485e-06   -1.5883892027287062e-06   2.4732805947472354e-05
1.0420486904203207e-05   -1.0928148568344152e-06   3.0170256350637553e-06
1.0420486904203207e-05   -1.0928148568344152e-06   3.0170256350637553e-06
1.0420486904203207e-05   -1.0928148568344152e-06   3.0170256350637553e-06
1.0420486904203207e-05   -1.0928148568344152e-06   3.0170256350637553e-06
4.27856288255566e-06   -1.023821083086891e-06   1.3212169406894838e-05
4.27856288255566e-06   -1.023821083086891e-06   1.3212169406894838e-05
4.27856288255566e-06   -1.023821083086891e-06   1.3212169406894838e-05
4.27856288255566e-06   -1.023821083086891e-06   1.3212169406894838e-05
-7.912379610834142e-07   2.1695068683639032e-06   2.6355529464385788e-05
-7.912379610834142e-07   2.1695068683639032e-06   2.6355529464385788e-05
-7.912379610834142e-07   2.1695068683639032e-06   2.6355529464385788e-05
-7.912379610834142e-07   2.1695068683639032e-06   2.6355529464385788e-05
-1.3516660691341166e-05   2.2349034937126176e-06   5.185729555832086e-06
-1.3516660691341166e-05   2.2349034937126176e-06   5.185729555832086e-06
-1.3516660691341166e-05   2.2349034937126176e-06   5.185729555832086e-06
-1.3516660691341166e-05   2.2349034937126176e-06   5.185729555832086e-06
-1.4057558035689656e-05   1.841872250409743e-06   2.627587365268912e-05
-1.4057558035689656e-05   1.841872250409743e-06   2.627587365268912e-05
-1.4057558035689656e-05   1.841872250409743e-06   2.627587365268912e-05
-1.4057558035689656e-05   1.841872250409743e-06   2.627587365268912e-05
-1.3289663871280202e-06   1.85943940309366e-06   5.051013946809422e-06
-1.3289663871280202e-06   1.85943940309366e-06   5.051013946809422e-06
-1.3289663871280202e-06   1.85943940309366e-06   5.051013946809422e-06
-1.3289663871280202e-06   1.85943940309366e-06   5.051013946809422e-06
-7.442813008544331e-06   1.9904625223002986e-06   1.5162144444312619e-05
-7.442813008544331e-06   1.9904625223002986e-06   1.5162144444312619e-05
-7.442813008544331e-06   1.9904625223002986e-06   1.5162144444312619e-05
-7.442813008544331e-06   1.9904625223002986e-06   1.5162144444312619e-05
-1.3289663871280202e-06   1.841872250409743e-06   2.6265333361078793e-05
-1.3289663871280202e-06   1.841872250409743e-06   2.6265333361078793e-05
-1.3289663871280202e-06   1.841872250409743e-06   2.6265333361078793e-05
-1.3289663871280202e-06   1.841872250409743e-06   2.6265333361078793e-05
-1.4057558035689656e-05   1.85943940309366e-06   5.061554238419588e-06
-1.4057558035689656e-05   1.85943940309366e-06   5.061554238419588e-06
-1.4057558035689656e-05   1.85943940309366e-06   5.061554238419588e-06
-1.4057558035689656e-05   1.85943940309366e-06   5.061554238419588e-06
-1.4611813493269193e-05   1.523789147468528e-06   2.6417458488967862e-05
-1.4611813493269193e-05   1.523789147468528e-06   2.6417458488967862e-05
-1.4611813493269193e-05   1.523789147468528e-06   2.6417458488967862e-05
-1.4611813493269193e-05   1.523789147468528e-06   2.6417458488967862e-05
-1.8782465272848173e-06   1.489977041190492e-06   5.215134142760793e-06
-1.8782465272848173e-06   1.489977041190492e-06   5.215134142760793e-06
-1.8782465272848173e-06   1.489977041190492e-06   5.215134142760793e-06
-1.8782465272848173e-06   1.489977041190492e-06   5.215134142760793e-06
-7.944764489411971e-06   1.7384198311067717e-06   1.5176931739023275e-05
-7.944764489411971e-06   1.7384198311067717e-06   1.5176931739023275e-05
-7.944764489411971e-06   1.7384198311067717e-06   1.5176931739023275e-05
-7.944764489411971e-06   1.7384198311067717e-06   1.5176931739023275e-05
-1.8782465272848173e-06   1.523789147468528e-06   2.643774575273477e-05
-1.8782465272848173e-06   1.523789147468528e-06   2.643774575273477e-05
-1.8782465272848173e-06   1.523789147468528e-06   2.643774575273477e-05
-1.8782465272848173e-06   1.523789147468528e-06   2.643774575273477e-05
-1.4611813493269193e-05   1.489977041190492e-06   5.19484687899383e-06
-1.4611813493269193e-05   1.489977041190492e-06   5.19484687899383e-06
-1.4611813493269193e-05   1.489977041190492e-06   5.19484687899383e-06
-1.4611813493269193e-05   1.489977041190492e-06   5.19484687899383e-06
-1.5165712026549979e-05   1.240726466933493e-06   2.6742530636545835e-05
-1.5165712026549979e-05   1.240726466933493e-06   2.6742530636545835e-05
-1.5165712026549979e-05   1.240726466933493e-06   2.6742530636545835e-05
-1.5165712026549979e-05   1.240726466933493e-06   2.6742530636545835e-05
-2.430574518720062e-06   1.1394586435255465e-06   5.578062150874026e-06
-2.430574518720062e-06   1.1394586435255465e-06   5.578062150874026e-06
-2.430574518720062e-06   1.1394586435255465e-06   5.578062150874026e-06
-2.430574518720062e-06   1.1394586435255465e-06   5.578062150874026e-06
-8.470388241399003e-06   1.4929367783821524e-06   1.543233147442561e-05
-8.470388241399003e-06   1.4929367783821524e-06   1.543233147442561e-05
-8.470388241399003e-06   1.4929367783821524e-06   1.543233147442561e-05
-8.470388241399003e-06   1.4929367783821524e-06   1.543233147442561e-05
-1.3516660691341139e-05   4.934706635018353e-06   2.3198216656210324e-05
-1.3516660691341139e-05   4.934706635018353e-06   2.3198216656210324e-05
-1.3516660691341139e-05   4.934706635018353e-06   2.3198216656210324e-05
-1.3516660691341139e-05   4.934706635018353e-06   2.3198216656210324e-05
-2.5968771802481727e-05   4.403001306561892e-06   2.1256749405687775e-06
-2.5968771802481727e-05   4.403001306561892e-06   2.1256749405687775e-06
-2.5968771802481727e-05   4.403001306561892e-06   2.1256749405687775e-06
-2.5968771802481727e-05   4.403001306561892e-06   2.1256749405687775e-06
-2.6551020591053748e-05   4.6228169419861975e-06   2.304922753534563e-05
-2.6551020591053748e-05   4.6228169419861975e-06   2.304922753534563e-05
-2.6551020591053748e-05   4.6228169419861975e-06   2.304922753534563e-05
-2.6551020591053748e-05   4.6228169419861975e-06   2.304922753534563e-05
-1.4057558035689697e-05   4.044206118637922e-06   2.5739564370810006e-06
-1.4057558035689697e-05   4.044206118637922e-06   2.5739564370810006e-06
-1.4057558035689697e-05   4.044206118637922e-06   2.5739564370810006e-06
-1.4057558035689697e-05   4.044206118637922e-06   2.5739564370810006e-06
-1.995713430334021e-05   4.4415310270671474e-06   1.2168188604774494e-05
-1.995713430334021e-05   4.4415310270671474e-06   1.2168188604774494e-05
-1.995713430334021e-05   4.4415310270671474e-06   1.2168188604774494e-05
-1.995713430334021e-05   4.4415310270671474e-06   1.2168188604774494e-05
-1.4057558035689656e-05   4.6228169419861975e-06   2.3396394029354573e-05
-1.4057558035689656e-05   4.6228169419861975e-06   2.3396394029354573e-05
-1.4057558035689656e-05   4.6228169419861975e-06   2.3396394029354573e-05
-1.4057558035689656e-05   4.6228169419861975e-06   2.3396394029354573e-05
-2.6551020591053748e-05   4.044206118637922e-06   2.2267899430721385e-06
-2.6551020591053748e-05   4.044206118637922e-06   2.2267899430721385e-06
-2.6551020591053748e-05   4.044206118637922e-06   2.2267899430721385e-06
-2.6551020591053748e-05   4.044206118637922e-06   2.2267899430721385e-06
-2.719161735186611e-05   4.334449665230984e-06   2.391426254335304e-05
-2.719161735186611e-05   4.334449665230984e-06   2.391426254335304e-05
-2.719161735186611e-05   4.334449665230984e-06   2.391426254335304e-05
-2.719161735186611e-05   4.334449665230984e-06   2.391426254335304e-05
-1.4611813493269234e-05   3.7091661634258612e-06   3.323092880107802e-06
-1.4611813493269234e-05   3.7091661634258612e-06   3.323092880107802e-06
-1.4611813493269234e-05   3.7091661634258612e-06   3.323092880107802e-06
-1.4611813493269234e-05   3.7091661634258612e-06   3.323092880107802e-06
-2.0373526109350458e-05   4.212797108531707e-06   1.2623768673180409e-05
-2.0373526109350458e-05   4.212797108531707e-06   1.2623768673180409e-05
-2.0373526109350458e-05   4.212797108531707e-06   1.2623768673180409e-05
-2.0373526109350458e-05   4.212797108531707e-06   1.2623768673180409e-05
-1.4611813493269207e-05   4.334449665230984e-06   2.428943264443594e-05
-1.4611813493269207e-05   4.334449665230984e-06   2.428943264443594e-05
-1.4611813493269207e-05   4.334449665230984e-06   2.428943264443594e-05
-1.4611813493269207e-05   4.334449665230984e-06   2.428943264443594e-05
-2.719161735186611e-05   3.7091661634258612e-06   2.947922779024739e-06
-2.719161735186611e-05   3.7091661634258612e-06   2.947922779024739e-06
-2.719161735186611e-05   3.7091661634258612e-06   2.947922779024739e-06
-2.719161735186611e-05   3.7091661634258612e-06   2.947922779024739e-06
-2.7776914283912007e-05   3.981523865060829e-06   2.456170121560358e-05
-2.7776914283912007e-05   3.981523865060829e-06   2.456170121560358e-05
-2.7776914283912007e-05   3.981523865060829e-06   2.456170121560358e-05
-2.7776914283912007e-05   3.981523865060829e-06   2.456170121560358e-05
-1.5165712026549993e-05   3.3183372237185517e-06   3.940942771472292e-06
-1.5165712026549993e-05   3.3183372237185517e-06   3.940942771472292e-06
-1.5165712026549993e-05   3.3183372237185517e-06   3.940942771472292e-06
-1.5165712026549993e-05   3.3183372237185517e-06   3.940942771472292e-06
-2.1039240330553635e-05   3.953978468794819e-06   1.3348771864433529e-05
-2.1039240330553635e-05   3.953978468794819e-06   1.3348771864433529e-05
-2.1039240330553635e-05   3.953978468794819e-06   1.3348771864433529e-05
-2.1039240330553635e-05   3.953978468794819e-06   1.3348771864433529e-05
-2.5968771802481727e-05   7.114300406181389e-06   1.1229931106051063e-05
-2.5968771802481727e-05   7.114300406181389e-06   1.1229931106051063e-05
-2.5968771802481727e-05   7.114300406181389e-06   1.1229931106051063e-05
-2.5968771802481727e-05   7.114300406181389e-06   1.1229931106051063e-05
-3.781109467362217e-05   6.0776028896552484e-06   -9.129292189098627e-06
-3.781109467362217e-05   6.0776028896552484e-06   -9.129292189098627e-06
-3.781109467362217e-05   6.0776028896552484e-06   -9.129292189098627e-06
-3.781109467362217e-05   6.0776028896552484e-06   -9.129292189098627e-06
-3.8858369481234467e-05   7.1928099441523775e-06   1.49433839226722e-05
-3.8858369481234467e-05   7.1928099441523775e-06   1.49433839226722e-05
-3.8858369481234467e-05   7.1928099441523775e-06   1.49433839226722e-05
-3.8858369481234467e-05   7.1928099441523775e-06   1.49433839226722e-05
-2.6551020591053748e-05   6.050018444352448e-06   -4.883189327749185e-06
-2.6551020591053748e-05   6.050018444352448e-06   -4.883189327749185e-06
-2.6551020591053748e-05   6.050018444352448e-06   -4.883189327749185e-06
-2.6551020591053748e-05   6.050018444352448e-06   -4.883189327749185e-06
-3.106813621191334e-05   6.51078132806013e-06   2.3688789767922725e-06
-3.106813621191334e-05   6.51078132806013e-06   2.3688789767922725e-06
-3.106813621191334e-05   6.51078132806013e-06   2.3688789767922725e-06
-3.106813621191334e-05   6.51078132806013e-06   2.3688789767922725e-06
-2.655102059105372e-05   7.192809944152594e-06   1.562905882255205e-05
-2.655102059105372e-05   7.192809944152594e-06   1.562905882255205e-05
-2.655102059105372e-05   7.192809944152594e-06   1.562905882255205e-05
-2.655102059105372e-05   7.192809944152594e-06   1.562905882255205e-05
-3.885836948123452e-05   6.050018444352448e-06   -5.5688642276291965e-06
-3.885836948123452e-05   6.050018444352448e-06   -5.5688642276291965e-06
-3.885836948123452e-05   6.050018444352448e-06   -5.5688642276291965e-06
-3.885836948123452e-05   6.050018444352448e-06   -5.5688642276291965e-06
-3.9795242932333234e-05   7.114499727111376e-06   1.793608662398953e-05
-3.9795242932333234e-05   7.114499727111376e-06   1.793608662398953e-05
-3.9795242932333234e-05   7.114499727111376e-06   1.793608662398953e-05
-3.9795242932333234e-05   7.114499727111376e-06   1.793608662398953e-05
-2.719161735186611e-05   5.9276629591317916e-06   -2.3578539493346166e-06
-2.719161735186611e-05   5.9276629591317916e-06   -2.3578539493346166e-06
-2.719161735186611e-05   5.9276629591317916e-06   -2.3578539493346166e-06
-2.719161735186611e-05   5.9276629591317916e-06   -2.3578539493346166e-06
-3.2275841721000624e-05   6.583705668239447e-06   5.722227707092816e-06
-3.2275841721000624e-05   6.583705668239447e-06   5.722227707092816e-06
-3.2275841721000624e-05   6.583705668239447e-06   5.722227707092816e-06
-3.2275841721000624e-05   6.583705668239447e-06   5.722227707092816e-06
-2.719161735186611e-05   7.114499727111593e-06   1.864818868477756e-05
-2.719161735186611e-05   7.114499727111593e-06   1.864818868477756e-05
-2.719161735186611e-05   7.114499727111593e-06   1.864818868477756e-05
-2.719161735186611e-05   7.114499727111593e-06   1.864818868477756e-05
-3.9795242932333315e-05   5.9276629591317916e-06   -3.0699560101224866e-06
-3.9795242932333315e-05   5.9276629591317916e-06   -3.0699560101224866e-06
-3.9795242932333315e-05   5.9276629591317916e-06   -3.0699560101224866e-06
-3.9795242932333315e-05   5.9276629591317916e-06   -3.0699560101224866e-06
-4.087098468857678e-05   6.568088575727247e-06   2.308139571877534e-05
-4.087098468857678e-05   6.568088575727247e-06   2.308139571877534e-05
-4.087098468857678e-05   6.568088575727247e-06   2.308139571877534e-05
-4.087098468857678e-05   6.568088575727247e-06   2.308139571877534e-05
-2.7776914283912007e-05   5.3856912171459156e-06   1.967383459482771e-06
-2.7776914283912007e-05   5.3856912171459156e-06   1.967383459482771e-06
-2.7776914283912007e-05   5.3856912171459156e-06   1.967383459482771e-06
-2.7776914283912007e-05   5.3856912171459156e-06   1.967383459482771e-06
-3.2527615429115745e-05   6.358728926680445e-06   9.30139607576905e-06
-3.2527615429115745e-05   6.358728926680445e-06   9.30139607576905e-06
-3.2527615429115745e-05   6.358728926680445e-06   9.30139607576905e-06
-3.2527615429115745e-05   6.358728926680445e-06   9.30139607576905e-06
1.7944603241234346e-05   -2.324249677532501e-06   1.791980494858709e-05
1.7944603241234346e-05   -2.324249677532501e-06   1.791980494858709e-05
1.7944603241234346e-05   -2.324249677532501e-06   1.791980494858709e-05
1.7944603241234346e-05   -2.324249677532501e-06   1.791980494858709e-05
7.450321109244634e-06   -1.1525962473975162e-06   1.1323267866852112e-06
7.450321109244634e-06   -1.1525962473975162e-06   1.1323267866852112e-06
7.450321109244634e-06   -1.1525962473975162e-06   1.1323267866852112e-06
7.450321109244634e-06   -1.1525962473975162e-06   1.1323267866852112e-06
6.989644670310001e-06   -2.8176882880088464e-06   1.610337265735783e-05
6.989644670310001e-06   -2.8176882880088464e-06   1.610337265735783e-05
6.989644670310001e-06   -2.8176882880088464e-06   1.610337265735783e-05
6.989644670310001e-06   -2.8176882880088464e-06   1.610337265735783e-05
1.6962868712030572e-05   -1.595034648507439e-06   -1.252259595877178e-06
1.6962868712030572e-05   -1.595034648507439e-06   -1.252259595877178e-06
1.6962868712030572e-05   -1.595034648507439e-06   -1.252259595877178e-06
1.6962868712030572e-05   -1.595034648507439e-06   -1.252259595877178e-06
1.1723532256354206e-05   -2.0191300604110313e-06   7.73442507739252e-06
1.1723532256354206e-05   -2.0191300604110313e-06   7.73442507739252e-06
1.1723532256354206e-05   -2.0191300604110313e-06   7.73442507739252e-06
1.1723532256354206e-05   -2.0191300604110313e-06   7.73442507739252e-06
1.6962868712030606e-05   -2.8176882880088464e-06   1.536978047365705e-05
1.6962868712030606e-05   -2.8176882880088464e-06   1.536978047365705e-05
1.6962868712030606e-05   -2.8176882880088464e-06   1.536978047365705e-05
1.6962868712030606e-05   -2.8176882880088464e-06   1.536978047365705e-05
6.989644670309974e-06   -1.595034648507439e-06   -5.186674121764392e-07
6.989644670309974e-06   -1.595034648507439e-06   -5.186674121764392e-07
6.989644670309974e-06   -1.595034648507439e-06   -5.186674121764392e-07
6.989644670309974e-06   -1.595034648507439e-06   -5.186674121764392e-07
6.471687892447746e-06   -2.94901608488031e-06   1.4755553692716544e-05
6.471687892447746e-06   -2.94901608488031e-06   1.4755553692716544e-05
6.471687892447746e-06   -2.94901608488031e-06   1.4755553692716544e-05
6.471687892447746e-06   -2.94901608488031e-06   1.4755553692716544e-05
1.6119552635221364e-05   -1.7467747987971217e-06   -2.0455656502226774e-06
1.6119552635221364e-05   -1.7467747987971217e-06   -2.0455656502226774e-06
1.6119552635221364e-05   -1.7467747987971217e-06   -2.0455656502226774e-06
1.6119552635221364e-05   -1.7467747987971217e-06   -2.0455656502226774e-06
1.1289522969750369e-05   -2.2069985803141803e-06   6.2806180611397035e-06
1.1289522969750369e-05   -2.2069985803141803e-06   6.2806180611397035e-06
1.1289522969750369e-05   -2.2069985803141803e-06   6.2806180611397035e-06
1.1289522969750369e-05   -2.2069985803141803e-06   6.2806180611397035e-06
1.611955263522139e-05   -2.94901608488031e-06   1.4034208921066653e-05
1.611955263522139e-05   -2.94901608488031e-06   1.4034208921066653e-05
1.611955263522139e-05   -2.94901608488031e-06   1.4034208921066653e-05
1.611955263522139e-05   -2.94901608488031e-06   1.4034208921066653e-05
6.471687892447736e-06   -1.7467747987971217e-06   -1.3242208785726236e-06
6.471687892447736e-06   -1.7467747987971217e-06   -1.3242208785726236e-06
6.471687892447736e-06   -1.7467747987971217e-06   -1.3242208785726236e-06
6.471687892447736e-06   -1.7467747987971217e-06   -1.3242208785726236e-06
6.007160647004941e-06   -3.0694586017386907e-06   1.3001190572153334e-05
6.007160647004941e-06   -3.0694586017386907e-06   1.3001190572153334e-05
6.007160647004941e-06   -3.0694586017386907e-06   1.3001190572153334e-05
6.007160647004941e-06   -3.0694586017386907e-06   1.3001190572153334e-05
1.5162095275485514e-05   -1.9455354598235577e-06   -2.9313876937967333e-06
1.5162095275485514e-05   -1.9455354598235577e-06   -2.9313876937967333e-06
1.5162095275485514e-05   -1.9455354598235577e-06   -2.9313876937967333e-06
1.5162095275485514e-05   -1.9455354598235577e-06   -2.9313876937967333e-06
1.0477448425000901e-05   -2.2425631448698847e-06   5.0545736680387954e-06
1.0477448425000901e-05   -2.2425631448698847e-06   5.0545736680387954e-06
1.0477448425000901e-05   -2.2425631448698847e-06   5.0545736680387954e-06
1.0477448425000901e-05   -2.2425631448698847e-06   5.0545736680387954e-06
7.450321109244661e-06   -1.6712183118503324e-08   2.209659963310119e-05
7.450321109244661e-06   -1.6712183118503324e-08   2.209659963310119e-05
7.450321109244661e-06   -1.6712183118503324e-08   2.209659963310119e-05
7.450321109244661e-06   -1.6712183118503324e-08   2.209659963310119e-05
-2.3922827920111353e-06   5.796738894367753e-07   6.050091441208078e-06
-2.3922827920111353e-06   5.796738894367753e-07   6.050091441208078e-06
-2.3922827920111353e-06   5.796738894367753e-07   6.050091441208078e-06
-2.3922827920111353e-06   5.796738894367753e-07   6.050091441208078e-06
-2.815820505156649e-06   -4.450547763054126e-07   2.2137058358544107e-05
-2.815820505156649e-06   -4.450547763054126e-07   2.2137058358544107e-05
-2.815820505156649e-06   -4.450547763054126e-07   2.2137058358544107e-05
-2.815820505156649e-06   -4.450547763054126e-07   2.2137058358544107e-05
6.989644670309974e-06   1.3277397863608285e-07   5.44791914646821e-06
6.989644670309974e-06   1.3277397863608285e-07   5.44791914646821e-06
6.989644670309974e-06   1.3277397863608285e-07   5.44791914646821e-06
6.989644670309974e-06   1.3277397863608285e-07   5.44791914646821e-06
2.2376143491624734e-06   2.4043105050722963e-08   1.3433208205865504e-05
2.2376143491624734e-06   2.4043105050722963e-08   1.3433208205865504e-05
2.2376143491624734e-06   2.4043105050722963e-08   1.3433208205865504e-05
2.2376143491624734e-06   2.4043105050722963e-08   1.3433208205865504e-05
6.989644670309994e-06   -4.450547763054126e-07   2.1790361105579296e-05
6.989644670309994e-06   -4.450547763054126e-07   2.1790361105579296e-05
6.989644670309994e-06   -4.450547763054126e-07   2.1790361105579296e-05
6.989644670309994e-06   -4.450547763054126e-07   2.1790361105579296e-05
-2.815820505156649e-06   1.3277397863586601e-07   5.7946163994331695e-06
-2.815820505156649e-06   1.3277397863586601e-07   5.7946163994331695e-06
-2.815820505156649e-06   1.3277397863586601e-07   5.7946163994331695e-06
-2.815820505156649e-06   1.3277397863586601e-07   5.7946163994331695e-06
-3.248980127636963e-06   -7.818787292150891e-07   2.1868477263998804e-05
-3.248980127636963e-06   -7.818787292150891e-07   2.1868477263998804e-05
-3.248980127636963e-06   -7.818787292150891e-07   2.1868477263998804e-05
-3.248980127636963e-06   -7.818787292150891e-07   2.1868477263998804e-05
6.471687892447736e-06   -2.3214820817334808e-07   5.337525584566103e-06
6.471687892447736e-06   -2.3214820817334808e-07   5.337525584566103e-06
6.471687892447736e-06   -2.3214820817334808e-07   5.337525584566103e-06
6.471687892447736e-06   -2.3214820817334808e-07   5.337525584566103e-06
1.7714059819784926e-06   -2.735747058597946e-07   1.3196184667294084e-05
1.7714059819784926e-06   -2.735747058597946e-07   1.3196184667294084e-05
1.7714059819784926e-06   -2.735747058597946e-07   1.3196184667294084e-05
1.7714059819784926e-06   -2.735747058597946e-07   1.3196184667294084e-05
6.471687892447756e-06   -7.818787292150891e-07   2.1538638951373998e-05
6.471687892447756e-06   -7.818787292150891e-07   2.1538638951373998e-05
6.471687892447756e-06   -7.818787292150891e-07   2.1538638951373998e-05
6.471687892447756e-06   -7.818787292150891e-07   2.1538638951373998e-05
-3.24898012763699e-06   -2.3214820817356492e-07   5.6673638971910245e-06
-3.24898012763699e-06   -2.3214820817356492e-07   5.6673638971910245e-06
-3.24898012763699e-06   -2.3214820817356492e-07   5.6673638971910245e-06
-3.24898012763699e-06   -2.3214820817356492e-07   5.6673638971910245e-06
-3.67859411823165e-06   -1.0928148568344152e-06   2.206332324488692e-05
-3.67859411823165e-06   -1.0928148568344152e-06   2.206332324488692e-05
-3.67859411823165e-06   -1.0928148568344152e-06   2.206332324488692e-05
-3.67859411823165e-06   -1.0928148568344152e-06   2.206332324488692e-05
6.007160647004917e-06   -5.907964456444269e-07   5.6191875894453285e-06
6.007160647004917e-06   -5.907964456444269e-07   5.6191875894453285e-06
6.007160647004917e-06   -5.907964456444269e-07   5.6191875894453285e-06
6.007160647004917e-06   -5.907964456444269e-07   5.6191875894453285e-06
1.40398958120451e-06   -5.207840320317365e-07   1.3249131917611825e-05
1.40398958120451e-06   -5.207840320317365e-07   1.3249131917611825e-05
1.40398958120451e-06   -5.207840320317365e-07   1.3249131917611825e-05
1.40398958120451e-06   -5.207840320317365e-07   1.3249131917611825e-05
-2.3922827920111353e-06   2.2349034937126176e-06   2.396791106656069e-05
-2.3922827920111353e-06   2.2349034937126176e-06   2.396791106656069e-05
-2.3922827920111353e-06   2.2349034937126176e-06   2.396791106656069e-05
-2.3922827920111353e-06   2.2349034937126176e-06   2.396791106656069e-05
-1.2070826816009496e-05   2.2019323698931666e-06   7.817221685605118e-06
-1.2070826816009496e-05   2.2019323698931666e-06   7.817221685605118e-06
-1.2070826816009496e-05   2.2019323698931666e-06   7.817221685605118e-06
-1.2070826816009496e-05   2.2019323698931666e-06   7.817221685605118e-06
-1.248894940646426e-05   1.85943940309366e-06   2.381167351546236e-05
-1.248894940646426e-05   1.85943940309366e-06   2.381167351546236e-05
-1.248894940646426e-05   1.85943940309366e-06   2.381167351546236e-05
-1.248894940646426e-05   1.85943940309366e-06   2.381167351546236e-05
-2.8158205051566354e-06   1.796684550459159e-06   7.727444924863786e-06
-2.8158205051566354e-06   1.796684550459159e-06   7.727444924863786e-06
-2.8158205051566354e-06   1.796684550459159e-06   7.727444924863786e-06
-2.8158205051566354e-06   1.796684550459159e-06   7.727444924863786e-06
-7.460615568547449e-06   1.972527570571255e-06   1.5363264218448453e-05
-7.460615568547449e-06   1.972527570571255e-06   1.5363264218448453e-05
-7.460615568547449e-06   1.972527570571255e-06   1.5363264218448453e-05
-7.460615568547449e-06   1.972527570571255e-06   1.5363264218448453e-05
-2.815820505156649e-06   1.85943940309366e-06   2.3849326427042997e-05
-2.815820505156649e-06   1.85943940309366e-06   2.3849326427042997e-05
-2.815820505156649e-06   1.85943940309366e-06   2.3849326427042997e-05
-2.815820505156649e-06   1.85943940309366e-06   2.3849326427042997e-05
-1.248894940646426e-05   1.7966845504593758e-06   7.68979201328315e-06
-1.248894940646426e-05   1.7966845504593758e-06   7.68979201328315e-06
-1.248894940646426e-05   1.7966845504593758e-06   7.68979201328315e-06
-1.248894940646426e-05   1.7966845504593758e-06   7.68979201328315e-06
-1.2917020825045856e-05   1.489977041190492e-06   2.3931306654805212e-05
-1.2917020825045856e-05   1.489977041190492e-06   2.3931306654805212e-05
-1.2917020825045856e-05   1.489977041190492e-06   2.3931306654805212e-05
-1.2917020825045856e-05   1.489977041190492e-06   2.3931306654805212e-05
-3.248980127636963e-06   1.3961121259624572e-06   7.874224441593972e-06
-3.248980127636963e-06   1.3961121259624572e-06   7.874224441593972e-06
-3.248980127636963e-06   1.3961121259624572e-06   7.874224441593972e-06
-3.248980127636963e-06   1.3961121259624572e-06   7.874224441593972e-06
-7.843282873025994e-06   1.6787534339575503e-06   1.536181089911232e-05
-7.843282873025994e-06   1.6787534339575503e-06   1.536181089911232e-05
-7.843282873025994e-06   1.6787534339575503e-06   1.536181089911232e-05
-7.843282873025994e-06   1.6787534339575503e-06   1.536181089911232e-05
-3.2489801276369766e-06   1.489977041190492e-06   2.3987625603941968e-05
-3.2489801276369766e-06   1.489977041190492e-06   2.3987625603941968e-05
-3.2489801276369766e-06   1.489977041190492e-06   2.3987625603941968e-05
-3.2489801276369766e-06   1.489977041190492e-06   2.3987625603941968e-05
-1.2917020825045856e-05   1.396112125962674e-06   7.817905492457189e-06
-1.2917020825045856e-05   1.396112125962674e-06   7.817905492457189e-06
-1.2917020825045856e-05   1.396112125962674e-06   7.817905492457189e-06
-1.2917020825045856e-05   1.396112125962674e-06   7.817905492457189e-06
-1.3340001741312394e-05   1.1394586435255465e-06   2.4249694231737694e-05
-1.3340001741312394e-05   1.1394586435255465e-06   2.4249694231737694e-05
-1.3340001741312394e-05   1.1394586435255465e-06   2.4249694231737694e-05
-1.3340001741312394e-05   1.1394586435255465e-06   2.4249694231737694e-05
-3.6785941182316363e-06   1.010590441153942e-06   8.224669114692941e-06
-3.6785941182316363e-06   1.010590441153942e-06   8.224669114692941e-06
-3.6785941182316363e-06   1.010590441153942e-06   8.224669114692941e-06
-3.6785941182316363e-06   1.010590441153942e-06   8.224669114692941e-06
-8.243685169879033e-06   1.3919812416444705e-06   1.560431972047764e-05
-8.243685169879033e-06   1.3919812416444705e-06   1.560431972047764e-05
-8.243685169879033e-06   1.3919812416444705e-06   1.560431972047764e-05
-8.243685169879033e-06   1.3919812416444705e-06   1.560431972047764e-05
-1.2070826816009496e-05   4.403001306561892e-06   2.1207096974079783e-05
-1.2070826816009496e-05   4.403001306561892e-06   2.1207096974079783e-05
-1.2070826816009496e-05   4.403001306561892e-06   2.1207096974079783e-05
-1.2070826816009496e-05   4.403001306561892e-06   2.1207096974079783e-05
-2.1592274861442355e-05   3.7807753780609056e-06   4.964681341257924e-06
-2.1592274861442355e-05   3.7807753780609056e-06   4.964681341257924e-06
-2.1592274861442355e-05   3.7807753780609056e-06   4.964681341257924e-06
-2.1592274861442355e-05   3.7807753780609056e-06   4.964681341257924e-06
-2.204110041400899e-05   4.044206118637922e-06   2.0928838469355063e-05
-2.204110041400899e-05   4.044206118637922e-06   2.0928838469355063e-05
-2.204110041400899e-05   4.044206118637922e-06   2.0928838469355063e-05
-2.204110041400899e-05   4.044206118637922e-06   2.0928838469355063e-05
-1.2488949406464232e-05   3.385477377356675e-06   5.403824034882934e-06
-1.2488949406464232e-05   3.385477377356675e-06   5.403824034882934e-06
-1.2488949406464232e-05   3.385477377356675e-06   5.403824034882934e-06
-1.2488949406464232e-05   3.385477377356675e-06   5.403824034882934e-06
-1.699993299926375e-05   3.836081026036692e-06   1.2651767833674272e-05
-1.699993299926375e-05   3.836081026036692e-06   1.2651767833674272e-05
-1.699993299926375e-05   3.836081026036692e-06   1.2651767833674272e-05
-1.699993299926375e-05   3.836081026036692e-06   1.2651767833674272e-05
-1.248894940646426e-05   4.044206118637922e-06   2.1324075714123964e-05
-1.248894940646426e-05   4.044206118637922e-06   2.1324075714123964e-05
-1.248894940646426e-05   4.044206118637922e-06   2.1324075714123964e-05
-1.248894940646426e-05   4.044206118637922e-06   2.1324075714123964e-05
-2.2041100414008964e-05   3.385477377356458e-06   5.00858679011398e-06
-2.2041100414008964e-05   3.385477377356458e-06   5.00858679011398e-06
-2.2041100414008964e-05   3.385477377356458e-06   5.00858679011398e-06
-2.2041100414008964e-05   3.385477377356458e-06   5.00858679011398e-06
-2.254593226560099e-05   3.7091661634258612e-06   2.164550802189781e-05
-2.254593226560099e-05   3.7091661634258612e-06   2.164550802189781e-05
-2.254593226560099e-05   3.7091661634258612e-06   2.164550802189781e-05
-2.254593226560099e-05   3.7091661634258612e-06   2.164550802189781e-05
-1.2917020825045829e-05   3.019091773390258e-06   6.0113669216608275e-06
-1.2917020825045829e-05   3.019091773390258e-06   6.0113669216608275e-06
-1.2917020825045829e-05   3.019091773390258e-06   6.0113669216608275e-06
-1.2917020825045829e-05   3.019091773390258e-06   6.0113669216608275e-06
-1.7309549903221598e-05   3.5670715841469233e-06   1.3003460832166952e-05
-1.7309549903221598e-05   3.5670715841469233e-06   1.3003460832166952e-05
-1.7309549903221598e-05   3.5670715841469233e-06   1.3003460832166952e-05
-1.7309549903221598e-05   3.5670715841469233e-06   1.3003460832166952e-05
-1.2917020825045883e-05   3.7091661634258612e-06   2.205955265591913e-05
-1.2917020825045883e-05   3.7091661634258612e-06   2.205955265591913e-05
-1.2917020825045883e-05   3.7091661634258612e-06   2.205955265591913e-05
-1.2917020825045883e-05   3.7091661634258612e-06   2.205955265591913e-05
-2.2545932265600934e-05   3.0190917733904747e-06   5.597322287639482e-06
-2.2545932265600934e-05   3.0190917733904747e-06   5.597322287639482e-06
-2.2545932265600934e-05   3.0190917733904747e-06   5.597322287639482e-06
-2.2545932265600934e-05   3.0190917733904747e-06   5.597322287639482e-06
-2.2994312873188814e-05   3.3183372237185517e-06   2.2247679877116823e-05
-2.2994312873188814e-05   3.3183372237185517e-06   2.2247679877116823e-05
-2.2994312873188814e-05   3.3183372237185517e-06   2.2247679877116823e-05
-2.2994312873188814e-05   3.3183372237185517e-06   2.2247679877116823e-05
-1.334000174131234e-05   2.608911108278964e-06   6.582816993253417e-06
-1.334000174131234e-05   2.608911108278964e-06   6.582816993253417e-06
-1.334000174131234e-05   2.608911108278964e-06   6.582816993253417e-06
-1.334000174131234e-05   2.608911108278964e-06   6.582816993253417e-06
-1.781624249046291e-05   3.2832344927528814e-06   1.3638624211153639e-05
-1.781624249046291e-05   3.2832344927528814e-06   1.3638624211153639e-05
-1.781624249046291e-05   3.2832344927528814e-06   1.3638624211153639e-05
-1.781624249046291e-05   3.2832344927528814e-06   1.3638624211153639e-05
-2.1592274861442355e-05   6.0776028896552484e-06   1.0200812797227449e-05
-2.1592274861442355e-05   6.0776028896552484e-06   1.0200812797227449e-05
-2.1592274861442355e-05   6.0776028896552484e-06   1.0200812797227449e-05
-2.1592274861442355e-05   6.0776028896552484e-06   1.0200812797227449e-05
-3.053638816940364e-05   4.968239349888159e-06   -5.371660839901572e-06
-3.053638816940364e-05   4.968239349888159e-06   -5.371660839901572e-06
-3.053638816940364e-05   4.968239349888159e-06   -5.371660839901572e-06
-3.053638816940364e-05   4.968239349888159e-06   -5.371660839901572e-06
-3.1475995450362323e-05   6.050018444352448e-06   1.309464026300511e-05
-3.1475995450362323e-05   6.050018444352448e-06   1.309464026300511e-05
-3.1475995450362323e-05   6.050018444352448e-06   1.309464026300511e-05
-3.1475995450362323e-05   6.050018444352448e-06   1.309464026300511e-05
-2.204110041400891e-05   4.842986885138191e-06   -1.9059658620552283e-06
-2.204110041400891e-05   4.842986885138191e-06   -1.9059658620552283e-06
-2.204110041400891e-05   4.842986885138191e-06   -1.9059658620552283e-06
-2.204110041400891e-05   4.842986885138191e-06   -1.9059658620552283e-06
-2.542121373547776e-05   5.383885165084106e-06   3.4030173724256224e-06
-2.542121373547776e-05   5.383885165084106e-06   3.4030173724256224e-06
-2.542121373547776e-05   5.383885165084106e-06   3.4030173724256224e-06
-2.542121373547776e-05   5.383885165084106e-06   3.4030173724256224e-06
-2.2041100414008964e-05   6.050018444352448e-06   1.3818859198533686e-05
-2.2041100414008964e-05   6.050018444352448e-06   1.3818859198533686e-05
-2.2041100414008964e-05   6.050018444352448e-06   1.3818859198533686e-05
-2.2041100414008964e-05   6.050018444352448e-06   1.3818859198533686e-05
-3.147599545036238e-05   4.8429868851384075e-06   -2.630184797583913e-06
-3.147599545036238e-05   4.8429868851384075e-06   -2.630184797583913e-06
-3.147599545036238e-05   4.8429868851384075e-06   -2.630184797583913e-06
-3.147599545036238e-05   4.8429868851384075e-06   -2.630184797583913e-06
-3.229500434914176e-05   5.9276629591317916e-06   1.5595649608076724e-05
-3.229500434914176e-05   5.9276629591317916e-06   1.5595649608076724e-05
-3.229500434914176e-05   5.9276629591317916e-06   1.5595649608076724e-05
-3.229500434914176e-05   5.9276629591317916e-06   1.5595649608076724e-05
-2.2545932265600907e-05   4.6875268166957e-06   9.127782097029984e-08
-2.2545932265600907e-05   4.6875268166957e-06   9.127782097029984e-08
-2.2545932265600907e-05   4.6875268166957e-06   9.127782097029984e-08
-2.2545932265600907e-05   4.6875268166957e-06   9.127782097029984e-08
-2.641890068602571e-05   5.388522444279729e-06   6.125627811795389e-06
-2.641890068602571e-05   5.388522444279729e-06   6.125627811795389e-06
-2.641890068602571e-05   5.388522444279729e-06   6.125627811795389e-06
-2.641890068602571e-05   5.388522444279729e-06   6.125627811795389e-06
-2.254593226560099e-05   5.9276629591317916e-06   1.6339731293538292e-05
-2.254593226560099e-05   5.9276629591317916e-06   1.6339731293538292e-05
-2.254593226560099e-05   5.9276629591317916e-06   1.6339731293538292e-05
-2.254593226560099e-05   5.9276629591317916e-06   1.6339731293538292e-05
-3.229500434914176e-05   4.6875268166957e-06   -6.528038644914311e-07
-3.229500434914176e-05   4.6875268166957e-06   -6.528038644914311e-07
-3.229500434914176e-05   4.6875268166957e-06   -6.528038644914311e-07
-3.229500434914176e-05   4.6875268166957e-06   -6.528038644914311e-07
-3.324437088811068e-05   5.3856912171459156e-06   1.993901838213204e-05
-3.324437088811068e-05   5.3856912171459156e-06   1.993901838213204e-05
-3.324437088811068e-05   5.3856912171459156e-06   1.993901838213204e-05
-3.324437088811068e-05   5.3856912171459156e-06   1.993901838213204e-05
-2.2994312873188732e-05   4.164000937478254e-06   3.588602525062836e-06
-2.2994312873188732e-05   4.164000937478254e-06   3.588602525062836e-06
-2.2994312873188732e-05   4.164000937478254e-06   3.588602525062836e-06
-2.2994312873188732e-05   4.164000937478254e-06   3.588602525062836e-06
-2.6636688397848945e-05   5.1603519425032825e-06   9.061417796481426e-06
-2.6636688397848945e-05   5.1603519425032825e-06   9.061417796481426e-06
-2.6636688397848945e-05   5.1603519425032825e-06   9.061417796481426e-06
-2.6636688397848945e-05   5.1603519425032825e-06   9.061417796481426e-06
1.0039454104130956e-05   -1.1525962473975162e-06   1.4141633006483668e-05
1.0039454104130956e-05   -1.1525962473975162e-06   1.4141633006483668e-05
1.0039454104130956e-05   -1.1525962473975162e-06   1.4141633006483668e-05
1.0039454104130956e-05   -1.1525962473975162e-06   1.4141633006483668e-05
2.6538616583261955e-06   1.0232772399603254e-08   2.5300096753539877e-06
2.6538616583261955e-06   1.0232772399603254e-08   2.5300096753539877e-06
2.6538616583261955e-06   1.0232772399603254e-08   2.5300096753539877e-06
2.6538616583261955e-06   1.0232772399603254e-08   2.5300096753539877e-06
2.3081006114877916e-06   -1.595034648507439e-06   1.3175256833842857e-05
2.3081006114877916e-06   -1.595034648507439e-06   1.3175256833842857e-05
2.3081006114877916e-06   -1.595034648507439e-06   1.3175256833842857e-05
2.3081006114877916e-06   -1.595034648507439e-06   1.3175256833842857e-05
9.18395314761373e-06   -3.869371454961936e-07   9.906441051595646e-07
9.18395314761373e-06   -3.869371454961936e-07   9.906441051595646e-07
9.18395314761373e-06   -3.869371454961936e-07   9.906441051595646e-07
9.18395314761373e-06   -3.869371454961936e-07   9.906441051595646e-07
5.69071470352596e-06   -8.372882188095558e-07   7.082918822627626e-06
5.69071470352596e-06   -8.372882188095558e-07   7.082918822627626e-06
5.69071470352596e-06   -8.372882188095558e-07   7.082918822627626e-06
5.69071470352596e-06   -8.372882188095558e-07   7.082918822627626e-06
9.183953147613743e-06   -1.595034648507656e-06   1.2450398332036197e-05
9.183953147613743e-06   -1.595034648507656e-06   1.2450398332036197e-05
9.183953147613743e-06   -1.595034648507656e-06   1.2450398332036197e-05
9.183953147613743e-06   -1.595034648507656e-06   1.2450398332036197e-05
2.3081006114877882e-06   -3.869371454961936e-07   1.7155026069663607e-06
2.3081006114877882e-06   -3.869371454961936e-07   1.7155026069663607e-06
2.3081006114877882e-06   -3.869371454961936e-07   1.7155026069663607e-06
2.3081006114877882e-06   -3.869371454961936e-07   1.7155026069663607e-06
1.9046468880836142e-06   -1.746774798796905e-06   1.2359018330260468e-05
1.9046468880836142e-06   -1.746774798796905e-06   1.2359018330260468e-05
1.9046468880836142e-06   -1.746774798796905e-06   1.2359018330260468e-05
1.9046468880836142e-06   -1.746774798796905e-06   1.2359018330260468e-05
8.459038719426396e-06   -5.573792291798394e-07   7.213946029188581e-07
8.459038719426396e-06   -5.573792291798394e-07   7.213946029188581e-07
8.459038719426396e-06   -5.573792291798394e-07   7.213946029188581e-07
8.459038719426396e-06   -5.573792291798394e-07   7.213946029188581e-07
5.2792243348333565e-06   -1.0107333834226406e-06   6.293097736453034e-06
5.2792243348333565e-06   -1.0107333834226406e-06   6.293097736453034e-06
5.2792243348333565e-06   -1.0107333834226406e-06   6.293097736453034e-06
5.2792243348333565e-06   -1.0107333834226406e-06   6.293097736453034e-06
8.459038719426416e-06   -1.7467747987971217e-06   1.164538098849012e-05
8.459038719426416e-06   -1.7467747987971217e-06   1.164538098849012e-05
8.459038719426416e-06   -1.7467747987971217e-06   1.164538098849012e-05
8.459038719426416e-06   -1.7467747987971217e-06   1.164538098849012e-05
1.904646888083604e-06   -5.573792291798394e-07   1.435031944689233e-06
1.904646888083604e-06   -5.573792291798394e-07   1.435031944689233e-06
1.904646888083604e-06   -5.573792291798394e-07   1.435031944689233e-06
1.904646888083604e-06   -5.573792291798394e-07   1.435031944689233e-06
1.5548298369637077e-06   -1.945535459823341e-06   1.1410795282012988e-05
1.5548298369637077e-06   -1.945535459823341e-06   1.1410795282012988e-05
1.5548298369637077e-06   -1.945535459823341e-06   1.1410795282012988e-05
1.5548298369637077e-06   -1.945535459823341e-06   1.1410795282012988e-05
7.609344703164559e-06   -8.397716026860248e-07   6.564788573960119e-07
7.609344703164559e-06   -8.397716026860248e-07   6.564788573960119e-07
7.609344703164559e-06   -8.397716026860248e-07   6.564788573960119e-07
7.609344703164559e-06   -8.397716026860248e-07   6.564788573960119e-07
4.667491119229319e-06   -1.0987455542469694e-06   5.714952534891546e-06
4.667491119229319e-06   -1.0987455542469694e-06   5.714952534891546e-06
4.667491119229319e-06   -1.0987455542469694e-06   5.714952534891546e-06
4.667491119229319e-06   -1.0987455542469694e-06   5.714952534891546e-06
2.653861658326199e-06   5.796738894369921e-07   1.9399263429351705e-05
2.653861658326199e-06   5.796738894369921e-07   1.9399263429351705e-05
2.653861658326199e-06   5.796738894369921e-07   1.9399263429351705e-05
2.653861658326199e-06   5.796738894369921e-07   1.9399263429351705e-05
-4.069898420175607e-06   1.1078445681087824e-06   8.509899039051941e-06
-4.069898420175607e-06   1.1078445681087824e-06   8.509899039051941e-06
-4.069898420175607e-06   1.1078445681087824e-06   8.509899039051941e-06
-4.069898420175607e-06   1.1078445681087824e-06   8.509899039051941e-06
-4.373910675769421e-06   1.3277397863608285e-07   1.9458243278104126e-05
-4.373910675769421e-06   1.3277397863608285e-07   1.9458243278104126e-05
-4.373910675769421e-06   1.3277397863608285e-07   1.9458243278104126e-05
-4.373910675769421e-06   1.3277397863608285e-07   1.9458243278104126e-05
2.3081006114877882e-06   6.601071213303443e-07   8.005157913725616e-06
2.3081006114877882e-06   6.601071213303443e-07   8.005157913725616e-06
2.3081006114877882e-06   6.601071213303443e-07   8.005157913725616e-06
2.3081006114877882e-06   6.601071213303443e-07   8.005157913725616e-06
-9.210910987085567e-07   5.750032246280845e-07   1.3438206435408158e-05
-9.210910987085567e-07   5.750032246280845e-07   1.3438206435408158e-05
-9.210910987085567e-07   5.750032246280845e-07   1.3438206435408158e-05
-9.210910987085567e-07   5.750032246280845e-07   1.3438206435408158e-05
2.3081006114877882e-06   1.3277397863608285e-07   1.914184339248733e-05
2.3081006114877882e-06   1.3277397863608285e-07   1.914184339248733e-05
2.3081006114877882e-06   1.3277397863608285e-07   1.914184339248733e-05
2.3081006114877882e-06   1.3277397863608285e-07   1.914184339248733e-05
-4.373910675769421e-06   6.601071213303443e-07   8.32155779934235e-06
-4.373910675769421e-06   6.601071213303443e-07   8.32155779934235e-06
-4.373910675769421e-06   6.601071213303443e-07   8.32155779934235e-06
-4.373910675769421e-06   6.601071213303443e-07   8.32155779934235e-06
-4.686913643297508e-06   -2.3214820817334808e-07   1.9328919433574078e-05
-4.686913643297508e-06   -2.3214820817334808e-07   1.9328919433574078e-05
-4.686913643297508e-06   -2.3214820817334808e-07   1.9328919433574078e-05
-4.686913643297508e-06   -2.3214820817334808e-07   1.9328919433574078e-05
1.904646888083604e-06   2.8144285878456236e-07   8.034830574430814e-06
1.904646888083604e-06   2.8144285878456236e-07   8.034830574430814e-06
1.904646888083604e-06   2.8144285878456236e-07   8.034830574430814e-06
1.904646888083604e-06   2.8144285878456236e-07   8.034830574430814e-06
-1.245934227571914e-06   2.632310074340144e-07   1.3296726211333842e-05
-1.245934227571914e-06   2.632310074340144e-07   1.3296726211333842e-05
-1.245934227571914e-06   2.632310074340144e-07   1.3296726211333842e-05
-1.245934227571914e-06   2.632310074340144e-07   1.3296726211333842e-05
1.9046468880836142e-06   -2.3214820817356492e-07   1.90207647933992e-05
1.9046468880836142e-06   -2.3214820817356492e-07   1.90207647933992e-05
1.9046468880836142e-06   -2.3214820817356492e-07   1.90207647933992e-05
1.9046468880836142e-06   -2.3214820817356492e-07   1.90207647933992e-05
-4.686913643297508e-06   2.814428587846708e-07   8.342985214605586e-06
-4.686913643297508e-06   2.814428587846708e-07   8.342985214605586e-06
-4.686913643297508e-06   2.814428587846708e-07   8.342985214605586e-06
-4.686913643297508e-06   2.814428587846708e-07   8.342985214605586e-06
-4.99537613501173e-06   -5.907964456444269e-07   1.9578762761366243e-05
-4.99537613501173e-06   -5.907964456444269e-07   1.9578762761366243e-05
-4.99537613501173e-06   -5.907964456444269e-07   1.9578762761366243e-05
-4.99537613501173e-06   -5.907964456444269e-07   1.9578762761366243e-05
1.5548298369637043e-06   -1.0455297687740703e-07   8.370006726813818e-06
1.5548298369637043e-06   -1.0455297687740703e-07   8.370006726813818e-06
1.5548298369637043e-06   -1.0455297687740703e-07   8.370006726813818e-06
1.5548298369637043e-06   -1.0455297687740703e-07   8.370006726813818e-06
-1.5204653019435349e-06   -1.5638802270756882e-08   1.3442150120228868e-05
-1.5204653019435349e-06   -1.5638802270756882e-08   1.3442150120228868e-05
-1.5204653019435349e-06   -1.5638802270756882e-08   1.3442150120228868e-05
-1.5204653019435349e-06   -1.5638802270756882e-08   1.3442150120228868e-05
-4.069898420175607e-06   2.2019323698931666e-06   2.150307875524362e-05
-4.069898420175607e-06   2.2019323698931666e-06   2.150307875524362e-05
-4.069898420175607e-06   2.2019323698931666e-06   2.150307875524362e-05
-4.069898420175607e-06   2.2019323698931666e-06   2.150307875524362e-05
-1.0676627518003018e-05   2.0782231441039732e-06   1.041763805672435e-05
-1.0676627518003018e-05   2.0782231441039732e-06   1.041763805672435e-05
-1.0676627518003018e-05   2.0782231441039732e-06   1.041763805672435e-05
-1.0676627518003018e-05   2.0782231441039732e-06   1.041763805672435e-05
-1.0968563819363167e-05   1.7966845504593758e-06   2.1312811088228375e-05
-1.0968563819363167e-05   1.7966845504593758e-06   2.1312811088228375e-05
-1.0968563819363167e-05   1.7966845504593758e-06   2.1312811088228375e-05
-1.0968563819363167e-05   1.7966845504593758e-06   2.1312811088228375e-05
-4.373910675769407e-06   1.6662500249486553e-06   1.0399983230878544e-05
-4.373910675769407e-06   1.6662500249486553e-06   1.0399983230878544e-05
-4.373910675769407e-06   1.6662500249486553e-06   1.0399983230878544e-05
-4.373910675769407e-06   1.6662500249486553e-06   1.0399983230878544e-05
-7.53652302773375e-06   1.8887851486765628e-06   1.5537482743249736e-05
-7.53652302773375e-06   1.8887851486765628e-06   1.5537482743249736e-05
-7.53652302773375e-06   1.8887851486765628e-06   1.5537482743249736e-05
-7.53652302773375e-06   1.8887851486765628e-06   1.5537482743249736e-05
-4.373910675769421e-06   1.7966845504593758e-06   2.139107180353485e-05
-4.373910675769421e-06   1.7966845504593758e-06   2.139107180353485e-05
-4.373910675769421e-06   1.7966845504593758e-06   2.139107180353485e-05
-4.373910675769421e-06   1.7966845504593758e-06   2.139107180353485e-05
-1.096856381936314e-05   1.6662500249486553e-06   1.0321722515572312e-05
-1.096856381936314e-05   1.6662500249486553e-06   1.0321722515572312e-05
-1.096856381936314e-05   1.6662500249486553e-06   1.0321722515572312e-05
-1.096856381936314e-05   1.6662500249486553e-06   1.0321722515572312e-05
-1.1269979342641004e-05   1.3961121259624572e-06   2.145195881153323e-05
-1.1269979342641004e-05   1.3961121259624572e-06   2.145195881153323e-05
-1.1269979342641004e-05   1.3961121259624572e-06   2.145195881153323e-05
-1.1269979342641004e-05   1.3961121259624572e-06   2.145195881153323e-05
-4.6869136432974945e-06   1.2564101818895827e-06   1.0564003812404754e-05
-4.6869136432974945e-06   1.2564101818895827e-06   1.0564003812404754e-05
-4.6869136432974945e-06   1.2564101818895827e-06   1.0564003812404754e-05
-4.6869136432974945e-06   1.2564101818895827e-06   1.0564003812404754e-05
-7.796263115180574e-06   1.5757989170301582e-06   1.555461969112538e-05
-7.796263115180574e-06   1.5757989170301582e-06   1.555461969112538e-05
-7.796263115180574e-06   1.5757989170301582e-06   1.555461969112538e-05
-7.796263115180574e-06   1.5757989170301582e-06   1.555461969112538e-05
-4.686913643297508e-06   1.3961121259624572e-06   2.1535779977976998e-05
-4.686913643297508e-06   1.3961121259624572e-06   2.1535779977976998e-05
-4.686913643297508e-06   1.3961121259624572e-06   2.1535779977976998e-05
-4.686913643297508e-06   1.3961121259624572e-06   2.1535779977976998e-05
-1.1269979342640976e-05   1.2564101818895827e-06   1.0480182645960904e-05
-1.1269979342640976e-05   1.2564101818895827e-06   1.0480182645960904e-05
-1.1269979342640976e-05   1.2564101818895827e-06   1.0480182645960904e-05
-1.1269979342640976e-05   1.2564101818895827e-06   1.0480182645960904e-05
-1.1566624185179174e-05   1.010590441153942e-06   2.1795191221911587e-05
-1.1566624185179174e-05   1.010590441153942e-06   2.1795191221911587e-05
-1.1566624185179174e-05   1.010590441153942e-06   2.1795191221911587e-05
-1.1566624185179174e-05   1.010590441153942e-06   2.1795191221911587e-05
-4.995376135011716e-06   8.641870778401412e-07   1.0930953156287708e-05
-4.995376135011716e-06   8.641870778401412e-07   1.0930953156287708e-05
-4.995376135011716e-06   8.641870778401412e-07   1.0930953156287708e-05
-4.995376135011716e-06   8.641870778401412e-07   1.0930953156287708e-05
-8.072646612478615e-06   1.2691875930603662e-06   1.581673697626719e-05
-8.072646612478615e-06   1.2691875930603662e-06   1.581673697626719e-05
-8.072646612478615e-06   1.2691875930603662e-06   1.581673697626719e-05
-8.072646612478615e-06   1.2691875930603662e-06   1.581673697626719e-05
-1.0676627518003018e-05   3.7807753780609056e-06   1.8949648432523155e-05
-1.0676627518003018e-05   3.7807753780609056e-06   1.8949648432523155e-05
-1.0676627518003018e-05   3.7807753780609056e-06   1.8949648432523155e-05
-1.0676627518003018e-05   3.7807753780609056e-06   1.8949648432523155e-05
-1.716751027485154e-05   3.092584723919027e-06   7.718596111957034e-06
-1.716751027485154e-05   3.092584723919027e-06   7.718596111957034e-06
-1.716751027485154e-05   3.092584723919027e-06   7.718596111957034e-06
-1.716751027485154e-05   3.092584723919027e-06   7.718596111957034e-06
-1.7485976648139965e-05   3.385477377356458e-06   1.8602045133090457e-05
-1.7485976648139965e-05   3.385477377356458e-06   1.8602045133090457e-05
-1.7485976648139965e-05   3.385477377356458e-06   1.8602045133090457e-05
-1.7485976648139965e-05   3.385477377356458e-06   1.8602045133090457e-05
-1.0968563819363112e-05   2.677480749460723e-06   8.164488395200108e-06
-1.0968563819363112e-05   2.677480749460723e-06   8.164488395200108e-06
-1.0968563819363112e-05   2.677480749460723e-06   8.164488395200108e-06
-1.0968563819363112e-05   2.677480749460723e-06   8.164488395200108e-06
-1.4040622948381906e-05   3.1804593651559195e-06   1.2982799774148416e-05
-1.4040622948381906e-05   3.1804593651559195e-06   1.2982799774148416e-05
-1.4040622948381906e-05   3.1804593651559195e-06   1.2982799774148416e-05
-1.4040622948381906e-05   3.1804593651559195e-06   1.2982799774148416e-05
-1.0968563819363167e-05   3.385477377356675e-06   1.9026843109827942e-05
-1.0968563819363167e-05   3.385477377356675e-06   1.9026843109827942e-05
-1.0968563819363167e-05   3.385477377356675e-06   1.9026843109827942e-05
-1.0968563819363167e-05   3.385477377356675e-06   1.9026843109827942e-05
-1.748597664813991e-05   2.677480749460723e-06   7.73969041846257e-06
-1.748597664813991e-05   2.677480749460723e-06   7.73969041846257e-06
-1.748597664813991e-05   2.677480749460723e-06   7.73969041846257e-06
-1.748597664813991e-05   2.677480749460723e-06   7.73969041846257e-06
-1.786281730066459e-05   3.0190917733904747e-06   1.921370902077408e-05
-1.786281730066459e-05   3.0190917733904747e-06   1.921370902077408e-05
-1.786281730066459e-05   3.0190917733904747e-06   1.921370902077408e-05
-1.786281730066459e-05   3.0190917733904747e-06   1.921370902077408e-05
-1.126997934264095e-05   2.2995730734523935e-06   8.657356977364303e-06
-1.126997934264095e-05   2.2995730734523935e-06   8.657356977364303e-06
-1.126997934264095e-05   2.2995730734523935e-06   8.657356977364303e-06
-1.126997934264095e-05   2.2995730734523935e-06   8.657356977364303e-06
-1.424617984370804e-05   2.887143066979082e-06   1.3265149149693399e-05
-1.424617984370804e-05   2.887143066979082e-06   1.3265149149693399e-05
-1.424617984370804e-05   2.887143066979082e-06   1.3265149149693399e-05
-1.424617984370804e-05   2.887143066979082e-06   1.3265149149693399e-05
-1.1269979342640976e-05   3.0190917733904747e-06   1.964542024073684e-05
-1.1269979342640976e-05   3.0190917733904747e-06   1.964542024073684e-05
-1.1269979342640976e-05   3.0190917733904747e-06   1.964542024073684e-05
-1.1269979342640976e-05   3.0190917733904747e-06   1.964542024073684e-05
-1.7862817300664537e-05   2.2995730734523935e-06   8.225645757401487e-06
-1.7862817300664537e-05   2.2995730734523935e-06   8.225645757401487e-06
-1.7862817300664537e-05   2.2995730734523935e-06   8.225645757401487e-06
-1.7862817300664537e-05   2.2995730734523935e-06   8.225645757401487e-06
-1.8185798064496693e-05   2.608911108278964e-06   1.980242147269428e-05
-1.8185798064496693e-05   2.608911108278964e-06   1.980242147269428e-05
-1.8185798064496693e-05   2.608911108278964e-06   1.980242147269428e-05
-1.8185798064496693e-05   2.608911108278964e-06   1.980242147269428e-05
-1.156662418517912e-05   1.8951801929443547e-06   9.198703556365974e-06
-1.156662418517912e-05   1.8951801929443547e-06   9.198703556365974e-06
-1.156662418517912e-05   1.8951801929443547e-06   9.198703556365974e-06
-1.156662418517912e-05   1.8951801929443547e-06   9.198703556365974e-06
-1.4601164190575081e-05   2.5928232647060186e-06   1.3837684388969375e-05
-1.4601164190575081e-05   2.5928232647060186e-06   1.3837684388969375e-05
-1.4601164190575081e-05   2.5928232647060186e-06   1.3837684388969375e-05
-1.4601164190575081e-05   2.5928232647060186e-06   1.3837684388969375e-05
-1.7167510274851622e-05   4.968239349888159e-06   8.866009982738763e-06
-1.7167510274851622e-05   4.968239349888159e-06   8.866009982738763e-06
-1.7167510274851622e-05   4.968239349888159e-06   8.866009982738763e-06
-1.7167510274851622e-05   4.968239349888159e-06   8.866009982738763e-06
-2.303751552693874e-05   3.8131643644860776e-06   -1.610377095314291e-06
-2.303751552693874e-05   3.8131643644860776e-06   -1.610377095314291e-06
-2.303751552693874e-05   3.8131643644860776e-06   -1.610377095314291e-06
-2.303751552693874e-05   3.8131643644860776e-06   -1.610377095314291e-06
-2.3854634330465778e-05   4.8429868851384075e-06   1.0942423725641493e-05
-2.3854634330465778e-05   4.8429868851384075e-06   1.0942423725641493e-05
-2.3854634330465778e-05   4.8429868851384075e-06   1.0942423725641493e-05
-2.3854634330465778e-05   4.8429868851384075e-06   1.0942423725641493e-05
-1.748597664813991e-05   3.6012056263388676e-06   1.073063010378363e-06
-1.748597664813991e-05   3.6012056263388676e-06   1.073063010378363e-06
-1.748597664813991e-05   3.6012056263388676e-06   1.073063010378363e-06
-1.748597664813991e-05   3.6012056263388676e-06   1.073063010378363e-06
-1.9643541746430107e-05   4.226150802631636e-06   4.294037735087146e-06
-1.9643541746430107e-05   4.226150802631636e-06   4.294037735087146e-06
-1.9643541746430107e-05   4.226150802631636e-06   4.294037735087146e-06
-1.9643541746430107e-05   4.226150802631636e-06   4.294037735087146e-06
-1.748597664813991e-05   4.842986885138191e-06   1.1687492480921195e-05
-1.748597664813991e-05   4.842986885138191e-06   1.1687492480921195e-05
-1.748597664813991e-05   4.842986885138191e-06   1.1687492480921195e-05
-1.748597664813991e-05   4.842986885138191e-06   1.1687492480921195e-05
-2.3854634330465778e-05   3.6012056263388676e-06   3.279942550986066e-07
-2.3854634330465778e-05   3.6012056263388676e-06   3.279942550986066e-07
-2.3854634330465778e-05   3.6012056263388676e-06   3.279942550986066e-07
-2.3854634330465778e-05   3.6012056263388676e-06   3.279942550986066e-07
-2.4557440211933396e-05   4.6875268166957e-06   1.2948993968753047e-05
-2.4557440211933396e-05   4.6875268166957e-06   1.2948993968753047e-05
-2.4557440211933396e-05   4.6875268166957e-06   1.2948993968753047e-05
-2.4557440211933396e-05   4.6875268166957e-06   1.2948993968753047e-05
-1.7862817300664537e-05   3.4230758411094454e-06   2.549959701990097e-06
-1.7862817300664537e-05   3.4230758411094454e-06   2.549959701990097e-06
-1.7862817300664537e-05   3.4230758411094454e-06   2.549959701990097e-06
-1.7862817300664537e-05   3.4230758411094454e-06   2.549959701990097e-06
-2.042964525808071e-05   4.171888168677355e-06   6.378718901143448e-06
-2.042964525808071e-05   4.171888168677355e-06   6.378718901143448e-06
-2.042964525808071e-05   4.171888168677355e-06   6.378718901143448e-06
-2.042964525808071e-05   4.171888168677355e-06   6.378718901143448e-06
-1.7862817300664564e-05   4.687526816695483e-06   1.3707664554104952e-05
-1.7862817300664564e-05   4.687526816695483e-06   1.3707664554104952e-05
-1.7862817300664564e-05   4.687526816695483e-06   1.3707664554104952e-05
-1.7862817300664564e-05   4.687526816695483e-06   1.3707664554104952e-05
-2.4557440211933396e-05   3.4230758411094454e-06   1.7912891166385451e-06
-2.4557440211933396e-05   3.4230758411094454e-06   1.7912891166385451e-06
-2.4557440211933396e-05   3.4230758411094454e-06   1.7912891166385451e-06
-2.4557440211933396e-05   3.4230758411094454e-06   1.7912891166385451e-06
-2.5397784620594978e-05   4.164000937478471e-06   1.64976010915334e-05
-2.5397784620594978e-05   4.164000937478471e-06   1.64976010915334e-05
-2.5397784620594978e-05   4.164000937478471e-06   1.64976010915334e-05
-2.5397784620594978e-05   4.164000937478471e-06   1.64976010915334e-05
-1.818579806449664e-05   2.936898300421502e-06   5.213885080270419e-06
-1.818579806449664e-05   2.936898300421502e-06   5.213885080270419e-06
-1.818579806449664e-05   2.936898300421502e-06   5.213885080270419e-06
-1.818579806449664e-05   2.936898300421502e-06   5.213885080270419e-06
-2.0622330747313442e-05   3.950793732398995e-06   8.666435625778778e-06
-2.0622330747313442e-05   3.950793732398995e-06   8.666435625778778e-06
-2.0622330747313442e-05   3.950793732398995e-06   8.666435625778778e-06
-2.0622330747313442e-05   3.950793732398995e-06   8.666435625778778e-06
2.115513805173676e-06   1.0232772399603254e-08   1.0590431630604622e-05
2.115513805173676e-06   1.0232772399603254e-08   1.0590431630604622e-05
2.115513805173676e-06   1.0232772399603254e-08   1.0590431630604622e-05
2.115513805173676e-06   1.0232772399603254e-08   1.0590431630604622e-05
-2.141712916929584e-06   1.1292473995717445e-06   4.166462536735909e-06
-2.141712916929584e-06   1.1292473995717445e-06   4.166462536735909e-06
-2.141712916929584e-06   1.1292473995717445e-06   4.166462536735909e-06
-2.141712916929584e-06   1.1292473995717445e-06   4.166462536735909e-06
-2.388175211362039e-06   -3.869371454961936e-07   1.0432564287004111e-05
-2.388175211362039e-06   -3.869371454961936e-07   1.0432564287004111e-05
-2.388175211362039e-06   -3.869371454961936e-07   1.0432564287004111e-05
-2.388175211362039e-06   -3.869371454961936e-07   1.0432564287004111e-05
1.3667314104011508e-06   7.586301200288633e-07   3.4870462247504024e-06
1.3667314104011508e-06   7.586301200288633e-07   3.4870462247504024e-06
1.3667314104011508e-06   7.586301200288633e-07   3.4870462247504024e-06
1.3667314104011508e-06   7.586301200288633e-07   3.4870462247504024e-06
-3.645234025381925e-07   3.1396030335121075e-07   6.6392728029892256e-06
-3.645234025381925e-07   3.1396030335121075e-07   6.6392728029892256e-06
-3.645234025381925e-07   3.1396030335121075e-07   6.6392728029892256e-06
-3.645234025381925e-07   3.1396030335121075e-07   6.6392728029892256e-06
1.3667314104011508e-06   -3.869371454961936e-07   9.745223927689023e-06
1.3667314104011508e-06   -3.869371454961936e-07   9.745223927689023e-06
1.3667314104011508e-06   -3.869371454961936e-07   9.745223927689023e-06
1.3667314104011508e-06   -3.869371454961936e-07   9.745223927689023e-06
-2.388175211362039e-06   7.586301200288633e-07   4.17438658406545e-06
-2.388175211362039e-06   7.586301200288633e-07   4.17438658406545e-06
-2.388175211362039e-06   7.586301200288633e-07   4.17438658406545e-06
-2.388175211362039e-06   7.586301200288633e-07   4.17438658406545e-06
-2.692900602775194e-06   -5.573792291799478e-07   1.0151346387671169e-05
-2.692900602775194e-06   -5.573792291799478e-07   1.0151346387671169e-05
-2.692900602775194e-06   -5.573792291799478e-07   1.0151346387671169e-05
-2.692900602775194e-06   -5.573792291799478e-07   1.0151346387671169e-05
7.162850463678008e-07   5.557510484483245e-07   3.8014921391892504e-06
7.162850463678008e-07   5.557510484483245e-07   3.8014921391892504e-06
7.162850463678008e-07   5.557510484483245e-07   3.8014921391892504e-06
7.162850463678008e-07   5.557510484483245e-07   3.8014921391892504e-06
-7.674299268107672e-07   1.561253366019538e-07   6.514125854928068e-06
-7.674299268107672e-07   1.561253366019538e-07   6.514125854928068e-06
-7.674299268107672e-07   1.561253366019538e-07   6.514125854928068e-06
-7.674299268107672e-07   1.561253366019538e-07   6.514125854928068e-06
7.162850463678008e-07   -5.573792291799478e-07   9.483468221094184e-06
7.162850463678008e-07   -5.573792291799478e-07   9.483468221094184e-06
7.162850463678008e-07   -5.573792291799478e-07   9.483468221094184e-06
7.162850463678008e-07   -5.573792291799478e-07   9.483468221094184e-06
-2.6929006027751905e-06   5.557510484483245e-07   4.469370305766195e-06
-2.6929006027751905e-06   5.557510484483245e-07   4.469370305766195e-06
-2.6929006027751905e-06   5.557510484483245e-07   4.469370305766195e-06
-2.6929006027751905e-06   5.557510484483245e-07   4.469370305766195e-06
-2.9480273848132005e-06   -8.397716026861332e-07   1.0039136453065308e-05
-2.9480273848132005e-06   -8.397716026861332e-07   1.0039136453065308e-05
-2.9480273848132005e-06   -8.397716026861332e-07   1.0039136453065308e-05
-2.9480273848132005e-06   -8.397716026861332e-07   1.0039136453065308e-05
-1.002902660653026e-07   1.2654916519121845e-07   4.713115461092639e-06
-1.002902660653026e-07   1.2654916519121845e-07   4.713115461092639e-06
-1.002902660653026e-07   1.2654916519121845e-07   4.713115461092639e-06
-1.002902660653026e-07   1.2654916519121845e-07   4.713115461092639e-06
-1.2053758456174776e-06   1.31055451395648e-08   6.62299093237708e-06
-1.2053758456174776e-06   1.31055451395648e-08   6.62299093237708e-06
-1.2053758456174776e-06   1.31055451395648e-08   6.62299093237708e-06
-1.2053758456174776e-06   1.31055451395648e-08   6.62299093237708e-06
-2.141712916929584e-06   1.1078445681087824e-06   1.69248273634027e-05
-2.141712916929584e-06   1.1078445681087824e-06   1.69248273634027e-05
-2.141712916929584e-06   1.1078445681087824e-06   1.69248273634027e-05
-2.141712916929584e-06   1.1078445681087824e-06   1.69248273634027e-05
-5.702825143472315e-06   1.3307827333021265e-06   1.112340321828074e-05
-5.702825143472315e-06   1.3307827333021265e-06   1.112340321828074e-05
-5.702825143472315e-06   1.3307827333021265e-06   1.112340321828074e-05
-5.702825143472315e-06   1.3307827333021265e-06   1.112340321828074e-05
-5.889253235751729e-06   6.601071213303443e-07   1.6876660829523568e-05
-5.889253235751729e-06   6.601071213303443e-07   1.6876660829523568e-05
-5.889253235751729e-06   6.601071213303443e-07   1.6876660829523568e-05
-5.889253235751729e-06   6.601071213303443e-07   1.6876660829523568e-05
-2.388175211362039e-06   9.17509180930619e-07   1.08870895531139e-05
-2.388175211362039e-06   9.17509180930619e-07   1.08870895531139e-05
-2.388175211362039e-06   9.17509180930619e-07   1.08870895531139e-05
-2.388175211362039e-06   9.17509180930619e-07   1.08870895531139e-05
-4.055675270705305e-06   9.55482050833136e-07   1.3643472596744404e-05
-4.055675270705305e-06   9.55482050833136e-07   1.3643472596744404e-05
-4.055675270705305e-06   9.55482050833136e-07   1.3643472596744404e-05
-4.055675270705305e-06   9.55482050833136e-07   1.3643472596744404e-05
-2.388175211362039e-06   6.601071213303443e-07   1.672221959376336e-05
-2.388175211362039e-06   6.601071213303443e-07   1.672221959376336e-05
-2.388175211362039e-06   6.601071213303443e-07   1.672221959376336e-05
-2.388175211362039e-06   6.601071213303443e-07   1.672221959376336e-05
-5.889253235751729e-06   9.17509180930619e-07   1.1041530788874054e-05
-5.889253235751729e-06   9.17509180930619e-07   1.1041530788874054e-05
-5.889253235751729e-06   9.17509180930619e-07   1.1041530788874054e-05
-5.889253235751729e-06   9.17509180930619e-07   1.1041530788874054e-05
-6.081623187556245e-06   2.814428587846708e-07   1.6904497405527885e-05
-6.081623187556245e-06   2.814428587846708e-07   1.6904497405527885e-05
-6.081623187556245e-06   2.814428587846708e-07   1.6904497405527885e-05
-6.081623187556245e-06   2.814428587846708e-07   1.6904497405527885e-05
-2.6929006027751905e-06   5.37030172309853e-07   1.1103274042777747e-05
-2.6929006027751905e-06   5.37030172309853e-07   1.1103274042777747e-05
-2.6929006027751905e-06   5.37030172309853e-07   1.1103274042777747e-05
-2.6929006027751905e-06   5.37030172309853e-07   1.1103274042777747e-05
-4.246201533188151e-06   6.540685379976489e-07   1.3621885907386957e-05
-4.246201533188151e-06   6.540685379976489e-07   1.3621885907386957e-05
-4.246201533188151e-06   6.540685379976489e-07   1.3621885907386957e-05
-4.246201533188151e-06   6.540685379976489e-07   1.3621885907386957e-05
-2.692900602775194e-06   2.814428587846708e-07   1.6751145017412645e-05
-2.692900602775194e-06   2.814428587846708e-07   1.6751145017412645e-05
-2.692900602775194e-06   2.814428587846708e-07   1.6751145017412645e-05
-2.692900602775194e-06   2.814428587846708e-07   1.6751145017412645e-05
-6.081623187556245e-06   5.37030172309853e-07   1.1256626430892797e-05
-6.081623187556245e-06   5.37030172309853e-07   1.1256626430892797e-05
-6.081623187556245e-06   5.37030172309853e-07   1.1256626430892797e-05
-6.081623187556245e-06   5.37030172309853e-07   1.1256626430892797e-05
-6.270538421606961e-06   -1.0455297687729861e-07   1.722747729609043e-05
-6.270538421606961e-06   -1.0455297687729861e-07   1.722747729609043e-05
-6.270538421606961e-06   -1.0455297687729861e-07   1.722747729609043e-05
-6.270538421606961e-06   -1.0455297687729861e-07   1.722747729609043e-05
-2.9480273848132005e-06   1.2589916960554278e-07   1.1551687613544532e-05
-2.9480273848132005e-06   1.2589916960554278e-07   1.1551687613544532e-05
-2.9480273848132005e-06   1.2589916960554278e-07   1.1551687613544532e-05
-2.9480273848132005e-06   1.2589916960554278e-07   1.1551687613544532e-05
-4.436142910967717e-06   3.587868364535217e-07   1.389214755702657e-05
-4.436142910967717e-06   3.587868364535217e-07   1.389214755702657e-05
-4.436142910967717e-06   3.587868364535217e-07   1.389214755702657e-05
-4.436142910967717e-06   3.587868364535217e-07   1.389214755702657e-05
-5.702825143472315e-06   2.0782231441039732e-06   1.9040554815664555e-05
-5.702825143472315e-06   2.0782231441039732e-06   1.9040554815664555e-05
-5.702825143472315e-06   2.0782231441039732e-06   1.9040554815664555e-05
-5.702825143472315e-06   2.0782231441039732e-06   1.9040554815664555e-05
-9.24608660395575e-06   1.602554090744928e-06   1.2849717616176767e-05
-9.24608660395575e-06   1.602554090744928e-06   1.2849717616176767e-05
-9.24608660395575e-06   1.602554090744928e-06   1.2849717616176767e-05
-9.24608660395575e-06   1.602554090744928e-06   1.2849717616176767e-05
-9.404237318198262e-06   1.6662500249486553e-06   1.868756167237287e-05
-9.404237318198262e-06   1.6662500249486553e-06   1.868756167237287e-05
-9.404237318198262e-06   1.6662500249486553e-06   1.868756167237287e-05
-9.404237318198262e-06   1.6662500249486553e-06   1.868756167237287e-05
-5.889253235751729e-06   1.2203757104704577e-06   1.3096779456982368e-05
-5.889253235751729e-06   1.2203757104704577e-06   1.3096779456982368e-05
-5.889253235751729e-06   1.2203757104704577e-06   1.3096779456982368e-05
-5.889253235751729e-06   1.2203757104704577e-06   1.3096779456982368e-05
-7.564785161682826e-06   1.6093365508042246e-06   1.5655956162667216e-05
-7.564785161682826e-06   1.6093365508042246e-06   1.5655956162667216e-05
-7.564785161682826e-06   1.6093365508042246e-06   1.5655956162667216e-05
-7.564785161682826e-06   1.6093365508042246e-06   1.5655956162667216e-05
-5.889253235751729e-06   1.6662500249486553e-06   1.8955086261059897e-05
-5.889253235751729e-06   1.6662500249486553e-06   1.8955086261059897e-05
-5.889253235751729e-06   1.6662500249486553e-06   1.8955086261059897e-05
-5.889253235751729e-06   1.6662500249486553e-06   1.8955086261059897e-05
-9.404237318198262e-06   1.2203757104704577e-06   1.2829254868295314e-05
-9.404237318198262e-06   1.2203757104704577e-06   1.2829254868295314e-05
-9.404237318198262e-06   1.2203757104704577e-06   1.2829254868295314e-05
-9.404237318198262e-06   1.2203757104704577e-06   1.2829254868295314e-05
-9.573563809540773e-06   1.2564101818894743e-06   1.8870889860289337e-05
-9.573563809540773e-06   1.2564101818894743e-06   1.8870889860289337e-05
-9.573563809540773e-06   1.2564101818894743e-06   1.8870889860289337e-05
-9.573563809540773e-06   1.2564101818894743e-06   1.8870889860289337e-05
-6.081623187556245e-06   8.320332768268048e-07   1.3305614966686104e-05
-6.081623187556245e-06   8.320332768268048e-07   1.3305614966686104e-05
-6.081623187556245e-06   8.320332768268048e-07   1.3305614966686104e-05
-6.081623187556245e-06   8.320332768268048e-07   1.3305614966686104e-05
-7.699932906496501e-06   1.3037341690276798e-06   1.5719777296265984e-05
-7.699932906496501e-06   1.3037341690276798e-06   1.5719777296265984e-05
-7.699932906496501e-06   1.3037341690276798e-06   1.5719777296265984e-05
-7.699932906496501e-06   1.3037341690276798e-06   1.5719777296265984e-05
-6.081623187556245e-06   1.2564101818895827e-06   1.9125516003326917e-05
-6.081623187556245e-06   1.2564101818895827e-06   1.9125516003326917e-05
-6.081623187556245e-06   1.2564101818895827e-06   1.9125516003326917e-05
-6.081623187556245e-06   1.2564101818895827e-06   1.9125516003326917e-05
-9.573563809540746e-06   8.320332768268048e-07   1.3050988823648415e-05
-9.573563809540746e-06   8.320332768268048e-07   1.3050988823648415e-05
-9.573563809540746e-06   8.320332768268048e-07   1.3050988823648415e-05
-9.573563809540746e-06   8.320332768268048e-07   1.3050988823648415e-05
-9.739402894259902e-06   8.641870778401412e-07   1.9256736088468437e-05
-9.739402894259902e-06   8.641870778401412e-07   1.9256736088468437e-05
-9.739402894259902e-06   8.641870778401412e-07   1.9256736088468437e-05
-9.739402894259902e-06   8.641870778401412e-07   1.9256736088468437e-05
-6.270538421606961e-06   4.642844847807179e-07   1.371523685654924e-05
-6.270538421606961e-06   4.642844847807179e-07   1.371523685654924e-05
-6.270538421606961e-06   4.642844847807179e-07   1.371523685654924e-05
-6.270538421606961e-06   4.642844847807179e-07   1.371523685654924e-05
-7.850481914560321e-06   1.0028955720723948e-06   1.6025309359096415e-05
-7.850481914560321e-06   1.0028955720723948e-06   1.6025309359096415e-05
-7.850481914560321e-06   1.0028955720723948e-06   1.6025309359096415e-05
-7.850481914560321e-06   1.0028955720723948e-06   1.6025309359096415e-05
-9.246086603955804e-06   3.092584723919027e-06   1.646902583136707e-05
-9.246086603955804e-06   3.092584723919027e-06   1.646902583136707e-05
-9.246086603955804e-06   3.092584723919027e-06   1.646902583136707e-05
-9.246086603955804e-06   3.092584723919027e-06   1.646902583136707e-05
-1.27336867065061e-05   2.1708304428348472e-06   1.010330642513274e-05
-1.27336867065061e-05   2.1708304428348472e-06   1.010330642513274e-05
-1.27336867065061e-05   2.1708304428348472e-06   1.010330642513274e-05
-1.27336867065061e-05   2.1708304428348472e-06   1.010330642513274e-05
-1.2907584821321677e-05   2.677480749460723e-06   1.5985145528892583e-05
-1.2907584821321677e-05   2.677480749460723e-06   1.5985145528892583e-05
-1.2907584821321677e-05   2.677480749460723e-06   1.5985145528892583e-05
-1.2907584821321677e-05   2.677480749460723e-06   1.5985145528892583e-05
-9.404237318198262e-06   1.7688440442804052e-06   1.0691415046795065e-05
-9.404237318198262e-06   1.7688440442804052e-06   1.0691415046795065e-05
-9.404237318198262e-06   1.7688440442804052e-06   1.0691415046795065e-05
-9.404237318198262e-06   1.7688440442804052e-06   1.0691415046795065e-05
-1.1049421613913292e-05   2.405648877057149e-06   1.305130597332077e-05
-1.1049421613913292e-05   2.405648877057149e-06   1.305130597332077e-05
-1.1049421613913292e-05   2.405648877057149e-06   1.305130597332077e-05
-1.1049421613913292e-05   2.405648877057149e-06   1.305130597332077e-05
-9.404237318198262e-06   2.6774807494608314e-06   1.6530327552000666e-05
-9.404237318198262e-06   2.6774807494608314e-06   1.6530327552000666e-05
-9.404237318198262e-06   2.6774807494608314e-06   1.6530327552000666e-05
-9.404237318198262e-06   2.6774807494608314e-06   1.6530327552000666e-05
-1.290758482132165e-05   1.7688440442805136e-06   1.0146233023686902e-05
-1.290758482132165e-05   1.7688440442805136e-06   1.0146233023686902e-05
-1.290758482132165e-05   1.7688440442805136e-06   1.0146233023686902e-05
-1.290758482132165e-05   1.7688440442805136e-06   1.0146233023686902e-05
-1.3147144052728135e-05   2.2995730734523935e-06   1.6514818088756702e-05
-1.3147144052728135e-05   2.2995730734523935e-06   1.6514818088756702e-05
-1.3147144052728135e-05   2.2995730734523935e-06   1.6514818088756702e-05
-1.3147144052728135e-05   2.2995730734523935e-06   1.6514818088756702e-05
-9.573563809540773e-06   1.4108295685592203e-06   1.1092097119713674e-05
-9.573563809540773e-06   1.4108295685592203e-06   1.1092097119713674e-05
-9.573563809540773e-06   1.4108295685592203e-06   1.1092097119713674e-05
-9.573563809540773e-06   1.4108295685592203e-06   1.1092097119713674e-05
-1.1143892533780795e-05   2.1094963818576312e-06   1.329011157213478e-05
-1.1143892533780795e-05   2.1094963818576312e-06   1.329011157213478e-05
-1.1143892533780795e-05   2.1094963818576312e-06   1.329011157213478e-05
-1.1143892533780795e-05   2.1094963818576312e-06   1.329011157213478e-05
-9.573563809540746e-06   2.2995730734523935e-06   1.704806419169241e-05
-9.573563809540746e-06   2.2995730734523935e-06   1.704806419169241e-05
-9.573563809540746e-06   2.2995730734523935e-06   1.704806419169241e-05
-9.573563809540746e-06   2.2995730734523935e-06   1.704806419169241e-05
-1.314714405272808e-05   1.4108295685591118e-06   1.055885101677783e-05
-1.314714405272808e-05   1.4108295685591118e-06   1.055885101677783e-05
-1.314714405272808e-05   1.4108295685591118e-06   1.055885101677783e-05
-1.314714405272808e-05   1.4108295685591118e-06   1.055885101677783e-05
-1.3339015250446592e-05   1.8951801929443547e-06   1.7102639021219905e-05
-1.3339015250446592e-05   1.8951801929443547e-06   1.7102639021219905e-05
-1.3339015250446592e-05   1.8951801929443547e-06   1.7102639021219905e-05
-1.3339015250446592e-05   1.8951801929443547e-06   1.7102639021219905e-05
-9.739402894259875e-06   1.0456977174191874e-06   1.1612974579557176e-05
-9.739402894259875e-06   1.0456977174191874e-06   1.1612974579557176e-05
-9.739402894259875e-06   1.0456977174191874e-06   1.1612974579557176e-05
-9.739402894259875e-06   1.0456977174191874e-06   1.1612974579557176e-05
-1.1342732977646881e-05   1.827420790174658e-06   1.3816157541549187e-05
-1.1342732977646881e-05   1.827420790174658e-06   1.3816157541549187e-05
-1.1342732977646881e-05   1.827420790174658e-06   1.3816157541549187e-05
-1.1342732977646881e-05   1.827420790174658e-06   1.3816157541549187e-05
-1.27336867065061e-05   3.813164364486186e-06   7.28004504668635e-06
-1.27336867065061e-05   3.813164364486186e-06   7.28004504668635e-06
-1.27336867065061e-05   3.813164364486186e-06   7.28004504668635e-06
-1.27336867065061e-05   3.813164364486186e-06   7.28004504668635e-06
-1.549122003867187e-05   2.5722930870466587e-06   1.939633393279645e-06
-1.549122003867187e-05   2.5722930870466587e-06   1.939633393279645e-06
-1.549122003867187e-05   2.5722930870466587e-06   1.939633393279645e-06
-1.549122003867187e-05   2.5722930870466587e-06   1.939633393279645e-06
-1.614857000262974e-05   3.6012056263388676e-06   8.540742658070914e-06
-1.614857000262974e-05   3.6012056263388676e-06   8.540742658070914e-06
-1.614857000262974e-05   3.6012056263388676e-06   8.540742658070914e-06
-1.614857000262974e-05   3.6012056263388676e-06   8.540742658070914e-06
-1.2907584821321677e-05   2.304913188443331e-06   3.916876151961279e-06
-1.2907584821321677e-05   2.304913188443331e-06   3.916876151961279e-06
-1.2907584821321677e-05   2.304913188443331e-06   3.916876151961279e-06
-1.2907584821321677e-05   2.304913188443331e-06   3.916876151961279e-06
-1.3822924013458728e-05   3.0405320573741223e-06   5.001070150831353e-06
-1.3822924013458728e-05   3.0405320573741223e-06   5.001070150831353e-06
-1.3822924013458728e-05   3.0405320573741223e-06   5.001070150831353e-06
-1.3822924013458728e-05   3.0405320573741223e-06   5.001070150831353e-06
-1.290758482132165e-05   3.601205626338759e-06   9.318518120808106e-06
-1.290758482132165e-05   3.601205626338759e-06   9.318518120808106e-06
-1.290758482132165e-05   3.601205626338759e-06   9.318518120808106e-06
-1.290758482132165e-05   3.601205626338759e-06   9.318518120808106e-06
-1.614857000262985e-05   2.3049131884434393e-06   3.1391006892240974e-06
-1.614857000262985e-05   2.3049131884434393e-06   3.1391006892240974e-06
-1.614857000262985e-05   2.3049131884434393e-06   3.1391006892240974e-06
-1.614857000262985e-05   2.3049131884434393e-06   3.1391006892240974e-06
-1.671235907013235e-05   3.4230758411094454e-06   1.0057851206028462e-05
-1.671235907013235e-05   3.4230758411094454e-06   1.0057851206028462e-05
-1.671235907013235e-05   3.4230758411094454e-06   1.0057851206028462e-05
-1.671235907013235e-05   3.4230758411094454e-06   1.0057851206028462e-05
-1.3147144052728135e-05   2.12094112891437e-06   4.8971070043384046e-06
-1.3147144052728135e-05   2.12094112891437e-06   4.8971070043384046e-06
-1.3147144052728135e-05   2.12094112891437e-06   4.8971070043384046e-06
-1.3147144052728135e-05   2.12094112891437e-06   4.8971070043384046e-06
-1.438089138824255e-05   2.9363612006178506e-06   6.464100520507416e-06
-1.438089138824255e-05   2.9363612006178506e-06   6.464100520507416e-06
-1.438089138824255e-05   2.9363612006178506e-06   6.464100520507416e-06
-1.438089138824255e-05   2.9363612006178506e-06   6.464100520507416e-06
-1.3147144052728135e-05   3.423075841109337e-06   1.0839132033345312e-05
-1.3147144052728135e-05   3.423075841109337e-06   1.0839132033345312e-05
-1.3147144052728135e-05   3.423075841109337e-06   1.0839132033345312e-05
-1.3147144052728135e-05   3.423075841109337e-06   1.0839132033345312e-05
-1.6712359070132404e-05   2.12094112891437e-06   4.115826177021387e-06
-1.6712359070132404e-05   2.12094112891437e-06   4.115826177021387e-06
-1.6712359070132404e-05   2.12094112891437e-06   4.115826177021387e-06
-1.6712359070132404e-05   2.12094112891437e-06   4.115826177021387e-06
-1.742898379771522e-05   2.936898300421502e-06   1.2801998416204965e-05
-1.742898379771522e-05   2.936898300421502e-06   1.2801998416204965e-05
-1.742898379771522e-05   2.936898300421502e-06   1.2801998416204965e-05
-1.742898379771522e-05   2.936898300421502e-06   1.2801998416204965e-05
-1.3339015250446538e-05   1.6967971702213595e-06   6.729444848877267e-06
-1.3339015250446538e-05   1.6967971702213595e-06   6.729444848877267e-06
-1.3339015250446538e-05   1.6967971702213595e-06   6.729444848877267e-06
-1.3339015250446538e-05   1.6967971702213595e-06   6.729444848877267e-06
-1.4538775534320101e-05   2.7343524150883272e-06   8.106512175079549e-06
-1.4538775534320101e-05   2.7343524150883272e-06   8.106512175079549e-06
-1.4538775534320101e-05   2.7343524150883272e-06   8.106512175079549e-06
-1.4538775534320101e-05   2.7343524150883272e-06   8.106512175079549e-06
-6.170437160599736e-06   1.1292473995717445e-06   7.590701136024809e-06
-6.170437160599736e-06   1.1292473995717445e-06   7.590701136024809e-06
-6.170437160599736e-06   1.1292473995717445e-06   7.590701136024809e-06
-6.170437160599736e-06   1.1292473995717445e-06   7.590701136024809e-06
-6.82270688496368e-06   2.1465100429034364e-06   7.113942514750651e-06
-6.82270688496368e-06   2.1465100429034364e-06   7.113942514750651e-06
-6.82270688496368e-06   2.1465100429034364e-06   7.113942514750651e-06
-6.82270688496368e-06   2.1465100429034364e-06   7.113942514750651e-06
-7.001935097214761e-06   7.586301200288633e-07   8.133611572772254e-06
-7.001935097214761e-06   7.586301200288633e-07   8.133611572772254e-06
-7.001935097214761e-06   7.586301200288633e-07   8.133611572772254e-06
-7.001935097214761e-06   7.586301200288633e-07   8.133611572772254e-06
-6.91730403190851e-06   1.6742838627837133e-06   7.443167551609065e-06
-6.91730403190851e-06   1.6742838627837133e-06   7.443167551609065e-06
-6.91730403190851e-06   1.6742838627837133e-06   7.443167551609065e-06
-6.91730403190851e-06   1.6742838627837133e-06   7.443167551609065e-06
-6.563218778181225e-06   1.3325659272954166e-06   7.058056223356536e-06
-6.563218778181225e-06   1.3325659272954166e-06   7.058056223356536e-06
-6.563218778181225e-06   1.3325659272954166e-06   7.058056223356536e-06
-6.563218778181225e-06   1.3325659272954166e-06   7.058056223356536e-06
-6.917304031908524e-06   7.586301200289717e-07   7.584219327119387e-06
-6.917304031908524e-06   7.586301200289717e-07   7.584219327119387e-06
-6.917304031908524e-06   7.586301200289717e-07   7.584219327119387e-06
-6.917304031908524e-06   7.586301200289717e-07   7.584219327119387e-06
-7.001935097214761e-06   1.6742838627837133e-06   7.99255979726189e-06
-7.001935097214761e-06   1.6742838627837133e-06   7.99255979726189e-06
-7.001935097214761e-06   1.6742838627837133e-06   7.99255979726189e-06
-7.001935097214761e-06   1.6742838627837133e-06   7.99255979726189e-06
-7.234410997245157e-06   5.557510484483245e-07   8.379019769555224e-06
-7.234410997245157e-06   5.557510484483245e-07   8.379019769555224e-06
-7.234410997245157e-06   5.557510484483245e-07   8.379019769555224e-06
-7.234410997245157e-06   5.557510484483245e-07   8.379019769555224e-06
-7.64456975309225e-06   1.3489077380317424e-06   8.586723682216843e-06
-7.64456975309225e-06   1.3489077380317424e-06   8.586723682216843e-06
-7.64456975309225e-06   1.3489077380317424e-06   8.586723682216843e-06
-7.64456975309225e-06   1.3489077380317424e-06   8.586723682216843e-06
-7.007342358890495e-06   1.1292044093612862e-06   7.656500022415924e-06
-7.007342358890495e-06   1.1292044093612862e-06   7.656500022415924e-06
-7.007342358890495e-06   1.1292044093612862e-06   7.656500022415924e-06
-7.007342358890495e-06   1.1292044093612862e-06   7.656500022415924e-06
-7.644569753092263e-06   5.557510484483245e-07   7.903125755804935e-06
-7.644569753092263e-06   5.557510484483245e-07   7.903125755804935e-06
-7.644569753092263e-06   5.557510484483245e-07   7.903125755804935e-06
-7.644569753092263e-06   5.557510484483245e-07   7.903125755804935e-06
-7.234410997245157e-06   1.3489077380317424e-06   9.062617695966915e-06
-7.234410997245157e-06   1.3489077380317424e-06   9.062617695966915e-06
-7.234410997245157e-06   1.3489077380317424e-06   9.062617695966915e-06
-7.234410997245157e-06   1.3489077380317424e-06   9.062617695966915e-06
-7.383738135884348e-06   1.2654916519111003e-07   9.188311135334057e-06
-7.383738135884348e-06   1.2654916519111003e-07   9.188311135334057e-06
-7.383738135884348e-06   1.2654916519111003e-07   9.188311135334057e-06
-7.383738135884348e-06   1.2654916519111003e-07   9.188311135334057e-06
-8.419456616191718e-06   5.492089736815913e-07   1.066091271741854e-05
-8.419456616191718e-06   5.492089736815913e-07   1.066091271741854e-05
-8.419456616191718e-06   5.492089736815913e-07   1.066091271741854e-05
-8.419456616191718e-06   5.492089736815913e-07   1.066091271741854e-05
-7.322934355685528e-06   8.809723986412952e-07   8.63431756159891e-06
-7.322934355685528e-06   8.809723986412952e-07   8.63431756159891e-06
-7.322934355685528e-06   8.809723986412952e-07   8.63431756159891e-06
-7.322934355685528e-06   8.809723986412952e-07   8.63431756159891e-06
-6.822706884963667e-06   1.330782733302018e-06   1.5024236504452778e-05
-6.822706884963667e-06   1.330782733302018e-06   1.5024236504452778e-05
-6.822706884963667e-06   1.330782733302018e-06   1.5024236504452778e-05
-6.822706884963667e-06   1.330782733302018e-06   1.5024236504452778e-05
-6.961502098685264e-06   5.562958352575221e-07   1.4328219009423365e-05
-6.961502098685264e-06   5.562958352575221e-07   1.4328219009423365e-05
-6.961502098685264e-06   5.562958352575221e-07   1.4328219009423365e-05
-6.961502098685264e-06   5.562958352575221e-07   1.4328219009423365e-05
-7.0189250563872915e-06   9.175091809305105e-07   1.4454535570386712e-05
-7.0189250563872915e-06   9.175091809305105e-07   1.4454535570386712e-05
-7.0189250563872915e-06   9.175091809305105e-07   1.4454535570386712e-05
-7.0189250563872915e-06   9.175091809305105e-07   1.4454535570386712e-05
-7.001935097214761e-06   2.6454422854041686e-07   1.4817997943199902e-05
-7.001935097214761e-06   2.6454422854041686e-07   1.4817997943199902e-05
-7.001935097214761e-06   2.6454422854041686e-07   1.4817997943199902e-05
-7.001935097214761e-06   2.6454422854041686e-07   1.4817997943199902e-05
-6.930991063963611e-06   6.776593267503487e-07   1.4451888828855298e-05
-6.930991063963611e-06   6.776593267503487e-07   1.4451888828855298e-05
-6.930991063963611e-06   6.776593267503487e-07   1.4451888828855298e-05
-6.930991063963611e-06   6.776593267503487e-07   1.4451888828855298e-05
-7.001935097214751e-06   9.17509180930619e-07   1.4846314541820541e-05
-7.001935097214751e-06   9.17509180930619e-07   1.4846314541820541e-05
-7.001935097214751e-06   9.17509180930619e-07   1.4846314541820541e-05
-7.001935097214751e-06   9.17509180930619e-07   1.4846314541820541e-05
-7.018925056387278e-06   2.6454422854041686e-07   1.4426218971765769e-05
-7.018925056387278e-06   2.6454422854041686e-07   1.4426218971765769e-05
-7.018925056387278e-06   2.6454422854041686e-07   1.4426218971765769e-05
-7.018925056387278e-06   2.6454422854041686e-07   1.4426218971765769e-05
-7.0896805762912725e-06   5.37030172309853e-07   1.464763742316835e-05
-7.0896805762912725e-06   5.37030172309853e-07   1.464763742316835e-05
-7.0896805762912725e-06   5.37030172309853e-07   1.464763742316835e-05
-7.0896805762912725e-06   5.37030172309853e-07   1.464763742316835e-05
-7.234410997245157e-06   -7.17799666872989e-08   1.525414087482303e-05
-7.234410997245157e-06   -7.17799666872989e-08   1.525414087482303e-05
-7.234410997245157e-06   -7.17799666872989e-08   1.525414087482303e-05
-7.234410997245157e-06   -7.17799666872989e-08   1.525414087482303e-05
-7.000932450677702e-06   4.370515608669544e-07   1.455971104734456e-05
-7.000932450677702e-06   4.370515608669544e-07   1.455971104734456e-05
-7.000932450677702e-06   4.370515608669544e-07   1.455971104734456e-05
-7.000932450677702e-06   4.370515608669544e-07   1.455971104734456e-05
-7.234410997245157e-06   5.370301723099614e-07   1.5012923506566424e-05
-7.234410997245157e-06   5.370301723099614e-07   1.5012923506566424e-05
-7.234410997245157e-06   5.370301723099614e-07   1.5012923506566424e-05
-7.234410997245157e-06   5.370301723099614e-07   1.5012923506566424e-05
-7.089680576291259e-06   -7.177996668724469e-08   1.4888854791424719e-05
-7.089680576291259e-06   -7.177996668724469e-08   1.4888854791424719e-05
-7.089680576291259e-06   -7.177996668724469e-08   1.4888854791424719e-05
-7.089680576291259e-06   -7.177996668724469e-08   1.4888854791424719e-05
-7.14230024582368e-06   1.2589916960554278e-07   1.5064040292221508e-05
-7.14230024582368e-06   1.2589916960554278e-07   1.5064040292221508e-05
-7.14230024582368e-06   1.2589916960554278e-07   1.5064040292221508e-05
-7.14230024582368e-06   1.2589916960554278e-07   1.5064040292221508e-05
-7.383738135884338e-06   -5.125183884579576e-07   1.5849487310493983e-05
-7.383738135884338e-06   -5.125183884579576e-07   1.5849487310493983e-05
-7.383738135884338e-06   -5.125183884579576e-07   1.5849487310493983e-05
-7.383738135884338e-06   -5.125183884579576e-07   1.5849487310493983e-05
-7.109673246317415e-06   1.5549983895576241e-07   1.4991901558100506e-05
-7.109673246317415e-06   1.5549983895576241e-07   1.4991901558100506e-05
-7.109673246317415e-06   1.5549983895576241e-07   1.4991901558100506e-05
-7.109673246317415e-06   1.5549983895576241e-07   1.4991901558100506e-05
-6.961502098685291e-06   1.602554090744928e-06   1.6571260195537534e-05
-6.961502098685291e-06   1.602554090744928e-06   1.6571260195537534e-05
-6.961502098685291e-06   1.602554090744928e-06   1.6571260195537534e-05
-6.961502098685291e-06   1.602554090744928e-06   1.6571260195537534e-05
-7.533874490249119e-06   1.5576274245139403e-07   1.4749231400621677e-05
-7.533874490249119e-06   1.5576274245139403e-07   1.4749231400621677e-05
-7.533874490249119e-06   1.5576274245139403e-07   1.4749231400621677e-05
-7.533874490249119e-06   1.5576274245139403e-07   1.4749231400621677e-05
-7.555135634256232e-06   1.2203757104704577e-06   1.5723886389518355e-05
-7.555135634256232e-06   1.2203757104704577e-06   1.5723886389518355e-05
-7.555135634256232e-06   1.2203757104704577e-06   1.5723886389518355e-05
-7.555135634256232e-06   1.2203757104704577e-06   1.5723886389518355e-05
-7.018925056387278e-06   -8.945403782387737e-08   1.561609994204667e-05
-7.018925056387278e-06   -8.945403782387737e-08   1.561609994204667e-05
-7.018925056387278e-06   -8.945403782387737e-08   1.561609994204667e-05
-7.018925056387278e-06   -8.945403782387737e-08   1.561609994204667e-05
-7.255434108299821e-06   6.973068451169391e-07   1.5538225165469792e-05
-7.255434108299821e-06   6.973068451169391e-07   1.5538225165469792e-05
-7.255434108299821e-06   6.973068451169391e-07   1.5538225165469792e-05
-7.255434108299821e-06   6.973068451169391e-07   1.5538225165469792e-05
-7.0189250563872915e-06   1.2203757104704577e-06   1.6509784238494837e-05
-7.0189250563872915e-06   1.2203757104704577e-06   1.6509784238494837e-05
-7.0189250563872915e-06   1.2203757104704577e-06   1.6509784238494837e-05
-7.0189250563872915e-06   1.2203757104704577e-06   1.6509784238494837e-05
-7.555135634256232e-06   -8.945403782393158e-08   1.483020209307004e-05
-7.555135634256232e-06   -8.945403782393158e-08   1.483020209307004e-05
-7.555135634256232e-06   -8.945403782393158e-08   1.483020209307004e-05
-7.555135634256232e-06   -8.945403782393158e-08   1.483020209307004e-05
-7.591515390530806e-06   8.320332768268048e-07   1.5967605532535116e-05
-7.591515390530806e-06   8.320332768268048e-07   1.5967605532535116e-05
-7.591515390530806e-06   8.320332768268048e-07   1.5967605532535116e-05
-7.591515390530806e-06   8.320332768268048e-07   1.5967605532535116e-05
-7.0896805762912725e-06   -3.8300076721741166e-07   1.5860234601895528e-05
-7.0896805762912725e-06   -3.8300076721741166e-07   1.5860234601895528e-05
-7.0896805762912725e-06   -3.8300076721741166e-07   1.5860234601895528e-05
-7.0896805762912725e-06   -3.8300076721741166e-07   1.5860234601895528e-05
-7.262222877078276e-06   4.549518320683425e-07   1.5645033543635375e-05
-7.262222877078276e-06   4.549518320683425e-07   1.5645033543635375e-05
-7.262222877078276e-06   4.549518320683425e-07   1.5645033543635375e-05
-7.262222877078276e-06   4.549518320683425e-07   1.5645033543635375e-05
-7.0896805762912725e-06   8.320332768268048e-07   1.669662595896144e-05
-7.0896805762912725e-06   8.320332768268048e-07   1.669662595896144e-05
-7.0896805762912725e-06   8.320332768268048e-07   1.669662595896144e-05
-7.0896805762912725e-06   8.320332768268048e-07   1.669662595896144e-05
-7.591515390530779e-06   -3.8300076721741166e-07   1.5131214175469041e-05
-7.591515390530779e-06   -3.8300076721741166e-07   1.5131214175469041e-05
-7.591515390530779e-06   -3.8300076721741166e-07   1.5131214175469041e-05
-7.591515390530779e-06   -3.8300076721741166e-07   1.5131214175469041e-05
-7.615928646639039e-06   4.642844847807179e-07   1.640454919530699e-05
-7.615928646639039e-06   4.642844847807179e-07   1.640454919530699e-05
-7.615928646639039e-06   4.642844847807179e-07   1.640454919530699e-05
-7.615928646639039e-06   4.642844847807179e-07   1.640454919530699e-05
-7.142300245823667e-06   -6.769972686019731e-07   1.629993757931082e-05
-7.142300245823667e-06   -6.769972686019731e-07   1.629993757931082e-05
-7.142300245823667e-06   -6.769972686019731e-07   1.629993757931082e-05
-7.142300245823667e-06   -6.769972686019731e-07   1.629993757931082e-05
-7.281235410451597e-06   2.0595824160908344e-07   1.600172288089696e-05
-7.281235410451597e-06   2.0595824160908344e-07   1.600172288089696e-05
-7.281235410451597e-06   2.0595824160908344e-07   1.600172288089696e-05
-7.281235410451597e-06   2.0595824160908344e-07   1.600172288089696e-05
-7.533874490249119e-06   2.1708304428348472e-06   1.350982676416796e-05
-7.533874490249119e-06   2.1708304428348472e-06   1.350982676416796e-05
-7.533874490249119e-06   2.1708304428348472e-06   1.350982676416796e-05
-7.533874490249119e-06   2.1708304428348472e-06   1.350982676416796e-05
-8.34468067251965e-06   7.149603360217171e-07   1.1284961062962562e-05
-8.34468067251965e-06   7.149603360217171e-07   1.1284961062962562e-05
-8.34468067251965e-06   7.149603360217171e-07   1.1284961062962562e-05
-8.34468067251965e-06   7.149603360217171e-07   1.1284961062962562e-05
-8.36134171301739e-06   1.7688440442804052e-06   1.275962463240124e-05
-8.36134171301739e-06   1.7688440442804052e-06   1.275962463240124e-05
-8.36134171301739e-06   1.7688440442804052e-06   1.275962463240124e-05
-8.36134171301739e-06   1.7688440442804052e-06   1.275962463240124e-05
-7.555135634256232e-06   3.9147415158559233e-07   1.2242369770082808e-05
-7.555135634256232e-06   3.9147415158559233e-07   1.2242369770082808e-05
-7.555135634256232e-06   3.9147415158559233e-07   1.2242369770082808e-05
-7.555135634256232e-06   3.9147415158559233e-07   1.2242369770082808e-05
-7.928067703194352e-06   1.290389915866233e-06   1.2324573759744711e-05
-7.928067703194352e-06   1.290389915866233e-06   1.2324573759744711e-05
-7.928067703194352e-06   1.290389915866233e-06   1.2324573759744711e-05
-7.928067703194352e-06   1.290389915866233e-06   1.2324573759744711e-05
-7.555135634256232e-06   1.7688440442805136e-06   1.3586046568017998e-05
-7.555135634256232e-06   1.7688440442805136e-06   1.3586046568017998e-05
-7.555135634256232e-06   1.7688440442805136e-06   1.3586046568017998e-05
-7.555135634256232e-06   1.7688440442805136e-06   1.3586046568017998e-05
-8.36134171301739e-06   3.9147415158559233e-07   1.1415947834465952e-05
-8.36134171301739e-06   3.9147415158559233e-07   1.1415947834465952e-05
-8.36134171301739e-06   3.9147415158559233e-07   1.1415947834465952e-05
-8.36134171301739e-06   3.9147415158559233e-07   1.1415947834465952e-05
-8.454405445174502e-06   1.4108295685592203e-06   1.3230764957668966e-05
-8.454405445174502e-06   1.4108295685592203e-06   1.3230764957668966e-05
-8.454405445174502e-06   1.4108295685592203e-06   1.3230764957668966e-05
-8.454405445174502e-06   1.4108295685592203e-06   1.3230764957668966e-05
-7.591515390530779e-06   1.1424811700670983e-07   1.2570563737527413e-05
-7.591515390530779e-06   1.1424811700670983e-07   1.2570563737527413e-05
-7.591515390530779e-06   1.1424811700670983e-07   1.2570563737527413e-05
-7.591515390530779e-06   1.1424811700670983e-07   1.2570563737527413e-05
-7.908088758064923e-06   1.0252082932104634e-06   1.2551609911028226e-05
-7.908088758064923e-06   1.0252082932104634e-06   1.2551609911028226e-05
-7.908088758064923e-06   1.0252082932104634e-06   1.2551609911028226e-05
-7.908088758064923e-06   1.0252082932104634e-06   1.2551609911028226e-05
-7.591515390530779e-06   1.4108295685591118e-06   1.4008713828600049e-05
-7.591515390530779e-06   1.4108295685591118e-06   1.4008713828600049e-05
-7.591515390530779e-06   1.4108295685591118e-06   1.4008713828600049e-05
-7.591515390530779e-06   1.4108295685591118e-06   1.4008713828600049e-05
-8.454405445174502e-06   1.1424811700670983e-07   1.1792614866596028e-05
-8.454405445174502e-06   1.1424811700670983e-07   1.1792614866596028e-05
-8.454405445174502e-06   1.1424811700670983e-07   1.1792614866596028e-05
-8.454405445174502e-06   1.1424811700670983e-07   1.1792614866596028e-05
-8.51069475434822e-06   1.0456977174191874e-06   1.3815590937600749e-05
-8.51069475434822e-06   1.0456977174191874e-06   1.3815590937600749e-05
-8.51069475434822e-06   1.0456977174191874e-06   1.3815590937600749e-05
-8.51069475434822e-06   1.0456977174191874e-06   1.3815590937600749e-05
-7.615928646639012e-06   -1.6536484349720642e-07   1.3050951627968448e-05
-7.615928646639012e-06   -1.6536484349720642e-07   1.3050951627968448e-05
-7.615928646639012e-06   -1.6536484349720642e-07   1.3050951627968448e-05
-7.615928646639012e-06   -1.6536484349720642e-07   1.3050951627968448e-05
-7.950564576592376e-06   7.88048745358383e-07   1.3036630024577066e-05
-7.950564576592376e-06   7.88048745358383e-07   1.3036630024577066e-05
-7.950564576592376e-06   7.88048745358383e-07   1.3036630024577066e-05
-7.950564576592376e-06   7.88048745358383e-07   1.3036630024577066e-05
-8.344680672519623e-06   2.5722930870466587e-06   5.2171544346906904e-06
-8.344680672519623e-06   2.5722930870466587e-06   5.2171544346906904e-06
-8.344680672519623e-06   2.5722930870466587e-06   5.2171544346906904e-06
-8.344680672519623e-06   2.5722930870466587e-06   5.2171544346906904e-06
-8.283363801968844e-06   1.1833721928036821e-06   4.485996682396319e-06
-8.283363801968844e-06   1.1833721928036821e-06   4.485996682396319e-06
-8.283363801968844e-06   1.1833721928036821e-06   4.485996682396319e-06
-8.283363801968844e-06   1.1833721928036821e-06   4.485996682396319e-06
-8.709519411858116e-06   2.304913188443331e-06   5.719605834199923e-06
-8.709519411858116e-06   2.304913188443331e-06   5.719605834199923e-06
-8.709519411858116e-06   2.304913188443331e-06   5.719605834199923e-06
-8.709519411858116e-06   2.304913188443331e-06   5.719605834199923e-06
-8.361341713017362e-06   9.538099776505325e-07   5.949971595941011e-06
-8.361341713017362e-06   9.538099776505325e-07   5.949971595941011e-06
-8.361341713017362e-06   9.538099776505325e-07   5.949971595941011e-06
-8.361341713017362e-06   9.538099776505325e-07   5.949971595941011e-06
-8.150621625650824e-06   1.8115392580637674e-06   5.084133882082213e-06
-8.150621625650824e-06   1.8115392580637674e-06   5.084133882082213e-06
-8.150621625650824e-06   1.8115392580637674e-06   5.084133882082213e-06
-8.150621625650824e-06   1.8115392580637674e-06   5.084133882082213e-06
-8.36134171301739e-06   2.3049131884434393e-06   6.530267760675374e-06
-8.36134171301739e-06   2.3049131884434393e-06   6.530267760675374e-06
-8.36134171301739e-06   2.3049131884434393e-06   6.530267760675374e-06
-8.36134171301739e-06   2.3049131884434393e-06   6.530267760675374e-06
-8.709519411858116e-06   9.538099776505325e-07   5.139309669465451e-06
-8.709519411858116e-06   9.538099776505325e-07   5.139309669465451e-06
-8.709519411858116e-06   9.538099776505325e-07   5.139309669465451e-06
-8.709519411858116e-06   9.538099776505325e-07   5.139309669465451e-06
-9.083402283278149e-06   2.12094112891437e-06   6.778774511999926e-06
-9.083402283278149e-06   2.12094112891437e-06   6.778774511999926e-06
-9.083402283278149e-06   2.12094112891437e-06   6.778774511999926e-06
-9.083402283278149e-06   2.12094112891437e-06   6.778774511999926e-06
-8.454405445174474e-06   8.038637401984092e-07   6.520692881723227e-06
-8.454405445174474e-06   8.038637401984092e-07   6.520692881723227e-06
-8.454405445174474e-06   8.038637401984092e-07   6.520692881723227e-06
-8.454405445174474e-06   8.038637401984092e-07   6.520692881723227e-06
-8.455406358711342e-06   1.6784448974590084e-06   5.9976123765946815e-06
-8.455406358711342e-06   1.6784448974590084e-06   5.9976123765946815e-06
-8.455406358711342e-06   1.6784448974590084e-06   5.9976123765946815e-06
-8.455406358711342e-06   1.6784448974590084e-06   5.9976123765946815e-06
-8.454405445174474e-06   2.12094112891437e-06   7.569020945229243e-06
-8.454405445174474e-06   2.12094112891437e-06   7.569020945229243e-06
-8.454405445174474e-06   2.12094112891437e-06   7.569020945229243e-06
-8.454405445174474e-06   2.12094112891437e-06   7.569020945229243e-06
-9.083402283278149e-06   8.038637401984634e-07   5.730446448493667e-06
-9.083402283278149e-06   8.038637401984634e-07   5.730446448493667e-06
-9.083402283278149e-06   8.038637401984634e-07   5.730446448493667e-06
-9.083402283278149e-06   8.038637401984634e-07   5.730446448493667e-06
-9.636811765890985e-06   1.6967971702213595e-06   8.723934484778707e-06
-9.636811765890985e-06   1.6967971702213595e-06   8.723934484778707e-06
-9.636811765890985e-06   1.6967971702213595e-06   8.723934484778707e-06
-9.636811765890985e-06   1.6967971702213595e-06   8.723934484778707e-06
-8.51069475434822e-06   5.00436824459429e-07   7.564889006331059e-06
-8.51069475434822e-06   5.00436824459429e-07   7.564889006331059e-06
-8.51069475434822e-06   5.00436824459429e-07   7.564889006331059e-06
-8.51069475434822e-06   5.00436824459429e-07   7.564889006331059e-06
-8.55869697956332e-06   1.518764804832361e-06   7.033895926798501e-06
-8.55869697956332e-06   1.518764804832361e-06   7.033895926798501e-06
-8.55869697956332e-06   1.518764804832361e-06   7.033895926798501e-06
-8.55869697956332e-06   1.518764804832361e-06   7.033895926798501e-06
-1.6203594507173702e-05   2.1465100429034364e-06   6.376397938593747e-06
-1.6203594507173702e-05   2.1465100429034364e-06   6.376397938593747e-06
-1.6203594507173702e-05   2.1465100429034364e-06   6.376397938593747e-06
-1.6203594507173702e-05   2.1465100429034364e-06   6.376397938593747e-06
-1.0972096940079061e-05   2.968212949728898e-06   1.5588582294513416e-05
-1.0972096940079061e-05   2.968212949728898e-06   1.5588582294513416e-05
-1.0972096940079061e-05   2.968212949728898e-06   1.5588582294513416e-05
-1.0972096940079061e-05   2.968212949728898e-06   1.5588582294513416e-05
-1.0969113468004615e-05   1.6742838627837133e-06   7.212794630502984e-06
-1.0969113468004615e-05   1.6742838627837133e-06   7.212794630502984e-06
-1.0969113468004615e-05   1.6742838627837133e-06   7.212794630502984e-06
-1.0969113468004615e-05   1.6742838627837133e-06   7.212794630502984e-06
-1.7866521003509298e-05   1.1864726665813561e-06   1.9001160574065664e-05
-1.7866521003509298e-05   1.1864726665813561e-06   1.9001160574065664e-05
-1.7866521003509298e-05   1.1864726665813561e-06   1.9001160574065664e-05
-1.7866521003509298e-05   1.1864726665813561e-06   1.9001160574065664e-05
-1.3279567307334313e-05   1.7552089731712726e-06   1.1014995963153367e-05
-1.3279567307334313e-05   1.7552089731712726e-06   1.1014995963153367e-05
-1.3279567307334313e-05   1.7552089731712726e-06   1.1014995963153367e-05
-1.3279567307334313e-05   1.7552089731712726e-06   1.1014995963153367e-05
-1.7866521003509332e-05   1.6742838627837133e-06   7.505481348224344e-06
-1.7866521003509332e-05   1.6742838627837133e-06   7.505481348224344e-06
-1.7866521003509332e-05   1.6742838627837133e-06   7.505481348224344e-06
-1.7866521003509332e-05   1.6742838627837133e-06   7.505481348224344e-06
-1.0969113468004615e-05   1.1864726665813561e-06   1.8708473856344257e-05
-1.0969113468004615e-05   1.1864726665813561e-06   1.8708473856344257e-05
-1.0969113468004615e-05   1.1864726665813561e-06   1.8708473856344257e-05
-1.0969113468004615e-05   1.1864726665813561e-06   1.8708473856344257e-05
-1.112448436770566e-05   1.3489077380317424e-06   8.053415371639074e-06
-1.112448436770566e-05   1.3489077380317424e-06   8.053415371639074e-06
-1.112448436770566e-05   1.3489077380317424e-06   8.053415371639074e-06
-1.112448436770566e-05   1.3489077380317424e-06   8.053415371639074e-06
-1.793460461716657e-05   8.457193649527204e-07   1.9705528811254587e-05
-1.793460461716657e-05   8.457193649527204e-07   1.9705528811254587e-05
-1.793460461716657e-05   8.457193649527204e-07   1.9705528811254587e-05
-1.793460461716657e-05   8.457193649527204e-07   1.9705528811254587e-05
-1.4179592619344472e-05   1.0906795247445024e-06   1.3300199385675855e-05
-1.4179592619344472e-05   1.0906795247445024e-06   1.3300199385675855e-05
-1.4179592619344472e-05   1.0906795247445024e-06   1.3300199385675855e-05
-1.4179592619344472e-05   1.0906795247445024e-06   1.3300199385675855e-05
-1.7934604617166603e-05   1.3489077380317424e-06   8.35532839548646e-06
-1.7934604617166603e-05   1.3489077380317424e-06   8.35532839548646e-06
-1.7934604617166603e-05   1.3489077380317424e-06   8.35532839548646e-06
-1.7934604617166603e-05   1.3489077380317424e-06   8.35532839548646e-06
-1.112448436770564e-05   8.457193649527204e-07   1.9403615787407208e-05
-1.112448436770564e-05   8.457193649527204e-07   1.9403615787407208e-05
-1.112448436770564e-05   8.457193649527204e-07   1.9403615787407208e-05
-1.112448436770564e-05   8.457193649527204e-07   1.9403615787407208e-05
-1.1011386329905671e-05   5.492089736815913e-07   9.522627749911008e-06
-1.1011386329905671e-05   5.492089736815913e-07   9.522627749911008e-06
-1.1011386329905671e-05   5.492089736815913e-07   9.522627749911008e-06
-1.1011386329905671e-05   5.492089736815913e-07   9.522627749911008e-06
-1.8137679201569637e-05   -6.067266463915773e-07   2.209334390806144e-05
-1.8137679201569637e-05   -6.067266463915773e-07   2.209334390806144e-05
-1.8137679201569637e-05   -6.067266463915773e-07   2.209334390806144e-05
-1.8137679201569637e-05   -6.067266463915773e-07   2.209334390806144e-05
-1.3968996022503228e-05   5.21809342785679e-07   1.4468417016111107e-05
-1.3968996022503228e-05   5.21809342785679e-07   1.4468417016111107e-05
-1.3968996022503228e-05   5.21809342785679e-07   1.4468417016111107e-05
-1.3968996022503228e-05   5.21809342785679e-07   1.4468417016111107e-05
-1.0972096940079078e-05   5.562958352575763e-07   1.4548388316188527e-05
-1.0972096940079078e-05   5.562958352575763e-07   1.4548388316188527e-05
-1.0972096940079078e-05   5.562958352575763e-07   1.4548388316188527e-05
-1.0972096940079078e-05   5.562958352575763e-07   1.4548388316188527e-05
-6.748139268646634e-06   -3.403116581656134e-06   1.9212670318427723e-05
-6.748139268646634e-06   -3.403116581656134e-06   1.9212670318427723e-05
-6.748139268646634e-06   -3.403116581656134e-06   1.9212670318427723e-05
-6.748139268646634e-06   -3.403116581656134e-06   1.9212670318427723e-05
-6.765519094879542e-06   2.6454422854041686e-07   1.2204186159900788e-05
-6.765519094879542e-06   2.6454422854041686e-07   1.2204186159900788e-05
-6.765519094879542e-06   2.6454422854041686e-07   1.2204186159900788e-05
-6.765519094879542e-06   2.6454422854041686e-07   1.2204186159900788e-05
-1.0969113468004615e-05   -2.7922001323598994e-06   2.1044223398316255e-05
-1.0969113468004615e-05   -2.7922001323598994e-06   2.1044223398316255e-05
-1.0969113468004615e-05   -2.7922001323598994e-06   2.1044223398316255e-05
-1.0969113468004615e-05   -2.7922001323598994e-06   2.1044223398316255e-05
-8.818080483492891e-06   -1.6839915816361812e-06   1.67942432936959e-05
-8.818080483492891e-06   -1.6839915816361812e-06   1.67942432936959e-05
-8.818080483492891e-06   -1.6839915816361812e-06   1.67942432936959e-05
-8.818080483492891e-06   -1.6839915816361812e-06   1.67942432936959e-05
-1.0969113468004628e-05   2.6454422854041686e-07   1.403823277644088e-05
-1.0969113468004628e-05   2.6454422854041686e-07   1.403823277644088e-05
-1.0969113468004628e-05   2.6454422854041686e-07   1.403823277644088e-05
-1.0969113468004628e-05   2.6454422854041686e-07   1.403823277644088e-05
-6.765519094879528e-06   -2.7922001323598994e-06   1.9210176781776068e-05
-6.765519094879528e-06   -2.7922001323598994e-06   1.9210176781776068e-05
-6.765519094879528e-06   -2.7922001323598994e-06   1.9210176781776068e-05
-6.765519094879528e-06   -2.7922001323598994e-06   1.9210176781776068e-05
-6.797390827469423e-06   -7.17799666872989e-08   1.2575829650408616e-05
-6.797390827469423e-06   -7.17799666872989e-08   1.2575829650408616e-05
-6.797390827469423e-06   -7.17799666872989e-08   1.2575829650408616e-05
-6.797390827469423e-06   -7.17799666872989e-08   1.2575829650408616e-05
-1.112448436770564e-05   -2.853628133498402e-06   2.1456761117555502e-05
-1.112448436770564e-05   -2.853628133498402e-06   2.1456761117555502e-05
-1.112448436770564e-05   -2.853628133498402e-06   2.1456761117555502e-05
-1.112448436770564e-05   -2.853628133498402e-06   2.1456761117555502e-05
-8.757516571598515e-06   -1.471552630041026e-06   1.668256948863576e-05
-8.757516571598515e-06   -1.471552630041026e-06   1.668256948863576e-05
-8.757516571598515e-06   -1.471552630041026e-06   1.668256948863576e-05
-8.757516571598515e-06   -1.471552630041026e-06   1.668256948863576e-05
-1.112448436770566e-05   -7.17799666872989e-08   1.4244938550495197e-05
-1.112448436770566e-05   -7.17799666872989e-08   1.4244938550495197e-05
-1.112448436770566e-05   -7.17799666872989e-08   1.4244938550495197e-05
-1.112448436770566e-05   -7.17799666872989e-08   1.4244938550495197e-05
-6.79739082746941e-06   -2.853628133498402e-06   1.978765221746884e-05
-6.79739082746941e-06   -2.853628133498402e-06   1.978765221746884e-05
-6.79739082746941e-06   -2.853628133498402e-06   1.978765221746884e-05
-6.79739082746941e-06   -2.853628133498402e-06   1.978765221746884e-05
-6.737394667281671e-06   -5.125183884579576e-07   1.3040572463346499e-05
-6.737394667281671e-06   -5.125183884579576e-07   1.3040572463346499e-05
-6.737394667281671e-06   -5.125183884579576e-07   1.3040572463346499e-05
-6.737394667281671e-06   -5.125183884579576e-07   1.3040572463346499e-05
-1.1011386329905644e-05   -2.874241712700704e-06   2.158092589559863e-05
-1.1011386329905644e-05   -2.874241712700704e-06   2.158092589559863e-05
-1.1011386329905644e-05   -2.874241712700704e-06   2.158092589559863e-05
-1.1011386329905644e-05   -2.874241712700704e-06   2.158092589559863e-05
-8.803903407723265e-06   -1.6486656662254647e-06   1.7166442064076254e-05
-8.803903407723265e-06   -1.6486656662254647e-06   1.7166442064076254e-05
-8.803903407723265e-06   -1.6486656662254647e-06   1.7166442064076254e-05
-8.803903407723265e-06   -1.6486656662254647e-06   1.7166442064076254e-05
-6.748139268646634e-06   1.5576274245139403e-07   1.346182806621465e-05
-6.748139268646634e-06   1.5576274245139403e-07   1.346182806621465e-05
-6.748139268646634e-06   1.5576274245139403e-07   1.346182806621465e-05
-6.748139268646634e-06   1.5576274245139403e-07   1.346182806621465e-05
-4.9850168289400365e-06   -2.6591185998118183e-06   1.4711436660367761e-05
-4.9850168289400365e-06   -2.6591185998118183e-06   1.4711436660367761e-05
-4.9850168289400365e-06   -2.6591185998118183e-06   1.4711436660367761e-05
-4.9850168289400365e-06   -2.6591185998118183e-06   1.4711436660367761e-05
-4.944850421241564e-06   -8.945403782387737e-08   1.1880784956114839e-05
-4.944850421241564e-06   -8.945403782387737e-08   1.1880784956114839e-05
-4.944850421241564e-06   -8.945403782387737e-08   1.1880784956114839e-05
-4.944850421241564e-06   -8.945403782387737e-08   1.1880784956114839e-05
-6.765519094879528e-06   -2.611590994601882e-06   1.6428514919578357e-05
-6.765519094879528e-06   -2.611590994601882e-06   1.6428514919578357e-05
-6.765519094879528e-06   -2.611590994601882e-06   1.6428514919578357e-05
-6.765519094879528e-06   -2.611590994601882e-06   1.6428514919578357e-05
-5.8255291799257355e-06   -1.34261953115358e-06   1.4100482183253195e-05
-5.8255291799257355e-06   -1.34261953115358e-06   1.4100482183253195e-05
-5.8255291799257355e-06   -1.34261953115358e-06   1.4100482183253195e-05
-5.8255291799257355e-06   -1.34261953115358e-06   1.4100482183253195e-05
-6.765519094879528e-06   -8.945403782387737e-08   1.3394067130181636e-05
-6.765519094879528e-06   -8.945403782387737e-08   1.3394067130181636e-05
-6.765519094879528e-06   -8.945403782387737e-08   1.3394067130181636e-05
-6.765519094879528e-06   -8.945403782387737e-08   1.3394067130181636e-05
-4.944850421241591e-06   -2.611590994601882e-06   1.4915232745511529e-05
-4.944850421241591e-06   -2.611590994601882e-06   1.4915232745511529e-05
-4.944850421241591e-06   -2.611590994601882e-06   1.4915232745511529e-05
-4.944850421241591e-06   -2.611590994601882e-06   1.4915232745511529e-05
-4.911870440034091e-06   -3.8300076721741166e-07   1.216286627895262e-05
-4.911870440034091e-06   -3.8300076721741166e-07   1.216286627895262e-05
-4.911870440034091e-06   -3.8300076721741166e-07   1.216286627895262e-05
-4.911870440034091e-06   -3.8300076721741166e-07   1.216286627895262e-05
-6.79739082746941e-06   -2.6902394037620764e-06   1.6689743439938235e-05
-6.79739082746941e-06   -2.6902394037620764e-06   1.6689743439938235e-05
-6.79739082746941e-06   -2.6902394037620764e-06   1.6689743439938235e-05
-6.79739082746941e-06   -2.6902394037620764e-06   1.6689743439938235e-05
-5.778509539261341e-06   -1.4294093013103495e-06   1.4235109898120066e-05
-5.778509539261341e-06   -1.4294093013103495e-06   1.4235109898120066e-05
-5.778509539261341e-06   -1.4294093013103495e-06   1.4235109898120066e-05
-5.778509539261341e-06   -1.4294093013103495e-06   1.4235109898120066e-05
-6.79739082746941e-06   -3.8300076721741166e-07   1.3547209460879452e-05
-6.79739082746941e-06   -3.8300076721741166e-07   1.3547209460879452e-05
-6.79739082746941e-06   -3.8300076721741166e-07   1.3547209460879452e-05
-6.79739082746941e-06   -3.8300076721741166e-07   1.3547209460879452e-05
-4.911870440034091e-06   -2.6902394037620764e-06   1.530540025801147e-05
-4.911870440034091e-06   -2.6902394037620764e-06   1.530540025801147e-05
-4.911870440034091e-06   -2.6902394037620764e-06   1.530540025801147e-05
-4.911870440034091e-06   -2.6902394037620764e-06   1.530540025801147e-05
-4.82170077064747e-06   -6.769972686019188e-07   1.2600351551314624e-05
-4.82170077064747e-06   -6.769972686019188e-07   1.2600351551314624e-05
-4.82170077064747e-06   -6.769972686019188e-07   1.2600351551314624e-05
-4.82170077064747e-06   -6.769972686019188e-07   1.2600351551314624e-05
-6.737394667281671e-06   -2.799866794746627e-06   1.7066896428058346e-05
-6.737394667281671e-06   -2.799866794746627e-06   1.7066896428058346e-05
-6.737394667281671e-06   -2.799866794746627e-06   1.7066896428058346e-05
-6.737394667281671e-06   -2.799866794746627e-06   1.7066896428058346e-05
-5.7238733913328205e-06   -1.557026186229304e-06   1.4631989936366634e-05
-5.7238733913328205e-06   -1.557026186229304e-06   1.4631989936366634e-05
-5.7238733913328205e-06   -1.557026186229304e-06   1.4631989936366634e-05
-5.7238733913328205e-06   -1.557026186229304e-06   1.4631989936366634e-05
-4.9850168289400365e-06   7.149603360217171e-07   9.18215098728544e-06
-4.9850168289400365e-06   7.149603360217171e-07   9.18215098728544e-06
-4.9850168289400365e-06   7.149603360217171e-07   9.18215098728544e-06
-4.9850168289400365e-06   7.149603360217171e-07   9.18215098728544e-06
-4.1802705440247955e-06   -1.0931891249167614e-06   9.438505118914428e-06
-4.1802705440247955e-06   -1.0931891249167614e-06   9.438505118914428e-06
-4.1802705440247955e-06   -1.0931891249167614e-06   9.438505118914428e-06
-4.1802705440247955e-06   -1.0931891249167614e-06   9.438505118914428e-06
-4.095517695312367e-06   3.9147415158559233e-07   8.291417436994374e-06
-4.095517695312367e-06   3.9147415158559233e-07   8.291417436994374e-06
-4.095517695312367e-06   3.9147415158559233e-07   8.291417436994374e-06
-4.095517695312367e-06   3.9147415158559233e-07   8.291417436994374e-06
-4.944850421241564e-06   -1.2777511753030526e-06   1.0708507176343085e-05
-4.944850421241564e-06   -1.2777511753030526e-06   1.0708507176343085e-05
-4.944850421241564e-06   -1.2777511753030526e-06   1.0708507176343085e-05
-4.944850421241564e-06   -1.2777511753030526e-06   1.0708507176343085e-05
-4.518426811932625e-06   -2.4972863197644064e-07   9.380987634832446e-06
-4.518426811932625e-06   -2.4972863197644064e-07   9.380987634832446e-06
-4.518426811932625e-06   -2.4972863197644064e-07   9.380987634832446e-06
-4.518426811932625e-06   -2.4972863197644064e-07   9.380987634832446e-06
-4.944850421241564e-06   3.9147415158559233e-07   9.292952633127593e-06
-4.944850421241564e-06   3.9147415158559233e-07   9.292952633127593e-06
-4.944850421241564e-06   3.9147415158559233e-07   9.292952633127593e-06
-4.944850421241564e-06   3.9147415158559233e-07   9.292952633127593e-06
-4.095517695312367e-06   -1.2777511753030526e-06   9.706971980209892e-06
-4.095517695312367e-06   -1.2777511753030526e-06   9.706971980209892e-06
-4.095517695312367e-06   -1.2777511753030526e-06   9.706971980209892e-06
-4.095517695312367e-06   -1.2777511753030526e-06   9.706971980209892e-06
-4.060266634431397e-06   1.1424811700670983e-07   8.68203445176575e-06
-4.060266634431397e-06   1.1424811700670983e-07   8.68203445176575e-06
-4.060266634431397e-06   1.1424811700670983e-07   8.68203445176575e-06
-4.060266634431397e-06   1.1424811700670983e-07   8.68203445176575e-06
-4.911870440034091e-06   -1.4193875317355237e-06   1.102155551701542e-05
-4.911870440034091e-06   -1.4193875317355237e-06   1.102155551701542e-05
-4.911870440034091e-06   -1.4193875317355237e-06   1.102155551701542e-05
-4.911870440034091e-06   -1.4193875317355237e-06   1.102155551701542e-05
-4.4342187341273466e-06   -4.4607011047566834e-07   9.641478887747773e-06
-4.4342187341273466e-06   -4.4607011047566834e-07   9.641478887747773e-06
-4.4342187341273466e-06   -4.4607011047566834e-07   9.641478887747773e-06
-4.4342187341273466e-06   -4.4607011047566834e-07   9.641478887747773e-06
-4.911870440034091e-06   1.1424811700670983e-07   9.602215841010965e-06
-4.911870440034091e-06   1.1424811700670983e-07   9.602215841010965e-06
-4.911870440034091e-06   1.1424811700670983e-07   9.602215841010965e-06
-4.911870440034091e-06   1.1424811700670983e-07   9.602215841010965e-06
-4.060266634431397e-06   -1.4193875317355237e-06   1.0101374127770014e-05
-4.060266634431397e-06   -1.4193875317355237e-06   1.0101374127770014e-05
-4.060266634431397e-06   -1.4193875317355237e-06   1.0101374127770014e-05
-4.060266634431397e-06   -1.4193875317355237e-06   1.0101374127770014e-05
-3.998842288662277e-06   -1.6536484349726063e-07   9.172556884311125e-06
-3.998842288662277e-06   -1.6536484349726063e-07   9.172556884311125e-06
-3.998842288662277e-06   -1.6536484349726063e-07   9.172556884311125e-06
-3.998842288662277e-06   -1.6536484349726063e-07   9.172556884311125e-06
-4.82170077064747e-06   -1.604661122981847e-06   1.1407565455310513e-05
-4.82170077064747e-06   -1.604661122981847e-06   1.1407565455310513e-05
-4.82170077064747e-06   -1.604661122981847e-06   1.1407565455310513e-05
-4.82170077064747e-06   -1.604661122981847e-06   1.1407565455310513e-05
-4.370753895033803e-06   -6.186143530348886e-07   1.0064359267319728e-05
-4.370753895033803e-06   -6.186143530348886e-07   1.0064359267319728e-05
-4.370753895033803e-06   -6.186143530348886e-07   1.0064359267319728e-05
-4.370753895033803e-06   -6.186143530348886e-07   1.0064359267319728e-05
-4.1802705440247955e-06   1.1833721928036821e-06   2.1316494667019867e-06
-4.1802705440247955e-06   1.1833721928036821e-06   2.1316494667019867e-06
-4.1802705440247955e-06   1.1833721928036821e-06   2.1316494667019867e-06
-4.1802705440247955e-06   1.1833721928036821e-06   2.1316494667019867e-06
-2.4548117905907906e-06   -1.1900547455944853e-07   4.22598745534081e-06
-2.4548117905907906e-06   -1.1900547455944853e-07   4.22598745534081e-06
-2.4548117905907906e-06   -1.1900547455944853e-07   4.22598745534081e-06
-2.4548117905907906e-06   -1.1900547455944853e-07   4.22598745534081e-06
-2.5981961765659633e-06   9.538099776505325e-07   2.1527661861355353e-06
-2.5981961765659633e-06   9.538099776505325e-07   2.1527661861355353e-06
-2.5981961765659633e-06   9.538099776505325e-07   2.1527661861355353e-06
-2.5981961765659633e-06   9.538099776505325e-07   2.1527661861355353e-06
-4.095517695312367e-06   -1.673150429062594e-07   5.320977063046908e-06
-4.095517695312367e-06   -1.673150429062594e-07   5.320977063046908e-06
-4.095517695312367e-06   -1.673150429062594e-07   5.320977063046908e-06
-4.095517695312367e-06   -1.673150429062594e-07   5.320977063046908e-06
-3.2175022284531543e-06   6.091574296378959e-07   3.3917344680887735e-06
-3.2175022284531543e-06   6.091574296378959e-07   3.3917344680887735e-06
-3.2175022284531543e-06   6.091574296378959e-07   3.3917344680887735e-06
-3.2175022284531543e-06   6.091574296378959e-07   3.3917344680887735e-06
-4.095517695312312e-06   9.538099776505325e-07   2.825441198469388e-06
-4.095517695312312e-06   9.538099776505325e-07   2.825441198469388e-06
-4.095517695312312e-06   9.538099776505325e-07   2.825441198469388e-06
-4.095517695312312e-06   9.538099776505325e-07   2.825441198469388e-06
-2.598196176565909e-06   -1.673150429062323e-07   4.648302050712892e-06
-2.598196176565909e-06   -1.673150429062323e-07   4.648302050712892e-06
-2.598196176565909e-06   -1.673150429062323e-07   4.648302050712892e-06
-2.598196176565909e-06   -1.673150429062323e-07   4.648302050712892e-06
-2.7165343850610963e-06   8.038637401984092e-07   2.788443529059821e-06
-2.7165343850610963e-06   8.038637401984092e-07   2.788443529059821e-06
-2.7165343850610963e-06   8.038637401984092e-07   2.788443529059821e-06
-2.7165343850610963e-06   8.038637401984092e-07   2.788443529059821e-06
-4.060266634431397e-06   -2.322511561900502e-07   5.649666215843275e-06
-4.060266634431397e-06   -2.322511561900502e-07   5.649666215843275e-06
-4.060266634431397e-06   -2.322511561900502e-07   5.649666215843275e-06
-4.060266634431397e-06   -2.322511561900502e-07   5.649666215843275e-06
-3.279469970381778e-06   4.9646082940269e-07   3.911111251071395e-06
-3.279469970381778e-06   4.9646082940269e-07   3.911111251071395e-06
-3.279469970381778e-06   4.9646082940269e-07   3.911111251071395e-06
-3.279469970381778e-06   4.9646082940269e-07   3.911111251071395e-06
-4.060266634431397e-06   8.038637401984092e-07   3.410112466892864e-06
-4.060266634431397e-06   8.038637401984092e-07   3.410112466892864e-06
-4.060266634431397e-06   8.038637401984092e-07   3.410112466892864e-06
-4.060266634431397e-06   8.038637401984092e-07   3.410112466892864e-06
-2.7165343850610963e-06   -2.322511561900502e-07   5.027997278010286e-06
-2.7165343850610963e-06   -2.322511561900502e-07   5.027997278010286e-06
-2.7165343850610963e-06   -2.322511561900502e-07   5.027997278010286e-06
-2.7165343850610963e-06   -2.322511561900502e-07   5.027997278010286e-06
-2.999105377698161e-06   5.00436824459429e-07   3.925298378158878e-06
-2.999105377698161e-06   5.00436824459429e-07   3.925298378158878e-06
-2.999105377698161e-06   5.00436824459429e-07   3.925298378158878e-06
-2.999105377698161e-06   5.00436824459429e-07   3.925298378158878e-06
-3.998842288662277e-06   -3.126188773152055e-07   6.079359984163661e-06
-3.998842288662277e-06   -3.126188773152055e-07   6.079359984163661e-06
-3.998842288662277e-06   -3.126188773152055e-07   6.079359984163661e-06
-3.998842288662277e-06   -3.126188773152055e-07   6.079359984163661e-06
-3.291334466814914e-06   4.193842660231732e-07   4.460978395081825e-06
-3.291334466814914e-06   4.193842660231732e-07   4.460978395081825e-06
-3.291334466814914e-06   4.193842660231732e-07   4.460978395081825e-06
-3.291334466814914e-06   4.193842660231732e-07   4.460978395081825e-06
-3.813788140328605e-05   2.968212949728898e-06   1.655111334703457e-05
-3.813788140328605e-05   2.968212949728898e-06   1.655111334703457e-05
-3.813788140328605e-05   2.968212949728898e-06   1.655111334703457e-05
-3.813788140328605e-05   2.968212949728898e-06   1.655111334703457e-05
-8.941850809049476e-06   -1.88910977621128e-05   5.20955779103239e-05
-8.941850809049476e-06   -1.88910977621128e-05   5.20955779103239e-05
-8.941850809049476e-06   -1.88910977621128e-05   5.20955779103239e-05
-8.941850809049476e-06   -1.88910977621128e-05   5.20955779103239e-05
-1.051184031263324e-05   1.1864726665813832e-06   9.06452378280251e-06
-1.051184031263324e-05   1.1864726665813832e-06   9.06452378280251e-06
-1.051184031263324e-05   1.1864726665813832e-06   9.06452378280251e-06
-1.051184031263324e-05   1.1864726665813832e-06   9.06452378280251e-06
-3.478301895457384e-05   -1.4721594212868192e-05   5.9061328313706526e-05
-3.478301895457384e-05   -1.4721594212868192e-05   5.9061328313706526e-05
-3.478301895457384e-05   -1.4721594212868192e-05   5.9061328313706526e-05
-3.478301895457384e-05   -1.4721594212868192e-05   5.9061328313706526e-05
-2.3185119193499718e-05   -7.327430896649124e-06   3.5294997388851534e-05
-2.3185119193499718e-05   -7.327430896649124e-06   3.5294997388851534e-05
-2.3185119193499718e-05   -7.327430896649124e-06   3.5294997388851534e-05
-2.3185119193499718e-05   -7.327430896649124e-06   3.5294997388851534e-05
-3.478301895457378e-05   1.1864726665813832e-06   1.8609363910472256e-05
-3.478301895457378e-05   1.1864726665813832e-06   1.8609363910472256e-05
-3.478301895457378e-05   1.1864726665813832e-06   1.8609363910472256e-05
-3.478301895457378e-05   1.1864726665813832e-06   1.8609363910472256e-05
-1.051184031263326e-05   -1.4721594212868192e-05   4.951648818603678e-05
-1.051184031263326e-05   -1.4721594212868192e-05   4.951648818603678e-05
-1.051184031263326e-05   -1.4721594212868192e-05   4.951648818603678e-05
-1.051184031263326e-05   -1.4721594212868192e-05   4.951648818603678e-05
-1.0757726692142075e-05   8.457193649527204e-07   9.962318636767061e-06
-1.0757726692142075e-05   8.457193649527204e-07   9.962318636767061e-06
-1.0757726692142075e-05   8.457193649527204e-07   9.962318636767061e-06
-1.0757726692142075e-05   8.457193649527204e-07   9.962318636767061e-06
-3.2820547599064225e-05   -1.2717632644100722e-05   5.487169802040261e-05
-3.2820547599064225e-05   -1.2717632644100722e-05   5.487169802040261e-05
-3.2820547599064225e-05   -1.2717632644100722e-05   5.487169802040261e-05
-3.2820547599064225e-05   -1.2717632644100722e-05   5.487169802040261e-05
-2.249810640011678e-05   -6.946070665768238e-06   3.420469216849076e-05
-2.249810640011678e-05   -6.946070665768238e-06   3.420469216849076e-05
-2.249810640011678e-05   -6.946070665768238e-06   3.420469216849076e-05
-2.249810640011678e-05   -6.946070665768238e-06   3.420469216849076e-05
-3.2820547599064164e-05   8.457193649527204e-07   1.8100329842199106e-05
-3.2820547599064164e-05   8.457193649527204e-07   1.8100329842199106e-05
-3.2820547599064164e-05   8.457193649527204e-07   1.8100329842199106e-05
-3.2820547599064164e-05   8.457193649527204e-07   1.8100329842199106e-05
-1.0757726692142095e-05   -1.2717632644100722e-05   4.673368681497056e-05
-1.0757726692142095e-05   -1.2717632644100722e-05   4.673368681497056e-05
-1.0757726692142095e-05   -1.2717632644100722e-05   4.673368681497056e-05
-1.0757726692142095e-05   -1.2717632644100722e-05   4.673368681497056e-05
-1.1800611395167528e-05   -6.067266463916044e-07   1.246748816219826e-05
-1.1800611395167528e-05   -6.067266463916044e-07   1.246748816219826e-05
-1.1800611395167528e-05   -6.067266463916044e-07   1.246748816219826e-05
-1.1800611395167528e-05   -6.067266463916044e-07   1.246748816219826e-05
-3.0302233317886664e-05   -1.0053091077884262e-05   4.8971343358959e-05
-3.0302233317886664e-05   -1.0053091077884262e-05   4.8971343358959e-05
-3.0302233317886664e-05   -1.0053091077884262e-05   4.8971343358959e-05
-3.0302233317886664e-05   -1.0053091077884262e-05   4.8971343358959e-05
-2.1648493734981414e-05   -6.413665491093582e-06   3.236478870204253e-05
-2.1648493734981414e-05   -6.413665491093582e-06   3.236478870204253e-05
-2.1648493734981414e-05   -6.413665491093582e-06   3.236478870204253e-05
-2.1648493734981414e-05   -6.413665491093582e-06   3.236478870204253e-05
-8.941850809049462e-06   -3.403116581656134e-06   9.43526239399208e-06
-8.941850809049462e-06   -3.403116581656134e-06   9.43526239399208e-06
-8.941850809049462e-06   -3.403116581656134e-06   9.43526239399208e-06
-8.941850809049462e-06   -3.403116581656134e-06   9.43526239399208e-06
-3.1078074634522578e-06   -5.926619521512667e-06   1.764456620607354e-05
-3.1078074634522578e-06   -5.926619521512667e-06   1.764456620607354e-05
-3.1078074634522578e-06   -5.926619521512667e-06   1.764456620607354e-05
-3.1078074634522578e-06   -5.926619521512667e-06   1.764456620607354e-05
-3.481376132289082e-06   -2.7922001323599265e-06   8.378642362788795e-06
-3.481376132289082e-06   -2.7922001323599265e-06   8.378642362788795e-06
-3.481376132289082e-06   -2.7922001323599265e-06   8.378642362788795e-06
-3.481376132289082e-06   -2.7922001323599265e-06   8.378642362788795e-06
-1.051184031263326e-05   -7.828251735669506e-06   2.3117713625348067e-05
-1.051184031263326e-05   -7.828251735669506e-06   2.3117713625348067e-05
-1.051184031263326e-05   -7.828251735669506e-06   2.3117713625348067e-05
-1.051184031263326e-05   -7.828251735669506e-06   2.3117713625348067e-05
-6.171067585836527e-06   -4.090802507546252e-06   1.3640622877146195e-05
-6.171067585836527e-06   -4.090802507546252e-06   1.3640622877146195e-05
-6.171067585836527e-06   -4.090802507546252e-06   1.3640622877146195e-05
-6.171067585836527e-06   -4.090802507546252e-06   1.3640622877146195e-05
-1.0511840312633233e-05   -2.7922001323599265e-06   1.1400273324774414e-05
-1.0511840312633233e-05   -2.7922001323599265e-06   1.1400273324774414e-05
-1.0511840312633233e-05   -2.7922001323599265e-06   1.1400273324774414e-05
-1.0511840312633233e-05   -2.7922001323599265e-06   1.1400273324774414e-05
-3.4813761322890954e-06   -7.828251735669506e-06   2.009608266336234e-05
-3.4813761322890954e-06   -7.828251735669506e-06   2.009608266336234e-05
-3.4813761322890954e-06   -7.828251735669506e-06   2.009608266336234e-05
-3.4813761322890954e-06   -7.828251735669506e-06   2.009608266336234e-05
-3.8021714350373512e-06   -2.853628133498402e-06   9.422150595751017e-06
-3.8021714350373512e-06   -2.853628133498402e-06   9.422150595751017e-06
-3.8021714350373512e-06   -2.853628133498402e-06   9.422150595751017e-06
-3.8021714350373512e-06   -2.853628133498402e-06   9.422150595751017e-06
-1.0757726692142095e-05   -7.175817085438943e-06   2.360805606208986e-05
-1.0757726692142095e-05   -7.175817085438943e-06   2.360805606208986e-05
-1.0757726692142095e-05   -7.175817085438943e-06   2.360805606208986e-05
-1.0757726692142095e-05   -7.175817085438943e-06   2.360805606208986e-05
-6.969520714141209e-06   -4.9921418507099525e-06   1.598417429125111e-05
-6.969520714141209e-06   -4.9921418507099525e-06   1.598417429125111e-05
-6.969520714141209e-06   -4.9921418507099525e-06   1.598417429125111e-05
-6.969520714141209e-06   -4.9921418507099525e-06   1.598417429125111e-05
-1.0757726692142075e-05   -2.853628133498402e-06   1.2015463966915356e-05
-1.0757726692142075e-05   -2.853628133498402e-06   1.2015463966915356e-05
-1.0757726692142075e-05   -2.853628133498402e-06   1.2015463966915356e-05
-1.0757726692142075e-05   -2.853628133498402e-06   1.2015463966915356e-05
-3.8021714350373512e-06   -7.175817085438943e-06   2.101474269092553e-05
-3.8021714350373512e-06   -7.175817085438943e-06   2.101474269092553e-05
-3.8021714350373512e-06   -7.175817085438943e-06   2.101474269092553e-05
-3.8021714350373512e-06   -7.175817085438943e-06   2.101474269092553e-05
-4.325611892569962e-06   -2.8742417127006767e-06   1.031563223674321e-05
-4.325611892569962e-06   -2.8742417127006767e-06   1.031563223674321e-05
-4.325611892569962e-06   -2.8742417127006767e-06   1.031563223674321e-05
-4.325611892569962e-06   -2.8742417127006767e-06   1.031563223674321e-05
-1.1800611395167535e-05   -6.762573854427695e-06   2.5106964026108642e-05
-1.1800611395167535e-05   -6.762573854427695e-06   2.5106964026108642e-05
-1.1800611395167535e-05   -6.762573854427695e-06   2.5106964026108642e-05
-1.1800611395167535e-05   -6.762573854427695e-06   2.5106964026108642e-05
-7.441184121391726e-06   -4.559586839810478e-06   1.6519459694378614e-05
-7.441184121391726e-06   -4.559586839810478e-06   1.6519459694378614e-05
-7.441184121391726e-06   -4.559586839810478e-06   1.6519459694378614e-05
-7.441184121391726e-06   -4.559586839810478e-06   1.6519459694378614e-05
-3.1078074634522578e-06   -2.6591185998118183e-06   5.108855777376134e-06
-3.1078074634522578e-06   -2.6591185998118183e-06   5.108855777376134e-06
-3.1078074634522578e-06   -2.6591185998118183e-06   5.108855777376134e-06
-3.1078074634522578e-06   -2.6591185998118183e-06   5.108855777376134e-06
-1.738260040404021e-06   -1.6956108879556113e-06   7.969539442903573e-06
-1.738260040404021e-06   -1.6956108879556113e-06   7.969539442903573e-06
-1.738260040404021e-06   -1.6956108879556113e-06   7.969539442903573e-06
-1.738260040404021e-06   -1.6956108879556113e-06   7.969539442903573e-06
-1.6758433271508153e-06   -2.611590994601882e-06   5.8400908351744635e-06
-1.6758433271508153e-06   -2.611590994601882e-06   5.8400908351744635e-06
-1.6758433271508153e-06   -2.611590994601882e-06   5.8400908351744635e-06
-1.6758433271508153e-06   -2.611590994601882e-06   5.8400908351744635e-06
-3.4813761322890954e-06   -2.2064071036296383e-06   8.606201842488123e-06
-3.4813761322890954e-06   -2.2064071036296383e-06   8.606201842488123e-06
-3.4813761322890954e-06   -2.2064071036296383e-06   8.606201842488123e-06
-3.4813761322890954e-06   -2.2064071036296383e-06   8.606201842488123e-06
-2.3420866133174692e-06   -2.1641555323306957e-06   6.682035034755954e-06
-2.3420866133174692e-06   -2.1641555323306957e-06   6.682035034755954e-06
-2.3420866133174692e-06   -2.1641555323306957e-06   6.682035034755954e-06
-2.3420866133174692e-06   -2.1641555323306957e-06   6.682035034755954e-06
-3.481376132289082e-06   -2.611590994601882e-06   5.596980500591084e-06
-3.481376132289082e-06   -2.611590994601882e-06   5.596980500591084e-06
-3.481376132289082e-06   -2.611590994601882e-06   5.596980500591084e-06
-3.481376132289082e-06   -2.611590994601882e-06   5.596980500591084e-06
-1.6758433271508153e-06   -2.2064071036296383e-06   8.849312177071502e-06
-1.6758433271508153e-06   -2.2064071036296383e-06   8.849312177071502e-06
-1.6758433271508153e-06   -2.2064071036296383e-06   8.849312177071502e-06
-1.6758433271508153e-06   -2.2064071036296383e-06   8.849312177071502e-06
-1.6840679848687445e-06   -2.6902394037620764e-06   6.247712324201004e-06
-1.6840679848687445e-06   -2.6902394037620764e-06   6.247712324201004e-06
-1.6840679848687445e-06   -2.6902394037620764e-06   6.247712324201004e-06
-1.6840679848687445e-06   -2.6902394037620764e-06   6.247712324201004e-06
-3.8021714350373512e-06   -2.8177885604611548e-06   9.854414235168035e-06
-3.8021714350373512e-06   -2.8177885604611548e-06   9.854414235168035e-06
-3.8021714350373512e-06   -2.8177885604611548e-06   9.854414235168035e-06
-3.8021714350373512e-06   -2.8177885604611548e-06   9.854414235168035e-06
-2.4901109734847468e-06   -2.3658916936574923e-06   7.396508679164906e-06
-2.4901109734847468e-06   -2.3658916936574923e-06   7.396508679164906e-06
-2.4901109734847468e-06   -2.3658916936574923e-06   7.396508679164906e-06
-2.4901109734847468e-06   -2.3658916936574923e-06   7.396508679164906e-06
-3.8021714350373512e-06   -2.6902394037620764e-06   6.324241818220412e-06
-3.8021714350373512e-06   -2.6902394037620764e-06   6.324241818220412e-06
-3.8021714350373512e-06   -2.6902394037620764e-06   6.324241818220412e-06
-3.8021714350373512e-06   -2.6902394037620764e-06   6.324241818220412e-06
-1.6840679848687445e-06   -2.8177885604611548e-06   9.7778847411486e-06
-1.6840679848687445e-06   -2.8177885604611548e-06   9.7778847411486e-06
-1.6840679848687445e-06   -2.8177885604611548e-06   9.7778847411486e-06
-1.6840679848687445e-06   -2.8177885604611548e-06   9.7778847411486e-06
-1.7194185549111501e-06   -2.799866794746627e-06   6.859749400128063e-06
-1.7194185549111501e-06   -2.799866794746627e-06   6.859749400128063e-06
-1.7194185549111501e-06   -2.799866794746627e-06   6.859749400128063e-06
-1.7194185549111501e-06   -2.799866794746627e-06   6.859749400128063e-06
-4.325611892569962e-06   -3.398012400780737e-06   1.1562292326513076e-05
-4.325611892569962e-06   -3.398012400780737e-06   1.1562292326513076e-05
-4.325611892569962e-06   -3.398012400780737e-06   1.1562292326513076e-05
-4.325611892569962e-06   -3.398012400780737e-06   1.1562292326513076e-05
-2.6600358326491833e-06   -2.5786833430120734e-06   8.294734791983985e-06
-2.6600358326491833e-06   -2.5786833430120734e-06   8.294734791983985e-06
-2.6600358326491833e-06   -2.5786833430120734e-06   8.294734791983985e-06
-2.6600358326491833e-06   -2.5786833430120734e-06   8.294734791983985e-06
-1.738260040404021e-06   -1.0931891249167343e-06   1.4989185395995568e-06
-1.738260040404021e-06   -1.0931891249167343e-06   1.4989185395995568e-06
-1.738260040404021e-06   -1.0931891249167343e-06   1.4989185395995568e-06
-1.738260040404021e-06   -1.0931891249167343e-06   1.4989185395995568e-06
-1.301043035527446e-06   2.463024930406196e-07   3.031308518501672e-06
-1.301043035527446e-06   2.463024930406196e-07   3.031308518501672e-06
-1.301043035527446e-06   2.463024930406196e-07   3.031308518501672e-06
-1.301043035527446e-06   2.463024930406196e-07   3.031308518501672e-06
-1.0573510707159554e-06   -1.2777511753030797e-06   2.435807548145392e-06
-1.0573510707159554e-06   -1.2777511753030797e-06   2.435807548145392e-06
-1.0573510707159554e-06   -1.2777511753030797e-06   2.435807548145392e-06
-1.0573510707159554e-06   -1.2777511753030797e-06   2.435807548145392e-06
-1.6758433271508153e-06   5.965262826263033e-08   2.6641856933973316e-06
-1.6758433271508153e-06   5.965262826263033e-08   2.6641856933973316e-06
-1.6758433271508153e-06   5.965262826263033e-08   2.6641856933973316e-06
-1.6758433271508153e-06   5.965262826263033e-08   2.6641856933973316e-06
-1.3536718848593932e-06   -5.273228393790129e-07   2.479418570163123e-06
-1.3536718848593932e-06   -5.273228393790129e-07   2.479418570163123e-06
-1.3536718848593932e-06   -5.273228393790129e-07   2.479418570163123e-06
-1.3536718848593932e-06   -5.273228393790129e-07   2.479418570163123e-06
-1.6758433271508153e-06   -1.2777511753030797e-06   1.6333652660059888e-06
-1.6758433271508153e-06   -1.2777511753030797e-06   1.6333652660059888e-06
-1.6758433271508153e-06   -1.2777511753030797e-06   1.6333652660059888e-06
-1.6758433271508153e-06   -1.2777511753030797e-06   1.6333652660059888e-06
-1.0573510707159554e-06   5.965262826263033e-08   3.4666279755367346e-06
-1.0573510707159554e-06   5.965262826263033e-08   3.4666279755367346e-06
-1.0573510707159554e-06   5.965262826263033e-08   3.4666279755367346e-06
-1.0573510707159554e-06   5.965262826263033e-08   3.4666279755367346e-06
-9.256230079058257e-07   -1.4193875317355237e-06   2.6763391550001583e-06
-9.256230079058257e-07   -1.4193875317355237e-06   2.6763391550001583e-06
-9.256230079058257e-07   -1.4193875317355237e-06   2.6763391550001583e-06
-9.256230079058257e-07   -1.4193875317355237e-06   2.6763391550001583e-06
-1.6840679848687445e-06   -2.319349120768376e-07   3.2279425448096858e-06
-1.6840679848687445e-06   -2.319349120768376e-07   3.2279425448096858e-06
-1.6840679848687445e-06   -2.319349120768376e-07   3.2279425448096858e-06
-1.6840679848687445e-06   -2.319349120768376e-07   3.2279425448096858e-06
-1.2312578339824246e-06   -6.724114836516055e-07   2.7375449029441072e-06
-1.2312578339824246e-06   -6.724114836516055e-07   2.7375449029441072e-06
-1.2312578339824246e-06   -6.724114836516055e-07   2.7375449029441072e-06
-1.2312578339824246e-06   -6.724114836516055e-07   2.7375449029441072e-06
-1.6840679848687174e-06   -1.4193875317355237e-06   1.9638675832048843e-06
-1.6840679848687174e-06   -1.4193875317355237e-06   1.9638675832048843e-06
-1.6840679848687174e-06   -1.4193875317355237e-06   1.9638675832048843e-06
-1.6840679848687174e-06   -1.4193875317355237e-06   1.9638675832048843e-06
-9.256230079058257e-07   -2.319349120768376e-07   3.9404141166049056e-06
-9.256230079058257e-07   -2.319349120768376e-07   3.9404141166049056e-06
-9.256230079058257e-07   -2.319349120768376e-07   3.9404141166049056e-06
-9.256230079058257e-07   -2.319349120768376e-07   3.9404141166049056e-06
-7.238552763946826e-07   -1.604661122981874e-06   2.9416763187002735e-06
-7.238552763946826e-07   -1.604661122981874e-06   2.9416763187002735e-06
-7.238552763946826e-07   -1.604661122981874e-06   2.9416763187002735e-06
-7.238552763946826e-07   -1.604661122981874e-06   2.9416763187002735e-06
-1.7194185549111501e-06   -8.254341635929859e-07   4.133412273927639e-06
-1.7194185549111501e-06   -8.254341635929859e-07   4.133412273927639e-06
-1.7194185549111501e-06   -8.254341635929859e-07   4.133412273927639e-06
-1.7194185549111501e-06   -8.254341635929859e-07   4.133412273927639e-06
-1.1337318231260832e-06   -8.92266513072439e-07   3.1973671306403722e-06
-1.1337318231260832e-06   -8.92266513072439e-07   3.1973671306403722e-06
-1.1337318231260832e-06   -8.92266513072439e-07   3.1973671306403722e-06
-1.1337318231260832e-06   -8.92266513072439e-07   3.1973671306403722e-06
-1.301043035527446e-06   -1.1900547455944853e-07   -2.12847755278172e-06
-1.301043035527446e-06   -1.1900547455944853e-07   -2.12847755278172e-06
-1.301043035527446e-06   -1.1900547455944853e-07   -2.12847755278172e-06
-1.301043035527446e-06   -1.1900547455944853e-07   -2.12847755278172e-06
-2.528030170060908e-07   1.8195241854211813e-07   -2.008361193852129e-07
-2.528030170060908e-07   1.8195241854211813e-07   -2.008361193852129e-07
-2.528030170060908e-07   1.8195241854211813e-07   -2.008361193852129e-07
-2.528030170060908e-07   1.8195241854211813e-07   -2.008361193852129e-07
-1.3901009140982433e-08   -1.673150429062594e-07   -1.6619572268295087e-06
-1.3901009140982433e-08   -1.673150429062594e-07   -1.6619572268295087e-06
-1.3901009140982433e-08   -1.673150429062594e-07   -1.6619572268295087e-06
-1.3901009140982433e-08   -1.673150429062594e-07   -1.6619572268295087e-06
-1.0573510707159554e-06   3.130685274070852e-07   -2.1110393305927722e-07
-1.0573510707159554e-06   3.130685274070852e-07   -2.1110393305927722e-07
-1.0573510707159554e-06   3.130685274070852e-07   -2.1110393305927722e-07
-1.0573510707159554e-06   3.130685274070852e-07   -2.1110393305927722e-07
-5.998095078357628e-07   8.543302817601685e-08   -8.370919049878033e-07
-5.998095078357628e-07   8.543302817601685e-08   -8.370919049878033e-07
-5.998095078357628e-07   8.543302817601685e-08   -8.370919049878033e-07
-5.998095078357628e-07   8.543302817601685e-08   -8.370919049878033e-07
-1.0573510707159554e-06   -1.673150429062323e-07   -1.9501873690175656e-06
-1.0573510707159554e-06   -1.673150429062323e-07   -1.9501873690175656e-06
-1.0573510707159554e-06   -1.673150429062323e-07   -1.9501873690175656e-06
-1.0573510707159554e-06   -1.673150429062323e-07   -1.9501873690175656e-06
-1.3901009140982433e-08   3.130685274070852e-07   7.712620912872547e-08
-1.3901009140982433e-08   3.130685274070852e-07   7.712620912872547e-08
-1.3901009140982433e-08   3.130685274070852e-07   7.712620912872547e-08
-1.3901009140982433e-08   3.130685274070852e-07   7.712620912872547e-08
1.0915210231618368e-07   -2.322511561900231e-07   -1.4780956696007833e-06
1.0915210231618368e-07   -2.322511561900231e-07   -1.4780956696007833e-06
1.0915210231618368e-07   -2.322511561900231e-07   -1.4780956696007833e-06
1.0915210231618368e-07   -2.322511561900231e-07   -1.4780956696007833e-06
-9.256230079058257e-07   2.632039893528657e-07   -5.074357322331323e-08
-9.256230079058257e-07   2.632039893528657e-07   -5.074357322331323e-08
-9.256230079058257e-07   2.632039893528657e-07   -5.074357322331323e-08
-9.256230079058257e-07   2.632039893528657e-07   -5.074357322331323e-08
-4.243380490830107e-07   5.5400441308149466e-08   -7.615363757675336e-07
-4.243380490830107e-07   5.5400441308149466e-08   -7.615363757675336e-07
-4.243380490830107e-07   5.5400441308149466e-08   -7.615363757675336e-07
-4.243380490830107e-07   5.5400441308149466e-08   -7.615363757675336e-07
-9.256230079058257e-07   -2.322511561900502e-07   -1.775368756926608e-06
-9.256230079058257e-07   -2.322511561900502e-07   -1.775368756926608e-06
-9.256230079058257e-07   -2.322511561900502e-07   -1.775368756926608e-06
-9.256230079058257e-07   -2.322511561900502e-07   -1.775368756926608e-06
1.0915210231618368e-07   2.632039893528657e-07   2.465295141024031e-07
1.0915210231618368e-07   2.632039893528657e-07   2.465295141024031e-07
1.0915210231618368e-07   2.632039893528657e-07   2.465295141024031e-07
1.0915210231618368e-07   2.632039893528657e-07   2.465295141024031e-07
2.6089923764650467e-07   -3.126188773152055e-07   -1.2055224499329248e-06
2.6089923764650467e-07   -3.126188773152055e-07   -1.2055224499329248e-06
2.6089923764650467e-07   -3.126188773152055e-07   -1.2055224499329248e-06
2.6089923764650467e-07   -3.126188773152055e-07   -1.2055224499329248e-06
-7.238552763946826e-07   2.164293473895191e-07   1.18306138646078e-07
-7.238552763946826e-07   2.164293473895191e-07   1.18306138646078e-07
-7.238552763946826e-07   2.164293473895191e-07   1.18306138646078e-07
-7.238552763946826e-07   2.164293473895191e-07   1.18306138646078e-07
-2.660080150829148e-07   1.812060005664624e-08   -5.257873818070792e-07
-2.660080150829148e-07   1.812060005664624e-08   -5.257873818070792e-07
-2.660080150829148e-07   1.812060005664624e-08   -5.257873818070792e-07
-2.660080150829148e-07   1.812060005664624e-08   -5.257873818070792e-07
              </DataArray>   
             <DataArray type="Float64" NumberOfComponents="3" Name="Stress" format="ascii">   
-1.9835258730791194   -0.49588146826977986   -0.49588146826977986
-1.9835258730791194   -0.49588146826977986   -0.49588146826977986
-1.9835258730791194   -0.49588146826977986   -0.49588146826977986
-1.9835258730791194   -0.49588146826977986   -0.49588146826977986
-1.1476733721818864   -0.036729960639962256   -0.023154986774507502
-1.1476733721818864   -0.036729960639962256   -0.023154986774507502
-1.1476733721818864   -0.036729960639962256   -0.023154986774507502
-1.1476733721818864   -0.036729960639962256   -0.023154986774507502
-1.2367449521462772   -0.3091862380365693   -0.3091862380365693
-1.2367449521462772   -0.3091862380365693   -0.3091862380365693
-1.2367449521462772   -0.3091862380365693   -0.3091862380365693
-1.2367449521462772   -0.3091862380365693   -0.3091862380365693
-1.9115652180099978   -0.1572713120401374   -0.06023658549704457
-1.9115652180099978   -0.1572713120401374   -0.06023658549704457
-1.9115652180099978   -0.1572713120401374   -0.06023658549704457
-1.9115652180099978   -0.1572713120401374   -0.06023658549704457
-1.4991434098191403   -0.245947956975696   -0.0041597353628760846
-1.4991434098191403   -0.245947956975696   -0.0041597353628760846
-1.4991434098191403   -0.245947956975696   -0.0041597353628760846
-1.4991434098191403   -0.245947956975696   -0.0041597353628760846
-2.0756262650028496   -0.5189065662507124   -0.5189065662507124
-2.0756262650028496   -0.5189065662507124   -0.5189065662507124
-2.0756262650028496   -0.5189065662507124   -0.5189065662507124
-2.0756262650028496   -0.5189065662507124   -0.5189065662507124
-1.111621163137927   0.013511758189507228   -0.006265289220894518
-1.111621163137927   0.013511758189507228   -0.006265289220894518
-1.111621163137927   0.013511758189507228   -0.006265289220894518
-1.111621163137927   0.013511758189507228   -0.006265289220894518
-1.2400339155597648   -0.3100084788899412   -0.3100084788899412
-1.2400339155597648   -0.3100084788899412   -0.3100084788899412
-1.2400339155597648   -0.3100084788899412   -0.3100084788899412
-1.2400339155597648   -0.3100084788899412   -0.3100084788899412
-1.975585916761819   -0.15871737246309742   -0.08823945663275215
-1.975585916761819   -0.15871737246309742   -0.08823945663275215
-1.975585916761819   -0.15871737246309742   -0.08823945663275215
-1.975585916761819   -0.15871737246309742   -0.08823945663275215
-1.554844659358972   -0.2314920269009914   -0.08249586362799852
-1.554844659358972   -0.2314920269009914   -0.08249586362799852
-1.554844659358972   -0.2314920269009914   -0.08249586362799852
-1.554844659358972   -0.2314920269009914   -0.08249586362799852
-2.1402161677140583   -0.5350540419285146   -0.5350540419285146
-2.1402161677140583   -0.5350540419285146   -0.5350540419285146
-2.1402161677140583   -0.5350540419285146   -0.5350540419285146
-2.1402161677140583   -0.5350540419285146   -0.5350540419285146
-1.1082047758084725   0.03352707937453206   0.0056016616020468785
-1.1082047758084725   0.03352707937453206   0.0056016616020468785
-1.1082047758084725   0.03352707937453206   0.0056016616020468785
-1.1082047758084725   0.03352707937453206   0.0056016616020468785
-1.2391579373226518   -0.30978948433066295   -0.30978948433066295
-1.2391579373226518   -0.30978948433066295   -0.30978948433066295
-1.2391579373226518   -0.30978948433066295   -0.30978948433066295
-1.2391579373226518   -0.30978948433066295   -0.30978948433066295
-2.0900251019780733   -0.13906897210365832   -0.05304564983426817
-2.0900251019780733   -0.13906897210365832   -0.05304564983426817
-2.0900251019780733   -0.13906897210365832   -0.05304564983426817
-2.0900251019780733   -0.13906897210365832   -0.05304564983426817
-1.5960952154747048   -0.22782897617357953   -0.1490553648673611
-1.5960952154747048   -0.22782897617357953   -0.1490553648673611
-1.5960952154747048   -0.22782897617357953   -0.1490553648673611
-1.5960952154747048   -0.22782897617357953   -0.1490553648673611
-1.2618848696655494   -0.31547121741638734   -0.31547121741638734
-1.2618848696655494   -0.31547121741638734   -0.31547121741638734
-1.2618848696655494   -0.31547121741638734   -0.31547121741638734
-1.2618848696655494   -0.31547121741638734   -0.31547121741638734
-0.5267572404837801   -0.03529242802482599   -0.011447467896564579
-0.5267572404837801   -0.03529242802482599   -0.011447467896564579
-0.5267572404837801   -0.03529242802482599   -0.011447467896564579
-0.5267572404837801   -0.03529242802482599   -0.011447467896564579
-0.5527360649632613   -0.13818401624081533   -0.13818401624081533
-0.5527360649632613   -0.13818401624081533   -0.13818401624081533
-0.5527360649632613   -0.13818401624081533   -0.13818401624081533
-0.5527360649632613   -0.13818401624081533   -0.13818401624081533
-1.1487351302546733   -0.13525168362837184   -0.0430716829867466
-1.1487351302546733   -0.13525168362837184   -0.0430716829867466
-1.1487351302546733   -0.13525168362837184   -0.0430716829867466
-1.1487351302546733   -0.13525168362837184   -0.0430716829867466
-0.8473836875776491   -0.1606094570960089   0.006588122122580089
-0.8473836875776491   -0.1606094570960089   0.006588122122580089
-0.8473836875776491   -0.1606094570960089   0.006588122122580089
-0.8473836875776491   -0.1606094570960089   0.006588122122580089
-1.2367449521462763   -0.3091862380365691   -0.3091862380365691
-1.2367449521462763   -0.3091862380365691   -0.3091862380365691
-1.2367449521462763   -0.3091862380365691   -0.3091862380365691
-1.2367449521462763   -0.3091862380365691   -0.3091862380365691
-0.4967984939248598   0.003678287314179629   -0.00035846460380266343
-0.4967984939248598   0.003678287314179629   -0.00035846460380266343
-0.4967984939248598   0.003678287314179629   -0.00035846460380266343
-0.4967984939248598   0.003678287314179629   -0.00035846460380266343
-0.5402072820125516   -0.1350518205031379   -0.1350518205031379
-0.5402072820125516   -0.1350518205031379   -0.1350518205031379
-0.5402072820125516   -0.1350518205031379   -0.1350518205031379
-0.5402072820125516   -0.1350518205031379   -0.1350518205031379
-1.145653456773723   -0.11028380355309944   -0.03783086029657511
-1.145653456773723   -0.11028380355309944   -0.03783086029657511
-1.145653456773723   -0.11028380355309944   -0.03783086029657511
-1.145653456773723   -0.11028380355309944   -0.03783086029657511
-0.8353942329633587   -0.13517207574026022   -0.043656562219176416
-0.8353942329633587   -0.13517207574026022   -0.043656562219176416
-0.8353942329633587   -0.13517207574026022   -0.043656562219176416
-0.8353942329633587   -0.13517207574026022   -0.043656562219176416
-1.2400339155597648   -0.3100084788899412   -0.3100084788899412
-1.2400339155597648   -0.3100084788899412   -0.3100084788899412
-1.2400339155597648   -0.3100084788899412   -0.3100084788899412
-1.2400339155597648   -0.3100084788899412   -0.3100084788899412
-0.4768909115896658   0.033608766470548085   0.012869444637605122
-0.4768909115896658   0.033608766470548085   0.012869444637605122
-0.4768909115896658   0.033608766470548085   0.012869444637605122
-0.4768909115896658   0.033608766470548085   0.012869444637605122
-0.5287659905490689   -0.13219149763726723   -0.13219149763726723
-0.5287659905490689   -0.13219149763726723   -0.13219149763726723
-0.5287659905490689   -0.13219149763726723   -0.13219149763726723
-0.5287659905490689   -0.13219149763726723   -0.13219149763726723
-1.1370257135358772   -0.08504158992427235   -0.023876259803195396
-1.1370257135358772   -0.08504158992427235   -0.023876259803195396
-1.1370257135358772   -0.08504158992427235   -0.023876259803195396
-1.1370257135358772   -0.08504158992427235   -0.023876259803195396
-0.8393199442692599   -0.11956440351286701   -0.0972355290885579
-0.8393199442692599   -0.11956440351286701   -0.0972355290885579
-0.8393199442692599   -0.11956440351286701   -0.0972355290885579
-0.8393199442692599   -0.11956440351286701   -0.0972355290885579
-0.5748991792216701   -0.14372479480541753   -0.14372479480541753
-0.5748991792216701   -0.14372479480541753   -0.14372479480541753
-0.5748991792216701   -0.14372479480541753   -0.14372479480541753
-0.5748991792216701   -0.14372479480541753   -0.14372479480541753
0.06757782405392833   0.004311672911571784   0.0005626968800742185
0.06757782405392833   0.004311672911571784   0.0005626968800742185
0.06757782405392833   0.004311672911571784   0.0005626968800742185
0.06757782405392833   0.004311672911571784   0.0005626968800742185
0.08824214740708516   0.02206053685177129   0.02206053685177129
0.08824214740708516   0.02206053685177129   0.02206053685177129
0.08824214740708516   0.02206053685177129   0.02206053685177129
0.08824214740708516   0.02206053685177129   0.02206053685177129
-0.5196073978029666   -0.08980473577060058   -0.02091996090955679
-0.5196073978029666   -0.08980473577060058   -0.02091996090955679
-0.5196073978029666   -0.08980473577060058   -0.02091996090955679
-0.5196073978029666   -0.08980473577060058   -0.02091996090955679
-0.22276478511278783   -0.056496925552872515   0.03765132157174679
-0.22276478511278783   -0.056496925552872515   0.03765132157174679
-0.22276478511278783   -0.056496925552872515   0.03765132157174679
-0.22276478511278783   -0.056496925552872515   0.03765132157174679
-0.5527360649632613   -0.13818401624081533   -0.13818401624081533
-0.5527360649632613   -0.13818401624081533   -0.13818401624081533
-0.5527360649632613   -0.13818401624081533   -0.13818401624081533
-0.5527360649632613   -0.13818401624081533   -0.13818401624081533
0.08984480150297877   0.03891380425758503   0.013220539925424848
0.08984480150297877   0.03891380425758503   0.013220539925424848
0.08984480150297877   0.03891380425758503   0.013220539925424848
0.08984480150297877   0.03891380425758503   0.013220539925424848
0.09950665214170296   0.02487666303542574   0.02487666303542574
0.09950665214170296   0.02487666303542574   0.02487666303542574
0.09950665214170296   0.02487666303542574   0.02487666303542574
0.09950665214170296   0.02487666303542574   0.02487666303542574
-0.5010706201334664   -0.060393153585411925   -0.014027178025442491
-0.5010706201334664   -0.060393153585411925   -0.014027178025442491
-0.5010706201334664   -0.060393153585411925   -0.014027178025442491
-0.5010706201334664   -0.060393153585411925   -0.014027178025442491
-0.21351657113343678   -0.034891835650789266   -0.012924841167888505
-0.21351657113343678   -0.034891835650789266   -0.012924841167888505
-0.21351657113343678   -0.034891835650789266   -0.012924841167888505
-0.21351657113343678   -0.034891835650789266   -0.012924841167888505
-0.5402072820125516   -0.1350518205031379   -0.1350518205031379
-0.5402072820125516   -0.1350518205031379   -0.1350518205031379
-0.5402072820125516   -0.1350518205031379   -0.1350518205031379
-0.5402072820125516   -0.1350518205031379   -0.1350518205031379
0.10775229018889453   0.06864430612125857   0.022337210185549933
0.10775229018889453   0.06864430612125857   0.022337210185549933
0.10775229018889453   0.06864430612125857   0.022337210185549933
0.10775229018889453   0.06864430612125857   0.022337210185549933
0.11459707891228188   0.02864926972807047   0.02864926972807047
0.11459707891228188   0.02864926972807047   0.02864926972807047
0.11459707891228188   0.02864926972807047   0.02864926972807047
0.11459707891228188   0.02864926972807047   0.02864926972807047
-0.4809001674123478   -0.02533309980824143   0.0002792202173105343
-0.4809001674123478   -0.02533309980824143   0.0002792202173105343
-0.4809001674123478   -0.02533309980824143   0.0002792202173105343
-0.4809001674123478   -0.02533309980824143   0.0002792202173105343
-0.20694712840148188   -0.014063547202548106   -0.06304913782925632
-0.20694712840148188   -0.014063547202548106   -0.06304913782925632
-0.20694712840148188   -0.014063547202548106   -0.06304913782925632
-0.20694712840148188   -0.014063547202548106   -0.06304913782925632
0.07400327788399916   0.01850081947099979   0.01850081947099979
0.07400327788399916   0.01850081947099979   0.01850081947099979
0.07400327788399916   0.01850081947099979   0.01850081947099979
0.07400327788399916   0.01850081947099979   0.01850081947099979
0.718330493312159   0.06593335619610868   0.02226087009287027
0.718330493312159   0.06593335619610868   0.02226087009287027
0.718330493312159   0.06593335619610868   0.02226087009287027
0.718330493312159   0.06593335619610868   0.02226087009287027
0.780168590231812   0.195042147557953   0.195042147557953
0.780168590231812   0.195042147557953   0.195042147557953
0.780168590231812   0.195042147557953   0.195042147557953
0.780168590231812   0.195042147557953   0.195042147557953
0.06720845236767672   -0.050561574545008654   -0.010485826948492285
0.06720845236767672   -0.050561574545008654   -0.010485826948492285
0.06720845236767672   -0.050561574545008654   -0.010485826948492285
0.06720845236767672   -0.050561574545008654   -0.010485826948492285
0.4094420404450735   0.05098670071708365   0.07433679824770886
0.4094420404450735   0.05098670071708365   0.07433679824770886
0.4094420404450735   0.05098670071708365   0.07433679824770886
0.4094420404450735   0.05098670071708365   0.07433679824770886
0.08824214740708547   0.022060536851771367   0.022060536851771367
0.08824214740708547   0.022060536851771367   0.022060536851771367
0.08824214740708547   0.022060536851771367   0.022060536851771367
0.08824214740708547   0.022060536851771367   0.022060536851771367
0.7270845962735365   0.0903697372423062   0.034294588082222244
0.7270845962735365   0.0903697372423062   0.034294588082222244
0.7270845962735365   0.0903697372423062   0.034294588082222244
0.7270845962735365   0.0903697372423062   0.034294588082222244
0.7770322834393363   0.19425807085983407   0.19425807085983407
0.7770322834393363   0.19425807085983407   0.19425807085983407
0.7770322834393363   0.19425807085983407   0.19425807085983407
0.7770322834393363   0.19425807085983407   0.19425807085983407
0.08522834309770536   -0.021793922118325395   0.00015570296918807937
0.08522834309770536   -0.021793922118325395   0.00015570296918807937
0.08522834309770536   -0.021793922118325395   0.00015570296918807937
0.08522834309770536   -0.021793922118325395   0.00015570296918807937
0.4066292224007078   0.06699357179802592   0.01928507080106384
0.4066292224007078   0.06699357179802592   0.01928507080106384
0.4066292224007078   0.06699357179802592   0.01928507080106384
0.4066292224007078   0.06699357179802592   0.01928507080106384
0.09950665214170305   0.024876663035425763   0.024876663035425763
0.09950665214170305   0.024876663035425763   0.024876663035425763
0.09950665214170305   0.024876663035425763   0.024876663035425763
0.09950665214170305   0.024876663035425763   0.024876663035425763
0.7310128528037354   0.11584636411447975   0.04257262442718378
0.7310128528037354   0.11584636411447975   0.04257262442718378
0.7310128528037354   0.11584636411447975   0.04257262442718378
0.7310128528037354   0.11584636411447975   0.04257262442718378
0.792278078912021   0.19806951972800524   0.19806951972800524
0.792278078912021   0.19806951972800524   0.19806951972800524
0.792278078912021   0.19806951972800524   0.19806951972800524
0.792278078912021   0.19806951972800524   0.19806951972800524
0.10879994162572107   0.01624581147889367   0.012067041544442356
0.10879994162572107   0.01624581147889367   0.012067041544442356
0.10879994162572107   0.01624581147889367   0.012067041544442356
0.10879994162572107   0.01624581147889367   0.012067041544442356
0.41313825539888294   0.09093457328944099   -0.031758941165903894
0.41313825539888294   0.09093457328944099   -0.031758941165903894
0.41313825539888294   0.09093457328944099   -0.031758941165903894
0.41313825539888294   0.09093457328944099   -0.031758941165903894
0.7785462756159591   0.19463656890398978   0.19463656890398978
0.7785462756159591   0.19463656890398978   0.19463656890398978
0.7785462756159591   0.19463656890398978   0.19463656890398978
0.7785462756159591   0.19463656890398978   0.19463656890398978
1.6162008822867377   0.12326245619986692   0.04252360423240424
1.6162008822867377   0.12326245619986692   0.04252360423240424
1.6162008822867377   0.12326245619986692   0.04252360423240424
1.6162008822867377   0.12326245619986692   0.04252360423240424
1.652235135667935   0.41305878391698375   0.41305878391698375
1.652235135667935   0.41305878391698375   0.41305878391698375
1.652235135667935   0.41305878391698375   0.41305878391698375
1.652235135667935   0.41305878391698375   0.41305878391698375
0.6935396510039301   -0.039313692846254605   -0.0037467081772482314
0.6935396510039301   -0.039313692846254605   -0.0037467081772482314
0.6935396510039301   -0.039313692846254605   -0.0037467081772482314
0.6935396510039301   -0.039313692846254605   -0.0037467081772482314
1.1524928517901798   0.16318919798803633   0.13001688557410074
1.1524928517901798   0.16318919798803633   0.13001688557410074
1.1524928517901798   0.16318919798803633   0.13001688557410074
1.1524928517901798   0.16318919798803633   0.13001688557410074
0.7801685902318114   0.19504214755795285   0.19504214755795285
0.7801685902318114   0.19504214755795285   0.19504214755795285
0.7801685902318114   0.19504214755795285   0.19504214755795285
0.7801685902318114   0.19504214755795285   0.19504214755795285
1.5312450988782742   0.14434184595100194   0.07682553793468691
1.5312450988782742   0.14434184595100194   0.07682553793468691
1.5312450988782742   0.14434184595100194   0.07682553793468691
1.5312450988782742   0.14434184595100194   0.07682553793468691
1.6031230653770376   0.4007807663442594   0.4007807663442594
1.6031230653770376   0.4007807663442594   0.4007807663442594
1.6031230653770376   0.4007807663442594   0.4007807663442594
1.6031230653770376   0.4007807663442594   0.4007807663442594
0.6961591968953796   -0.021570709798536952   0.005721418798422091
0.6961591968953796   -0.021570709798536952   0.005721418798422091
0.6961591968953796   -0.021570709798536952   0.005721418798422091
0.6961591968953796   -0.021570709798536952   0.005721418798422091
1.1185405073907326   0.16796475862361931   0.06233155321013495
1.1185405073907326   0.16796475862361931   0.06233155321013495
1.1185405073907326   0.16796475862361931   0.06233155321013495
1.1185405073907326   0.16796475862361931   0.06233155321013495
0.7770322834393363   0.19425807085983407   0.19425807085983407
0.7770322834393363   0.19425807085983407   0.19425807085983407
0.7770322834393363   0.19425807085983407   0.19425807085983407
0.7770322834393363   0.19425807085983407   0.19425807085983407
1.482174341347507   0.14487634820031928   0.05194156434057195
1.482174341347507   0.14487634820031928   0.05194156434057195
1.482174341347507   0.14487634820031928   0.05194156434057195
1.482174341347507   0.14487634820031928   0.05194156434057195
1.5298656940987156   0.3824664235246789   0.3824664235246789
1.5298656940987156   0.3824664235246789   0.3824664235246789
1.5298656940987156   0.3824664235246789   0.3824664235246789
1.5298656940987156   0.3824664235246789   0.3824664235246789
0.7221293951061477   0.02314080030156135   0.022254820125082557
0.7221293951061477   0.02314080030156135   0.022254820125082557
0.7221293951061477   0.02314080030156135   0.022254820125082557
0.7221293951061477   0.02314080030156135   0.022254820125082557
1.0712602130105817   0.18219518371410678   -0.016414568121821682
1.0712602130105817   0.18219518371410678   -0.016414568121821682
1.0712602130105817   0.18219518371410678   -0.016414568121821682
1.0712602130105817   0.18219518371410678   -0.016414568121821682
-1.565915660633026   -0.11216448260209722   0.017914691865957233
-1.565915660633026   -0.11216448260209722   0.017914691865957233
-1.565915660633026   -0.11216448260209722   0.017914691865957233
-1.565915660633026   -0.11216448260209722   0.017914691865957233
-0.9970111539229249   -0.023271871640601904   -0.006548225661862833
-0.9970111539229249   -0.023271871640601904   -0.006548225661862833
-0.9970111539229249   -0.023271871640601904   -0.006548225661862833
-0.9970111539229249   -0.023271871640601904   -0.006548225661862833
-1.0035394734082528   0.0406090739596488   0.021139599900141207
-1.0035394734082528   0.0406090739596488   0.021139599900141207
-1.0035394734082528   0.0406090739596488   0.021139599900141207
-1.0035394734082528   0.0406090739596488   0.021139599900141207
-1.5891151642194472   -0.10854281509975283   -0.018943554297605372
-1.5891151642194472   -0.10854281509975283   -0.018943554297605372
-1.5891151642194472   -0.10854281509975283   -0.018943554297605372
-1.5891151642194472   -0.10854281509975283   -0.018943554297605372
-1.2382047370003697   -0.04237166090266606   -0.005055443680903306
-1.2382047370003697   -0.04237166090266606   -0.005055443680903306
-1.2382047370003697   -0.04237166090266606   -0.005055443680903306
-1.2382047370003697   -0.04237166090266606   -0.005055443680903306
-1.577433697635111   -0.076844581800739   0.007765545325060588
-1.577433697635111   -0.076844581800739   0.007765545325060588
-1.577433697635111   -0.076844581800739   0.007765545325060588
-1.577433697635111   -0.076844581800739   0.007765545325060588
-1.0168745841281663   0.0072571965250610715   -0.01218407626482073
-1.0168745841281663   0.0072571965250610715   -0.01218407626482073
-1.0168745841281663   0.0072571965250610715   -0.01218407626482073
-1.0168745841281663   0.0072571965250610715   -0.01218407626482073
-1.004604651516545   0.05793115021417056   0.024021891508313742
-1.004604651516545   0.05793115021417056   0.024021891508313742
-1.004604651516545   0.05793115021417056   0.024021891508313742
-1.004604651516545   0.05793115021417056   0.024021891508313742
-1.5985643869780315   -0.09555861518863623   -0.02499434395245441
-1.5985643869780315   -0.09555861518863623   -0.02499434395245441
-1.5985643869780315   -0.09555861518863623   -0.02499434395245441
-1.5985643869780315   -0.09555861518863623   -0.02499434395245441
-1.2728120058021688   -0.02831261851949829   -0.012141648408662414
-1.2728120058021688   -0.02831261851949829   -0.012141648408662414
-1.2728120058021688   -0.02831261851949829   -0.012141648408662414
-1.2728120058021688   -0.02831261851949829   -0.012141648408662414
-1.5697206426114858   -0.04596939480679613   0.06963515749842106
-1.5697206426114858   -0.04596939480679613   0.06963515749842106
-1.5697206426114858   -0.04596939480679613   0.06963515749842106
-1.5697206426114858   -0.04596939480679613   0.06963515749842106
-1.021467597043273   0.020322728672147516   -0.02268441458329408
-1.021467597043273   0.020322728672147516   -0.02268441458329408
-1.021467597043273   0.020322728672147516   -0.02268441458329408
-1.021467597043273   0.020322728672147516   -0.02268441458329408
-0.9861842047920181   0.1010087596734297   0.043502111865116835
-0.9861842047920181   0.1010087596734297   0.043502111865116835
-0.9861842047920181   0.1010087596734297   0.043502111865116835
-0.9861842047920181   0.1010087596734297   0.043502111865116835
-1.554110913138499   -0.0769897277308379   -0.04082174922734408
-1.554110913138499   -0.0769897277308379   -0.04082174922734408
-1.554110913138499   -0.0769897277308379   -0.04082174922734408
-1.554110913138499   -0.0769897277308379   -0.04082174922734408
-1.2239304568454248   0.011537925621144751   0.027170208122485523
-1.2239304568454248   0.011537925621144751   0.027170208122485523
-1.2239304568454248   0.011537925621144751   0.027170208122485523
-1.2239304568454248   0.011537925621144751   0.027170208122485523
-1.0216984290023954   -0.13553538890766653   -0.017721083792150344
-1.0216984290023954   -0.13553538890766653   -0.017721083792150344
-1.0216984290023954   -0.13553538890766653   -0.017721083792150344
-1.0216984290023954   -0.13553538890766653   -0.017721083792150344
-0.4710455282547404   -0.010648576452747555   0.004957465540856059
-0.4710455282547404   -0.010648576452747555   0.004957465540856059
-0.4710455282547404   -0.010648576452747555   0.004957465540856059
-0.4710455282547404   -0.010648576452747555   0.004957465540856059
-0.4777967663171297   0.008990571109199916   0.007201226763570521
-0.4777967663171297   0.008990571109199916   0.007201226763570521
-0.4777967663171297   0.008990571109199916   0.007201226763570521
-0.4777967663171297   0.008990571109199916   0.007201226763570521
-1.0418662982280928   -0.09918380837052779   -0.030701641868881586
-1.0418662982280928   -0.09918380837052779   -0.030701641868881586
-1.0418662982280928   -0.09918380837052779   -0.030701641868881586
-1.0418662982280928   -0.09918380837052779   -0.030701641868881586
-0.7530940754920121   -0.061231002942614285   -0.01733591629520777
-0.7530940754920121   -0.061231002942614285   -0.01733591629520777
-0.7530940754920121   -0.061231002942614285   -0.01733591629520777
-0.7530940754920121   -0.061231002942614285   -0.01733591629520777
-1.0408584894255941   -0.1083594167588262   -0.016486989468095428
-1.0408584894255941   -0.1083594167588262   -0.016486989468095428
-1.0408584894255941   -0.1083594167588262   -0.016486989468095428
-1.0408584894255941   -0.1083594167588262   -0.016486989468095428
-0.47695073209752487   0.02002002251960154   0.00040194645119710076
-0.47695073209752487   0.02002002251960154   0.00040194645119710076
-0.47695073209752487   0.02002002251960154   0.00040194645119710076
-0.47695073209752487   0.02002002251960154   0.00040194645119710076
-0.4758804622545395   0.03318215027451732   0.009725914322328832
-0.4758804622545395   0.03318215027451732   0.009725914322328832
-0.4758804622545395   0.03318215027451732   0.009725914322328832
-0.4758804622545395   0.03318215027451732   0.009725914322328832
-1.042161832860333   -0.07261658306682353   -0.03321628192963158
-1.042161832860333   -0.07261658306682353   -0.03321628192963158
-1.042161832860333   -0.07261658306682353   -0.03321628192963158
-1.042161832860333   -0.07261658306682353   -0.03321628192963158
-0.7515167916813094   -0.034048614863273124   -0.008247064477413482
-0.7515167916813094   -0.034048614863273124   -0.008247064477413482
-0.7515167916813094   -0.034048614863273124   -0.008247064477413482
-0.7515167916813094   -0.034048614863273124   -0.008247064477413482
-1.0380641051928816   -0.08189050542454712   -0.0034537212346512497
-1.0380641051928816   -0.08189050542454712   -0.0034537212346512497
-1.0380641051928816   -0.08189050542454712   -0.0034537212346512497
-1.0380641051928816   -0.08189050542454712   -0.0034537212346512497
-0.47653419930810753   0.045900063246126374   -0.006260683917111411
-0.47653419930810753   0.045900063246126374   -0.006260683917111411
-0.47653419930810753   0.045900063246126374   -0.006260683917111411
-0.47653419930810753   0.045900063246126374   -0.006260683917111411
-0.46780059394156814   0.05747066346859492   0.019459887566833832
-0.46780059394156814   0.05747066346859492   0.019459887566833832
-0.46780059394156814   0.05747066346859492   0.019459887566833832
-0.46780059394156814   0.05747066346859492   0.019459887566833832
-1.0308726988371573   -0.04191801500887696   -0.03701358367827603
-1.0308726988371573   -0.04191801500887696   -0.03701358367827603
-1.0308726988371573   -0.04191801500887696   -0.03701358367827603
-1.0308726988371573   -0.04191801500887696   -0.03701358367827603
-0.7482511646834036   -0.008323195959933055   0.003750327807828628
-0.7482511646834036   -0.008323195959933055   0.003750327807828628
-0.7482511646834036   -0.008323195959933055   0.003750327807828628
-0.7482511646834036   -0.008323195959933055   0.003750327807828628
-0.49666199715542164   -0.11283626815781105   -0.020937187257490057
-0.49666199715542164   -0.11283626815781105   -0.020937187257490057
-0.49666199715542164   -0.11283626815781105   -0.020937187257490057
-0.49666199715542164   -0.11283626815781105   -0.020937187257490057
0.05082021209704598   0.011545030034524022   0.01934742577733228
0.05082021209704598   0.011545030034524022   0.01934742577733228
0.05082021209704598   0.011545030034524022   0.01934742577733228
0.05082021209704598   0.011545030034524022   0.01934742577733228
0.04859503348608367   0.02833385781870771   0.0015705757479323752
0.04859503348608367   0.02833385781870771   0.0015705757479323752
0.04859503348608367   0.02833385781870771   0.0015705757479323752
0.04859503348608367   0.02833385781870771   0.0015705757479323752
-0.4986507861023539   -0.07470369192936169   -0.013374609123989295
-0.4986507861023539   -0.07470369192936169   -0.013374609123989295
-0.4986507861023539   -0.07470369192936169   -0.013374609123989295
-0.4986507861023539   -0.07470369192936169   -0.013374609123989295
-0.2261426083615752   -0.037458770394161886   -0.0071918225102242175
-0.2261426083615752   -0.037458770394161886   -0.0071918225102242175
-0.2261426083615752   -0.037458770394161886   -0.0071918225102242175
-0.2261426083615752   -0.037458770394161886   -0.0071918225102242175
-0.5021039419101382   -0.08599072369048145   -0.019353356401790655
-0.5021039419101382   -0.08599072369048145   -0.019353356401790655
-0.5021039419101382   -0.08599072369048145   -0.019353356401790655
-0.5021039419101382   -0.08599072369048145   -0.019353356401790655
0.053956705192676105   0.04152940547863618   0.015183386620966088
0.053956705192676105   0.04152940547863618   0.015183386620966088
0.053956705192676105   0.04152940547863618   0.015183386620966088
0.053956705192676105   0.04152940547863618   0.015183386620966088
0.05261537557672125   0.05494568743692209   0.008981031376040755
0.05261537557672125   0.05494568743692209   0.008981031376040755
0.05261537557672125   0.05494568743692209   0.008981031376040755
0.05261537557672125   0.05494568743692209   0.008981031376040755
-0.49690487566030617   -0.045517596388922985   -0.01669640604306428
-0.49690487566030617   -0.045517596388922985   -0.01669640604306428
-0.49690487566030617   -0.045517596388922985   -0.01669640604306428
-0.49690487566030617   -0.045517596388922985   -0.01669640604306428
-0.222482686808309   -0.0091860977988052   0.0026300249373548915
-0.222482686808309   -0.0091860977988052   0.0026300249373548915
-0.222482686808309   -0.0091860977988052   0.0026300249373548915
-0.222482686808309   -0.0091860977988052   0.0026300249373548915
-0.4982488947188436   -0.05900849370194492   -0.009925604022729425
-0.4982488947188436   -0.05900849370194492   -0.009925604022729425
-0.4982488947188436   -0.05900849370194492   -0.009925604022729425
-0.4982488947188436   -0.05900849370194492   -0.009925604022729425
0.05601424771521018   0.07049143782989548   0.010429641675511615
0.05601424771521018   0.07049143782989548   0.010429641675511615
0.05601424771521018   0.07049143782989548   0.010429641675511615
0.05601424771521018   0.07049143782989548   0.010429641675511615
0.053975709733618156   0.08453837307451902   0.014760707485146844
0.053975709733618156   0.08453837307451902   0.014760707485146844
0.053975709733618156   0.08453837307451902   0.014760707485146844
0.053975709733618156   0.08453837307451902   0.014760707485146844
-0.49026242076955484   -0.014326868538229398   -0.0210517145662722
-0.49026242076955484   -0.014326868538229398   -0.0210517145662722
-0.49026242076955484   -0.014326868538229398   -0.0210517145662722
-0.49026242076955484   -0.014326868538229398   -0.0210517145662722
-0.21677838076764033   0.02038012862685662   0.013382866974533648
-0.21677838076764033   0.02038012862685662   0.013382866974533648
-0.21677838076764033   0.02038012862685662   0.013382866974533648
-0.21677838076764033   0.02038012862685662   0.013382866974533648
0.022935212427993366   -0.08275365208831637   -0.025778890445090404
0.022935212427993366   -0.08275365208831637   -0.025778890445090404
0.022935212427993366   -0.08275365208831637   -0.025778890445090404
0.022935212427993366   -0.08275365208831637   -0.025778890445090404
0.5901282529461145   0.04065055200346404   0.03555257139830541
0.5901282529461145   0.04065055200346404   0.03555257139830541
0.5901282529461145   0.04065055200346404   0.03555257139830541
0.5901282529461145   0.04065055200346404   0.03555257139830541
0.5895373540890146   0.054858838948709715   -0.005712661201238308
0.5895373540890146   0.054858838948709715   -0.005712661201238308
0.5895373540890146   0.054858838948709715   -0.005712661201238308
0.5895373540890146   0.054858838948709715   -0.005712661201238308
0.03341571365475772   -0.0496247380599664   0.003632572469976735
0.03341571365475772   -0.0496247380599664   0.003632572469976735
0.03341571365475772   -0.0496247380599664   0.003632572469976735
0.03341571365475772   -0.0496247380599664   0.003632572469976735
0.3051879213707499   -0.007149686420355628   0.0006019431298897593
0.3051879213707499   -0.007149686420355628   0.0006019431298897593
0.3051879213707499   -0.007149686420355628   0.0006019431298897593
0.3051879213707499   -0.007149686420355628   0.0006019431298897593
0.026672029509857958   -0.06042817582480981   -0.019282410489678284
0.026672029509857958   -0.06042817582480981   -0.019282410489678284
0.026672029509857958   -0.06042817582480981   -0.019282410489678284
0.026672029509857958   -0.06042817582480981   -0.019282410489678284
0.5997194399765201   0.06910067845615837   0.030955928728834573
0.5997194399765201   0.06910067845615837   0.030955928728834573
0.5997194399765201   0.06910067845615837   0.030955928728834573
0.5997194399765201   0.06910067845615837   0.030955928728834573
0.5943769104852025   0.08118799110474526   0.0059167016970432685
0.5943769104852025   0.08118799110474526   0.0059167016970432685
0.5943769104852025   0.08118799110474526   0.0059167016970432685
0.5943769104852025   0.08118799110474526   0.0059167016970432685
0.03479132359212791   -0.023531641929277747   -0.0016618991807261438
0.03479132359212791   -0.023531641929277747   -0.0016618991807261438
0.03479132359212791   -0.023531641929277747   -0.0016618991807261438
0.03479132359212791   -0.023531641929277747   -0.0016618991807261438
0.30944192241582746   0.01801194792619098   0.012674193344902518
0.30944192241582746   0.01801194792619098   0.012674193344902518
0.30944192241582746   0.01801194792619098   0.012674193344902518
0.30944192241582746   0.01801194792619098   0.012674193344902518
0.029863135235647206   -0.03572083405254674   -0.014113648839860498
0.029863135235647206   -0.03572083405254674   -0.014113648839860498
0.029863135235647206   -0.03572083405254674   -0.014113648839860498
0.029863135235647206   -0.03572083405254674   -0.014113648839860498
0.6017946307793262   0.09586671516565543   0.028326579106741426
0.6017946307793262   0.09586671516565543   0.028326579106741426
0.6017946307793262   0.09586671516565543   0.028326579106741426
0.6017946307793262   0.09586671516565543   0.028326579106741426
0.5849830995323372   0.11157136973055239   0.012511674896118872
0.5849830995323372   0.11157136973055239   0.012511674896118872
0.5849830995323372   0.11157136973055239   0.012511674896118872
0.5849830995323372   0.11157136973055239   0.012511674896118872
0.03462826461241272   0.008756414553888037   -0.006194559600249365
0.03462826461241272   0.008756414553888037   -0.006194559600249365
0.03462826461241272   0.008756414553888037   -0.006194559600249365
0.03462826461241272   0.008756414553888037   -0.006194559600249365
0.314194198048445   0.04677224019642936   0.023857864413227153
0.314194198048445   0.04677224019642936   0.023857864413227153
0.314194198048445   0.04677224019642936   0.023857864413227153
0.314194198048445   0.04677224019642936   0.023857864413227153
0.5434656033750828   -0.10934278776635235   -0.04776733668703699
0.5434656033750828   -0.10934278776635235   -0.04776733668703699
0.5434656033750828   -0.10934278776635235   -0.04776733668703699
0.5434656033750828   -0.10934278776635235   -0.04776733668703699
1.119755951906255   0.07397016836096354   0.03476936690044386
1.119755951906255   0.07397016836096354   0.03476936690044386
1.119755951906255   0.07397016836096354   0.03476936690044386
1.119755951906255   0.07397016836096354   0.03476936690044386
1.1326161787331501   0.0348768633243558   -0.07187045505341608
1.1326161787331501   0.0348768633243558   -0.07187045505341608
1.1326161787331501   0.0348768633243558   -0.07187045505341608
1.1326161787331501   0.0348768633243558   -0.07187045505341608
0.5794313037530373   -0.022222620909518542   0.02083854697709324
0.5794313037530373   -0.022222620909518542   0.02083854697709324
0.5794313037530373   -0.022222620909518542   0.02083854697709324
0.5794313037530373   -0.022222620909518542   0.02083854697709324
0.8018389616402004   -0.014158135192098215   -0.02017304183517097
0.8018389616402004   -0.014158135192098215   -0.02017304183517097
0.8018389616402004   -0.014158135192098215   -0.02017304183517097
0.8018389616402004   -0.014158135192098215   -0.02017304183517097
0.5589899761459852   -0.07182702381327391   -0.0317636881544037
0.5589899761459852   -0.07182702381327391   -0.0317636881544037
0.5589899761459852   -0.07182702381327391   -0.0317636881544037
0.5589899761459852   -0.07182702381327391   -0.0317636881544037
1.1633721526865068   0.09479591257441788   0.02199036546330571
1.1633721526865068   0.09479591257441788   0.02199036546330571
1.1633721526865068   0.09479591257441788   0.02199036546330571
1.1633721526865068   0.09479591257441788   0.02199036546330571
1.1453670610803288   0.06383634532890445   -0.016451169749322037
1.1453670610803288   0.06383634532890445   -0.016451169749322037
1.1453670610803288   0.06383634532890445   -0.016451169749322037
1.1453670610803288   0.06383634532890445   -0.016451169749322037
0.5772787668093002   -0.00919473665157633   0.010808711073843479
0.5772787668093002   -0.00919473665157633   0.010808711073843479
0.5772787668093002   -0.00919473665157633   0.010808711073843479
0.5772787668093002   -0.00919473665157633   0.010808711073843479
0.8441100284088116   0.02110090556279426   0.013899343092881142
0.8441100284088116   0.02110090556279426   0.013899343092881142
0.8441100284088116   0.02110090556279426   0.013899343092881142
0.8441100284088116   0.02110090556279426   0.013899343092881142
0.5608549543904522   -0.05489738299466648   -0.025607704677301897
0.5608549543904522   -0.05489738299466648   -0.025607704677301897
0.5608549543904522   -0.05489738299466648   -0.025607704677301897
0.5608549543904522   -0.05489738299466648   -0.025607704677301897
1.1604420445958457   0.10819016276866428   0.014569930388501247
1.1604420445958457   0.10819016276866428   0.014569930388501247
1.1604420445958457   0.10819016276866428   0.014569930388501247
1.1604420445958457   0.10819016276866428   0.014569930388501247
1.1437610750949505   0.09799260475448421   -0.02511783759910694
1.1437610750949505   0.09799260475448421   -0.02511783759910694
1.1437610750949505   0.09799260475448421   -0.02511783759910694
1.1437610750949505   0.09799260475448421   -0.02511783759910694
0.5655328180737647   0.020775636501084438   0.006056000832714941
0.5655328180737647   0.020775636501084438   0.006056000832714941
0.5655328180737647   0.020775636501084438   0.006056000832714941
0.5655328180737647   0.020775636501084438   0.006056000832714941
0.8227410152435809   0.037087083428813894   0.010394884007044067
0.8227410152435809   0.037087083428813894   0.010394884007044067
0.8227410152435809   0.037087083428813894   0.010394884007044067
0.8227410152435809   0.037087083428813894   0.010394884007044067
-1.229298968712466   -0.05570222906394637   0.06358780201095215
-1.229298968712466   -0.05570222906394637   0.06358780201095215
-1.229298968712466   -0.05570222906394637   0.06358780201095215
-1.229298968712466   -0.05570222906394637   0.06358780201095215
-0.8168698787168602   -0.031231513028911306   -0.016545611426060806
-0.8168698787168602   -0.031231513028911306   -0.016545611426060806
-0.8168698787168602   -0.031231513028911306   -0.016545611426060806
-0.8168698787168602   -0.031231513028911306   -0.016545611426060806
-0.7872450509270918   0.0662831169492959   0.05331599265528293
-0.7872450509270918   0.0662831169492959   0.05331599265528293
-0.7872450509270918   0.0662831169492959   0.05331599265528293
-0.7872450509270918   0.0662831169492959   0.05331599265528293
-1.234899517525145   -0.08823299849044886   -0.02590681617231
-1.234899517525145   -0.08823299849044886   -0.02590681617231
-1.234899517525145   -0.08823299849044886   -0.02590681617231
-1.234899517525145   -0.08823299849044886   -0.02590681617231
-0.9758115289151944   -0.015083992285064574   -0.0019372435039643476
-0.9758115289151944   -0.015083992285064574   -0.0019372435039643476
-0.9758115289151944   -0.015083992285064574   -0.0019372435039643476
-0.9758115289151944   -0.015083992285064574   -0.0019372435039643476
-1.2003852870238436   -0.012768217693634398   0.0711995555373832
-1.2003852870238436   -0.012768217693634398   0.0711995555373832
-1.2003852870238436   -0.012768217693634398   0.0711995555373832
-1.2003852870238436   -0.012768217693634398   0.0711995555373832
-0.8163263346395894   -0.0037487170587132412   -0.02205859189919534
-0.8163263346395894   -0.0037487170587132412   -0.02205859189919534
-0.8163263346395894   -0.0037487170587132412   -0.02205859189919534
-0.8163263346395894   -0.0037487170587132412   -0.02205859189919534
-0.7839602071543298   0.08224016826206437   0.04939539347734685
-0.7839602071543298   0.08224016826206437   0.04939539347734685
-0.7839602071543298   0.08224016826206437   0.04939539347734685
-0.7839602071543298   0.08224016826206437   0.04939539347734685
-1.2156136177585237   -0.07376040816528348   -0.03544897978035658
-1.2156136177585237   -0.07376040816528348   -0.03544897978035658
-1.2156136177585237   -0.07376040816528348   -0.03544897978035658
-1.2156136177585237   -0.07376040816528348   -0.03544897978035658
-0.9777562141265475   0.003662038526057426   0.011202329835835606
-0.9777562141265475   0.003662038526057426   0.011202329835835606
-0.9777562141265475   0.003662038526057426   0.011202329835835606
-0.9777562141265475   0.003662038526057426   0.011202329835835606
-1.183482069648222   0.0022886563241587   0.04915969628171059
-1.183482069648222   0.0022886563241587   0.04915969628171059
-1.183482069648222   0.0022886563241587   0.04915969628171059
-1.183482069648222   0.0022886563241587   0.04915969628171059
-0.8143021031833259   0.007980755853929627   -0.028054674259489078
-0.8143021031833259   0.007980755853929627   -0.028054674259489078
-0.8143021031833259   0.007980755853929627   -0.028054674259489078
-0.8143021031833259   0.007980755853929627   -0.028054674259489078
-0.7846517996938719   0.09290550482707044   0.03919530011757055
-0.7846517996938719   0.09290550482707044   0.03919530011757055
-0.7846517996938719   0.09290550482707044   0.03919530011757055
-0.7846517996938719   0.09290550482707044   0.03919530011757055
-1.190623280792522   -0.05834171523850365   -0.045185794057830374
-1.190623280792522   -0.05834171523850365   -0.045185794057830374
-1.190623280792522   -0.05834171523850365   -0.045185794057830374
-1.190623280792522   -0.05834171523850365   -0.045185794057830374
-0.949542762824839   0.020468479849970106   0.023427682107313948
-0.949542762824839   0.020468479849970106   0.023427682107313948
-0.949542762824839   0.020468479849970106   0.023427682107313948
-0.949542762824839   0.020468479849970106   0.023427682107313948
-0.8192167777118311   -0.07764720278191846   0.018135583352092224
-0.8192167777118311   -0.07764720278191846   0.018135583352092224
-0.8192167777118311   -0.07764720278191846   0.018135583352092224
-0.8192167777118311   -0.07764720278191846   0.018135583352092224
-0.41415101549168665   -0.015085988913062565   0.0007725504936318926
-0.41415101549168665   -0.015085988913062565   0.0007725504936318926
-0.41415101549168665   -0.015085988913062565   0.0007725504936318926
-0.41415101549168665   -0.015085988913062565   0.0007725504936318926
-0.4023166108524085   0.040659427438291484   0.028964849799530436
-0.4023166108524085   0.040659427438291484   0.028964849799530436
-0.4023166108524085   0.040659427438291484   0.028964849799530436
-0.4023166108524085   0.040659427438291484   0.028964849799530436
-0.8322161131821084   -0.07657303829765147   -0.028683163372858478
-0.8322161131821084   -0.07657303829765147   -0.028683163372858478
-0.8322161131821084   -0.07657303829765147   -0.028683163372858478
-0.8322161131821084   -0.07657303829765147   -0.028683163372858478
-0.6147992991442244   -0.03017111036933351   -0.012523412446390374
-0.6147992991442244   -0.03017111036933351   -0.012523412446390374
-0.6147992991442244   -0.03017111036933351   -0.012523412446390374
-0.6147992991442244   -0.03017111036933351   -0.012523412446390374
-0.8165528640242672   -0.0444739869435386   0.017534031062238768
-0.8165528640242672   -0.0444739869435386   0.017534031062238768
-0.8165528640242672   -0.0444739869435386   0.017534031062238768
-0.8165528640242672   -0.0444739869435386   0.017534031062238768
-0.4148109223179887   0.01172931377644204   -0.004576593866518326
-0.4148109223179887   0.01172931377644204   -0.004576593866518326
-0.4148109223179887   0.01172931377644204   -0.004576593866518326
-0.4148109223179887   0.01172931377644204   -0.004576593866518326
-0.40097457781023005   0.06727370717715676   0.025047914240166905
-0.40097457781023005   0.06727370717715676   0.025047914240166905
-0.40097457781023005   0.06727370717715676   0.025047914240166905
-0.40097457781023005   0.06727370717715676   0.025047914240166905
-0.8274109538642871   -0.0517436662316523   -0.03387450557872268
-0.8274109538642871   -0.0517436662316523   -0.03387450557872268
-0.8274109538642871   -0.0517436662316523   -0.03387450557872268
-0.8274109538642871   -0.0517436662316523   -0.03387450557872268
-0.6080135905317741   -0.0032651998471777133   -8.100077339744799e-05
-0.6080135905317741   -0.0032651998471777133   -8.100077339744799e-05
-0.6080135905317741   -0.0032651998471777133   -8.100077339744799e-05
-0.6080135905317741   -0.0032651998471777133   -8.100077339744799e-05
-0.8114293552852077   -0.017474055790723225   0.01176387687574465
-0.8114293552852077   -0.017474055790723225   0.01176387687574465
-0.8114293552852077   -0.017474055790723225   0.01176387687574465
-0.8114293552852077   -0.017474055790723225   0.01176387687574465
-0.414376217566254   0.03558405555928415   -0.010270632922073392
-0.414376217566254   0.03558405555928415   -0.010270632922073392
-0.414376217566254   0.03558405555928415   -0.010270632922073392
-0.414376217566254   0.03558405555928415   -0.010270632922073392
-0.40078964449064497   0.09525307862032567   0.01875883012122096
-0.40078964449064497   0.09525307862032567   0.01875883012122096
-0.40078964449064497   0.09525307862032567   0.01875883012122096
-0.40078964449064497   0.09525307862032567   0.01875883012122096
-0.8233482634042723   -0.02493454677741519   -0.03644696682994734
-0.8233482634042723   -0.02493454677741519   -0.03644696682994734
-0.8233482634042723   -0.02493454677741519   -0.03644696682994734
-0.8233482634042723   -0.02493454677741519   -0.03644696682994734
-0.6083279601199243   0.02143107681183265   0.009439306522276827
-0.6083279601199243   0.02143107681183265   0.009439306522276827
-0.6083279601199243   0.02143107681183265   0.009439306522276827
-0.6083279601199243   0.02143107681183265   0.009439306522276827
-0.4295404228581103   -0.08887389763523684   -0.0023865776163157766
-0.4295404228581103   -0.08887389763523684   -0.0023865776163157766
-0.4295404228581103   -0.08887389763523684   -0.0023865776163157766
-0.4295404228581103   -0.08887389763523684   -0.0023865776163157766
-0.015129536876593592   0.004249904336968661   0.01833821968395733
-0.015129536876593592   0.004249904336968661   0.01833821968395733
-0.015129536876593592   0.004249904336968661   0.01833821968395733
-0.015129536876593592   0.004249904336968661   0.01833821968395733
-0.016635681929909704   0.02612885304472114   0.008773011573980567
-0.016635681929909704   0.02612885304472114   0.008773011573980567
-0.016635681929909704   0.02612885304472114   0.008773011573980567
-0.016635681929909704   0.02612885304472114   0.008773011573980567
-0.429762365391401   -0.05689331146120212   -0.010711183995938893
-0.429762365391401   -0.05689331146120212   -0.010711183995938893
-0.429762365391401   -0.05689331146120212   -0.010711183995938893
-0.429762365391401   -0.05689331146120212   -0.010711183995938893
-0.223453820061317   -0.02790538743468737   -0.007023819707306272
-0.223453820061317   -0.02790538743468737   -0.007023819707306272
-0.223453820061317   -0.02790538743468737   -0.007023819707306272
-0.223453820061317   -0.02790538743468737   -0.007023819707306272
-0.4292989971436674   -0.059346619297100896   -0.005941034921371902
-0.4292989971436674   -0.059346619297100896   -0.005941034921371902
-0.4292989971436674   -0.059346619297100896   -0.005941034921371902
-0.4292989971436674   -0.059346619297100896   -0.005941034921371902
-0.014737855720208191   0.030943355338056387   0.013447640329153122
-0.014737855720208191   0.030943355338056387   0.013447640329153122
-0.014737855720208191   0.030943355338056387   0.013447640329153122
-0.014737855720208191   0.030943355338056387   0.013447640329153122
-0.014607784135727612   0.055118775683872134   0.00418836279633273
-0.014607784135727612   0.055118775683872134   0.00418836279633273
-0.014607784135727612   0.055118775683872134   0.00418836279633273
-0.014607784135727612   0.055118775683872134   0.00418836279633273
-0.428611667442802   -0.03015101758230232   -0.015712809163229854
-0.428611667442802   -0.03015101758230232   -0.015712809163229854
-0.428611667442802   -0.03015101758230232   -0.015712809163229854
-0.428611667442802   -0.03015101758230232   -0.015712809163229854
-0.22121799838915834   -0.0011086071472263467   0.003032850708000079
-0.22121799838915834   -0.0011086071472263467   0.003032850708000079
-0.22121799838915834   -0.0011086071472263467   0.003032850708000079
-0.22121799838915834   -0.0011086071472263467   0.003032850708000079
-0.42796855697992964   -0.030767255275390745   -0.011881019155779639
-0.42796855697992964   -0.030767255275390745   -0.011881019155779639
-0.42796855697992964   -0.030767255275390745   -0.011881019155779639
-0.42796855697992964   -0.030767255275390745   -0.011881019155779639
-0.013301732394134621   0.05768417558142722   0.008153221606742775
-0.013301732394134621   0.05768417558142722   0.008153221606742775
-0.013301732394134621   0.05768417558142722   0.008153221606742775
-0.013301732394134621   0.05768417558142722   0.008153221606742775
-0.014122295869735558   0.08497115461822663   -0.0007017236838113006
-0.014122295869735558   0.08497115461822663   -0.0007017236838113006
-0.014122295869735558   0.08497115461822663   -0.0007017236838113006
-0.014122295869735558   0.08497115461822663   -0.0007017236838113006
-0.4283377708182987   -0.002957473510320649   -0.0207712493864033
-0.4283377708182987   -0.002957473510320649   -0.0207712493864033
-0.4283377708182987   -0.002957473510320649   -0.0207712493864033
-0.4283377708182987   -0.002957473510320649   -0.0207712493864033
-0.21946614172304713   0.02571398743760278   0.012256232926225373
-0.21946614172304713   0.02571398743760278   0.012256232926225373
-0.21946614172304713   0.02571398743760278   0.012256232926225373
-0.21946614172304713   0.02571398743760278   0.012256232926225373
-0.04338885617708803   -0.09742089883095563   -0.021287573650590454
-0.04338885617708803   -0.09742089883095563   -0.021287573650590454
-0.04338885617708803   -0.09742089883095563   -0.021287573650590454
-0.04338885617708803   -0.09742089883095563   -0.021287573650590454
0.38227437868643743   0.026864676370326968   0.03487229869530627
0.38227437868643743   0.026864676370326968   0.03487229869530627
0.38227437868643743   0.026864676370326968   0.03487229869530627
0.38227437868643743   0.026864676370326968   0.03487229869530627
0.3697508550715717   0.014151220847856055   -0.013822774407724961
0.3697508550715717   0.014151220847856055   -0.013822774407724961
0.3697508550715717   0.014151220847856055   -0.013822774407724961
0.3697508550715717   0.014151220847856055   -0.013822774407724961
-0.029222588388242047   -0.03558524682266171   0.0075525791497019455
-0.029222588388242047   -0.03558524682266171   0.0075525791497019455
-0.029222588388242047   -0.03558524682266171   0.0075525791497019455
-0.029222588388242047   -0.03558524682266171   0.0075525791497019455
0.1674418366602164   -0.022640372012966405   -0.003978367490791666
0.1674418366602164   -0.022640372012966405   -0.003978367490791666
0.1674418366602164   -0.022640372012966405   -0.003978367490791666
0.1674418366602164   -0.022640372012966405   -0.003978367490791666
-0.043170125059113634   -0.07101874208516566   -0.026751608942152037
-0.043170125059113634   -0.07101874208516566   -0.026751608942152037
-0.043170125059113634   -0.07101874208516566   -0.026751608942152037
-0.043170125059113634   -0.07101874208516566   -0.026751608942152037
0.3863843558966091   0.05227068026452516   0.03122527030079282
0.3863843558966091   0.05227068026452516   0.03122527030079282
0.3863843558966091   0.05227068026452516   0.03122527030079282
0.3863843558966091   0.05227068026452516   0.03122527030079282
0.3758395352720583   0.0411274402731205   -0.01941469984866534
0.3758395352720583   0.0411274402731205   -0.01941469984866534
0.3758395352720583   0.0411274402731205   -0.01941469984866534
0.3758395352720583   0.0411274402731205   -0.01941469984866534
-0.028351561220676082   -0.01162331258832117   0.0022115656437840326
-0.028351561220676082   -0.01162331258832117   0.0022115656437840326
-0.028351561220676082   -0.01162331258832117   0.0022115656437840326
-0.028351561220676082   -0.01162331258832117   0.0022115656437840326
0.16900332069152652   0.0016161987536330996   0.0060199789462893494
0.16900332069152652   0.0016161987536330996   0.0060199789462893494
0.16900332069152652   0.0016161987536330996   0.0060199789462893494
0.16900332069152652   0.0016161987536330996   0.0060199789462893494
-0.041918297103372776   -0.04499189291986403   -0.03225353343815687
-0.041918297103372776   -0.04499189291986403   -0.03225353343815687
-0.041918297103372776   -0.04499189291986403   -0.03225353343815687
-0.041918297103372776   -0.04499189291986403   -0.03225353343815687
0.39233383280339806   0.07742358225330633   0.02676064582784738
0.39233383280339806   0.07742358225330633   0.02676064582784738
0.39233383280339806   0.07742358225330633   0.02676064582784738
0.39233383280339806   0.07742358225330633   0.02676064582784738
0.379621119067006   0.07493500428238108   -0.020294465412377467
0.379621119067006   0.07493500428238108   -0.020294465412377467
0.379621119067006   0.07493500428238108   -0.020294465412377467
0.379621119067006   0.07493500428238108   -0.020294465412377467
-0.028327688698089545   0.016359392969149476   -0.0031169261765037603
-0.028327688698089545   0.016359392969149476   -0.0031169261765037603
-0.028327688698089545   0.016359392969149476   -0.0031169261765037603
-0.028327688698089545   0.016359392969149476   -0.0031169261765037603
0.17494964110821723   0.028643225729415737   0.01788425939234124
0.17494964110821723   0.028643225729415737   0.01788425939234124
0.17494964110821723   0.028643225729415737   0.01788425939234124
0.17494964110821723   0.028643225729415737   0.01788425939234124
0.34226940269479295   -0.09678216319994584   -0.041505741692640895
0.34226940269479295   -0.09678216319994584   -0.041505741692640895
0.34226940269479295   -0.09678216319994584   -0.041505741692640895
0.34226940269479295   -0.09678216319994584   -0.041505741692640895
0.7533128307532153   0.05598074744750428   0.03887421031793148
0.7533128307532153   0.05598074744750428   0.03887421031793148
0.7533128307532153   0.05598074744750428   0.03887421031793148
0.7533128307532153   0.05598074744750428   0.03887421031793148
0.7474624493153416   -0.003834140260897595   -0.05525019534211029
0.7474624493153416   -0.003834140260897595   -0.05525019534211029
0.7474624493153416   -0.003834140260897595   -0.05525019534211029
0.7474624493153416   -0.003834140260897595   -0.05525019534211029
0.373318999214239   -0.007949266977775565   0.026118434131246076
0.373318999214239   -0.007949266977775565   0.026118434131246076
0.373318999214239   -0.007949266977775565   0.026118434131246076
0.373318999214239   -0.007949266977775565   0.026118434131246076
0.5271896928499443   -0.018951664298840057   -0.017351198469101534
0.5271896928499443   -0.018951664298840057   -0.017351198469101534
0.5271896928499443   -0.018951664298840057   -0.017351198469101534
0.5271896928499443   -0.018951664298840057   -0.017351198469101534
0.3426822158669256   -0.08395258149898198   -0.051062168084112375
0.3426822158669256   -0.08395258149898198   -0.051062168084112375
0.3426822158669256   -0.08395258149898198   -0.051062168084112375
0.3426822158669256   -0.08395258149898198   -0.051062168084112375
0.7802982157889876   0.07436815738664108   0.030726339378580884
0.7802982157889876   0.07436815738664108   0.030726339378580884
0.7802982157889876   0.07436815738664108   0.030726339378580884
0.7802982157889876   0.07436815738664108   0.030726339378580884
0.7659643019989402   0.01155265701433833   -0.07413985578622315
0.7659643019989402   0.01155265701433833   -0.07413985578622315
0.7659643019989402   0.01155265701433833   -0.07413985578622315
0.7659643019989402   0.01155265701433833   -0.07413985578622315
0.37615171859276864   0.00379087520074467   0.019482781827268633
0.37615171859276864   0.00379087520074467   0.019482781827268633
0.37615171859276864   0.00379087520074467   0.019482781827268633
0.37615171859276864   0.00379087520074467   0.019482781827268633
0.5511947149930031   -0.002303936002230042   -0.005262478753767799
0.5511947149930031   -0.002303936002230042   -0.005262478753767799
0.5511947149930031   -0.002303936002230042   -0.005262478753767799
0.5511947149930031   -0.002303936002230042   -0.005262478753767799
0.3466583406772797   -0.06859934216886347   -0.055593890380571644
0.3466583406772797   -0.06859934216886347   -0.055593890380571644
0.3466583406772797   -0.06859934216886347   -0.055593890380571644
0.3466583406772797   -0.06859934216886347   -0.055593890380571644
0.8003174448218509   0.08880263929136856   0.020375876051305863
0.8003174448218509   0.08880263929136856   0.020375876051305863
0.8003174448218509   0.08880263929136856   0.020375876051305863
0.8003174448218509   0.08880263929136856   0.020375876051305863
0.7953331557269423   0.05156929987226523   -0.06977601996455879
0.7953331557269423   0.05156929987226523   -0.06977601996455879
0.7953331557269423   0.05156929987226523   -0.06977601996455879
0.7953331557269423   0.05156929987226523   -0.06977601996455879
0.37747720438963833   0.029680301490614396   0.014240663992557434
0.37747720438963833   0.029680301490614396   0.014240663992557434
0.37747720438963833   0.029680301490614396   0.014240663992557434
0.37747720438963833   0.029680301490614396   0.014240663992557434
0.5554213565034465   0.01671252854181869   0.008133719290490591
0.5554213565034465   0.01671252854181869   0.008133719290490591
0.5554213565034465   0.01671252854181869   0.008133719290490591
0.5554213565034465   0.01671252854181869   0.008133719290490591
-0.8774197080718747   -0.02852625784522425   0.05753049384738899
-0.8774197080718747   -0.02852625784522425   0.05753049384738899
-0.8774197080718747   -0.02852625784522425   0.05753049384738899
-0.8774197080718747   -0.02852625784522425   0.05753049384738899
-0.614472124221363   -0.04119240227024862   -0.021693785496560952
-0.614472124221363   -0.04119240227024862   -0.021693785496560952
-0.614472124221363   -0.04119240227024862   -0.021693785496560952
-0.614472124221363   -0.04119240227024862   -0.021693785496560952
-0.5782701463587308   0.05808163177871403   0.04903696400709015
-0.5782701463587308   0.05808163177871403   0.04903696400709015
-0.5782701463587308   0.05808163177871403   0.04903696400709015
-0.5782701463587308   0.05808163177871403   0.04903696400709015
-0.8774814344258225   -0.07226077881651284   -0.03174025023282098
-0.8774814344258225   -0.07226077881651284   -0.03174025023282098
-0.8774814344258225   -0.07226077881651284   -0.03174025023282098
-0.8774814344258225   -0.07226077881651284   -0.03174025023282098
-0.7067527230893688   -0.01123071877172832   -0.0016754569638294525
-0.7067527230893688   -0.01123071877172832   -0.0016754569638294525
-0.7067527230893688   -0.01123071877172832   -0.0016754569638294525
-0.7067527230893688   -0.01123071877172832   -0.0016754569638294525
-0.8445474502251044   0.005960463829060514   0.054708428125196135
-0.8445474502251044   0.005960463829060514   0.054708428125196135
-0.8445474502251044   0.005960463829060514   0.054708428125196135
-0.8445474502251044   0.005960463829060514   0.054708428125196135
-0.608521929520404   -0.017457409827811146   -0.026682910194746393
-0.608521929520404   -0.017457409827811146   -0.026682910194746393
-0.608521929520404   -0.017457409827811146   -0.026682910194746393
-0.608521929520404   -0.017457409827811146   -0.026682910194746393
-0.5728188633745644   0.07017382064655228   0.04142740989486276
-0.5728188633745644   0.07017382064655228   0.04142740989486276
-0.5728188633745644   0.07017382064655228   0.04142740989486276
-0.5728188633745644   0.07017382064655228   0.04142740989486276
-0.8566412190349447   -0.05877875905944918   -0.04010695334435518
-0.8566412190349447   -0.05877875905944918   -0.04010695334435518
-0.8566412190349447   -0.05877875905944918   -0.04010695334435518
-0.8566412190349447   -0.05877875905944918   -0.04010695334435518
-0.7017608769859628   0.004711124072368733   0.007339242695952507
-0.7017608769859628   0.004711124072368733   0.007339242695952507
-0.7017608769859628   0.004711124072368733   0.007339242695952507
-0.7017608769859628   0.004711124072368733   0.007339242695952507
-0.8239991638127412   0.02043099276782248   0.043893570939390635
-0.8239991638127412   0.02043099276782248   0.043893570939390635
-0.8239991638127412   0.02043099276782248   0.043893570939390635
-0.8239991638127412   0.02043099276782248   0.043893570939390635
-0.603038600758051   -0.0066136133420018894   -0.03288384303401242
-0.603038600758051   -0.0066136133420018894   -0.03288384303401242
-0.603038600758051   -0.0066136133420018894   -0.03288384303401242
-0.603038600758051   -0.0066136133420018894   -0.03288384303401242
-0.569802865472523   0.08198888652024922   0.035646799415934995
-0.569802865472523   0.08198888652024922   0.035646799415934995
-0.569802865472523   0.08198888652024922   0.035646799415934995
-0.569802865472523   0.08198888652024922   0.035646799415934995
-0.8287491958749342   -0.04093643693550919   -0.04800848536105712
-0.8287491958749342   -0.04093643693550919   -0.04800848536105712
-0.8287491958749342   -0.04093643693550919   -0.04800848536105712
-0.8287491958749342   -0.04093643693550919   -0.04800848536105712
-0.6753906403707097   0.019664990716589142   0.019964235457538504
-0.6753906403707097   0.019664990716589142   0.019964235457538504
-0.6753906403707097   0.019664990716589142   0.019964235457538504
-0.6753906403707097   0.019664990716589142   0.019964235457538504
-0.6074764376839883   -0.049572612055198015   0.021664856975256244
-0.6074764376839883   -0.049572612055198015   0.021664856975256244
-0.6074764376839883   -0.049572612055198015   0.021664856975256244
-0.6074764376839883   -0.049572612055198015   0.021664856975256244
-0.352777996868564   -0.026688400943177107   -0.003503514730321254
-0.352777996868564   -0.026688400943177107   -0.003503514730321254
-0.352777996868564   -0.026688400943177107   -0.003503514730321254
-0.352777996868564   -0.026688400943177107   -0.003503514730321254
-0.33484033880700753   0.03392617289018539   0.02643711819121731
-0.33484033880700753   0.03392617289018539   0.02643711819121731
-0.33484033880700753   0.03392617289018539   0.02643711819121731
-0.33484033880700753   0.03392617289018539   0.02643711819121731
-0.6166392253907422   -0.059031728414888185   -0.02569507095936472
-0.6166392253907422   -0.059031728414888185   -0.02569507095936472
-0.6166392253907422   -0.059031728414888185   -0.02569507095936472
-0.6166392253907422   -0.059031728414888185   -0.02569507095936472
-0.4760269248586899   -0.023176469152534712   -0.009769474646813922
-0.4760269248586899   -0.023176469152534712   -0.009769474646813922
-0.4760269248586899   -0.023176469152534712   -0.009769474646813922
-0.4760269248586899   -0.023176469152534712   -0.009769474646813922
-0.6003367296138209   -0.020919494172792208   0.017705173683142568
-0.6003367296138209   -0.020919494172792208   0.017705173683142568
-0.6003367296138209   -0.020919494172792208   0.017705173683142568
-0.6003367296138209   -0.020919494172792208   0.017705173683142568
-0.3490508623291789   -0.0020940890971611614   -0.008595237432292936
-0.3490508623291789   -0.0020940890971611614   -0.008595237432292936
-0.3490508623291789   -0.0020940890971611614   -0.008595237432292936
-0.3490508623291789   -0.0020940890971611614   -0.008595237432292936
-0.3305835622354453   0.058730537800834315   0.021669122954868808
-0.3305835622354453   0.058730537800834315   0.021669122954868808
-0.3305835622354453   0.058730537800834315   0.021669122954868808
-0.3305835622354453   0.058730537800834315   0.021669122954868808
-0.6083229782493885   -0.03563975488143689   -0.03027958895126845
-0.6083229782493885   -0.03563975488143689   -0.03027958895126845
-0.6083229782493885   -0.03563975488143689   -0.03027958895126845
-0.6083229782493885   -0.03563975488143689   -0.03027958895126845
-0.4668823310082516   0.0011843701961998382   0.0006971620515692258
-0.4668823310082516   0.0011843701961998382   0.0006971620515692258
-0.4668823310082516   0.0011843701961998382   0.0006971620515692258
-0.4668823310082516   0.0011843701961998382   0.0006971620515692258
-0.5907870602966805   0.005590052319816907   0.016170193611017014
-0.5907870602966805   0.005590052319816907   0.016170193611017014
-0.5907870602966805   0.005590052319816907   0.016170193611017014
-0.5907870602966805   0.005590052319816907   0.016170193611017014
-0.34552167091538133   0.02009853987235266   -0.014389422516327743
-0.34552167091538133   0.02009853987235266   -0.014389422516327743
-0.34552167091538133   0.02009853987235266   -0.014389422516327743
-0.34552167091538133   0.02009853987235266   -0.014389422516327743
-0.32647012128796393   0.0851762813085224   0.017229031483432265
-0.32647012128796393   0.0851762813085224   0.017229031483432265
-0.32647012128796393   0.0851762813085224   0.017229031483432265
-0.32647012128796393   0.0851762813085224   0.017229031483432265
-0.6021044871113762   -0.010415103851502516   -0.03345731840657759
-0.6021044871113762   -0.010415103851502516   -0.03345731840657759
-0.6021044871113762   -0.010415103851502516   -0.03345731840657759
-0.6021044871113762   -0.010415103851502516   -0.03345731840657759
-0.4633316866021315   0.02412821143357985   0.010672115871259318
-0.4633316866021315   0.02412821143357985   0.010672115871259318
-0.4633316866021315   0.02412821143357985   0.010672115871259318
-0.4633316866021315   0.02412821143357985   0.010672115871259318
-0.36020287105149373   -0.06824638646036076   0.0009300998722104495
-0.36020287105149373   -0.06824638646036076   0.0009300998722104495
-0.36020287105149373   -0.06824638646036076   0.0009300998722104495
-0.36020287105149373   -0.06824638646036076   0.0009300998722104495
-0.09373434471849713   -0.008086284603627094   0.01467432293013668
-0.09373434471849713   -0.008086284603627094   0.01467432293013668
-0.09373434471849713   -0.008086284603627094   0.01467432293013668
-0.09373434471849713   -0.008086284603627094   0.01467432293013668
-0.09145764865284403   0.013910824977041429   0.005004781456721799
-0.09145764865284403   0.013910824977041429   0.005004781456721799
-0.09145764865284403   0.013910824977041429   0.005004781456721799
-0.09145764865284403   0.013910824977041429   0.005004781456721799
-0.35625427813935406   -0.03987109565374175   -0.0068353099265922035
-0.35625427813935406   -0.03987109565374175   -0.0068353099265922035
-0.35625427813935406   -0.03987109565374175   -0.0068353099265922035
-0.35625427813935406   -0.03987109565374175   -0.0068353099265922035
-0.22579918486093056   -0.024476849110650224   -0.006949792797639367
-0.22579918486093056   -0.024476849110650224   -0.006949792797639367
-0.22579918486093056   -0.024476849110650224   -0.006949792797639367
-0.22579918486093056   -0.024476849110650224   -0.006949792797639367
-0.3556696838430812   -0.040574354310120214   -0.003209079788849274
-0.3556696838430812   -0.040574354310120214   -0.003209079788849274
-0.3556696838430812   -0.040574354310120214   -0.003209079788849274
-0.3556696838430812   -0.040574354310120214   -0.003209079788849274
-0.08994489308790843   0.01671143349462838   0.009767950763812816
-0.08994489308790843   0.01671143349462838   0.009767950763812816
-0.08994489308790843   0.01671143349462838   0.009767950763812816
-0.08994489308790843   0.01671143349462838   0.009767950763812816
-0.08631602137375453   0.04170764655241792   0.0012848654413161586
-0.08631602137375453   0.04170764655241792   0.0012848654413161586
-0.08631602137375453   0.04170764655241792   0.0012848654413161586
-0.08631602137375453   0.04170764655241792   0.0012848654413161586
-0.35199222591812473   -0.014899137772536458   -0.01174451988515755
-0.35199222591812473   -0.014899137772536458   -0.01174451988515755
-0.35199222591812473   -0.014899137772536458   -0.01174451988515755
-0.35199222591812473   -0.014899137772536458   -0.01174451988515755
-0.22030665047822232   0.0004942325711284751   0.002918160165433288
-0.22030665047822232   0.0004942325711284751   0.002918160165433288
-0.22030665047822232   0.0004942325711284751   0.002918160165433288
-0.22030665047822232   0.0004942325711284751   0.002918160165433288
-0.35068119453558866   -0.012866717764346988   -0.007221782980666558
-0.35068119453558866   -0.012866717764346988   -0.007221782980666558
-0.35068119453558866   -0.012866717764346988   -0.007221782980666558
-0.35068119453558866   -0.012866717764346988   -0.007221782980666558
-0.08569047112239737   0.04161180817811801   0.004508455072402747
-0.08569047112239737   0.04161180817811801   0.004508455072402747
-0.08569047112239737   0.04161180817811801   0.004508455072402747
-0.08569047112239737   0.04161180817811801   0.004508455072402747
-0.08170113930892996   0.06990771217743064   -0.0030819524570156083
-0.08170113930892996   0.06990771217743064   -0.0030819524570156083
-0.08170113930892996   0.06990771217743064   -0.0030819524570156083
-0.08170113930892996   0.06990771217743064   -0.0030819524570156083
-0.3482558524488081   0.010360519821013506   -0.016883862833280534
-0.3482558524488081   0.010360519821013506   -0.016883862833280534
-0.3482558524488081   0.010360519821013506   -0.016883862833280534
-0.3482558524488081   0.010360519821013506   -0.016883862833280534
-0.21529241129424448   0.0255851941675148   0.012425047262516822
-0.21529241129424448   0.0255851941675148   0.012425047262516822
-0.21529241129424448   0.0255851941675148   0.012425047262516822
-0.21529241129424448   0.0255851941675148   0.012425047262516822
-0.11562731179148186   -0.08355456739333426   -0.019322229645080527
-0.11562731179148186   -0.08355456739333426   -0.019322229645080527
-0.11562731179148186   -0.08355456739333426   -0.019322229645080527
-0.11562731179148186   -0.08355456739333426   -0.019322229645080527
0.1617672942998348   0.012763141798025866   0.03181505680050703
0.1617672942998348   0.012763141798025866   0.03181505680050703
0.1617672942998348   0.012763141798025866   0.03181505680050703
0.1617672942998348   0.012763141798025866   0.03181505680050703
0.15035525866990868   -0.004746963913942637   -0.0178338533648534
0.15035525866990868   -0.004746963913942637   -0.0178338533648534
0.15035525866990868   -0.004746963913942637   -0.0178338533648534
0.15035525866990868   -0.004746963913942637   -0.0178338533648534
-0.09674763131994478   -0.019352691193594652   0.011818384291854025
-0.09674763131994478   -0.019352691193594652   0.011818384291854025
-0.09674763131994478   -0.019352691193594652   0.011818384291854025
-0.09674763131994478   -0.019352691193594652   0.011818384291854025
0.023916881333526853   -0.023063300444109903   -0.00495156799861846
0.023916881333526853   -0.023063300444109903   -0.00495156799861846
0.023916881333526853   -0.023063300444109903   -0.00495156799861846
0.023916881333526853   -0.023063300444109903   -0.00495156799861846
-0.11166882897993247   -0.05834422484272998   -0.023796070358949005
-0.11166882897993247   -0.05834422484272998   -0.023796070358949005
-0.11166882897993247   -0.05834422484272998   -0.023796070358949005
-0.11166882897993247   -0.05834422484272998   -0.023796070358949005
0.16777194177146934   0.03674005517676793   0.027762543052237448
0.16777194177146934   0.03674005517676793   0.027762543052237448
0.16777194177146934   0.03674005517676793   0.027762543052237448
0.16777194177146934   0.03674005517676793   0.027762543052237448
0.15993004757732474   0.021548698499298795   -0.020209987716109313
0.15993004757732474   0.021548698499298795   -0.020209987716109313
0.15993004757732474   0.021548698499298795   -0.020209987716109313
0.15993004757732474   0.021548698499298795   -0.020209987716109313
-0.09303804077267179   0.0029794837260118945   0.006402931273136847
-0.09303804077267179   0.0029794837260118945   0.006402931273136847
-0.09303804077267179   0.0029794837260118945   0.006402931273136847
-0.09303804077267179   0.0029794837260118945   0.006402931273136847
0.02901508455364333   -0.00040963611819560663   0.005090679305416974
0.02901508455364333   -0.00040963611819560663   0.005090679305416974
0.02901508455364333   -0.00040963611819560663   0.005090679305416974
0.02901508455364333   -0.00040963611819560663   0.005090679305416974
-0.10743796544268452   -0.03367195685971895   -0.02894525149119644
-0.10743796544268452   -0.03367195685971895   -0.02894525149119644
-0.10743796544268452   -0.03367195685971895   -0.02894525149119644
-0.10743796544268452   -0.03367195685971895   -0.02894525149119644
0.17649452421373565   0.06036469105142869   0.023796402913813415
0.17649452421373565   0.06036469105142869   0.023796402913813415
0.17649452421373565   0.06036469105142869   0.023796402913813415
0.17649452421373565   0.06036469105142869   0.023796402913813415
0.1676435665243217   0.051504796326257006   -0.023361164613377363
0.1676435665243217   0.051504796326257006   -0.023361164613377363
0.1676435665243217   0.051504796326257006   -0.023361164613377363
0.1676435665243217   0.051504796326257006   -0.023361164613377363
-0.08907428421618441   0.02870892030510018   0.0012511148790417745
-0.08907428421618441   0.02870892030510018   0.0012511148790417745
-0.08907428421618441   0.02870892030510018   0.0012511148790417745
-0.08907428421618441   0.02870892030510018   0.0012511148790417745
0.03687302733749475   0.024212707871719433   0.015482930199685266
0.03687302733749475   0.024212707871719433   0.015482930199685266
0.03687302733749475   0.024212707871719433   0.015482930199685266
0.03687302733749475   0.024212707871719433   0.015482930199685266
0.12833179034381678   -0.08442513911189414   -0.03817418206966208
0.12833179034381678   -0.08442513911189414   -0.03817418206966208
0.12833179034381678   -0.08442513911189414   -0.03817418206966208
0.12833179034381678   -0.08442513911189414   -0.03817418206966208
0.3884981606982866   0.038373091158342316   0.041275653273592595
0.3884981606982866   0.038373091158342316   0.041275653273592595
0.3884981606982866   0.038373091158342316   0.041275653273592595
0.3884981606982866   0.038373091158342316   0.041275653273592595
0.3845809732979059   -0.020973146999810052   -0.05026294006259327
0.3845809732979059   -0.020973146999810052   -0.05026294006259327
0.3845809732979059   -0.020973146999810052   -0.05026294006259327
0.3845809732979059   -0.020973146999810052   -0.05026294006259327
0.16244814664501692   0.0070708530723382   0.030812769524405918
0.16244814664501692   0.0070708530723382   0.030812769524405918
0.16244814664501692   0.0070708530723382   0.030812769524405918
0.16244814664501692   0.0070708530723382   0.030812769524405918
0.2520930234976226   -0.017531774363779118   -0.013386535932875993
0.2520930234976226   -0.017531774363779118   -0.013386535932875993
0.2520930234976226   -0.017531774363779118   -0.013386535932875993
0.2520930234976226   -0.017531774363779118   -0.013386535932875993
0.13198422164565704   -0.0702725914981267   -0.044163410901927574
0.13198422164565704   -0.0702725914981267   -0.044163410901927574
0.13198422164565704   -0.0702725914981267   -0.044163410901927574
0.13198422164565704   -0.0702725914981267   -0.044163410901927574
0.4175891574267281   0.05891455670011595   0.03489027688159891
0.4175891574267281   0.05891455670011595   0.03489027688159891
0.4175891574267281   0.05891455670011595   0.03489027688159891
0.4175891574267281   0.05891455670011595   0.03489027688159891
0.4057502246679822   -0.006247247931515168   -0.0603063399092518
0.4057502246679822   -0.006247247931515168   -0.0603063399092518
0.4057502246679822   -0.006247247931515168   -0.0603063399092518
0.4057502246679822   -0.006247247931515168   -0.0603063399092518
0.16804226240020703   0.017859323962473   0.024040460935125997
0.16804226240020703   0.017859323962473   0.024040460935125997
0.16804226240020703   0.017859323962473   0.024040460935125997
0.16804226240020703   0.017859323962473   0.024040460935125997
0.27343841541452907   -0.002672190209495544   -0.0015658742856011765
0.27343841541452907   -0.002672190209495544   -0.0015658742856011765
0.27343841541452907   -0.002672190209495544   -0.0015658742856011765
0.27343841541452907   -0.002672190209495544   -0.0015658742856011765
0.13781176655999816   -0.05802017535995874   -0.051232518943485614
0.13781176655999816   -0.05802017535995874   -0.051232518943485614
0.13781176655999816   -0.05802017535995874   -0.051232518943485614
0.13781176655999816   -0.05802017535995874   -0.051232518943485614
0.438634074995932   0.07228560587865895   0.025580057920330766
0.438634074995932   0.07228560587865895   0.025580057920330766
0.438634074995932   0.07228560587865895   0.025580057920330766
0.438634074995932   0.07228560587865895   0.025580057920330766
0.4382776974189709   0.026076819833813193   -0.06457723732078119
0.4382776974189709   0.026076819833813193   -0.06457723732078119
0.4382776974189709   0.026076819833813193   -0.06457723732078119
0.4382776974189709   0.026076819833813193   -0.06457723732078119
0.173765760039063   0.039647406181659905   0.019107193104925126
0.173765760039063   0.039647406181659905   0.019107193104925126
0.173765760039063   0.039647406181659905   0.019107193104925126
0.173765760039063   0.039647406181659905   0.019107193104925126
0.2841468094430052   0.013686582219456525   0.008623597083821419
0.2841468094430052   0.013686582219456525   0.008623597083821419
0.2841468094430052   0.013686582219456525   0.008623597083821419
0.2841468094430052   0.013686582219456525   0.008623597083821419
-0.5248817441196288   -0.008634583783592498   0.05150492683500104
-0.5248817441196288   -0.008634583783592498   0.05150492683500104
-0.5248817441196288   -0.008634583783592498   0.05150492683500104
-0.5248817441196288   -0.008634583783592498   0.05150492683500104
-0.41013052368625436   -0.0521754385805269   -0.025426487292720408
-0.41013052368625436   -0.0521754385805269   -0.025426487292720408
-0.41013052368625436   -0.0521754385805269   -0.025426487292720408
-0.41013052368625436   -0.0521754385805269   -0.025426487292720408
-0.37121153709117505   0.04414647205592341   0.044026106794712944
-0.37121153709117505   0.04414647205592341   0.044026106794712944
-0.37121153709117505   0.04414647205592341   0.044026106794712944
-0.37121153709117505   0.04414647205592341   0.044026106794712944
-0.5227000951186019   -0.05696579930758741   -0.03463050378960531
-0.5227000951186019   -0.05696579930758741   -0.03463050378960531
-0.5227000951186019   -0.05696579930758741   -0.03463050378960531
-0.5227000951186019   -0.05696579930758741   -0.03463050378960531
-0.4397648746280296   -0.012067310227660305   -0.006585247433051722
-0.4397648746280296   -0.012067310227660305   -0.006585247433051722
-0.4397648746280296   -0.012067310227660305   -0.006585247433051722
-0.4397648746280296   -0.012067310227660305   -0.006585247433051722
-0.4902674271130317   0.02136956673228431   0.049197470198374116
-0.4902674271130317   0.02136956673228431   0.049197470198374116
-0.4902674271130317   0.02136956673228431   0.049197470198374116
-0.4902674271130317   0.02136956673228431   0.049197470198374116
-0.40138441085631504   -0.03192909974351743   -0.03076269023154233
-0.40138441085631504   -0.03192909974351743   -0.03076269023154233
-0.40138441085631504   -0.03192909974351743   -0.03076269023154233
-0.40138441085631504   -0.03192909974351743   -0.03076269023154233
-0.36204017215773304   0.05560815170159859   0.03722655358367203
-0.36204017215773304   0.05560815170159859   0.03722655358367203
-0.36204017215773304   0.05560815170159859   0.03722655358367203
-0.36204017215773304   0.05560815170159859   0.03722655358367203
-0.4986695383983888   -0.04397594345534746   -0.0432491988328986
-0.4986695383983888   -0.04397594345534746   -0.0432491988328986
-0.4986695383983888   -0.04397594345534746   -0.0432491988328986
-0.4986695383983888   -0.04397594345534746   -0.0432491988328986
-0.4272017484643865   0.002927128339917373   0.0029938951459693476
-0.4272017484643865   0.002927128339917373   0.0029938951459693476
-0.4272017484643865   0.002927128339917373   0.0029938951459693476
-0.4272017484643865   0.002927128339917373   0.0029938951459693476
-0.46622181198486395   0.03527434247942683   0.039739147299944134
-0.46622181198486395   0.03527434247942683   0.039739147299944134
-0.46622181198486395   0.03527434247942683   0.039739147299944134
-0.46622181198486395   0.03527434247942683   0.039739147299944134
-0.3923512851092244   -0.02150552077114276   -0.037215338701039616
-0.3923512851092244   -0.02150552077114276   -0.037215338701039616
-0.3923512851092244   -0.02150552077114276   -0.037215338701039616
-0.3923512851092244   -0.02150552077114276   -0.037215338701039616
-0.35462302966566406   0.06991134598867357   0.03210426305060198
-0.35462302966566406   0.06991134598867357   0.03210426305060198
-0.35462302966566406   0.06991134598867357   0.03210426305060198
-0.35462302966566406   0.06991134598867357   0.03210426305060198
-0.46639053307622463   -0.023174038242391004   -0.05004374414026994
-0.46639053307622463   -0.023174038242391004   -0.05004374414026994
-0.46639053307622463   -0.023174038242391004   -0.05004374414026994
-0.46639053307622463   -0.023174038242391004   -0.05004374414026994
-0.40187341490268746   0.017728053651442532   0.01486565115227442
-0.40187341490268746   0.017728053651442532   0.01486565115227442
-0.40187341490268746   0.017728053651442532   0.01486565115227442
-0.40187341490268746   0.017728053651442532   0.01486565115227442
-0.39567598135223847   -0.02969428144540115   0.024365067242233036
-0.39567598135223847   -0.02969428144540115   0.024365067242233036
-0.39567598135223847   -0.02969428144540115   0.024365067242233036
-0.39567598135223847   -0.02969428144540115   0.024365067242233036
-0.29112260564349535   -0.03955012687873047   -0.007524030225367622
-0.29112260564349535   -0.03955012687873047   -0.007524030225367622
-0.29112260564349535   -0.03955012687873047   -0.007524030225367622
-0.29112260564349535   -0.03955012687873047   -0.007524030225367622
-0.26944995126466553   0.020046974497936326   0.022509169478681125
-0.26944995126466553   0.020046974497936326   0.022509169478681125
-0.26944995126466553   0.020046974497936326   0.022509169478681125
-0.26944995126466553   0.020046974497936326   0.022509169478681125
-0.4015901075967814   -0.042030797765556294   -0.02168947591183132
-0.4015901075967814   -0.042030797765556294   -0.02168947591183132
-0.4015901075967814   -0.042030797765556294   -0.02168947591183132
-0.4015901075967814   -0.042030797765556294   -0.02168947591183132
-0.33853774152097776   -0.020999308824783423   -0.009156119981409522
-0.33853774152097776   -0.020999308824783423   -0.009156119981409522
-0.33853774152097776   -0.020999308824783423   -0.009156119981409522
-0.33853774152097776   -0.020999308824783423   -0.009156119981409522
-0.3853989230319943   -0.003497936601631363   0.02073358574817149
-0.3853989230319943   -0.003497936601631363   0.02073358574817149
-0.3853989230319943   -0.003497936601631363   0.02073358574817149
-0.3853989230319943   -0.003497936601631363   0.02073358574817149
-0.28381872709732353   -0.016663477933860832   -0.012624257252811806
-0.28381872709732353   -0.016663477933860832   -0.012624257252811806
-0.28381872709732353   -0.016663477933860832   -0.012624257252811806
-0.28381872709732353   -0.016663477933860832   -0.012624257252811806
-0.26154557633658426   0.0433714279255305   0.017998923170764333
-0.26154557633658426   0.0433714279255305   0.017998923170764333
-0.26154557633658426   0.0433714279255305   0.017998923170764333
-0.26154557633658426   0.0433714279255305   0.017998923170764333
-0.38972588201207214   -0.019623899560355595   -0.02596994442606138
-0.38972588201207214   -0.019623899560355595   -0.02596994442606138
-0.38972588201207214   -0.019623899560355595   -0.02596994442606138
-0.38972588201207214   -0.019623899560355595   -0.02596994442606138
-0.32708939180502855   0.001472052580706415   0.0009081579607079192
-0.32708939180502855   0.001472052580706415   0.0009081579607079192
-0.32708939180502855   0.001472052580706415   0.0009081579607079192
-0.32708939180502855   0.001472052580706415   0.0009081579607079192
-0.3725836373651268   0.021322922446107923   0.018794456802194007
-0.3725836373651268   0.021322922446107923   0.018794456802194007
-0.3725836373651268   0.021322922446107923   0.018794456802194007
-0.3725836373651268   0.021322922446107923   0.018794456802194007
-0.27658403409148347   0.0045283928111111565   -0.018350330489316263
-0.27658403409148347   0.0045283928111111565   -0.018350330489316263
-0.27658403409148347   0.0045283928111111565   -0.018350330489316263
-0.27658403409148347   0.0045283928111111565   -0.018350330489316263
-0.2536656860079667   0.06870472223815818   0.013703010938316301
-0.2536656860079667   0.06870472223815818   0.013703010938316301
-0.2536656860079667   0.06870472223815818   0.013703010938316301
-0.2536656860079667   0.06870472223815818   0.013703010938316301
-0.3799450575172327   0.0048653823415405195   -0.029459912560104228
-0.3799450575172327   0.0048653823415405195   -0.029459912560104228
-0.3799450575172327   0.0048653823415405195   -0.029459912560104228
-0.3799450575172327   0.0048653823415405195   -0.029459912560104228
-0.3188162615156876   0.023520320715168644   0.010759254051146923
-0.3188162615156876   0.023520320715168644   0.010759254051146923
-0.3188162615156876   0.023520320715168644   0.010759254051146923
-0.3188162615156876   0.023520320715168644   0.010759254051146923
-0.2907543367512851   -0.04955975843735211   0.004326945794299524
-0.2907543367512851   -0.04955975843735211   0.004326945794299524
-0.2907543367512851   -0.04955975843735211   0.004326945794299524
-0.2907543367512851   -0.04955975843735211   0.004326945794299524
-0.17367333448094616   -0.020956295866664525   0.010662260307550108
-0.17367333448094616   -0.020956295866664525   0.010662260307550108
-0.17367333448094616   -0.020956295866664525   0.010662260307550108
-0.17367333448094616   -0.020956295866664525   0.010662260307550108
-0.16780386348649468   -0.0005400161650020649   0.0013696728642621798
-0.16780386348649468   -0.0005400161650020649   0.0013696728642621798
-0.16780386348649468   -0.0005400161650020649   0.0013696728642621798
-0.16780386348649468   -0.0005400161650020649   0.0013696728642621798
-0.2829737269002101   -0.022565420916784568   -0.002497313284321012
-0.2829737269002101   -0.022565420916784568   -0.002497313284321012
-0.2829737269002101   -0.022565420916784568   -0.002497313284321012
-0.2829737269002101   -0.022565420916784568   -0.002497313284321012
-0.2291665958552209   -0.02230849782361348   -0.0066736499512873425
-0.2291665958552209   -0.02230849782361348   -0.0066736499512873425
-0.2291665958552209   -0.02230849782361348   -0.0066736499512873425
-0.2291665958552209   -0.02230849782361348   -0.0066736499512873425
-0.2826289292854256   -0.023705594269228858   0.00036684814204379634
-0.2826289292854256   -0.023705594269228858   0.00036684814204379634
-0.2826289292854256   -0.023705594269228858   0.00036684814204379634
-0.2826289292854256   -0.023705594269228858   0.00036684814204379634
-0.16633583089442341   0.002412987394300223   0.005756832265316203
-0.16633583089442341   0.002412987394300223   0.005756832265316203
-0.16633583089442341   0.002412987394300223   0.005756832265316203
-0.16633583089442341   0.002412987394300223   0.005756832265316203
-0.15921268298067234   0.02554176667630459   -0.0023195405784047253
-0.15921268298067234   0.02554176667630459   -0.0023195405784047253
-0.15921268298067234   0.02554176667630459   -0.0023195405784047253
-0.15921268298067234   0.02554176667630459   -0.0023195405784047253
-0.2750542380783045   0.0011380885416046038   -0.007311046153914914
-0.2750542380783045   0.0011380885416046038   -0.007311046153914914
-0.2750542380783045   0.0011380885416046038   -0.007311046153914914
-0.2750542380783045   0.0011380885416046038   -0.007311046153914914
-0.22010161014931914   0.001132135907725658   0.003090568308498876
-0.22010161014931914   0.001132135907725658   0.003090568308498876
-0.22010161014931914   0.001132135907725658   0.003090568308498876
-0.22010161014931914   0.001132135907725658   0.003090568308498876
-0.27409310309526946   0.002296778524698874   -0.0036640612218361256
-0.27409310309526946   0.002296778524698874   -0.0036640612218361256
-0.27409310309526946   0.002296778524698874   -0.0036640612218361256
-0.27409310309526946   0.002296778524698874   -0.0036640612218361256
-0.15853406219643307   0.02602283246048452   0.0005924975586132468
-0.15853406219643307   0.02602283246048452   0.0005924975586132468
-0.15853406219643307   0.02602283246048452   0.0005924975586132468
-0.15853406219643307   0.02602283246048452   0.0005924975586132468
-0.1510972521006155   0.05186454156826596   -0.006522354445210904
-0.1510972521006155   0.05186454156826596   -0.006522354445210904
-0.1510972521006155   0.05186454156826596   -0.006522354445210904
-0.1510972521006155   0.05186454156826596   -0.006522354445210904
-0.26763476374912887   0.02502374954477571   -0.01246140507411244
-0.26763476374912887   0.02502374954477571   -0.01246140507411244
-0.26763476374912887   0.02502374954477571   -0.01246140507411244
-0.26763476374912887   0.02502374954477571   -0.01246140507411244
-0.2115305593445411   0.024657217220897337   0.012461355113182356
-0.2115305593445411   0.024657217220897337   0.012461355113182356
-0.2115305593445411   0.024657217220897337   0.012461355113182356
-0.2115305593445411   0.024657217220897337   0.012461355113182356
-0.1881591636399921   -0.06677483118409197   -0.01594835017025529
-0.1881591636399921   -0.06677483118409197   -0.01594835017025529
-0.1881591636399921   -0.06677483118409197   -0.01594835017025529
-0.1881591636399921   -0.06677483118409197   -0.01594835017025529
-0.059647304427197366   -0.0012169024494203965   0.027945773224855204
-0.059647304427197366   -0.0012169024494203965   0.027945773224855204
-0.059647304427197366   -0.0012169024494203965   0.027945773224855204
-0.059647304427197366   -0.0012169024494203965   0.027945773224855204
-0.0676476012100914   -0.020021325168967073   -0.020624815694876803
-0.0676476012100914   -0.020021325168967073   -0.020624815694876803
-0.0676476012100914   -0.020021325168967073   -0.020624815694876803
-0.0676476012100914   -0.020021325168967073   -0.020624815694876803
-0.16527370269797398   -0.0025441543296791415   0.016024614971541232
-0.16527370269797398   -0.0025441543296791415   0.016024614971541232
-0.16527370269797398   -0.0025441543296791415   0.016024614971541232
-0.16527370269797398   -0.0025441543296791415   0.016024614971541232
-0.12014630508527456   -0.021653483608478307   -0.004817854310814663
-0.12014630508527456   -0.021653483608478307   -0.004817854310814663
-0.12014630508527456   -0.021653483608478307   -0.004817854310814663
-0.12014630508527456   -0.021653483608478307   -0.004817854310814663
-0.18050871622524783   -0.04250625535993981   -0.0201883516345687
-0.18050871622524783   -0.04250625535993981   -0.0201883516345687
-0.18050871622524783   -0.04250625535993981   -0.0201883516345687
-0.18050871622524783   -0.04250625535993981   -0.0201883516345687
-0.050382175833749314   0.021971187710359386   0.023709798307509168
-0.050382175833749314   0.021971187710359386   0.023709798307509168
-0.050382175833749314   0.021971187710359386   0.023709798307509168
-0.050382175833749314   0.021971187710359386   0.023709798307509168
-0.05505698002299737   0.004650894950952545   -0.02322107335181897
-0.05505698002299737   0.004650894950952545   -0.02322107335181897
-0.05505698002299737   0.004650894950952545   -0.02322107335181897
-0.05505698002299737   0.004650894950952545   -0.02322107335181897
-0.15797063423425137   0.018737663092928437   0.010694806737076254
-0.15797063423425137   0.018737663092928437   0.010694806737076254
-0.15797063423425137   0.018737663092928437   0.010694806737076254
-0.15797063423425137   0.018737663092928437   0.010694806737076254
-0.11049113561101485   0.000187848779762953   0.005136187390010145
-0.11049113561101485   0.000187848779762953   0.005136187390010145
-0.11049113561101485   0.000187848779762953   0.005136187390010145
-0.11049113561101485   0.000187848779762953   0.005136187390010145
-0.17272161653162024   -0.019251921676480453   -0.025070519980361132
-0.17272161653162024   -0.019251921676480453   -0.025070519980361132
-0.17272161653162024   -0.019251921676480453   -0.025070519980361132
-0.17272161653162024   -0.019251921676480453   -0.025070519980361132
-0.03841562022656587   0.04453085721942375   0.020105763361867344
-0.03841562022656587   0.04453085721942375   0.020105763361867344
-0.03841562022656587   0.04453085721942375   0.020105763361867344
-0.03841562022656587   0.04453085721942375   0.020105763361867344
-0.044409256479853214   0.03218775478075005   -0.026019740479040085
-0.044409256479853214   0.03218775478075005   -0.026019740479040085
-0.044409256479853214   0.03218775478075005   -0.026019740479040085
-0.044409256479853214   0.03218775478075005   -0.026019740479040085
-0.15049391765303322   0.042802416154808794   0.005556443206157693
-0.15049391765303322   0.042802416154808794   0.005556443206157693
-0.15049391765303322   0.042802416154808794   0.005556443206157693
-0.15049391765303322   0.042802416154808794   0.005556443206157693
-0.10051039388870425   0.022934242278235477   0.01508429393247855
-0.10051039388870425   0.022934242278235477   0.01508429393247855
-0.10051039388870425   0.022934242278235477   0.01508429393247855
-0.10051039388870425   0.022934242278235477   0.01508429393247855
-0.08629028232895357   -0.07178077654040868   -0.03470524219293756
-0.08629028232895357   -0.07178077654040868   -0.03470524219293756
-0.08629028232895357   -0.07178077654040868   -0.03470524219293756
-0.08629028232895357   -0.07178077654040868   -0.03470524219293756
0.026007415872761338   0.02100531685726816   0.04268399174829113
0.026007415872761338   0.02100531685726816   0.04268399174829113
0.026007415872761338   0.02100531685726816   0.04268399174829113
0.026007415872761338   0.02100531685726816   0.04268399174829113
0.026157838267166215   -0.03554496708018025   -0.04597602286033561
0.026157838267166215   -0.03554496708018025   -0.04597602286033561
0.026157838267166215   -0.03554496708018025   -0.04597602286033561
0.026157838267166215   -0.03554496708018025   -0.04597602286033561
-0.04809299037450116   0.022189080657357356   0.03493783265675
-0.04809299037450116   0.022189080657357356   0.03493783265675
-0.04809299037450116   0.022189080657357356   0.03493783265675
-0.04809299037450116   0.022189080657357356   0.03493783265675
-0.02138351615506487   -0.015309316049247724   -0.008064501849385444
-0.02138351615506487   -0.015309316049247724   -0.008064501849385444
-0.02138351615506487   -0.015309316049247724   -0.008064501849385444
-0.02138351615506487   -0.015309316049247724   -0.008064501849385444
-0.07855407740229081   -0.05527320833914392   -0.03990531348569695
-0.07855407740229081   -0.05527320833914392   -0.03990531348569695
-0.07855407740229081   -0.05527320833914392   -0.03990531348569695
-0.07855407740229081   -0.05527320833914392   -0.03990531348569695
0.05878857421521839   0.044086970836583556   0.03754571896316143
0.05878857421521839   0.044086970836583556   0.03754571896316143
0.05878857421521839   0.044086970836583556   0.03754571896316143
0.05878857421521839   0.044086970836583556   0.03754571896316143
0.05030828867061957   -0.021422213137915588   -0.05463325083722948
0.05030828867061957   -0.021422213137915588   -0.05463325083722948
0.05030828867061957   -0.021422213137915588   -0.05463325083722948
0.05030828867061957   -0.021422213137915588   -0.05463325083722948
-0.03924954359562378   0.032437430435782656   0.028029573300218928
-0.03924954359562378   0.032437430435782656   0.028029573300218928
-0.03924954359562378   0.032437430435782656   0.028029573300218928
-0.03924954359562378   0.032437430435782656   0.028029573300218928
-0.0015701745370810974   -0.0007689106140106359   0.002711615617731077
-0.0015701745370810974   -0.0007689106140106359   0.002711615617731077
-0.0015701745370810974   -0.0007689106140106359   0.002711615617731077
-0.0015701745370810974   -0.0007689106140106359   0.002711615617731077
-0.06930678839308596   -0.04365201869456055   -0.046167201556748756
-0.06930678839308596   -0.04365201869456055   -0.046167201556748756
-0.06930678839308596   -0.04365201869456055   -0.046167201556748756
-0.06930678839308596   -0.04365201869456055   -0.046167201556748756
0.08253895746969425   0.05684065999404011   0.02825722002618817
0.08253895746969425   0.05684065999404011   0.02825722002618817
0.08253895746969425   0.05684065999404011   0.02825722002618817
0.08253895746969425   0.05684065999404011   0.02825722002618817
0.08419265606230539   0.0062065389134355175   -0.05852403925943924
0.08419265606230539   0.0062065389134355175   -0.05852403925943924
0.08419265606230539   0.0062065389134355175   -0.05852403925943924
0.08419265606230539   0.0062065389134355175   -0.05852403925943924
-0.030991263076624205   0.050477931641570044   0.022780049676284934
-0.030991263076624205   0.050477931641570044   0.022780049676284934
-0.030991263076624205   0.050477931641570044   0.022780049676284934
-0.030991263076624205   0.050477931641570044   0.022780049676284934
0.016353693504835915   0.014490576361342974   0.01326044982408788
0.016353693504835915   0.014490576361342974   0.01326044982408788
0.016353693504835915   0.014490576361342974   0.01326044982408788
0.016353693504835915   0.014490576361342974   0.01326044982408788
-0.1727747232315869   0.010136005269597608   0.048774931503234704
-0.1727747232315869   0.010136005269597608   0.048774931503234704
-0.1727747232315869   0.010136005269597608   0.048774931503234704
-0.1727747232315869   0.010136005269597608   0.048774931503234704
-0.20671903246473644   -0.06351791192310013   -0.028683605165743455
-0.20671903246473644   -0.06351791192310013   -0.028683605165743455
-0.20671903246473644   -0.06351791192310013   -0.028683605165743455
-0.20671903246473644   -0.06351791192310013   -0.028683605165743455
-0.16504072087347332   0.029476550517237105   0.0399218710893886
-0.16504072087347332   0.029476550517237105   0.0399218710893886
-0.16504072087347332   0.029476550517237105   0.0399218710893886
-0.16504072087347332   0.029476550517237105   0.0399218710893886
-0.16781446462116711   -0.04159615285835844   -0.036991349933059706
-0.16781446462116711   -0.04159615285835844   -0.036991349933059706
-0.16781446462116711   -0.04159615285835844   -0.036991349933059706
-0.16781446462116711   -0.04159615285835844   -0.036991349933059706
-0.17362750296809684   -0.0133479129729197   -0.013401929462671793
-0.17362750296809684   -0.0133479129729197   -0.013401929462671793
-0.17362750296809684   -0.0133479129729197   -0.013401929462671793
-0.17362750296809684   -0.0133479129729197   -0.013401929462671793
-0.13572434395545227   0.03644005982532837   0.04542304071182389
-0.13572434395545227   0.03644005982532837   0.04542304071182389
-0.13572434395545227   0.03644005982532837   0.04542304071182389
-0.13572434395545227   0.03644005982532837   0.04542304071182389
-0.19511062560950176   -0.046539446236763954   -0.034411655836752625
-0.19511062560950176   -0.046539446236763954   -0.034411655836752625
-0.19511062560950176   -0.046539446236763954   -0.034411655836752625
-0.19511062560950176   -0.046539446236763954   -0.034411655836752625
-0.15224829586922184   0.0406752243333174   0.03358539758124328
-0.15224829586922184   0.0406752243333174   0.03358539758124328
-0.15224829586922184   0.0406752243333174   0.03358539758124328
-0.15224829586922184   0.0406752243333174   0.03358539758124328
-0.1402956605190698   -0.028940195375717525   -0.046056546131339894
-0.1402956605190698   -0.028940195375717525   -0.046056546131339894
-0.1402956605190698   -0.028940195375717525   -0.046056546131339894
-0.1402956605190698   -0.028940195375717525   -0.046056546131339894
-0.15332845211511661   0.0009505891989425308   -0.002846030184269521
-0.15332845211511661   0.0009505891989425308   -0.002846030184269521
-0.15332845211511661   0.0009505891989425308   -0.002846030184269521
-0.15332845211511661   0.0009505891989425308   -0.002846030184269521
-0.10803007632118444   0.05005668718595779   0.03627449229640786
-0.10803007632118444   0.05005668718595779   0.03627449229640786
-0.10803007632118444   0.05005668718595779   0.03627449229640786
-0.10803007632118444   0.05005668718595779   0.03627449229640786
-0.18261160315124583   -0.03641938131249717   -0.041136533183062096
-0.18261160315124583   -0.03641938131249717   -0.041136533183062096
-0.18261160315124583   -0.03641938131249717   -0.041136533183062096
-0.18261160315124583   -0.03641938131249717   -0.041136533183062096
-0.1405543128183995   0.05780311106198112   0.029005782123750136
-0.1405543128183995   0.05780311106198112   0.029005782123750136
-0.1405543128183995   0.05780311106198112   0.029005782123750136
-0.1405543128183995   0.05780311106198112   0.029005782123750136
-0.10355848200886512   -0.004885272653523801   -0.0518768461406694
-0.10355848200886512   -0.004885272653523801   -0.0518768461406694
-0.10355848200886512   -0.004885272653523801   -0.0518768461406694
-0.10355848200886512   -0.004885272653523801   -0.0518768461406694
-0.12895124330940638   0.01590579602608101   0.008444551390848818
-0.12895124330940638   0.01590579602608101   0.008444551390848818
-0.12895124330940638   0.01590579602608101   0.008444551390848818
-0.12895124330940638   0.01590579602608101   0.008444551390848818
-0.18497250298116383   -0.011257561862822948   0.02778869219183848
-0.18497250298116383   -0.011257561862822948   0.02778869219183848
-0.18497250298116383   -0.011257561862822948   0.02778869219183848
-0.18497250298116383   -0.011257561862822948   0.02778869219183848
-0.23050112189399444   -0.05181691832183316   -0.011204782294231653
-0.23050112189399444   -0.05181691832183316   -0.011204782294231653
-0.23050112189399444   -0.05181691832183316   -0.011204782294231653
-0.23050112189399444   -0.05181691832183316   -0.011204782294231653
-0.20561604546318435   0.005207678417518305   0.018528842869944717
-0.20561604546318435   0.005207678417518305   0.018528842869944717
-0.20561604546318435   0.005207678417518305   0.018528842869944717
-0.20561604546318435   0.005207678417518305   0.018528842869944717
-0.1871772265688181   -0.024343704390128815   -0.016940402479965522
-0.1871772265688181   -0.024343704390128815   -0.016940402479965522
-0.1871772265688181   -0.024343704390128815   -0.016940402479965522
-0.1871772265688181   -0.024343704390128815   -0.016940402479965522
-0.2022250666733655   -0.01896940172868394   -0.009402023630282374
-0.2022250666733655   -0.01896940172868394   -0.009402023630282374
-0.2022250666733655   -0.01896940172868394   -0.009402023630282374
-0.2022250666733655   -0.01896940172868394   -0.009402023630282374
-0.17143235832072318   0.013188911788410862   0.0242513225819617
-0.17143235832072318   0.013188911788410862   0.0242513225819617
-0.17143235832072318   0.013188911788410862   0.0242513225819617
-0.17143235832072318   0.013188911788410862   0.0242513225819617
-0.21977756132800394   -0.03074158537775021   -0.01632947265888665
-0.21977756132800394   -0.03074158537775021   -0.01632947265888665
-0.21977756132800394   -0.03074158537775021   -0.01632947265888665
-0.21977756132800394   -0.03074158537775021   -0.01632947265888665
-0.19419879399146353   0.027502074916668548   0.014132839938466073
-0.19419879399146353   0.027502074916668548   0.014132839938466073
-0.19419879399146353   0.027502074916668548   0.014132839938466073
-0.19419879399146353   0.027502074916668548   0.014132839938466073
-0.17188155180886344   -0.002873088295312659   -0.0210325694883347
-0.17188155180886344   -0.002873088295312659   -0.0210325694883347
-0.17188155180886344   -0.002873088295312659   -0.0210325694883347
-0.17188155180886344   -0.002873088295312659   -0.0210325694883347
-0.18857336194193994   0.0018190417595853048   0.0003360403035500628
-0.18857336194193994   0.0018190417595853048   0.0003360403035500628
-0.18857336194193994   0.0018190417595853048   0.0003360403035500628
-0.18857336194193994   0.0018190417595853048   0.0003360403035500628
-0.15536955355728724   0.036810184758881107   0.021844148715352587
-0.15536955355728724   0.036810184758881107   0.021844148715352587
-0.15536955355728724   0.036810184758881107   0.021844148715352587
-0.15536955355728724   0.036810184758881107   0.021844148715352587
-0.20902271909310371   -0.010493124987594984   -0.021991585665475353
-0.20902271909310371   -0.010493124987594984   -0.021991585665475353
-0.20902271909310371   -0.010493124987594984   -0.021991585665475353
-0.20902271909310371   -0.010493124987594984   -0.021991585665475353
-0.18272462114741492   0.052192319619767585   0.009954337461228733
-0.18272462114741492   0.052192319619767585   0.009954337461228733
-0.18272462114741492   0.052192319619767585   0.009954337461228733
-0.18272462114741492   0.052192319619767585   0.009954337461228733
-0.15869689891192493   0.02097139899233904   -0.024875436274231055
-0.15869689891192493   0.02097139899233904   -0.024875436274231055
-0.15869689891192493   0.02097139899233904   -0.024875436274231055
-0.15869689891192493   0.02097139899233904   -0.024875436274231055
-0.1756650696466919   0.023303790830575447   0.010253180246684007
-0.1756650696466919   0.023303790830575447   0.010253180246684007
-0.1756650696466919   0.023303790830575447   0.010253180246684007
-0.1756650696466919   0.023303790830575447   0.010253180246684007
-0.22259185884334187   -0.03130627489434569   0.007830889531540026
-0.22259185884334187   -0.03130627489434569   0.007830889531540026
-0.22259185884334187   -0.03130627489434569   0.007830889531540026
-0.22259185884334187   -0.03130627489434569   0.007830889531540026
-0.25416291532799107   -0.03281241560028439   0.006766506364800743
-0.25416291532799107   -0.03281241560028439   0.006766506364800743
-0.25416291532799107   -0.03281241560028439   0.006766506364800743
-0.25416291532799107   -0.03281241560028439   0.006766506364800743
-0.24503057779937187   -0.014959285704492939   -0.0024097863237011047
-0.24503057779937187   -0.014959285704492939   -0.0024097863237011047
-0.24503057779937187   -0.014959285704492939   -0.0024097863237011047
-0.24503057779937187   -0.014959285704492939   -0.0024097863237011047
-0.21079995443754648   -0.004401548704810139   0.002218525120462547
-0.21079995443754648   -0.004401548704810139   0.002218525120462547
-0.21079995443754648   -0.004401548704810139   0.002218525120462547
-0.21079995443754648   -0.004401548704810139   0.002218525120462547
-0.23349626886410685   -0.019687319833016297   -0.0062485986478104435
-0.23349626886410685   -0.019687319833016297   -0.0062485986478104435
-0.23349626886410685   -0.019687319833016297   -0.0062485986478104435
-0.23349626886410685   -0.019687319833016297   -0.0062485986478104435
-0.21095900778032167   -0.006882227079656793   0.0039039367814293763
-0.21095900778032167   -0.006882227079656793   0.0039039367814293763
-0.21095900778032167   -0.006882227079656793   0.0039039367814293763
-0.21095900778032167   -0.006882227079656793   0.0039039367814293763
-0.24337746430199497   -0.0109845471750449   0.001881042633737241
-0.24337746430199497   -0.0109845471750449   0.001881042633737241
-0.24337746430199497   -0.0109845471750449   0.001881042633737241
-0.24337746430199497   -0.0109845471750449   0.001881042633737241
-0.23303187841879847   0.009783098708963642   -0.006108354976625745
-0.23303187841879847   0.009783098708963642   -0.006108354976625745
-0.23303187841879847   0.009783098708963642   -0.006108354976625745
-0.23303187841879847   0.009783098708963642   -0.006108354976625745
-0.1994210415616584   0.018027940528523065   -0.002504263524362893
-0.1994210415616584   0.018027940528523065   -0.002504263524362893
-0.1994210415616584   0.018027940528523065   -0.002504263524362893
-0.1994210415616584   0.018027940528523065   -0.002504263524362893
-0.2209579974336466   0.0024223155590041567   0.003370290994968361
-0.2209579974336466   0.0024223155590041567   0.003370290994968361
-0.2209579974336466   0.0024223155590041567   0.003370290994968361
-0.2209579974336466   0.0024223155590041567   0.003370290994968361
-0.19900865685976432   0.017772111765684127   -0.00018651125205746202
-0.19900865685976432   0.017772111765684127   -0.00018651125205746202
-0.19900865685976432   0.017772111765684127   -0.00018651125205746202
-0.19900865685976432   0.017772111765684127   -0.00018651125205746202
-0.23214021436423662   0.011342976228257848   -0.0032099122231107474
-0.23214021436423662   0.011342976228257848   -0.0032099122231107474
-0.23214021436423662   0.011342976228257848   -0.0032099122231107474
-0.23214021436423662   0.011342976228257848   -0.0032099122231107474
-0.22154226390191406   0.034678946535550204   -0.01027791996747019
-0.22154226390191406   0.034678946535550204   -0.01027791996747019
-0.22154226390191406   0.034678946535550204   -0.01027791996747019
-0.22154226390191406   0.034678946535550204   -0.01027791996747019
-0.18858312990886628   0.040549296754041765   -0.007695183480300516
-0.18858312990886628   0.040549296754041765   -0.007695183480300516
-0.18858312990886628   0.040549296754041765   -0.007695183480300516
-0.18858312990886628   0.040549296754041765   -0.007695183480300516
-0.2090038849508199   0.024573099581334253   0.012538558057618818
-0.2090038849508199   0.024573099581334253   0.012538558057618818
-0.2090038849508199   0.024573099581334253   0.012538558057618818
-0.2090038849508199   0.024573099581334253   0.012538558057618818
-0.2614175954876261   -0.049686647761008104   -0.012632662272654603
-0.2614175954876261   -0.049686647761008104   -0.012632662272654603
-0.2614175954876261   -0.049686647761008104   -0.012632662272654603
-0.2614175954876261   -0.049686647761008104   -0.012632662272654603
-0.2798938684506602   -0.01419585861296728   0.023930615673720346
-0.2798938684506602   -0.01419585861296728   0.023930615673720346
-0.2798938684506602   -0.01419585861296728   0.023930615673720346
-0.2798938684506602   -0.01419585861296728   0.023930615673720346
-0.28446106969125806   -0.03431382353151956   -0.02363636404437677
-0.28446106969125806   -0.03431382353151956   -0.02363636404437677
-0.28446106969125806   -0.03431382353151956   -0.02363636404437677
-0.28446106969125806   -0.03431382353151956   -0.02363636404437677
-0.23453872150370866   0.014863651000340511   0.020226558449781443
-0.23453872150370866   0.014863651000340511   0.020226558449781443
-0.23453872150370866   0.014863651000340511   0.020226558449781443
-0.23453872150370866   0.014863651000340511   0.020226558449781443
-0.2639673974456756   -0.01949110216250443   -0.003930966937936622
-0.2639673974456756   -0.01949110216250443   -0.003930966937936622
-0.2639673974456756   -0.01949110216250443   -0.003930966937936622
-0.2639673974456756   -0.01949110216250443   -0.003930966937936622
-0.25010555260943956   -0.02605353043498949   -0.01669041564354497
-0.25010555260943956   -0.02605353043498949   -0.01669041564354497
-0.25010555260943956   -0.02605353043498949   -0.01669041564354497
-0.25010555260943956   -0.02605353043498949   -0.01669041564354497
-0.26732787591048435   0.008169720578853006   0.019546060749119524
-0.26732787591048435   0.008169720578853006   0.019546060749119524
-0.26732787591048435   0.008169720578853006   0.019546060749119524
-0.26732787591048435   0.008169720578853006   0.019546060749119524
-0.2687089190045593   -0.010853034148219032   -0.026520394698368515
-0.2687089190045593   -0.010853034148219032   -0.026520394698368515
-0.2687089190045593   -0.010853034148219032   -0.026520394698368515
-0.2687089190045593   -0.010853034148219032   -0.026520394698368515
-0.22374412561828713   0.035090739941170734   0.015022767793721935
-0.22374412561828713   0.035090739941170734   0.015022767793721935
-0.22374412561828713   0.035090739941170734   0.015022767793721935
-0.22374412561828713   0.035090739941170734   0.015022767793721935
-0.24970203428601184   0.0018070852764287965   0.00600119599685899
-0.24970203428601184   0.0018070852764287965   0.00600119599685899
-0.24970203428601184   0.0018070852764287965   0.00600119599685899
-0.24970203428601184   0.0018070852764287965   0.00600119599685899
-0.23882770460080394   -0.003861324802780182   -0.021443062374914244
-0.23882770460080394   -0.003861324802780182   -0.021443062374914244
-0.23882770460080394   -0.003861324802780182   -0.021443062374914244
-0.23882770460080394   -0.003861324802780182   -0.021443062374914244
-0.25204241389822435   0.02968195671954723   0.016277139965541636
-0.25204241389822435   0.02968195671954723   0.016277139965541636
-0.25204241389822435   0.02968195671954723   0.016277139965541636
-0.25204241389822435   0.02968195671954723   0.016277139965541636
-0.2549285671056345   0.014982914720302873   -0.029106414513770565
-0.2549285671056345   0.014982914720302873   -0.029106414513770565
-0.2549285671056345   0.014982914720302873   -0.029106414513770565
-0.2549285671056345   0.014982914720302873   -0.029106414513770565
-0.21292010292146332   0.05762193054211767   0.009889900928215876
-0.21292010292146332   0.05762193054211767   0.009889900928215876
-0.21292010292146332   0.05762193054211767   0.009889900928215876
-0.21292010292146332   0.05762193054211767   0.009889900928215876
-0.23761180563641424   0.02292461407348957   0.015492014509064494
-0.23761180563641424   0.02292461407348957   0.015492014509064494
-0.23761180563641424   0.02292461407348957   0.015492014509064494
-0.23761180563641424   0.02292461407348957   0.015492014509064494
-0.29999378597722276   -0.05907057331399998   -0.03169425725806541
-0.29999378597722276   -0.05907057331399998   -0.03169425725806541
-0.29999378597722276   -0.05907057331399998   -0.03169425725806541
-0.29999378597722276   -0.05907057331399998   -0.03169425725806541
-0.33268194292536746   0.004349200050817473   0.04313790032845384
-0.33268194292536746   0.004349200050817473   0.04313790032845384
-0.33268194292536746   0.004349200050817473   0.04313790032845384
-0.33268194292536746   0.004349200050817473   0.04313790032845384
-0.3283399112724539   -0.049297059858358715   -0.04224594902387767
-0.3283399112724539   -0.049297059858358715   -0.04224594902387767
-0.3283399112724539   -0.049297059858358715   -0.04224594902387767
-0.3283399112724539   -0.049297059858358715   -0.04224594902387767
-0.2576846861709817   0.03726675514436296   0.03866497488112171
-0.2576846861709817   0.03726675514436296   0.03866497488112171
-0.2576846861709817   0.03726675514436296   0.03866497488112171
-0.2576846861709817   0.03726675514436296   0.03866497488112171
-0.2924469768687469   -0.012758129106404968   -0.0018747161777792742
-0.2924469768687469   -0.012758129106404968   -0.0018747161777792742
-0.2924469768687469   -0.012758129106404968   -0.0018747161777792742
-0.2924469768687469   -0.012758129106404968   -0.0018747161777792742
-0.2881311168253381   -0.040055163177850205   -0.036245260068450885
-0.2881311168253381   -0.040055163177850205   -0.036245260068450885
-0.2881311168253381   -0.040055163177850205   -0.036245260068450885
-0.2881311168253381   -0.040055163177850205   -0.036245260068450885
-0.29623814037461416   0.02968019870734223   0.03928564689961986
-0.29623814037461416   0.02968019870734223   0.03928564689961986
-0.29623814037461416   0.02968019870734223   0.03928564689961986
-0.29623814037461416   0.02968019870734223   0.03928564689961986
-0.3010782093120644   -0.035607524739032954   -0.05036653685741844
-0.3010782093120644   -0.035607524739032954   -0.05036653685741844
-0.3010782093120644   -0.035607524739032954   -0.05036653685741844
-0.3010782093120644   -0.035607524739032954   -0.05036653685741844
-0.245521263237419   0.046909509017626715   0.03165534097148733
-0.245521263237419   0.046909509017626715   0.03165534097148733
-0.245521263237419   0.046909509017626715   0.03165534097148733
-0.245521263237419   0.046909509017626715   0.03165534097148733
-0.2740546631083348   0.0015575666807045932   0.007646498169990593
-0.2740546631083348   0.0015575666807045932   0.007646498169990593
-0.2740546631083348   0.0015575666807045932   0.007646498169990593
-0.2740546631083348   0.0015575666807045932   0.007646498169990593
-0.2753813312452237   -0.028784949803469705   -0.041950540246442916
-0.2753813312452237   -0.028784949803469705   -0.041950540246442916
-0.2753813312452237   -0.028784949803469705   -0.041950540246442916
-0.2753813312452237   -0.028784949803469705   -0.041950540246442916
-0.26948251310006266   0.04182256228626516   0.030181857177292538
-0.26948251310006266   0.04182256228626516   0.030181857177292538
-0.26948251310006266   0.04182256228626516   0.030181857177292538
-0.26948251310006266   0.04182256228626516   0.030181857177292538
-0.26525422718520036   -0.011942271766796873   -0.05505800325695815
-0.26525422718520036   -0.011942271766796873   -0.05505800325695815
-0.26525422718520036   -0.011942271766796873   -0.05505800325695815
-0.26525422718520036   -0.011942271766796873   -0.05505800325695815
-0.23463708525367333   0.061260079263162494   0.026073830203174896
-0.23463708525367333   0.061260079263162494   0.026073830203174896
-0.23463708525367333   0.061260079263162494   0.026073830203174896
-0.23463708525367333   0.061260079263162494   0.026073830203174896
-0.24877296260564843   0.015845507319944163   0.018684557165926277
-0.24877296260564843   0.015845507319944163   0.018684557165926277
-0.24877296260564843   0.015845507319944163   0.018684557165926277
-0.24877296260564843   0.015845507319944163   0.018684557165926277
0.18169955059455264   0.029321523394018285   0.04709498836055959
0.18169955059455264   0.029321523394018285   0.04709498836055959
0.18169955059455264   0.029321523394018285   0.04709498836055959
0.18169955059455264   0.029321523394018285   0.04709498836055959
-0.004033074828586503   -0.07562932771385508   -0.031055104031293662
-0.004033074828586503   -0.07562932771385508   -0.031055104031293662
-0.004033074828586503   -0.07562932771385508   -0.031055104031293662
-0.004033074828586503   -0.07562932771385508   -0.031055104031293662
0.0403320069821514   0.01470567549017503   0.036371320206289144
0.0403320069821514   0.01470567549017503   0.036371320206289144
0.0403320069821514   0.01470567549017503   0.036371320206289144
0.0403320069821514   0.01470567549017503   0.036371320206289144
0.1894049339400452   -0.026312537193060814   -0.038894467888393965
0.1894049339400452   -0.026312537193060814   -0.038894467888393965
0.1894049339400452   -0.026312537193060814   -0.038894467888393965
0.1894049339400452   -0.026312537193060814   -0.038894467888393965
0.09275800148391654   -0.014624248559360342   -0.02246944460702733
0.09275800148391654   -0.014624248559360342   -0.02246944460702733
0.09275800148391654   -0.014624248559360342   -0.02246944460702733
0.09275800148391654   -0.014624248559360342   -0.02246944460702733
0.22137249303484782   0.05213805561497283   0.042492734777581705
0.22137249303484782   0.05213805561497283   0.042492734777581705
0.22137249303484782   0.05213805561497283   0.042492734777581705
0.22137249303484782   0.05213805561497283   0.042492734777581705
0.010339596329259432   -0.061769768875948594   -0.03711528869204707
0.010339596329259432   -0.061769768875948594   -0.03711528869204707
0.010339596329259432   -0.061769768875948594   -0.03711528869204707
0.010339596329259432   -0.061769768875948594   -0.03711528869204707
0.05644027254040749   0.025687065698502418   0.0303438261802825
0.05644027254040749   0.025687065698502418   0.0303438261802825
0.05644027254040749   0.025687065698502418   0.0303438261802825
0.05644027254040749   0.025687065698502418   0.0303438261802825
0.22034844177056284   -0.0139095844614893   -0.0486314434451966
0.22034844177056284   -0.0139095844614893   -0.0486314434451966
0.22034844177056284   -0.0139095844614893   -0.0486314434451966
0.22034844177056284   -0.0139095844614893   -0.0486314434451966
0.12069221223294216   -0.0009437500239393819   -0.010591235554700353
0.12069221223294216   -0.0009437500239393819   -0.010591235554700353
0.12069221223294216   -0.0009437500239393819   -0.010591235554700353
0.12069221223294216   -0.0009437500239393819   -0.010591235554700353
0.25265798337604806   0.0655526488781017   0.033454031242638335
0.25265798337604806   0.0655526488781017   0.033454031242638335
0.25265798337604806   0.0655526488781017   0.033454031242638335
0.25265798337604806   0.0655526488781017   0.033454031242638335
0.026058834507138258   -0.05184706406887263   -0.04402923421868863
0.026058834507138258   -0.05184706406887263   -0.04402923421868863
0.026058834507138258   -0.05184706406887263   -0.04402923421868863
0.026058834507138258   -0.05184706406887263   -0.04402923421868863
0.07206923793972936   0.04586702377484943   0.026256916052602264
0.07206923793972936   0.04586702377484943   0.026256916052602264
0.07206923793972936   0.04586702377484943   0.026256916052602264
0.07206923793972936   0.04586702377484943   0.026256916052602264
0.2614352136629302   0.013845250550687374   -0.05362378931113486
0.2614352136629302   0.013845250550687374   -0.05362378931113486
0.2614352136629302   0.013845250550687374   -0.05362378931113486
0.2614352136629302   0.013845250550687374   -0.05362378931113486
0.14408854443897007   0.014402482722319435   0.0006278638657457028
0.14408854443897007   0.014402482722319435   0.0006278638657457028
0.14408854443897007   0.014402482722319435   0.0006278638657457028
0.14408854443897007   0.014402482722319435   0.0006278638657457028
0.02530647008594947   0.007990179248761295   0.032023113578766006
0.02530647008594947   0.007990179248761295   0.032023113578766006
0.02530647008594947   0.007990179248761295   0.032023113578766006
0.02530647008594947   0.007990179248761295   0.032023113578766006
-0.17185092106529487   -0.06423611292194129   -0.014251432673919564
-0.17185092106529487   -0.06423611292194129   -0.014251432673919564
-0.17185092106529487   -0.06423611292194129   -0.014251432673919564
-0.17185092106529487   -0.06423611292194129   -0.014251432673919564
-0.14389503672302564   -0.009378356504276396   0.01460414710347346
-0.14389503672302564   -0.009378356504276396   0.01460414710347346
-0.14389503672302564   -0.009378356504276396   0.01460414710347346
-0.14389503672302564   -0.009378356504276396   0.01460414710347346
0.026412072652464605   -0.007235389133048121   -0.011287286818921662
0.026412072652464605   -0.007235389133048121   -0.011287286818921662
0.026412072652464605   -0.007235389133048121   -0.011287286818921662
0.026412072652464605   -0.007235389133048121   -0.011287286818921662
-0.06743184409646856   -0.01657041168149171   -0.010786909900887091
-0.06743184409646856   -0.01657041168149171   -0.010786909900887091
-0.06743184409646856   -0.01657041168149171   -0.010786909900887091
-0.06743184409646856   -0.01657041168149171   -0.010786909900887091
0.04190683647876741   0.030542847792741863   0.028408295386802375
0.04190683647876741   0.030542847792741863   0.028408295386802375
0.04190683647876741   0.030542847792741863   0.028408295386802375
0.04190683647876741   0.030542847792741863   0.028408295386802375
-0.15794926310647092   -0.04571605598721397   -0.019329285330815373
-0.15794926310647092   -0.04571605598721397   -0.019329285330815373
-0.15794926310647092   -0.04571605598721397   -0.019329285330815373
-0.15794926310647092   -0.04571605598721397   -0.019329285330815373
-0.12921212597263818   0.011930934444944422   0.010318118376725425
-0.12921212597263818   0.011930934444944422   0.010318118376725425
-0.12921212597263818   0.011930934444944422   0.010318118376725425
-0.12921212597263818   0.011930934444944422   0.010318118376725425
0.04477297085734813   0.012974202895606433   -0.015279819432118322
0.04477297085734813   0.012974202895606433   -0.015279819432118322
0.04477297085734813   0.012974202895606433   -0.015279819432118322
0.04477297085734813   0.012974202895606433   -0.015279819432118322
-0.05186616064694286   0.002218090682427013   -0.0013231053410515965
-0.05186616064694286   0.002218090682427013   -0.0013231053410515965
-0.05186616064694286   0.002218090682427013   -0.0013231053410515965
-0.05186616064694286   0.002218090682427013   -0.0013231053410515965
0.06092104898122653   0.05298408381412358   0.02545069026875653
0.06092104898122653   0.05298408381412358   0.02545069026875653
0.06092104898122653   0.05298408381412358   0.02545069026875653
0.06092104898122653   0.05298408381412358   0.02545069026875653
-0.14397282484433466   -0.026691567221390808   -0.024862874315421755
-0.14397282484433466   -0.026691567221390808   -0.024862874315421755
-0.14397282484433466   -0.026691567221390808   -0.024862874315421755
-0.14397282484433466   -0.026691567221390808   -0.024862874315421755
-0.11443952590538534   0.03604447546084441   0.0062325730617562025
-0.11443952590538534   0.03604447546084441   0.0062325730617562025
-0.11443952590538534   0.03604447546084441   0.0062325730617562025
-0.11443952590538534   0.03604447546084441   0.0062325730617562025
0.060924492464279695   0.03590575188640764   -0.019505539436204287
0.060924492464279695   0.03590575188640764   -0.019505539436204287
0.060924492464279695   0.03590575188640764   -0.019505539436204287
0.060924492464279695   0.03590575188640764   -0.019505539436204287
-0.034635934705086566   0.022977894990479995   0.008772183362857714
-0.034635934705086566   0.022977894990479995   0.008772183362857714
-0.034635934705086566   0.022977894990479995   0.008772183362857714
-0.034635934705086566   0.022977894990479995   0.008772183362857714
-0.15630220995644575   -0.01228531150771513   0.011541321456101691
-0.15630220995644575   -0.01228531150771513   0.011541321456101691
-0.15630220995644575   -0.01228531150771513   0.011541321456101691
-0.15630220995644575   -0.01228531150771513   0.011541321456101691
-0.33661659332959426   -0.04573407649796002   0.0029349777915721326
-0.33661659332959426   -0.04573407649796002   0.0029349777915721326
-0.33661659332959426   -0.04573407649796002   0.0029349777915721326
-0.33661659332959426   -0.04573407649796002   0.0029349777915721326
-0.3237784780586287   -0.028708107359763778   -0.006335744533223416
-0.3237784780586287   -0.028708107359763778   -0.006335744533223416
-0.3237784780586287   -0.028708107359763778   -0.006335744533223416
-0.3237784780586287   -0.028708107359763778   -0.006335744533223416
-0.14112332126405888   0.011952548352764346   0.007131819541268373
-0.14112332126405888   0.011952548352764346   0.007131819541268373
-0.14112332126405888   0.011952548352764346   0.007131819541268373
-0.14112332126405888   0.011952548352764346   0.007131819541268373
-0.23980436092451782   -0.017169185657607368   -0.006292102063813384
-0.23980436092451782   -0.017169185657607368   -0.006292102063813384
-0.23980436092451782   -0.017169185657607368   -0.006292102063813384
-0.23980436092451782   -0.017169185657607368   -0.006292102063813384
-0.14129769042516416   0.010581419576062592   0.007631102512443864
-0.14129769042516416   0.010581419576062592   0.007631102512443864
-0.14129769042516416   0.010581419576062592   0.007631102512443864
-0.14129769042516416   0.010581419576062592   0.007631102512443864
-0.3223660572845451   -0.026098926970083695   -0.0018828210524856007
-0.3223660572845451   -0.026098926970083695   -0.0018828210524856007
-0.3223660572845451   -0.026098926970083695   -0.0018828210524856007
-0.3223660572845451   -0.026098926970083695   -0.0018828210524856007
-0.30833486930806236   -0.005246539689977708   -0.009962836870462802
-0.30833486930806236   -0.005246539689977708   -0.009962836870462802
-0.30833486930806236   -0.005246539689977708   -0.009962836870462802
-0.30833486930806236   -0.005246539689977708   -0.009962836870462802
-0.12658663499959863   0.032741713499054415   0.0026347941878131498
-0.12658663499959863   0.032741713499054415   0.0026347941878131498
-0.12658663499959863   0.032741713499054415   0.0026347941878131498
-0.12658663499959863   0.032741713499054415   0.0026347941878131498
-0.22385600370254996   0.003432747500443971   0.0032464489155512536
-0.22385600370254996   0.003432747500443971   0.0032464489155512536
-0.22385600370254996   0.003432747500443971   0.0032464489155512536
-0.22385600370254996   0.003432747500443971   0.0032464489155512536
-0.12620087818097134   0.03386157022127821   0.003443721558725764
-0.12620087818097134   0.03386157022127821   0.003443721558725764
-0.12620087818097134   0.03386157022127821   0.003443721558725764
-0.12620087818097134   0.03386157022127821   0.003443721558725764
-0.3077294078958834   -0.005375178181395601   -0.006806891318152229
-0.3077294078958834   -0.005375178181395601   -0.006806891318152229
-0.3077294078958834   -0.005375178181395601   -0.006806891318152229
-0.3077294078958834   -0.005375178181395601   -0.006806891318152229
-0.2935135789963038   0.018282924534978345   -0.014096595488180083
-0.2935135789963038   0.018282924534978345   -0.014096595488180083
-0.2935135789963038   0.018282924534978345   -0.014096595488180083
-0.2935135789963038   0.018282924534978345   -0.014096595488180083
-0.11268631043184518   0.05359198656579253   -0.0025488606754871905
-0.11268631043184518   0.05359198656579253   -0.0025488606754871905
-0.11268631043184518   0.05359198656579253   -0.0025488606754871905
-0.11268631043184518   0.05359198656579253   -0.0025488606754871905
-0.20874378862921536   0.023979673363152598   0.012162469918210468
-0.20874378862921536   0.023979673363152598   0.012162469918210468
-0.20874378862921536   0.023979673363152598   0.012162469918210468
-0.20874378862921536   0.023979673363152598   0.012162469918210468
-0.3364079805167775   -0.03219667590783432   -0.00955935873446692
-0.3364079805167775   -0.03219667590783432   -0.00955935873446692
-0.3364079805167775   -0.03219667590783432   -0.00955935873446692
-0.3364079805167775   -0.03219667590783432   -0.00955935873446692
-0.49980811170547246   -0.028340342722356013   0.019798222472146392
-0.49980811170547246   -0.028340342722356013   0.019798222472146392
-0.49980811170547246   -0.028340342722356013   0.019798222472146392
-0.49980811170547246   -0.028340342722356013   0.019798222472146392
-0.5000775948317505   -0.04764877805333863   -0.02679671349057237
-0.5000775948317505   -0.04764877805333863   -0.02679671349057237
-0.5000775948317505   -0.04764877805333863   -0.02679671349057237
-0.5000775948317505   -0.04764877805333863   -0.02679671349057237
-0.30585152359685325   0.03029676114848176   0.02429415926740832
-0.30585152359685325   0.03029676114848176   0.02429415926740832
-0.30585152359685325   0.03029676114848176   0.02429415926740832
-0.30585152359685325   0.03029676114848176   0.02429415926740832
-0.4082354440788498   -0.017484648172782544   -0.002658436956677602
-0.4082354440788498   -0.017484648172782544   -0.002658436956677602
-0.4082354440788498   -0.017484648172782544   -0.002658436956677602
-0.4082354440788498   -0.017484648172782544   -0.002658436956677602
-0.32127758393884887   -0.009197757862884084   -0.013341623431201374
-0.32127758393884887   -0.009197757862884084   -0.013341623431201374
-0.32127758393884887   -0.009197757862884084   -0.013341623431201374
-0.32127758393884887   -0.009197757862884084   -0.013341623431201374
-0.4836249514320747   -0.007127675984291426   0.01494540143876378
-0.4836249514320747   -0.007127675984291426   0.01494540143876378
-0.4836249514320747   -0.007127675984291426   0.01494540143876378
-0.4836249514320747   -0.007127675984291426   0.01494540143876378
-0.4807063968538293   -0.025269776433068852   -0.02981754284193385
-0.4807063968538293   -0.025269776433068852   -0.02981754284193385
-0.4807063968538293   -0.025269776433068852   -0.02981754284193385
-0.4807063968538293   -0.025269776433068852   -0.02981754284193385
-0.29158297256312593   0.049213771565355474   0.019336335598886065
-0.29158297256312593   0.049213771565355474   0.019336335598886065
-0.29158297256312593   0.049213771565355474   0.019336335598886065
-0.29158297256312593   0.049213771565355474   0.019336335598886065
-0.3890821025609028   0.00328573563110629   0.007174157611516633
-0.3890821025609028   0.00328573563110629   0.007174157611516633
-0.3890821025609028   0.00328573563110629   0.007174157611516633
-0.3890821025609028   0.00328573563110629   0.007174157611516633
-0.3064965080760354   0.011943496509012788   -0.017961066909319513
-0.3064965080760354   0.011943496509012788   -0.017961066909319513
-0.3064965080760354   0.011943496509012788   -0.017961066909319513
-0.3064965080760354   0.011943496509012788   -0.017961066909319513
-0.464639084136114   0.0131542758280795   0.01209496848549427
-0.464639084136114   0.0131542758280795   0.01209496848549427
-0.464639084136114   0.0131542758280795   0.01209496848549427
-0.464639084136114   0.0131542758280795   0.01209496848549427
-0.46338007038854045   -0.0008681246585699326   -0.03210040760814502
-0.46338007038854045   -0.0008681246585699326   -0.03210040760814502
-0.46338007038854045   -0.0008681246585699326   -0.03210040760814502
-0.46338007038854045   -0.0008681246585699326   -0.03210040760814502
-0.27746369493988116   0.07009538534965348   0.01434036397925803
-0.27746369493988116   0.07009538534965348   0.01434036397925803
-0.27746369493988116   0.07009538534965348   0.01434036397925803
-0.27746369493988116   0.07009538534965348   0.01434036397925803
-0.37478073842325754   0.022645434223216326   0.01598316912611781
-0.37478073842325754   0.022645434223216326   0.01598316912611781
-0.37478073842325754   0.022645434223216326   0.01598316912611781
-0.37478073842325754   0.022645434223216326   0.01598316912611781
-0.5131644947125211   -0.04619974785782888   -0.029124287427624157
-0.5131644947125211   -0.04619974785782888   -0.029124287427624157
-0.5131644947125211   -0.04619974785782888   -0.029124287427624157
-0.5131644947125211   -0.04619974785782888   -0.029124287427624157
-0.6859463617278159   -0.012228328025689045   0.042993416154271435
-0.6859463617278159   -0.012228328025689045   0.042993416154271435
-0.6859463617278159   -0.012228328025689045   0.042993416154271435
-0.6859463617278159   -0.012228328025689045   0.042993416154271435
-0.6765479817846523   -0.06202075879719028   -0.038909299213004664
-0.6765479817846523   -0.06202075879719028   -0.038909299213004664
-0.6765479817846523   -0.06202075879719028   -0.038909299213004664
-0.6765479817846523   -0.06202075879719028   -0.038909299213004664
-0.46646470897945846   0.0512366384631078   0.042382299254441584
-0.46646470897945846   0.0512366384631078   0.042382299254441584
-0.46646470897945846   0.0512366384631078   0.042382299254441584
-0.46646470897945846   0.0512366384631078   0.042382299254441584
-0.5602772714657854   -0.009959044550752263   0.004702882933234332
-0.5602772714657854   -0.009959044550752263   0.004702882933234332
-0.5602772714657854   -0.009959044550752263   0.004702882933234332
-0.5602772714657854   -0.009959044550752263   0.004702882933234332
-0.49675155468724674   -0.024868893082821822   -0.03294639773856792
-0.49675155468724674   -0.024868893082821822   -0.03294639773856792
-0.49675155468724674   -0.024868893082821822   -0.03294639773856792
-0.49675155468724674   -0.024868893082821822   -0.03294639773856792
-0.6453272871191355   0.015018621706466312   0.04015479361091109
-0.6453272871191355   0.015018621706466312   0.04015479361091109
-0.6453272871191355   0.015018621706466312   0.04015479361091109
-0.6453272871191355   0.015018621706466312   0.04015479361091109
-0.6458404468573902   -0.04874954867536016   -0.04632076387347583
-0.6458404468573902   -0.04874954867536016   -0.04632076387347583
-0.6458404468573902   -0.04874954867536016   -0.04632076387347583
-0.6458404468573902   -0.04874954867536016   -0.04632076387347583
-0.4507068234066684   0.05996332143341174   0.03494722652738567
-0.4507068234066684   0.05996332143341174   0.03494722652738567
-0.4507068234066684   0.05996332143341174   0.03494722652738567
-0.4507068234066684   0.05996332143341174   0.03494722652738567
-0.5429474542682147   0.003976559160704468   0.012636895238947433
-0.5429474542682147   0.003976559160704468   0.012636895238947433
-0.5429474542682147   0.003976559160704468   0.012636895238947433
-0.5429474542682147   0.003976559160704468   0.012636895238947433
-0.4800899464231163   -0.013946924365076399   -0.03805814275636149
-0.4800899464231163   -0.013946924365076399   -0.03805814275636149
-0.4800899464231163   -0.013946924365076399   -0.03805814275636149
-0.4800899464231163   -0.013946924365076399   -0.03805814275636149
-0.6153172832444881   0.02630073771958688   0.03124476779608116
-0.6153172832444881   0.02630073771958688   0.03124476779608116
-0.6153172832444881   0.02630073771958688   0.03124476779608116
-0.6153172832444881   0.02630073771958688   0.03124476779608116
-0.6079698448202713   -0.0289554823079088   -0.0516712180855836
-0.6079698448202713   -0.0289554823079088   -0.0516712180855836
-0.6079698448202713   -0.0289554823079088   -0.0516712180855836
-0.6079698448202713   -0.0289554823079088   -0.0516712180855836
-0.43687251101478713   0.07045986388158978   0.029109400720461698
-0.43687251101478713   0.07045986388158978   0.029109400720461698
-0.43687251101478713   0.07045986388158978   0.029109400720461698
-0.43687251101478713   0.07045986388158978   0.029109400720461698
-0.510282805288834   0.01701641566279727   0.023829869408855724
-0.510282805288834   0.01701641566279727   0.023829869408855724
-0.510282805288834   0.01701641566279727   0.023829869408855724
-0.510282805288834   0.01701641566279727   0.023829869408855724
0.5429402055202187   0.04936600826605757   0.04694829551946442
0.5429402055202187   0.04936600826605757   0.04694829551946442
0.5429402055202187   0.04936600826605757   0.04694829551946442
0.5429402055202187   0.04936600826605757   0.04694829551946442
0.19867075383278973   -0.08995108962702764   -0.030895193179564323
0.19867075383278973   -0.08995108962702764   -0.030895193179564323
0.19867075383278973   -0.08995108962702764   -0.030895193179564323
0.19867075383278973   -0.08995108962702764   -0.030895193179564323
0.24507855441582663   -0.0006461479668268127   0.033763857766994615
0.24507855441582663   -0.0006461479668268127   0.033763857766994615
0.24507855441582663   -0.0006461479668268127   0.033763857766994615
0.24507855441582663   -0.0006461479668268127   0.033763857766994615
0.5526491210870508   -0.012252175182915132   -0.03945408398338097
0.5526491210870508   -0.012252175182915132   -0.03945408398338097
0.5526491210870508   -0.012252175182915132   -0.03945408398338097
0.5526491210870508   -0.012252175182915132   -0.03945408398338097
0.3611666214415409   -0.016207144083130162   -0.03479897615045005
0.3611666214415409   -0.016207144083130162   -0.03479897615045005
0.3611666214415409   -0.016207144083130162   -0.03479897615045005
0.3611666214415409   -0.016207144083130162   -0.03479897615045005
0.5848965684363446   0.06872573233325968   0.040805245246909164
0.5848965684363446   0.06872573233325968   0.040805245246909164
0.5848965684363446   0.06872573233325968   0.040805245246909164
0.5848965684363446   0.06872573233325968   0.040805245246909164
0.2151212160748818   -0.07933394647465206   -0.03733503542989656
0.2151212160748818   -0.07933394647465206   -0.03733503542989656
0.2151212160748818   -0.07933394647465206   -0.03733503542989656
0.2151212160748818   -0.07933394647465206   -0.03733503542989656
0.2633243908464531   0.00997814462504619   0.027831252911590623
0.2633243908464531   0.00997814462504619   0.027831252911590623
0.2633243908464531   0.00997814462504619   0.027831252911590623
0.2633243908464531   0.00997814462504619   0.027831252911590623
0.5860075777437602   -0.00018236003116237076   -0.04966679410130468
0.5860075777437602   -0.00018236003116237076   -0.04966679410130468
0.5860075777437602   -0.00018236003116237076   -0.04966679410130468
0.5860075777437602   -0.00018236003116237076   -0.04966679410130468
0.39603365441857863   -0.003179085657302655   -0.021097761654847554
0.39603365441857863   -0.003179085657302655   -0.021097761654847554
0.39603365441857863   -0.003179085657302655   -0.021097761654847554
0.39603365441857863   -0.003179085657302655   -0.021097761654847554
0.6186046577779445   0.08174599719726305   0.031390248841183535
0.6186046577779445   0.08174599719726305   0.031390248841183535
0.6186046577779445   0.08174599719726305   0.031390248841183535
0.6186046577779445   0.08174599719726305   0.031390248841183535
0.23315709746871885   -0.06952042594693049   -0.043506643405103886
0.23315709746871885   -0.06952042594693049   -0.043506643405103886
0.23315709746871885   -0.06952042594693049   -0.043506643405103886
0.23315709746871885   -0.06952042594693049   -0.043506643405103886
0.2815464942154722   0.033416465240388826   0.02412100358483044
0.2815464942154722   0.033416465240388826   0.02412100358483044
0.2815464942154722   0.033416465240388826   0.02412100358483044
0.2815464942154722   0.033416465240388826   0.02412100358483044
0.6298295832362529   0.03129130883689106   -0.05356571405802871
0.6298295832362529   0.03129130883689106   -0.05356571405802871
0.6298295832362529   0.03129130883689106   -0.05356571405802871
0.6298295832362529   0.03129130883689106   -0.05356571405802871
0.417462546850255   0.01268702091450312   -0.009265145872544341
0.417462546850255   0.01268702091450312   -0.009265145872544341
0.417462546850255   0.01268702091450312   -0.009265145872544341
0.417462546850255   0.01268702091450312   -0.009265145872544341
0.23589493774431355   0.02768189393747477   0.03759274281355232
0.23589493774431355   0.02768189393747477   0.03759274281355232
0.23589493774431355   0.02768189393747477   0.03759274281355232
0.23589493774431355   0.02768189393747477   0.03759274281355232
-0.11527379336256555   -0.08394165487865479   -0.016196729680046075
-0.11527379336256555   -0.08394165487865479   -0.016196729680046075
-0.11527379336256555   -0.08394165487865479   -0.016196729680046075
-0.11527379336256555   -0.08394165487865479   -0.016196729680046075
-0.08340282674733453   -0.024670656140012022   0.011351277546057971
-0.08340282674733453   -0.024670656140012022   0.011351277546057971
-0.08340282674733453   -0.024670656140012022   0.011351277546057971
-0.08340282674733453   -0.024670656140012022   0.011351277546057971
0.2376552005940576   0.0009241888276960569   -0.0049232481363656305
0.2376552005940576   0.0009241888276960569   -0.0049232481363656305
0.2376552005940576   0.0009241888276960569   -0.0049232481363656305
0.2376552005940576   0.0009241888276960569   -0.0049232481363656305
0.06561275896202362   -0.01767701681648086   -0.014801948145509326
0.06561275896202362   -0.01767701681648086   -0.014801948145509326
0.06561275896202362   -0.01767701681648086   -0.014801948145509326
0.06561275896202362   -0.01767701681648086   -0.014801948145509326
0.25464734703908426   0.047384548076126735   0.03357712484033296
0.25464734703908426   0.047384548076126735   0.03357712484033296
0.25464734703908426   0.047384548076126735   0.03357712484033296
0.25464734703908426   0.047384548076126735   0.03357712484033296
-0.099009354532148   -0.06974539672823049   -0.021606620789792773
-0.099009354532148   -0.06974539672823049   -0.021606620789792773
-0.099009354532148   -0.06974539672823049   -0.021606620789792773
-0.099009354532148   -0.06974539672823049   -0.021606620789792773
-0.0664094882366065   -0.004772863404834132   0.0071673081596334825
-0.0664094882366065   -0.004772863404834132   0.0071673081596334825
-0.0664094882366065   -0.004772863404834132   0.0071673081596334825
-0.0664094882366065   -0.004772863404834132   0.0071673081596334825
0.2576747648265553   0.018765669851482994   -0.009204402414334834
0.2576747648265553   0.018765669851482994   -0.009204402414334834
0.2576747648265553   0.018765669851482994   -0.009204402414334834
0.2576747648265553   0.018765669851482994   -0.009204402414334834
0.08202258409318519   -0.0019605538804040763   -0.0058825769436804615
0.08202258409318519   -0.0019605538804040763   -0.0058825769436804615
0.08202258409318519   -0.0019605538804040763   -0.0058825769436804615
0.08202258409318519   -0.0019605538804040763   -0.0058825769436804615
0.2753483415724227   0.06810922596528496   0.029819925201199773
0.2753483415724227   0.06810922596528496   0.029819925201199773
0.2753483415724227   0.06810922596528496   0.029819925201199773
0.2753483415724227   0.06810922596528496   0.029819925201199773
-0.08269535743238883   -0.052728711968551126   -0.026306189255561243
-0.08269535743238883   -0.052728711968551126   -0.026306189255561243
-0.08269535743238883   -0.052728711968551126   -0.026306189255561243
-0.08269535743238883   -0.052728711968551126   -0.026306189255561243
-0.04962584484000061   0.018297665977857515   0.003004368325294722
-0.04962584484000061   0.018297665977857515   0.003004368325294722
-0.04962584484000061   0.018297665977857515   0.003004368325294722
-0.04962584484000061   0.018297665977857515   0.003004368325294722
0.2754151591511906   0.04002644948585905   -0.013145655982051634
0.2754151591511906   0.04002644948585905   -0.013145655982051634
0.2754151591511906   0.04002644948585905   -0.013145655982051634
0.2754151591511906   0.04002644948585905   -0.013145655982051634
0.10233387735924321   0.01732925591345944   0.004535517258456785
0.10233387735924321   0.01732925591345944   0.004535517258456785
0.10233387735924321   0.01732925591345944   0.004535517258456785
0.10233387735924321   0.01732925591345944   0.004535517258456785
-0.09083784585281202   0.006035790030917903   0.016005562959148845
-0.09083784585281202   0.006035790030917903   0.016005562959148845
-0.09083784585281202   0.006035790030917903   0.016005562959148845
-0.09083784585281202   0.006035790030917903   0.016005562959148845
-0.42299416379313   -0.07416201233601277   -0.0021684924830733554
-0.42299416379313   -0.07416201233601277   -0.0021684924830733554
-0.42299416379313   -0.07416201233601277   -0.0021684924830733554
-0.42299416379313   -0.07416201233601277   -0.0021684924830733554
-0.4028634213647143   -0.0438076563320754   -0.009929103782274957
-0.4028634213647143   -0.0438076563320754   -0.009929103782274957
-0.4028634213647143   -0.0438076563320754   -0.009929103782274957
-0.4028634213647143   -0.0438076563320754   -0.009929103782274957
-0.0763661151928204   0.011242535207484042   0.010621643971130721
-0.0763661151928204   0.011242535207484042   0.010621643971130721
-0.0763661151928204   0.011242535207484042   0.010621643971130721
-0.0763661151928204   0.011242535207484042   0.010621643971130721
-0.24869959844038297   -0.02277766560965696   -0.009246766287372112
-0.24869959844038297   -0.02277766560965696   -0.009246766287372112
-0.24869959844038297   -0.02277766560965696   -0.009246766287372112
-0.24869959844038297   -0.02277766560965696   -0.009246766287372112
-0.07300032692470301   0.02657450618018547   0.0121186143390181
-0.07300032692470301   0.02657450618018547   0.0121186143390181
-0.07300032692470301   0.02657450618018547   0.0121186143390181
-0.07300032692470301   0.02657450618018547   0.0121186143390181
-0.40529786642421156   -0.05820828409615639   -0.007700701315680235
-0.40529786642421156   -0.05820828409615639   -0.007700701315680235
-0.40529786642421156   -0.05820828409615639   -0.007700701315680235
-0.40529786642421156   -0.05820828409615639   -0.007700701315680235
-0.384130451137334   -0.021976241095688145   -0.01341116264816427
-0.384130451137334   -0.021976241095688145   -0.01341116264816427
-0.384130451137334   -0.021976241095688145   -0.01341116264816427
-0.384130451137334   -0.021976241095688145   -0.01341116264816427
-0.059828232322782296   0.029268367771829853   0.006032356552092437
-0.059828232322782296   0.029268367771829853   0.006032356552092437
-0.059828232322782296   0.029268367771829853   0.006032356552092437
-0.059828232322782296   0.029268367771829853   0.006032356552092437
-0.2298024630602956   -0.004514182548808553   -0.00013822482366777043
-0.2298024630602956   -0.004514182548808553   -0.00013822482366777043
-0.2298024630602956   -0.004514182548808553   -0.00013822482366777043
-0.2298024630602956   -0.004514182548808553   -0.00013822482366777043
-0.05576428416420338   0.04791943154327851   0.007701033573538367
-0.05576428416420338   0.04791943154327851   0.007701033573538367
-0.05576428416420338   0.04791943154327851   0.007701033573538367
-0.05576428416420338   0.04791943154327851   0.007701033573538367
-0.38733055269374206   -0.039763458264971005   -0.011624453260921454
-0.38733055269374206   -0.039763458264971005   -0.011624453260921454
-0.38733055269374206   -0.039763458264971005   -0.011624453260921454
-0.38733055269374206   -0.039763458264971005   -0.011624453260921454
-0.366690511396479   -0.00021239246712642657   -0.01756655487541752
-0.366690511396479   -0.00021239246712642657   -0.01756655487541752
-0.366690511396479   -0.00021239246712642657   -0.01756655487541752
-0.366690511396479   -0.00021239246712642657   -0.01756655487541752
-0.04405096697063775   0.04767332701622247   0.001503096633744077
-0.04405096697063775   0.04767332701622247   0.001503096633744077
-0.04405096697063775   0.04767332701622247   0.001503096633744077
-0.04405096697063775   0.04767332701622247   0.001503096633744077
-0.2124480808171354   0.013681828414388926   0.008526777701514271
-0.2124480808171354   0.013681828414388926   0.008526777701514271
-0.2124480808171354   0.013681828414388926   0.008526777701514271
-0.2124480808171354   0.013681828414388926   0.008526777701514271
-0.41217930678773934   -0.016021225159720542   -0.006234994632409358
-0.41217930678773934   -0.016021225159720542   -0.006234994632409358
-0.41217930678773934   -0.016021225159720542   -0.006234994632409358
-0.41217930678773934   -0.016021225159720542   -0.006234994632409358
-0.7239074334622387   -0.06016700694762947   0.013833156886524353
-0.7239074334622387   -0.06016700694762947   0.013833156886524353
-0.7239074334622387   -0.06016700694762947   0.013833156886524353
-0.7239074334622387   -0.06016700694762947   0.013833156886524353
-0.7142227016573025   -0.06220794969983284   -0.029858216913715367
-0.7142227016573025   -0.06220794969983284   -0.029858216913715367
-0.7142227016573025   -0.06220794969983284   -0.029858216913715367
-0.7142227016573025   -0.06220794969983284   -0.029858216913715367
-0.38116955907331895   0.028086433678782025   0.02664611766384781
-0.38116955907331895   0.028086433678782025   0.02664611766384781
-0.38116955907331895   0.028086433678782025   0.02664611766384781
-0.38116955907331895   0.028086433678782025   0.02664611766384781
-0.5540109767764214   -0.024120812578677375   -0.0032295964675236218
-0.5540109767764214   -0.024120812578677375   -0.0032295964675236218
-0.5540109767764214   -0.024120812578677375   -0.0032295964675236218
-0.5540109767764214   -0.024120812578677375   -0.0032295964675236218
-0.3927905187651597   0.0061464006983482505   -0.009518647814922124
-0.3927905187651597   0.0061464006983482505   -0.009518647814922124
-0.3927905187651597   0.0061464006983482505   -0.009518647814922124
-0.3927905187651597   0.0061464006983482505   -0.009518647814922124
-0.7025367620804287   -0.040202936834369915   0.006566468105197832
-0.7025367620804287   -0.040202936834369915   0.006566468105197832
-0.7025367620804287   -0.040202936834369915   0.006566468105197832
-0.7025367620804287   -0.040202936834369915   0.006566468105197832
-0.6897239403067225   -0.04088693888646096   -0.03302624891659968
-0.6897239403067225   -0.04088693888646096   -0.03302624891659968
-0.6897239403067225   -0.04088693888646096   -0.03302624891659968
-0.6897239403067225   -0.04088693888646096   -0.03302624891659968
-0.3637390352020611   0.04526412848711246   0.02130554744540364
-0.3637390352020611   0.04526412848711246   0.02130554744540364
-0.3637390352020611   0.04526412848711246   0.02130554744540364
-0.3637390352020611   0.04526412848711246   0.02130554744540364
-0.5290673981337222   -0.0039392718906347685   0.005912391191690122
-0.5290673981337222   -0.0039392718906347685   0.005912391191690122
-0.5290673981337222   -0.0039392718906347685   0.005912391191690122
-0.5290673981337222   -0.0039392718906347685   0.005912391191690122
-0.37464854352743   0.025948180928209413   -0.013926046622540166
-0.37464854352743   0.025948180928209413   -0.013926046622540166
-0.37464854352743   0.025948180928209413   -0.013926046622540166
-0.37464854352743   0.025948180928209413   -0.013926046622540166
-0.67821969932667   -0.020976258672879944   0.004584275770081213
-0.67821969932667   -0.020976258672879944   0.004584275770081213
-0.67821969932667   -0.020976258672879944   0.004584275770081213
-0.67821969932667   -0.020976258672879944   0.004584275770081213
-0.6678197575756024   -0.017789900257235675   -0.034730001419466444
-0.6678197575756024   -0.017789900257235675   -0.034730001419466444
-0.6678197575756024   -0.017789900257235675   -0.034730001419466444
-0.6678197575756024   -0.017789900257235675   -0.034730001419466444
-0.3468573617874912   0.06413660344089632   0.017250197261501787
-0.3468573617874912   0.06413660344089632   0.017250197261501787
-0.3468573617874912   0.06413660344089632   0.017250197261501787
-0.3468573617874912   0.06413660344089632   0.017250197261501787
-0.51225171033698   0.013301888694967762   0.013794279646591266
-0.51225171033698   0.013301888694967762   0.013794279646591266
-0.51225171033698   0.013301888694967762   0.013794279646591266
-0.51225171033698   0.013301888694967762   0.013794279646591266
-0.726881244264814   -0.034378807148944285   -0.026824096925037275
-0.726881244264814   -0.034378807148944285   -0.026824096925037275
-0.726881244264814   -0.034378807148944285   -0.026824096925037275
-0.726881244264814   -0.034378807148944285   -0.026824096925037275
-1.0364121154276078   -0.03743431580789766   0.046458600569531196
-1.0364121154276078   -0.03743431580789766   0.046458600569531196
-1.0364121154276078   -0.03743431580789766   0.046458600569531196
-1.0364121154276078   -0.03743431580789766   0.046458600569531196
-1.0167553429378842   -0.07441926153748596   -0.03560656679010161
-1.0167553429378842   -0.07441926153748596   -0.03560656679010161
-1.0167553429378842   -0.07441926153748596   -0.03560656679010161
-1.0167553429378842   -0.07441926153748596   -0.03560656679010161
-0.6747920987147162   0.05783101906152413   0.047255829037859166
-0.6747920987147162   0.05783101906152413   0.047255829037859166
-0.6747920987147162   0.05783101906152413   0.047255829037859166
-0.6747920987147162   0.05783101906152413   0.047255829037859166
-0.8253863965423865   -0.01019718863626004   0.009652813750434884
-0.8253863965423865   -0.01019718863626004   0.009652813750434884
-0.8253863965423865   -0.01019718863626004   0.009652813750434884
-0.8253863965423865   -0.01019718863626004   0.009652813750434884
-0.7039135627800606   -0.010694738827801448   -0.029825733399533094
-0.7039135627800606   -0.010694738827801448   -0.029825733399533094
-0.7039135627800606   -0.010694738827801448   -0.029825733399533094
-0.7039135627800606   -0.010694738827801448   -0.029825733399533094
-0.9871393764893691   -0.005399001264985576   0.04345300517996343
-0.9871393764893691   -0.005399001264985576   0.04345300517996343
-0.9871393764893691   -0.005399001264985576   0.04345300517996343
-0.9871393764893691   -0.005399001264985576   0.04345300517996343
-0.979614535799758   -0.06119681504581723   -0.04194574347566939
-0.979614535799758   -0.06119681504581723   -0.04194574347566939
-0.979614535799758   -0.06119681504581723   -0.04194574347566939
-0.979614535799758   -0.06119681504581723   -0.04194574347566939
-0.6542522200171514   0.06598454146672242   0.03746087217807174
-0.6542522200171514   0.06598454146672242   0.03746087217807174
-0.6542522200171514   0.06598454146672242   0.03746087217807174
-0.6542522200171514   0.06598454146672242   0.03746087217807174
-0.8063465386817454   0.004240981761681056   0.017238523691852553
-0.8063465386817454   0.004240981761681056   0.017238523691852553
-0.8063465386817454   0.004240981761681056   0.017238523691852553
-0.8063465386817454   0.004240981761681056   0.017238523691852553
-0.6817383444522416   -2.45581560928132e-05   -0.0339606503745638
-0.6817383444522416   -2.45581560928132e-05   -0.0339606503745638
-0.6817383444522416   -2.45581560928132e-05   -0.0339606503745638
-0.6817383444522416   -2.45581560928132e-05   -0.0339606503745638
-0.9516325587529881   0.005308137188675066   0.03145918952367172
-0.9516325587529881   0.005308137188675066   0.03145918952367172
-0.9516325587529881   0.005308137188675066   0.03145918952367172
-0.9516325587529881   0.005308137188675066   0.03145918952367172
-0.9389812587791873   -0.045347292485768464   -0.04781763335192936
-0.9389812587791873   -0.045347292485768464   -0.04781763335192936
-0.9389812587791873   -0.045347292485768464   -0.04781763335192936
-0.9389812587791873   -0.045347292485768464   -0.04781763335192936
-0.6362193863900535   0.07358530346588507   0.03189665078515753
-0.6362193863900535   0.07358530346588507   0.03189665078515753
-0.6362193863900535   0.07358530346588507   0.03189665078515753
-0.6362193863900535   0.07358530346588507   0.03189665078515753
-0.7652970149568465   0.016228783444514477   0.02873852347441519
-0.7652970149568465   0.016228783444514477   0.02873852347441519
-0.7652970149568465   0.016228783444514477   0.02873852347441519
-0.7652970149568465   0.016228783444514477   0.02873852347441519
0.9097333153611499   0.06804489510016185   0.048022168928053846
0.9097333153611499   0.06804489510016185   0.048022168928053846
0.9097333153611499   0.06804489510016185   0.048022168928053846
0.9097333153611499   0.06804489510016185   0.048022168928053846
0.40100730041562427   -0.1068137322846999   -0.022141804000576276
0.40100730041562427   -0.1068137322846999   -0.022141804000576276
0.40100730041562427   -0.1068137322846999   -0.022141804000576276
0.40100730041562427   -0.1068137322846999   -0.022141804000576276
0.4468993211794175   -0.018919969504935824   0.03295674431417959
0.4468993211794175   -0.018919969504935824   0.03295674431417959
0.4468993211794175   -0.018919969504935824   0.03295674431417959
0.4468993211794175   -0.018919969504935824   0.03295674431417959
0.9196345722438155   -0.0013606882334411818   -0.03465355024867873
0.9196345722438155   -0.0013606882334411818   -0.03465355024867873
0.9196345722438155   -0.0013606882334411818   -0.03465355024867873
0.9196345722438155   -0.0013606882334411818   -0.03465355024867873
0.6301298257765813   -0.018973115593834855   -0.04917069661118282
0.6301298257765813   -0.018973115593834855   -0.04917069661118282
0.6301298257765813   -0.018973115593834855   -0.04917069661118282
0.6301298257765813   -0.018973115593834855   -0.04917069661118282
0.9515629609759682   0.08345579218938776   0.04017191298924692
0.9515629609759682   0.08345579218938776   0.04017191298924692
0.9515629609759682   0.08345579218938776   0.04017191298924692
0.9515629609759682   0.08345579218938776   0.04017191298924692
0.4180400309221198   -0.10066735145291067   -0.029592325024330436
0.4180400309221198   -0.10066735145291067   -0.029592325024330436
0.4180400309221198   -0.10066735145291067   -0.029592325024330436
0.4180400309221198   -0.10066735145291067   -0.029592325024330436
0.4647935140469406   -0.00916517839414191   0.02663317778061724
0.4647935140469406   -0.00916517839414191   0.02663317778061724
0.4647935140469406   -0.00916517839414191   0.02663317778061724
0.4647935140469406   -0.00916517839414191   0.02663317778061724
0.9509833313507402   0.009390305917739455   -0.04326498605805534
0.9509833313507402   0.009390305917739455   -0.04326498605805534
0.9509833313507402   0.009390305917739455   -0.04326498605805534
0.9509833313507402   0.009390305917739455   -0.04326498605805534
0.6695492053090812   -0.007494629365050881   -0.03346674620418968
0.6695492053090812   -0.007494629365050881   -0.03346674620418968
0.6695492053090812   -0.007494629365050881   -0.03346674620418968
0.6695492053090812   -0.007494629365050881   -0.03346674620418968
0.9827201834119174   0.09504619662986988   0.029763383535699538
0.9827201834119174   0.09504619662986988   0.029763383535699538
0.9827201834119174   0.09504619662986988   0.029763383535699538
0.9827201834119174   0.09504619662986988   0.029763383535699538
0.4357398524747609   -0.09213787861727502   -0.035662429857148396
0.4357398524747609   -0.09213787861727502   -0.035662429857148396
0.4357398524747609   -0.09213787861727502   -0.035662429857148396
0.4357398524747609   -0.09213787861727502   -0.035662429857148396
0.4810107071058185   0.01691073871327521   0.02335031145435719
0.4810107071058185   0.01691073871327521   0.02335031145435719
0.4810107071058185   0.01691073871327521   0.02335031145435719
0.4810107071058185   0.01691073871327521   0.02335031145435719
0.9895771322558975   0.04085798808528629   -0.045295480183116466
0.9895771322558975   0.04085798808528629   -0.045295480183116466
0.9895771322558975   0.04085798808528629   -0.045295480183116466
0.9895771322558975   0.04085798808528629   -0.045295480183116466
0.6841858047634208   0.007978708407647195   -0.022615015878587004
0.6841858047634208   0.007978708407647195   -0.022615015878587004
0.6841858047634208   0.007978708407647195   -0.022615015878587004
0.6841858047634208   0.007978708407647195   -0.022615015878587004
0.4435852651110772   0.03988030015873839   0.04405398703324638
0.4435852651110772   0.03988030015873839   0.04405398703324638
0.4435852651110772   0.03988030015873839   0.04405398703324638
0.4435852651110772   0.03988030015873839   0.04405398703324638
-0.05541365097187424   -0.1314772496271878   -0.012628219004970125
-0.05541365097187424   -0.1314772496271878   -0.012628219004970125
-0.05541365097187424   -0.1314772496271878   -0.012628219004970125
-0.05541365097187424   -0.1314772496271878   -0.012628219004970125
-0.015945987734422254   -0.04658329867339361   0.011140502686635204
-0.015945987734422254   -0.04658329867339361   0.011140502686635204
-0.015945987734422254   -0.04658329867339361   0.011140502686635204
-0.015945987734422254   -0.04658329867339361   0.011140502686635204
0.4397846313784771   -0.023760902370326964   0.002224228174868878
0.4397846313784771   -0.023760902370326964   0.002224228174868878
0.4397846313784771   -0.023760902370326964   0.002224228174868878
0.4397846313784771   -0.023760902370326964   0.002224228174868878
0.19749876395581295   -0.036505936157970306   -0.02337321166168205
0.19749876395581295   -0.036505936157970306   -0.02337321166168205
0.19749876395581295   -0.036505936157970306   -0.02337321166168205
0.19749876395581295   -0.036505936157970306   -0.02337321166168205
0.4628481038490259   0.054752963947855754   0.03902772420943383
0.4628481038490259   0.054752963947855754   0.03902772420943383
0.4628481038490259   0.054752963947855754   0.03902772420943383
0.4628481038490259   0.054752963947855754   0.03902772420943383
-0.037386192457479546   -0.12347389724408421   -0.01916992235796065
-0.037386192457479546   -0.12347389724408421   -0.01916992235796065
-0.037386192457479546   -0.12347389724408421   -0.01916992235796065
-0.037386192457479546   -0.12347389724408421   -0.01916992235796065
0.002298076919803955   -0.029112498205991225   0.006781445205045471
0.002298076919803955   -0.029112498205991225   0.006781445205045471
0.002298076919803955   -0.029112498205991225   0.006781445205045471
0.002298076919803955   -0.029112498205991225   0.006781445205045471
0.45848537225050995   -0.010585769273006002   -0.0034869403226718484
0.45848537225050995   -0.010585769273006002   -0.0034869403226718484
0.45848537225050995   -0.010585769273006002   -0.0034869403226718484
0.45848537225050995   -0.010585769273006002   -0.0034869403226718484
0.21332474651639724   -0.02577425525249022   -0.01513979702298279
0.21332474651639724   -0.02577425525249022   -0.01513979702298279
0.21332474651639724   -0.02577425525249022   -0.01513979702298279
0.21332474651639724   -0.02577425525249022   -0.01513979702298279
0.4827881323161554   0.07259786831564988   0.03484322241689951
0.4827881323161554   0.07259786831564988   0.03484322241689951
0.4827881323161554   0.07259786831564988   0.03484322241689951
0.4827881323161554   0.07259786831564988   0.03484322241689951
-0.0210339185878487   -0.11132537123665431   -0.027665659302554716
-0.0210339185878487   -0.11132537123665431   -0.027665659302554716
-0.0210339185878487   -0.11132537123665431   -0.027665659302554716
-0.0210339185878487   -0.11132537123665431   -0.027665659302554716
0.01662253576178281   -0.00862741420855135   0.0023776489352734255
0.01662253576178281   -0.00862741420855135   0.0023776489352734255
0.01662253576178281   -0.00862741420855135   0.0023776489352734255
0.01662253576178281   -0.00862741420855135   0.0023776489352734255
0.47247730776359054   0.006234513777013395   -0.00864046032052439
0.47247730776359054   0.006234513777013395   -0.00864046032052439
0.47247730776359054   0.006234513777013395   -0.00864046032052439
0.47247730776359054   0.006234513777013395   -0.00864046032052439
0.2327711296676908   -0.009712601213383236   -0.006290813380515651
0.2327711296676908   -0.009712601213383236   -0.006290813380515651
0.2327711296676908   -0.009712601213383236   -0.006290813380515651
0.2327711296676908   -0.009712601213383236   -0.006290813380515651
-0.019959263915097357   0.011259966222122993   0.021906500429603504
-0.019959263915097357   0.011259966222122993   0.021906500429603504
-0.019959263915097357   0.011259966222122993   0.021906500429603504
-0.019959263915097357   0.011259966222122993   0.021906500429603504
-0.508285673319927   -0.16486908700127578   -0.010118787103148959
-0.508285673319927   -0.16486908700127578   -0.010118787103148959
-0.508285673319927   -0.16486908700127578   -0.010118787103148959
-0.508285673319927   -0.16486908700127578   -0.010118787103148959
-0.46843286538134493   -0.07143740592828102   -0.01071131151917
-0.46843286538134493   -0.07143740592828102   -0.01071131151917
-0.46843286538134493   -0.07143740592828102   -0.01071131151917
-0.46843286538134493   -0.07143740592828102   -0.01071131151917
-0.018090218710110493   -0.056079890198350135   0.00991593933315054
-0.018090218710110493   -0.056079890198350135   0.00991593933315054
-0.018090218710110493   -0.056079890198350135   0.00991593933315054
-0.018090218710110493   -0.056079890198350135   0.00991593933315054
-0.2548339958262225   -0.06651209663466726   -0.020862658992958846
-0.2548339958262225   -0.06651209663466726   -0.020862658992958846
-0.2548339958262225   -0.06651209663466726   -0.020862658992958846
-0.2548339958262225   -0.06651209663466726   -0.020862658992958846
0.00030723465717124015   0.028014616314576583   0.01780869965663249
0.00030723465717124015   0.028014616314576583   0.01780869965663249
0.00030723465717124015   0.028014616314576583   0.01780869965663249
0.00030723465717124015   0.028014616314576583   0.01780869965663249
-0.4856557880437562   -0.1543573817363424   -0.013905949023165054
-0.4856557880437562   -0.1543573817363424   -0.013905949023165054
-0.4856557880437562   -0.1543573817363424   -0.013905949023165054
-0.4856557880437562   -0.1543573817363424   -0.013905949023165054
-0.44579885679213754   -0.05204591348590901   -0.01456842526721595
-0.44579885679213754   -0.05204591348590901   -0.01456842526721595
-0.44579885679213754   -0.05204591348590901   -0.01456842526721595
-0.44579885679213754   -0.05204591348590901   -0.01456842526721595
-0.0010986664381891272   -0.04341427673802088   0.004099506947109718
-0.0010986664381891272   -0.04341427673802088   0.004099506947109718
-0.0010986664381891272   -0.04341427673802088   0.004099506947109718
-0.0010986664381891272   -0.04341427673802088   0.004099506947109718
-0.23286176890632101   -0.052562391638664066   -0.011564117341008033
-0.23286176890632101   -0.052562391638664066   -0.011564117341008033
-0.23286176890632101   -0.052562391638664066   -0.011564117341008033
-0.23286176890632101   -0.052562391638664066   -0.011564117341008033
0.018850921564044682   0.0465703010690185   0.013862869151239385
0.018850921564044682   0.0465703010690185   0.013862869151239385
0.018850921564044682   0.0465703010690185   0.013862869151239385
0.018850921564044682   0.0465703010690185   0.013862869151239385
-0.4657425910617911   -0.14202463756036773   -0.024308372541022492
-0.4657425910617911   -0.14202463756036773   -0.024308372541022492
-0.4657425910617911   -0.14202463756036773   -0.024308372541022492
-0.4657425910617911   -0.14202463756036773   -0.024308372541022492
-0.4298011964310429   -0.0335526211184282   -0.018876414579073457
-0.4298011964310429   -0.0335526211184282   -0.018876414579073457
-0.4298011964310429   -0.0335526211184282   -0.018876414579073457
-0.4298011964310429   -0.0335526211184282   -0.018876414579073457
0.01005066366962749   -0.033271214275273193   -0.005837911458783252
0.01005066366962749   -0.033271214275273193   -0.005837911458783252
0.01005066366962749   -0.033271214275273193   -0.005837911458783252
0.01005066366962749   -0.033271214275273193   -0.005837911458783252
-0.2167491772229538   -0.03954049395778689   -0.00572668274951368
-0.2167491772229538   -0.03954049395778689   -0.00572668274951368
-0.2167491772229538   -0.03954049395778689   -0.00572668274951368
-0.2167491772229538   -0.03954049395778689   -0.00572668274951368
-0.47612272302385994   -0.01350943396839785   -0.0006636886556963678
-0.47612272302385994   -0.01350943396839785   -0.0006636886556963678
-0.47612272302385994   -0.01350943396839785   -0.0006636886556963678
-0.47612272302385994   -0.01350943396839785   -0.0006636886556963678
-0.9633762037216864   -0.17725393216631855   -0.008101379185229652
-0.9633762037216864   -0.17725393216631855   -0.008101379185229652
-0.9633762037216864   -0.17725393216631855   -0.008101379185229652
-0.9633762037216864   -0.17725393216631855   -0.008101379185229652
-0.9206514491370166   -0.0914954342067794   -0.03178133170026161
-0.9206514491370166   -0.0914954342067794   -0.03178133170026161
-0.9206514491370166   -0.0914954342067794   -0.03178133170026161
-0.9206514491370166   -0.0914954342067794   -0.03178133170026161
-0.4594676208583359   -0.05828427968486278   0.02096178485245185
-0.4594676208583359   -0.05828427968486278   0.02096178485245185
-0.4594676208583359   -0.05828427968486278   0.02096178485245185
-0.4594676208583359   -0.05828427968486278   0.02096178485245185
-0.6987499304589997   -0.08003108812393582   -0.014695435178189751
-0.6987499304589997   -0.08003108812393582   -0.014695435178189751
-0.6987499304589997   -0.08003108812393582   -0.014695435178189751
-0.6987499304589997   -0.08003108812393582   -0.014695435178189751
-0.45111689911620706   0.008044970760901285   -0.003613856882667795
-0.45111689911620706   0.008044970760901285   -0.003613856882667795
-0.45111689911620706   0.008044970760901285   -0.003613856882667795
-0.45111689911620706   0.008044970760901285   -0.003613856882667795
-0.9293517942749685   -0.15817430804836527   -0.008604183548427976
-0.9293517942749685   -0.15817430804836527   -0.008604183548427976
-0.9293517942749685   -0.15817430804836527   -0.008604183548427976
-0.9293517942749685   -0.15817430804836527   -0.008604183548427976
-0.8882763061056309   -0.07126313109299587   -0.0367934795515682
-0.8882763061056309   -0.07126313109299587   -0.0367934795515682
-0.8882763061056309   -0.07126313109299587   -0.0367934795515682
-0.8882763061056309   -0.07126313109299587   -0.0367934795515682
-0.4375021888825202   -0.04310603863448848   0.017975039429452937
-0.4375021888825202   -0.04310603863448848   0.017975039429452937
-0.4375021888825202   -0.04310603863448848   0.017975039429452937
-0.4375021888825202   -0.04310603863448848   0.017975039429452937
-0.6654447744230374   -0.06061840485274844   -0.004781189429238351
-0.6654447744230374   -0.06061840485274844   -0.004781189429238351
-0.6654447744230374   -0.06061840485274844   -0.004781189429238351
-0.6654447744230374   -0.06061840485274844   -0.004781189429238351
-0.42843299477688435   0.026756017789745776   -0.006541046466606554
-0.42843299477688435   0.026756017789745776   -0.006541046466606554
-0.42843299477688435   0.026756017789745776   -0.006541046466606554
-0.42843299477688435   0.026756017789745776   -0.006541046466606554
-0.8988870311001759   -0.14266671840613868   -0.018443517211142353
-0.8988870311001759   -0.14266671840613868   -0.018443517211142353
-0.8988870311001759   -0.14266671840613868   -0.018443517211142353
-0.8988870311001759   -0.14266671840613868   -0.018443517211142353
-0.8620452770085509   -0.04994597568954143   -0.037974783169627255
-0.8620452770085509   -0.04994597568954143   -0.037974783169627255
-0.8620452770085509   -0.04994597568954143   -0.037974783169627255
-0.8620452770085509   -0.04994597568954143   -0.037974783169627255
-0.424891547621348   -0.03345629609013525   0.005575504441112619
-0.424891547621348   -0.03345629609013525   0.005575504441112619
-0.424891547621348   -0.03345629609013525   0.005575504441112619
-0.424891547621348   -0.03345629609013525   0.005575504441112619
-0.647166651443497   -0.04879097809820114   -0.001534835082455891
-0.647166651443497   -0.04879097809820114   -0.001534835082455891
-0.647166651443497   -0.04879097809820114   -0.001534835082455891
-0.647166651443497   -0.04879097809820114   -0.001534835082455891
-0.9372267037981353   -0.031508763285556546   -0.023099048448235786
-0.9372267037981353   -0.031508763285556546   -0.023099048448235786
-0.9372267037981353   -0.031508763285556546   -0.023099048448235786
-0.9372267037981353   -0.031508763285556546   -0.023099048448235786
-1.4133041008359986   -0.12017512601973704   0.05307257324948255
-1.4133041008359986   -0.12017512601973704   0.05307257324948255
-1.4133041008359986   -0.12017512601973704   0.05307257324948255
-1.4133041008359986   -0.12017512601973704   0.05307257324948255
-1.3652196180010605   -0.0959050603750338   -0.030997048858586167
-1.3652196180010605   -0.0959050603750338   -0.030997048858586167
-1.3652196180010605   -0.0959050603750338   -0.030997048858586167
-1.3652196180010605   -0.0959050603750338   -0.030997048858586167
-0.8811400773328222   0.025402883823430228   0.04887720929049256
-0.8811400773328222   0.025402883823430228   0.04887720929049256
-0.8811400773328222   0.025402883823430228   0.04887720929049256
-0.8811400773328222   0.025402883823430228   0.04887720929049256
-1.097768211598926   -0.0376148581620544   0.005456150221492026
-1.097768211598926   -0.0376148581620544   0.005456150221492026
-1.097768211598926   -0.0376148581620544   0.005456150221492026
-1.097768211598926   -0.0376148581620544   0.005456150221492026
-0.9015365841492718   -0.0020912766888513123   -0.025611164279462494
-0.9015365841492718   -0.0020912766888513123   -0.025611164279462494
-0.9015365841492718   -0.0020912766888513123   -0.025611164279462494
-0.9015365841492718   -0.0020912766888513123   -0.025611164279462494
-1.3415350082415012   -0.0651227969196406   0.05664373648381741
-1.3415350082415012   -0.0651227969196406   0.05664373648381741
-1.3415350082415012   -0.0651227969196406   0.05664373648381741
-1.3415350082415012   -0.0651227969196406   0.05664373648381741
-1.3136122493639426   -0.08076249236108421   -0.036914267614170264
-1.3136122493639426   -0.08076249236108421   -0.036914267614170264
-1.3136122493639426   -0.08076249236108421   -0.036914267614170264
-1.3136122493639426   -0.08076249236108421   -0.036914267614170264
-0.8491386487376117   0.040465307522345895   0.04716636867318562
-0.8491386487376117   0.040465307522345895   0.04716636867318562
-0.8491386487376117   0.040465307522345895   0.04716636867318562
-0.8491386487376117   0.040465307522345895   0.04716636867318562
-1.0674831907844928   -0.015170569257950767   0.021920597462798987
-1.0674831907844928   -0.015170569257950767   0.021920597462798987
-1.0674831907844928   -0.015170569257950767   0.021920597462798987
-1.0674831907844928   -0.015170569257950767   0.021920597462798987
-0.8702482381950957   0.009758257647619228   -0.027674528739499875
-0.8702482381950957   0.009758257647619228   -0.027674528739499875
-0.8702482381950957   0.009758257647619228   -0.027674528739499875
-0.8702482381950957   0.009758257647619228   -0.027674528739499875
-1.2918254761499695   -0.04937825872986873   0.04063536482446993
-1.2918254761499695   -0.04937825872986873   0.04063536482446993
-1.2918254761499695   -0.04937825872986873   0.04063536482446993
-1.2918254761499695   -0.04937825872986873   0.04063536482446993
-1.260220792909789   -0.06651908848351903   -0.044623902442127265
-1.260220792909789   -0.06651908848351903   -0.044623902442127265
-1.260220792909789   -0.06651908848351903   -0.044623902442127265
-1.260220792909789   -0.06651908848351903   -0.044623902442127265
-0.8254927302569652   0.058394406883360644   0.036447568015399244
-0.8254927302569652   0.058394406883360644   0.036447568015399244
-0.8254927302569652   0.058394406883360644   0.036447568015399244
-0.8254927302569652   0.058394406883360644   0.036447568015399244
-1.0099746247977486   0.003993621545960946   0.03847407958260786
-1.0099746247977486   0.003993621545960946   0.03847407958260786
-1.0099746247977486   0.003993621545960946   0.03847407958260786
-1.0099746247977486   0.003993621545960946   0.03847407958260786
1.2409255225519005   0.07455586295270406   0.04478795005016731
1.2409255225519005   0.07455586295270406   0.04478795005016731
1.2409255225519005   0.07455586295270406   0.04478795005016731
1.2409255225519005   0.07455586295270406   0.04478795005016731
0.5911751330002992   -0.1104855230827366   0.009819868642110943
0.5911751330002992   -0.1104855230827366   0.009819868642110943
0.5911751330002992   -0.1104855230827366   0.009819868642110943
0.5911751330002992   -0.1104855230827366   0.009819868642110943
0.6236199789585318   -0.04675437625809703   0.034392602913325805
0.6236199789585318   -0.04675437625809703   0.034392602913325805
0.6236199789585318   -0.04675437625809703   0.034392602913325805
0.6236199789585318   -0.04675437625809703   0.034392602913325805
1.2473575864089161   0.01098743118738621   -0.01013593916639946
1.2473575864089161   0.01098743118738621   -0.01013593916639946
1.2473575864089161   0.01098743118738621   -0.01013593916639946
1.2473575864089161   0.01098743118738621   -0.01013593916639946
0.8722258965970432   -0.02362021447275603   -0.05782640854468332
0.8722258965970432   -0.02362021447275603   -0.05782640854468332
0.8722258965970432   -0.02362021447275603   -0.05782640854468332
0.8722258965970432   -0.02362021447275603   -0.05782640854468332
1.2708479294096267   0.08289444554530381   0.03540876147923521
1.2708479294096267   0.08289444554530381   0.03540876147923521
1.2708479294096267   0.08289444554530381   0.03540876147923521
1.2708479294096267   0.08289444554530381   0.03540876147923521
0.6057526720344564   -0.11303835453937966   0.011340046574230864
0.6057526720344564   -0.11303835453937966   0.011340046574230864
0.6057526720344564   -0.11303835453937966   0.011340046574230864
0.6057526720344564   -0.11303835453937966   0.011340046574230864
0.6358665491406164   -0.03974871201112931   0.026156706507724746
0.6358665491406164   -0.03974871201112931   0.026156706507724746
0.6358665491406164   -0.03974871201112931   0.026156706507724746
0.6358665491406164   -0.03974871201112931   0.026156706507724746
1.2690738033527191   0.018878351677506344   -0.003256661622490123
1.2690738033527191   0.018878351677506344   -0.003256661622490123
1.2690738033527191   0.018878351677506344   -0.003256661622490123
1.2690738033527191   0.018878351677506344   -0.003256661622490123
0.9080637356966531   -0.0186503353026867   -0.039543399952804585
0.9080637356966531   -0.0186503353026867   -0.039543399952804585
0.9080637356966531   -0.0186503353026867   -0.039543399952804585
0.9080637356966531   -0.0186503353026867   -0.039543399952804585
1.2889616649929756   0.09054264125754788   0.024518356998751163
1.2889616649929756   0.09054264125754788   0.024518356998751163
1.2889616649929756   0.09054264125754788   0.024518356998751163
1.2889616649929756   0.09054264125754788   0.024518356998751163
0.6198898263422565   -0.10750186274927392   0.014026243254070966
0.6198898263422565   -0.10750186274927392   0.014026243254070966
0.6198898263422565   -0.10750186274927392   0.014026243254070966
0.6198898263422565   -0.10750186274927392   0.014026243254070966
0.6539102520658171   -0.012433798707502913   0.023912466043017652
0.6539102520658171   -0.012433798707502913   0.023912466043017652
0.6539102520658171   -0.012433798707502913   0.023912466043017652
0.6539102520658171   -0.012433798707502913   0.023912466043017652
1.29169091440219   0.037031774054315986   -0.0007050762587229656
1.29169091440219   0.037031774054315986   -0.0007050762587229656
1.29169091440219   0.037031774054315986   -0.0007050762587229656
1.29169091440219   0.037031774054315986   -0.0007050762587229656
0.9123867884150666   -0.008517762098195159   -0.02961222485280922
0.9123867884150666   -0.008517762098195159   -0.02961222485280922
0.9123867884150666   -0.008517762098195159   -0.02961222485280922
0.9123867884150666   -0.008517762098195159   -0.02961222485280922
0.6239954617486437   0.016347845481774315   0.04708814381932246
0.6239954617486437   0.016347845481774315   0.04708814381932246
0.6239954617486437   0.016347845481774315   0.04708814381932246
0.6239954617486437   0.016347845481774315   0.04708814381932246
0.03187929122181178   -0.21950272190013773   0.022343544725198172
0.03187929122181178   -0.21950272190013773   0.022343544725198172
0.03187929122181178   -0.21950272190013773   0.022343544725198172
0.03187929122181178   -0.21950272190013773   0.022343544725198172
0.07408249105020077   -0.09315925438122868   0.020934608448636705
0.07408249105020077   -0.09315925438122868   0.020934608448636705
0.07408249105020077   -0.09315925438122868   0.020934608448636705
0.07408249105020077   -0.09315925438122868   0.020934608448636705
0.6080407307130737   -0.1046234228110677   0.014365408238999997
0.6080407307130737   -0.1046234228110677   0.014365408238999997
0.6080407307130737   -0.1046234228110677   0.014365408238999997
0.6080407307130737   -0.1046234228110677   0.014365408238999997
0.32365613201698806   -0.09810128321158959   -0.03683171218472993
0.32365613201698806   -0.09810128321158959   -0.03683171218472993
0.32365613201698806   -0.09810128321158959   -0.03683171218472993
0.32365613201698806   -0.09810128321158959   -0.03683171218472993
0.6386499442529928   0.02343743766259121   0.039350615464944144
0.6386499442529928   0.02343743766259121   0.039350615464944144
0.6386499442529928   0.02343743766259121   0.039350615464944144
0.6386499442529928   0.02343743766259121   0.039350615464944144
0.05155637620054308   -0.2131370161646246   0.02828179598374611
0.05155637620054308   -0.2131370161646246   0.02828179598374611
0.05155637620054308   -0.2131370161646246   0.02828179598374611
0.05155637620054308   -0.2131370161646246   0.02828179598374611
0.09102255828425493   -0.08035377349362711   0.015135852540477661
0.09102255828425493   -0.08035377349362711   0.015135852540477661
0.09102255828425493   -0.08035377349362711   0.015135852540477661
0.09102255828425493   -0.08035377349362711   0.015135852540477661
0.6225527090417985   -0.097890775734224   0.017729569736730427
0.6225527090417985   -0.097890775734224   0.017729569736730427
0.6225527090417985   -0.097890775734224   0.017729569736730427
0.6225527090417985   -0.097890775734224   0.017729569736730427
0.33804579996840417   -0.09317901406689721   -0.01841974712303389
0.33804579996840417   -0.09317901406689721   -0.01841974712303389
0.33804579996840417   -0.09317901406689721   -0.01841974712303389
0.33804579996840417   -0.09317901406689721   -0.01841974712303389
0.6523254224105471   0.03551675082732153   0.033185610018928564
0.6523254224105471   0.03551675082732153   0.033185610018928564
0.6523254224105471   0.03551675082732153   0.033185610018928564
0.6523254224105471   0.03551675082732153   0.033185610018928564
0.0690238502382521   -0.2059872947324264   0.03077583354926476
0.0690238502382521   -0.2059872947324264   0.03077583354926476
0.0690238502382521   -0.2059872947324264   0.03077583354926476
0.0690238502382521   -0.2059872947324264   0.03077583354926476
0.11704206813124537   -0.06112658294544975   0.009989295699505015
0.11704206813124537   -0.06112658294544975   0.009989295699505015
0.11704206813124537   -0.06112658294544975   0.009989295699505015
0.11704206813124537   -0.06112658294544975   0.009989295699505015
0.6384206361595088   -0.0876684916361658   0.02169907944014305
0.6384206361595088   -0.0876684916361658   0.02169907944014305
0.6384206361595088   -0.0876684916361658   0.02169907944014305
0.6384206361595088   -0.0876684916361658   0.02169907944014305
0.36338356321202664   -0.0812894107215428   0.003018935775705084
0.36338356321202664   -0.0812894107215428   0.003018935775705084
0.36338356321202664   -0.0812894107215428   0.003018935775705084
0.36338356321202664   -0.0812894107215428   0.003018935775705084
0.0691128535626058   -0.04130324774861113   0.030311882277641596
0.0691128535626058   -0.04130324774861113   0.030311882277641596
0.0691128535626058   -0.04130324774861113   0.030311882277641596
0.0691128535626058   -0.04130324774861113   0.030311882277641596
-0.5318702185720168   -0.3766070905701724   0.03251402283251567
-0.5318702185720168   -0.3766070905701724   0.03251402283251567
-0.5318702185720168   -0.3766070905701724   0.03251402283251567
-0.5318702185720168   -0.3766070905701724   0.03251402283251567
-0.46522650066019533   -0.14708016821790287   0.0020508311854715855
-0.46522650066019533   -0.14708016821790287   0.0020508311854715855
-0.46522650066019533   -0.14708016821790287   0.0020508311854715855
-0.46522650066019533   -0.14708016821790287   0.0020508311854715855
0.036448372688359834   -0.2729609526169417   0.012565714875146988
0.036448372688359834   -0.2729609526169417   0.012565714875146988
0.036448372688359834   -0.2729609526169417   0.012565714875146988
0.036448372688359834   -0.2729609526169417   0.012565714875146988
-0.22977443547719256   -0.2109795467562116   -0.044187458224270636
-0.22977443547719256   -0.2109795467562116   -0.044187458224270636
-0.22977443547719256   -0.2109795467562116   -0.044187458224270636
-0.22977443547719256   -0.2109795467562116   -0.044187458224270636
0.08685187283507464   -0.03229183929798946   0.023914102289768757
0.08685187283507464   -0.03229183929798946   0.023914102289768757
0.08685187283507464   -0.03229183929798946   0.023914102289768757
0.08685187283507464   -0.03229183929798946   0.023914102289768757
-0.5039083684280019   -0.37602764915795156   0.03758897328649001
-0.5039083684280019   -0.37602764915795156   0.03758897328649001
-0.5039083684280019   -0.37602764915795156   0.03758897328649001
-0.5039083684280019   -0.37602764915795156   0.03758897328649001
-0.43951551904079894   -0.13195711710731223   -0.00019784229676797147
-0.43951551904079894   -0.13195711710731223   -0.00019784229676797147
-0.43951551904079894   -0.13195711710731223   -0.00019784229676797147
-0.43951551904079894   -0.13195711710731223   -0.00019784229676797147
0.05431465284858879   -0.2668485855647986   0.018091137433320442
0.05431465284858879   -0.2668485855647986   0.018091137433320442
0.05431465284858879   -0.2668485855647986   0.018091137433320442
0.05431465284858879   -0.2668485855647986   0.018091137433320442
-0.20371297153275517   -0.20367210244269174   -0.01641473829064064
-0.20371297153275517   -0.20367210244269174   -0.01641473829064064
-0.20371297153275517   -0.20367210244269174   -0.01641473829064064
-0.20371297153275517   -0.20367210244269174   -0.01641473829064064
0.10307120103391072   -0.020329288394997133   0.015354581190128608
0.10307120103391072   -0.020329288394997133   0.015354581190128608
0.10307120103391072   -0.020329288394997133   0.015354581190128608
0.10307120103391072   -0.020329288394997133   0.015354581190128608
-0.4777137662008851   -0.36791811325187695   0.0447719180473725
-0.4777137662008851   -0.36791811325187695   0.0447719180473725
-0.4777137662008851   -0.36791811325187695   0.0447719180473725
-0.4777137662008851   -0.36791811325187695   0.0447719180473725
-0.3970820815190103   -0.11454630171388425   -0.005080603463170021
-0.3970820815190103   -0.11454630171388425   -0.005080603463170021
-0.3970820815190103   -0.11454630171388425   -0.005080603463170021
-0.3970820815190103   -0.11454630171388425   -0.005080603463170021
0.08219779073261284   -0.24997229569477508   0.024613621455667548
0.08219779073261284   -0.24997229569477508   0.024613621455667548
0.08219779073261284   -0.24997229569477508   0.024613621455667548
0.08219779073261284   -0.24997229569477508   0.024613621455667548
-0.16991506754106325   -0.18746932390033916   0.012590340061594929
-0.16991506754106325   -0.18746932390033916   0.012590340061594929
-0.16991506754106325   -0.18746932390033916   0.012590340061594929
-0.16991506754106325   -0.18746932390033916   0.012590340061594929
-0.47518129742271714   -0.07510363955642621   0.01445517756526255
-0.47518129742271714   -0.07510363955642621   0.01445517756526255
-0.47518129742271714   -0.07510363955642621   0.01445517756526255
-0.47518129742271714   -0.07510363955642621   0.01445517756526255
-1.1813136662688508   -0.5856174175858724   -0.027118495615541166
-1.1813136662688508   -0.5856174175858724   -0.027118495615541166
-1.1813136662688508   -0.5856174175858724   -0.027118495615541166
-1.1813136662688508   -0.5856174175858724   -0.027118495615541166
-1.07141637757917   -0.19137303490022137   -0.03253323450350692
-1.07141637757917   -0.19137303490022137   -0.03253323450350692
-1.07141637757917   -0.19137303490022137   -0.03253323450350692
-1.07141637757917   -0.19137303490022137   -0.03253323450350692
-0.5319895471872212   -0.4888801207425581   0.010035551074997262
-0.5319895471872212   -0.4888801207425581   0.010035551074997262
-0.5319895471872212   -0.4888801207425581   0.010035551074997262
-0.5319895471872212   -0.4888801207425581   0.010035551074997262
-0.8140724598570274   -0.34642807252987273   -0.0464649343131959
-0.8140724598570274   -0.34642807252987273   -0.0464649343131959
-0.8140724598570274   -0.34642807252987273   -0.0464649343131959
-0.8140724598570274   -0.34642807252987273   -0.0464649343131959
-0.4448247112682409   -0.05679344395988838   0.013773053887228806
-0.4448247112682409   -0.05679344395988838   0.013773053887228806
-0.4448247112682409   -0.05679344395988838   0.013773053887228806
-0.4448247112682409   -0.05679344395988838   0.013773053887228806
-1.1558060980813978   -0.6206845962661335   -0.025170275648733628
-1.1558060980813978   -0.6206845962661335   -0.025170275648733628
-1.1558060980813978   -0.6206845962661335   -0.025170275648733628
-1.1558060980813978   -0.6206845962661335   -0.025170275648733628
-1.0371322541336363   -0.17326264828406263   -0.03317794356730173
-1.0371322541336363   -0.17326264828406263   -0.03317794356730173
-1.0371322541336363   -0.17326264828406263   -0.03317794356730173
-1.0371322541336363   -0.17326264828406263   -0.03317794356730173
-0.5070233273357654   -0.4848879268461966   0.015193925967287927
-0.5070233273357654   -0.4848879268461966   0.015193925967287927
-0.5070233273357654   -0.4848879268461966   0.015193925967287927
-0.5070233273357654   -0.4848879268461966   0.015193925967287927
-0.7780067896981955   -0.3368808188188289   -0.032347141789069535
-0.7780067896981955   -0.3368808188188289   -0.032347141789069535
-0.7780067896981955   -0.3368808188188289   -0.032347141789069535
-0.7780067896981955   -0.3368808188188289   -0.032347141789069535
-0.42063712338899945   -0.04240052470890943   0.004637543563827498
-0.42063712338899945   -0.04240052470890943   0.004637543563827498
-0.42063712338899945   -0.04240052470890943   0.004637543563827498
-0.42063712338899945   -0.04240052470890943   0.004637543563827498
-1.1233772936130653   -0.6156088859540121   -0.022056903294489394
-1.1233772936130653   -0.6156088859540121   -0.022056903294489394
-1.1233772936130653   -0.6156088859540121   -0.022056903294489394
-1.1233772936130653   -0.6156088859540121   -0.022056903294489394
-0.9835975252509664   -0.15383650726697506   -0.037619573813468137
-0.9835975252509664   -0.15383650726697506   -0.037619573813468137
-0.9835975252509664   -0.15383650726697506   -0.037619573813468137
-0.9835975252509664   -0.15383650726697506   -0.037619573813468137
-0.4530005888126838   -0.43543134818400303   0.03621190653858755
-0.4530005888126838   -0.43543134818400303   0.03621190653858755
-0.4530005888126838   -0.43543134818400303   0.03621190653858755
-0.4530005888126838   -0.43543134818400303   0.03621190653858755
-0.7378505943329944   -0.3050281061671567   -0.017691264144486532
-0.7378505943329944   -0.3050281061671567   -0.017691264144486532
-0.7378505943329944   -0.3050281061671567   -0.017691264144486532
-0.7378505943329944   -0.3050281061671567   -0.017691264144486532
-1.0731028075067581   -0.0642380882349744   -0.007443531155975125
-1.0731028075067581   -0.0642380882349744   -0.007443531155975125
-1.0731028075067581   -0.0642380882349744   -0.007443531155975125
-1.0731028075067581   -0.0642380882349744   -0.007443531155975125
-1.8913962908832758   -0.3744126576990539   0.01933300238800617
-1.8913962908832758   -0.3744126576990539   0.01933300238800617
-1.8913962908832758   -0.3744126576990539   0.01933300238800617
-1.8913962908832758   -0.3744126576990539   0.01933300238800617
-1.8172694970894525   -0.17951618556817336   -0.03958871791089515
-1.8172694970894525   -0.17951618556817336   -0.03958871791089515
-1.8172694970894525   -0.17951618556817336   -0.03958871791089515
-1.8172694970894525   -0.17951618556817336   -0.03958871791089515
-1.0500757704550796   -0.19454650070639418   0.07734326692310872
-1.0500757704550796   -0.19454650070639418   0.07734326692310872
-1.0500757704550796   -0.19454650070639418   0.07734326692310872
-1.0500757704550796   -0.19454650070639418   0.07734326692310872
-1.3989548967485137   -0.21697475357981555   0.019720904352930783
-1.3989548967485137   -0.21697475357981555   0.019720904352930783
-1.3989548967485137   -0.21697475357981555   0.019720904352930783
-1.3989548967485137   -0.21697475357981555   0.019720904352930783
-1.029384444568211   -0.013975626959611132   0.00022902261067437452
-1.029384444568211   -0.013975626959611132   0.00022902261067437452
-1.029384444568211   -0.013975626959611132   0.00022902261067437452
-1.029384444568211   -0.013975626959611132   0.00022902261067437452
-1.8449503089996449   -0.36707654533828177   0.009567582308236067
-1.8449503089996449   -0.36707654533828177   0.009567582308236067
-1.8449503089996449   -0.36707654533828177   0.009567582308236067
-1.8449503089996449   -0.36707654533828177   0.009567582308236067
-1.776649658296953   -0.16452197390919626   -0.050259028925183705
-1.776649658296953   -0.16452197390919626   -0.050259028925183705
-1.776649658296953   -0.16452197390919626   -0.050259028925183705
-1.776649658296953   -0.16452197390919626   -0.050259028925183705
-1.0147912999535245   -0.1849211868173868   0.09018536586659037
-1.0147912999535245   -0.1849211868173868   0.09018536586659037
-1.0147912999535245   -0.1849211868173868   0.09018536586659037
-1.0147912999535245   -0.1849211868173868   0.09018536586659037
-1.3776925464982093   -0.17876916449758207   0.019033417377451952
-1.3776925464982093   -0.17876916449758207   0.019033417377451952
-1.3776925464982093   -0.17876916449758207   0.019033417377451952
-1.3776925464982093   -0.17876916449758207   0.019033417377451952
-0.9979582074522525   -0.0007049580367556041   -0.009865400407681066
-0.9979582074522525   -0.0007049580367556041   -0.009865400407681066
-0.9979582074522525   -0.0007049580367556041   -0.009865400407681066
-0.9979582074522525   -0.0007049580367556041   -0.009865400407681066
-1.7959865154350119   -0.351241967326617   0.039776678801926924
-1.7959865154350119   -0.351241967326617   0.039776678801926924
-1.7959865154350119   -0.351241967326617   0.039776678801926924
-1.7959865154350119   -0.351241967326617   0.039776678801926924
-1.6922777465181125   -0.13350833070060988   -0.05628110364330611
-1.6922777465181125   -0.13350833070060988   -0.05628110364330611
-1.6922777465181125   -0.13350833070060988   -0.05628110364330611
-1.6922777465181125   -0.13350833070060988   -0.05628110364330611
-0.9598569176446087   -0.17210166011554257   0.09934861706689585
-0.9598569176446087   -0.17210166011554257   0.09934861706689585
-0.9598569176446087   -0.17210166011554257   0.09934861706689585
-0.9598569176446087   -0.17210166011554257   0.09934861706689585
-1.2957605300467718   -0.13671980859989377   0.03932291550105448
-1.2957605300467718   -0.13671980859989377   0.03932291550105448
-1.2957605300467718   -0.13671980859989377   0.03932291550105448
-1.2957605300467718   -0.13671980859989377   0.03932291550105448
1.3592406539114918   0.04497108853167442   0.019037405802973306
1.3592406539114918   0.04497108853167442   0.019037405802973306
1.3592406539114918   0.04497108853167442   0.019037405802973306
1.3592406539114918   0.04497108853167442   0.019037405802973306
0.6933796047608265   -0.036788606735504076   0.013834790878703276
0.6933796047608265   -0.036788606735504076   0.013834790878703276
0.6933796047608265   -0.036788606735504076   0.013834790878703276
0.6933796047608265   -0.036788606735504076   0.013834790878703276
0.6664905061670431   -0.09766957025969489   0.02744613384006804
0.6664905061670431   -0.09766957025969489   0.02744613384006804
0.6664905061670431   -0.09766957025969489   0.02744613384006804
0.6664905061670431   -0.09766957025969489   0.02744613384006804
1.3493997719246513   0.07599879170929047   0.009948867814836171
1.3493997719246513   0.07599879170929047   0.009948867814836171
1.3493997719246513   0.07599879170929047   0.009948867814836171
1.3493997719246513   0.07599879170929047   0.009948867814836171
0.9629228879199841   -0.013562674480343095   -0.035595483428359914
0.9629228879199841   -0.013562674480343095   -0.035595483428359914
0.9629228879199841   -0.013562674480343095   -0.035595483428359914
0.9629228879199841   -0.013562674480343095   -0.035595483428359914
1.3420936025526808   0.03487098731856175   0.014545825345713331
1.3420936025526808   0.03487098731856175   0.014545825345713331
1.3420936025526808   0.03487098731856175   0.014545825345713331
1.3420936025526808   0.03487098731856175   0.014545825345713331
0.6716078516021615   -0.05873058980581794   0.014093880561783914
0.6716078516021615   -0.05873058980581794   0.014093880561783914
0.6716078516021615   -0.05873058980581794   0.014093880561783914
0.6716078516021615   -0.05873058980581794   0.014093880561783914
0.6493103112449283   -0.0998866305778266   0.02268191920863588
0.6493103112449283   -0.0998866305778266   0.02268191920863588
0.6493103112449283   -0.0998866305778266   0.02268191920863588
0.6493103112449283   -0.0998866305778266   0.02268191920863588
1.3337263064236453   0.07275333273815618   0.017330679653889645
1.3337263064236453   0.07275333273815618   0.017330679653889645
1.3337263064236453   0.07275333273815618   0.017330679653889645
1.3337263064236453   0.07275333273815618   0.017330679653889645
0.960200538464329   -0.01870138027569468   -0.04110757756489444
0.960200538464329   -0.01870138027569468   -0.04110757756489444
0.960200538464329   -0.01870138027569468   -0.04110757756489444
0.960200538464329   -0.01870138027569468   -0.04110757756489444
1.3228064792117769   0.031144328700300317   0.004340547632391306
1.3228064792117769   0.031144328700300317   0.004340547632391306
1.3228064792117769   0.031144328700300317   0.004340547632391306
1.3228064792117769   0.031144328700300317   0.004340547632391306
0.6562847333911851   -0.062223031605579265   0.01989043096767256
0.6562847333911851   -0.062223031605579265   0.01989043096767256
0.6562847333911851   -0.062223031605579265   0.01989043096767256
0.6562847333911851   -0.062223031605579265   0.01989043096767256
0.6312043751571783   -0.09100688898912465   0.019588147769085178
0.6312043751571783   -0.09100688898912465   0.019588147769085178
0.6312043751571783   -0.09100688898912465   0.019588147769085178
0.6312043751571783   -0.09100688898912465   0.019588147769085178
1.3095957250618464   0.07370642405110034   0.025013967980467386
1.3095957250618464   0.07370642405110034   0.025013967980467386
1.3095957250618464   0.07370642405110034   0.025013967980467386
1.3095957250618464   0.07370642405110034   0.025013967980467386
0.9242646829806039   -0.018793390044872765   -0.05541487973358369
0.9242646829806039   -0.018793390044872765   -0.05541487973358369
0.9242646829806039   -0.018793390044872765   -0.05541487973358369
0.9242646829806039   -0.018793390044872765   -0.05541487973358369
0.6875600359160571   -0.08603801160204819   0.033986351521400573
0.6875600359160571   -0.08603801160204819   0.033986351521400573
0.6875600359160571   -0.08603801160204819   0.033986351521400573
0.6875600359160571   -0.08603801160204819   0.033986351521400573
0.1319974641686411   -0.08184749595386184   0.007087076238707295
0.1319974641686411   -0.08184749595386184   0.007087076238707295
0.1319974641686411   -0.08184749595386184   0.007087076238707295
0.1319974641686411   -0.08184749595386184   0.007087076238707295
0.0856107499914485   -0.20477544211600224   0.03603529243595262
0.0856107499914485   -0.20477544211600224   0.03603529243595262
0.0856107499914485   -0.20477544211600224   0.03603529243595262
0.0856107499914485   -0.20477544211600224   0.03603529243595262
0.6912168210527107   0.027206818770441593   0.02620131923826924
0.6912168210527107   0.027206818770441593   0.02620131923826924
0.6912168210527107   0.027206818770441593   0.02620131923826924
0.6912168210527107   0.027206818770441593   0.02620131923826924
0.3929548538906626   -0.08671313560015403   -0.0015404693661909205
0.3929548538906626   -0.08671313560015403   -0.0015404693661909205
0.3929548538906626   -0.08671313560015403   -0.0015404693661909205
0.3929548538906626   -0.08671313560015403   -0.0015404693661909205
0.6682870295215583   -0.08974617385548483   0.02850535420842984
0.6682870295215583   -0.08974617385548483   0.02850535420842984
0.6682870295215583   -0.08974617385548483   0.02850535420842984
0.6682870295215583   -0.08974617385548483   0.02850535420842984
0.10274578467006013   -0.0936172063426172   0.010552230055625687
0.10274578467006013   -0.0936172063426172   0.010552230055625687
0.10274578467006013   -0.0936172063426172   0.010552230055625687
0.10274578467006013   -0.0936172063426172   0.010552230055625687
0.06480796743347793   -0.2065351401151902   0.03225248944021995
0.06480796743347793   -0.2065351401151902   0.03225248944021995
0.06480796743347793   -0.2065351401151902   0.03225248944021995
0.06480796743347793   -0.2065351401151902   0.03225248944021995
0.6753762812619634   0.02210954521756392   0.03101559349842064
0.6753762812619634   0.02210954521756392   0.03101559349842064
0.6753762812619634   0.02210954521756392   0.03101559349842064
0.6753762812619634   0.02210954521756392   0.03101559349842064
0.36467743566098315   -0.09239582987826807   -0.018763054202324374
0.36467743566098315   -0.09239582987826807   -0.018763054202324374
0.36467743566098315   -0.09239582987826807   -0.018763054202324374
0.36467743566098315   -0.09239582987826807   -0.018763054202324374
0.6512795647557248   -0.09096917275152822   0.023610728936313746
0.6512795647557248   -0.09096917275152822   0.023610728936313746
0.6512795647557248   -0.09096917275152822   0.023610728936313746
0.6512795647557248   -0.09096917275152822   0.023610728936313746
0.08260408795157614   -0.09975701813424458   0.014454970049765432
0.08260408795157614   -0.09975701813424458   0.014454970049765432
0.08260408795157614   -0.09975701813424458   0.014454970049765432
0.08260408795157614   -0.09975701813424458   0.014454970049765432
0.041537064495621646   -0.20634357790367397   0.02520721976648955
0.041537064495621646   -0.20634357790367397   0.02520721976648955
0.041537064495621646   -0.20634357790367397   0.02520721976648955
0.041537064495621646   -0.20634357790367397   0.02520721976648955
0.6573985641197869   0.022495333465414047   0.03705687012759119
0.6573985641197869   0.022495333465414047   0.03705687012759119
0.6573985641197869   0.022495333465414047   0.03705687012759119
0.6573985641197869   0.022495333465414047   0.03705687012759119
0.3474547021384164   -0.09161049502051619   -0.03339160671393996
0.3474547021384164   -0.09161049502051619   -0.03339160671393996
0.3474547021384164   -0.09161049502051619   -0.03339160671393996
0.3474547021384164   -0.09161049502051619   -0.03339160671393996
0.10303626996813395   -0.2500348963101535   0.03046850559245945
0.10303626996813395   -0.2500348963101535   0.03046850559245945
0.10303626996813395   -0.2500348963101535   0.03046850559245945
0.10303626996813395   -0.2500348963101535   0.03046850559245945
-0.40779650761867764   -0.12678112819309342   0.00029240597770814093
-0.40779650761867764   -0.12678112819309342   0.00029240597770814093
-0.40779650761867764   -0.12678112819309342   0.00029240597770814093
-0.40779650761867764   -0.12678112819309342   0.00029240597770814093
-0.49171524237274034   -0.3728474285072043   0.04129695048496457
-0.49171524237274034   -0.3728474285072043   0.04129695048496457
-0.49171524237274034   -0.3728474285072043   0.04129695048496457
-0.49171524237274034   -0.3728474285072043   0.04129695048496457
0.1185292108846596   -0.020758974988899892   0.016611129774903775
0.1185292108846596   -0.020758974988899892   0.016611129774903775
0.1185292108846596   -0.020758974988899892   0.016611129774903775
0.1185292108846596   -0.020758974988899892   0.016611129774903775
-0.1672492447783463   -0.18988773731390193   0.007175220499786063
-0.1672492447783463   -0.18988773731390193   0.007175220499786063
-0.1672492447783463   -0.18988773731390193   0.007175220499786063
-0.1672492447783463   -0.18988773731390193   0.007175220499786063
0.0709081315435425   -0.26419399350404205   0.0219407515844625
0.0709081315435425   -0.26419399350404205   0.0219407515844625
0.0709081315435425   -0.26419399350404205   0.0219407515844625
0.0709081315435425   -0.26419399350404205   0.0219407515844625
-0.45221780024709185   -0.1375360472075311   0.0034727798135299123
-0.45221780024709185   -0.1375360472075311   0.0034727798135299123
-0.45221780024709185   -0.1375360472075311   0.0034727798135299123
-0.45221780024709185   -0.1375360472075311   0.0034727798135299123
-0.5206664429131949   -0.3787233901662552   0.033698210187790664
-0.5206664429131949   -0.3787233901662552   0.033698210187790664
-0.5206664429131949   -0.3787233901662552   0.033698210187790664
-0.5206664429131949   -0.3787233901662552   0.033698210187790664
0.09903170516350743   -0.02641401453971778   0.02325005251489503
0.09903170516350743   -0.02641401453971778   0.02325005251489503
0.09903170516350743   -0.02641401453971778   0.02325005251489503
0.09903170516350743   -0.02641401453971778   0.02325005251489503
-0.20343954720002225   -0.20136794919334217   -0.016981429348281195
-0.20343954720002225   -0.20136794919334217   -0.016981429348281195
-0.20343954720002225   -0.20136794919334217   -0.016981429348281195
-0.20343954720002225   -0.20136794919334217   -0.016981429348281195
0.04874910252800323   -0.26874609846336844   0.014169123261026581
0.04874910252800323   -0.26874609846336844   0.014169123261026581
0.04874910252800323   -0.26874609846336844   0.014169123261026581
0.04874910252800323   -0.26874609846336844   0.014169123261026581
-0.480068082527631   -0.14607554849254556   0.004042170441894519
-0.480068082527631   -0.14607554849254556   0.004042170441894519
-0.480068082527631   -0.14607554849254556   0.004042170441894519
-0.480068082527631   -0.14607554849254556   0.004042170441894519
-0.5520710511947445   -0.37609580378290086   0.02826492294239584
-0.5520710511947445   -0.37609580378290086   0.02826492294239584
-0.5520710511947445   -0.37609580378290086   0.02826492294239584
-0.5520710511947445   -0.37609580378290086   0.02826492294239584
0.07734492682794052   -0.02954298993956439   0.02744594346397434
0.07734492682794052   -0.02954298993956439   0.02744594346397434
0.07734492682794052   -0.02954298993956439   0.02744594346397434
0.07734492682794052   -0.02954298993956439   0.02744594346397434
-0.23282426017768804   -0.2057042409752286   -0.04115726635008525
-0.23282426017768804   -0.2057042409752286   -0.04115726635008525
-0.23282426017768804   -0.2057042409752286   -0.04115726635008525
-0.23282426017768804   -0.2057042409752286   -0.04115726635008525
-0.46103237590290125   -0.4288925609307288   0.03622449729422747
-0.46103237590290125   -0.4288925609307288   0.03622449729422747
-0.46103237590290125   -0.4288925609307288   0.03622449729422747
-0.46103237590290125   -0.4288925609307288   0.03622449729422747
-1.0207216333301588   -0.15777392909099855   -0.023527276484938853
-1.0207216333301588   -0.15777392909099855   -0.023527276484938853
-1.0207216333301588   -0.15777392909099855   -0.023527276484938853
-1.0207216333301588   -0.15777392909099855   -0.023527276484938853
-1.1674384789059875   -0.6243968877358994   -0.032099352172973925
-1.1674384789059875   -0.6243968877358994   -0.032099352172973925
-1.1674384789059875   -0.6243968877358994   -0.032099352172973925
-1.1674384789059875   -0.6243968877358994   -0.032099352172973925
-0.4294916188989342   -0.034784975011240324   0.014352614358027451
-0.4294916188989342   -0.034784975011240324   0.014352614358027451
-0.4294916188989342   -0.034784975011240324   0.014352614358027451
-0.4294916188989342   -0.034784975011240324   0.014352614358027451
-0.7622576286042031   -0.29923735862067413   -0.025454298914426486
-0.7622576286042031   -0.29923735862067413   -0.025454298914426486
-0.7622576286042031   -0.29923735862067413   -0.025454298914426486
-0.7622576286042031   -0.29923735862067413   -0.025454298914426486
-0.5201482588304432   -0.486051737790289   0.012336177479534235
-0.5201482588304432   -0.486051737790289   0.012336177479534235
-0.5201482588304432   -0.486051737790289   0.012336177479534235
-0.5201482588304432   -0.486051737790289   0.012336177479534235
-1.0745210410050143   -0.1708693269873911   -0.021039723416615655
-1.0745210410050143   -0.1708693269873911   -0.021039723416615655
-1.0745210410050143   -0.1708693269873911   -0.021039723416615655
-1.0745210410050143   -0.1708693269873911   -0.021039723416615655
-1.201902805519201   -0.6343261950551612   -0.03711793689409981
-1.201902805519201   -0.6343261950551612   -0.03711793689409981
-1.201902805519201   -0.6343261950551612   -0.03711793689409981
-1.201902805519201   -0.6343261950551612   -0.03711793689409981
-0.45620880652260826   -0.04409898835455833   0.02136199032902119
-0.45620880652260826   -0.04409898835455833   0.02136199032902119
-0.45620880652260826   -0.04409898835455833   0.02136199032902119
-0.45620880652260826   -0.04409898835455833   0.02136199032902119
-0.804406788705555   -0.33167670431757756   -0.03630256372903799
-0.804406788705555   -0.33167670431757756   -0.03630256372903799
-0.804406788705555   -0.33167670431757756   -0.03630256372903799
-0.804406788705555   -0.33167670431757756   -0.03630256372903799
-0.5497970500846056   -0.4955142497971058   0.004836033961581887
-0.5497970500846056   -0.4955142497971058   0.004836033961581887
-0.5497970500846056   -0.4955142497971058   0.004836033961581887
-0.5497970500846056   -0.4955142497971058   0.004836033961581887
-1.108562074256544   -0.18315844591195565   -0.02158202972402965
-1.108562074256544   -0.18315844591195565   -0.02158202972402965
-1.108562074256544   -0.18315844591195565   -0.02158202972402965
-1.108562074256544   -0.18315844591195565   -0.02158202972402965
-1.2312633280966458   -0.6066966082797849   -0.041851654656360066
-1.2312633280966458   -0.6066966082797849   -0.041851654656360066
-1.2312633280966458   -0.6066966082797849   -0.041851654656360066
-1.2312633280966458   -0.6066966082797849   -0.041851654656360066
-0.4899945943744475   -0.05726714542505663   0.01981854868602901
-0.4899945943744475   -0.05726714542505663   0.01981854868602901
-0.4899945943744475   -0.05726714542505663   0.01981854868602901
-0.4899945943744475   -0.05726714542505663   0.01981854868602901
-0.8432970043615231   -0.34268751405739706   -0.04672829094701168
-0.8432970043615231   -0.34268751405739706   -0.04672829094701168
-0.8432970043615231   -0.34268751405739706   -0.04672829094701168
-0.8432970043615231   -0.34268751405739706   -0.04672829094701168
-1.0032160688067968   -0.18283157529432353   0.08905819233517903
-1.0032160688067968   -0.18283157529432353   0.08905819233517903
-1.0032160688067968   -0.18283157529432353   0.08905819233517903
-1.0032160688067968   -0.18283157529432353   0.08905819233517903
-1.7635866432488956   -0.13161904482508185   -0.03099646116268366
-1.7635866432488956   -0.13161904482508185   -0.03099646116268366
-1.7635866432488956   -0.13161904482508185   -0.03099646116268366
-1.7635866432488956   -0.13161904482508185   -0.03099646116268366
-1.8710963374543292   -0.3693376693418173   0.024407990745242802
-1.8710963374543292   -0.3693376693418173   0.024407990745242802
-1.8710963374543292   -0.3693376693418173   0.024407990745242802
-1.8710963374543292   -0.3693376693418173   0.024407990745242802
-1.031316715306973   0.015170070956911363   0.00894250712927988
-1.031316715306973   0.015170070956911363   0.00894250712927988
-1.031316715306973   0.015170070956911363   0.00894250712927988
-1.031316715306973   0.015170070956911363   0.00894250712927988
-1.3498140202350597   -0.12971693721696725   0.0270582466335932
-1.3498140202350597   -0.12971693721696725   0.0270582466335932
-1.3498140202350597   -0.12971693721696725   0.0270582466335932
-1.3498140202350597   -0.12971693721696725   0.0270582466335932
-1.0595636279100191   -0.1961142688065106   0.07899228387746626
-1.0595636279100191   -0.1961142688065106   0.07899228387746626
-1.0595636279100191   -0.1961142688065106   0.07899228387746626
-1.0595636279100191   -0.1961142688065106   0.07899228387746626
-1.8382027777132655   -0.15340668244037575   -0.027055197450863405
-1.8382027777132655   -0.15340668244037575   -0.027055197450863405
-1.8382027777132655   -0.15340668244037575   -0.027055197450863405
-1.8382027777132655   -0.15340668244037575   -0.027055197450863405
-1.916523678666445   -0.3849698877549818   -0.008325760108463975
-1.916523678666445   -0.3849698877549818   -0.008325760108463975
-1.916523678666445   -0.3849698877549818   -0.008325760108463975
-1.916523678666445   -0.3849698877549818   -0.008325760108463975
-1.0634184746008526   0.004685722817314136   0.01629179982515696
-1.0634184746008526   0.004685722817314136   0.01629179982515696
-1.0634184746008526   0.004685722817314136   0.01629179982515696
-1.0634184746008526   0.004685722817314136   0.01629179982515696
-1.4301153154591353   -0.17114759346079259   0.01107582118844918
-1.4301153154591353   -0.17114759346079259   0.01107582118844918
-1.4301153154591353   -0.17114759346079259   0.01107582118844918
-1.4301153154591353   -0.17114759346079259   0.01107582118844918
-1.095754328860684   -0.20607601291956146   0.06537426426287668
-1.095754328860684   -0.20607601291956146   0.06537426426287668
-1.095754328860684   -0.20607601291956146   0.06537426426287668
-1.095754328860684   -0.20607601291956146   0.06537426426287668
-1.874793789561731   -0.16481411717321812   -0.019832085166625914
-1.874793789561731   -0.16481411717321812   -0.019832085166625914
-1.874793789561731   -0.16481411717321812   -0.019832085166625914
-1.874793789561731   -0.16481411717321812   -0.019832085166625914
-1.9558541998491574   -0.3912088884301534   -0.00019024230160946676
-1.9558541998491574   -0.3912088884301534   -0.00019024230160946676
-1.9558541998491574   -0.3912088884301534   -0.00019024230160946676
-1.9558541998491574   -0.3912088884301534   -0.00019024230160946676
-1.1085362779836783   -0.041639859236867166   0.006726846865561235
-1.1085362779836783   -0.041639859236867166   0.006726846865561235
-1.1085362779836783   -0.041639859236867166   0.006726846865561235
-1.1085362779836783   -0.041639859236867166   0.006726846865561235
-1.4472177597858282   -0.2066714086351576   0.017459832009038456
-1.4472177597858282   -0.2066714086351576   0.017459832009038456
-1.4472177597858282   -0.2066714086351576   0.017459832009038456
-1.4472177597858282   -0.2066714086351576   0.017459832009038456
1.1921965891888526   0.0550724234995042   -0.025677042374281242
1.1921965891888526   0.0550724234995042   -0.025677042374281242
1.1921965891888526   0.0550724234995042   -0.025677042374281242
1.1921965891888526   0.0550724234995042   -0.025677042374281242
0.5995954980932051   -0.012381060155612383   0.012545331043702743
0.5995954980932051   -0.012381060155612383   0.012545331043702743
0.5995954980932051   -0.012381060155612383   0.012545331043702743
0.5995954980932051   -0.012381060155612383   0.012545331043702743
0.5616905624098238   -0.08808529479742461   -0.022762355203880966
0.5616905624098238   -0.08808529479742461   -0.022762355203880966
0.5616905624098238   -0.08808529479742461   -0.022762355203880966
0.5616905624098238   -0.08808529479742461   -0.022762355203880966
1.1784588308295185   0.085940128753873   0.01467783857901913
1.1784588308295185   0.085940128753873   0.01467783857901913
1.1784588308295185   0.085940128753873   0.01467783857901913
1.1784588308295185   0.085940128753873   0.01467783857901913
0.836702229404137   0.0020585312103624798   -0.032312475253006866
0.836702229404137   0.0020585312103624798   -0.032312475253006866
0.836702229404137   0.0020585312103624798   -0.032312475253006866
0.836702229404137   0.0020585312103624798   -0.032312475253006866
1.1593068791762973   0.03080173450833762   -0.025943525441543255
1.1593068791762973   0.03080173450833762   -0.025943525441543255
1.1593068791762973   0.03080173450833762   -0.025943525441543255
1.1593068791762973   0.03080173450833762   -0.025943525441543255
0.5797858945010476   -0.03400352011388644   0.013632530568692798
0.5797858945010476   -0.03400352011388644   0.013632530568692798
0.5797858945010476   -0.03400352011388644   0.013632530568692798
0.5797858945010476   -0.03400352011388644   0.013632530568692798
0.5412709235127515   -0.09296808041018875   -0.018821003176971884
0.5412709235127515   -0.09296808041018875   -0.018821003176971884
0.5412709235127515   -0.09296808041018875   -0.018821003176971884
0.5412709235127515   -0.09296808041018875   -0.018821003176971884
1.1501135784344878   0.07900508875789791   0.021510955123844974
1.1501135784344878   0.07900508875789791   0.021510955123844974
1.1501135784344878   0.07900508875789791   0.021510955123844974
1.1501135784344878   0.07900508875789791   0.021510955123844974
0.8256642089817902   -0.00829592079535793   -0.03849288495021474
0.8256642089817902   -0.00829592079535793   -0.03849288495021474
0.8256642089817902   -0.00829592079535793   -0.03849288495021474
0.8256642089817902   -0.00829592079535793   -0.03849288495021474
1.1308158200869678   0.024592124974059548   -0.02056487282991607
1.1308158200869678   0.024592124974059548   -0.02056487282991607
1.1308158200869678   0.024592124974059548   -0.02056487282991607
1.1308158200869678   0.024592124974059548   -0.02056487282991607
0.5590944754232272   -0.04002932306339965   0.01735799902861758
0.5590944754232272   -0.04002932306339965   0.01735799902861758
0.5590944754232272   -0.04002932306339965   0.01735799902861758
0.5590944754232272   -0.04002932306339965   0.01735799902861758
0.521510031427112   -0.09149738426326987   -0.012919379956680167
0.521510031427112   -0.09149738426326987   -0.012919379956680167
0.521510031427112   -0.09149738426326987   -0.012919379956680167
0.521510031427112   -0.09149738426326987   -0.012919379956680167
1.1150317200990678   0.07438716151078537   0.02804066463430517
1.1150317200990678   0.07438716151078537   0.02804066463430517
1.1150317200990678   0.07438716151078537   0.02804066463430517
1.1150317200990678   0.07438716151078537   0.02804066463430517
0.7850144310286659   -0.014453696630888357   -0.050507967294622355
0.7850144310286659   -0.014453696630888357   -0.050507967294622355
0.7850144310286659   -0.014453696630888357   -0.050507967294622355
0.7850144310286659   -0.014453696630888357   -0.050507967294622355
0.6030841008057389   0.012061560846639119   0.005545723604114393
0.6030841008057389   0.012061560846639119   0.005545723604114393
0.6030841008057389   0.012061560846639119   0.005545723604114393
0.6030841008057389   0.012061560846639119   0.005545723604114393
0.057144584851471246   -0.03629612588370282   -0.0014674259913423637
0.057144584851471246   -0.03629612588370282   -0.0014674259913423637
0.057144584851471246   -0.03629612588370282   -0.0014674259913423637
0.057144584851471246   -0.03629612588370282   -0.0014674259913423637
0.02142390377576328   -0.11637880819002168   -0.02193389828709985
0.02142390377576328   -0.11637880819002168   -0.02193389828709985
0.02142390377576328   -0.11637880819002168   -0.02193389828709985
0.02142390377576328   -0.11637880819002168   -0.02193389828709985
0.6037579041672113   0.0696958620799984   0.029793196705626142
0.6037579041672113   0.0696958620799984   0.029793196705626142
0.6037579041672113   0.0696958620799984   0.029793196705626142
0.6037579041672113   0.0696958620799984   0.029793196705626142
0.3154570926314749   -0.016214964176860053   -0.012438315645754445
0.3154570926314749   -0.016214964176860053   -0.012438315645754445
0.3154570926314749   -0.016214964176860053   -0.012438315645754445
0.3154570926314749   -0.016214964176860053   -0.012438315645754445
0.5863005523764176   0.002853134294884291   0.009349165536775575
0.5863005523764176   0.002853134294884291   0.009349165536775575
0.5863005523764176   0.002853134294884291   0.009349165536775575
0.5863005523764176   0.002853134294884291   0.009349165536775575
0.03954933943326624   -0.04886799653819766   0.0011824683485908878
0.03954933943326624   -0.04886799653819766   0.0011824683485908878
0.03954933943326624   -0.04886799653819766   0.0011824683485908878
0.03954933943326624   -0.04886799653819766   0.0011824683485908878
0.001734681435451843   -0.12188250344997614   -0.015303050012768143
0.001734681435451843   -0.12188250344997614   -0.015303050012768143
0.001734681435451843   -0.12188250344997614   -0.015303050012768143
0.001734681435451843   -0.12188250344997614   -0.015303050012768143
0.5821462109086533   0.05973504626613074   0.03285230712621737
0.5821462109086533   0.05973504626613074   0.03285230712621737
0.5821462109086533   0.05973504626613074   0.03285230712621737
0.5821462109086533   0.05973504626613074   0.03285230712621737
0.29276891044504233   -0.02539644133530096   -0.017609696554650996
0.29276891044504233   -0.02539644133530096   -0.017609696554650996
0.29276891044504233   -0.02539644133530096   -0.017609696554650996
0.29276891044504233   -0.02539644133530096   -0.017609696554650996
0.5656733949435453   -0.0033245800270394477   0.013547853593852549
0.5656733949435453   -0.0033245800270394477   0.013547853593852549
0.5656733949435453   -0.0033245800270394477   0.013547853593852549
0.5656733949435453   -0.0033245800270394477   0.013547853593852549
0.018117525954350552   -0.05891284860301953   0.0036415177347687774
0.018117525954350552   -0.05891284860301953   0.0036415177347687774
0.018117525954350552   -0.05891284860301953   0.0036415177347687774
0.018117525954350552   -0.05891284860301953   0.0036415177347687774
-0.019393029623145   -0.12236767632954447   -0.010466585104238781
-0.019393029623145   -0.12236767632954447   -0.010466585104238781
-0.019393029623145   -0.12236767632954447   -0.010466585104238781
-0.019393029623145   -0.12236767632954447   -0.010466585104238781
0.5603402779911233   0.05343453703769302   0.03629993156241532
0.5603402779911233   0.05343453703769302   0.03629993156241532
0.5603402779911233   0.05343453703769302   0.03629993156241532
0.5603402779911233   0.05343453703769302   0.03629993156241532
0.27507104010661987   -0.029011113121111327   -0.022034153582669223
0.27507104010661987   -0.029011113121111327   -0.022034153582669223
0.27507104010661987   -0.029011113121111327   -0.022034153582669223
0.27507104010661987   -0.029011113121111327   -0.022034153582669223
0.05849054323243707   -0.03315745934371277   0.002123699373496688
0.05849054323243707   -0.03315745934371277   0.002123699373496688
0.05849054323243707   -0.03315745934371277   0.002123699373496688
0.05849054323243707   -0.03315745934371277   0.002123699373496688
-0.46729725132995503   -0.05394846359735883   -0.014686383886138823
-0.46729725132995503   -0.05394846359735883   -0.014686383886138823
-0.46729725132995503   -0.05394846359735883   -0.014686383886138823
-0.46729725132995503   -0.05394846359735883   -0.014686383886138823
-0.5070100515548014   -0.15419569673536704   -0.025033216517970962
-0.5070100515548014   -0.15419569673536704   -0.025033216517970962
-0.5070100515548014   -0.15419569673536704   -0.025033216517970962
-0.5070100515548014   -0.15419569673536704   -0.025033216517970962
0.0627409731556533   0.05113463631341159   0.01713800410891693
0.0627409731556533   0.05113463631341159   0.01713800410891693
0.0627409731556533   0.05113463631341159   0.01713800410891693
0.0627409731556533   0.05113463631341159   0.01713800410891693
-0.21388891676576194   -0.04526811091091882   -0.012325289766498609
-0.21388891676576194   -0.04526811091091882   -0.012325289766498609
-0.21388891676576194   -0.04526811091091882   -0.012325289766498609
-0.21388891676576194   -0.04526811091091882   -0.012325289766498609
0.04369034765390959   -0.03703755917275721   0.010057072086367197
0.04369034765390959   -0.03703755917275721   0.010057072086367197
0.04369034765390959   -0.03703755917275721   0.010057072086367197
0.04369034765390959   -0.03703755917275721   0.010057072086367197
-0.48649595279634034   -0.06456002799248084   -0.012098391468551668
-0.48649595279634034   -0.06456002799248084   -0.012098391468551668
-0.48649595279634034   -0.06456002799248084   -0.012098391468551668
-0.48649595279634034   -0.06456002799248084   -0.012098391468551668
-0.530092831849285   -0.16021659985243308   -0.016638337035889114
-0.530092831849285   -0.16021659985243308   -0.016638337035889114
-0.530092831849285   -0.16021659985243308   -0.016638337035889114
-0.530092831849285   -0.16021659985243308   -0.016638337035889114
0.041140821813885245   0.04047565358089042   0.019369494848532304
0.041140821813885245   0.04047565358089042   0.019369494848532304
0.041140821813885245   0.04047565358089042   0.019369494848532304
0.041140821813885245   0.04047565358089042   0.019369494848532304
-0.23299200982559098   -0.051597318194788654   -0.014777497973146895
-0.23299200982559098   -0.051597318194788654   -0.014777497973146895
-0.23299200982559098   -0.051597318194788654   -0.014777497973146895
-0.23299200982559098   -0.051597318194788654   -0.014777497973146895
0.023250655145251015   -0.04345114335758146   0.013845458443833024
0.023250655145251015   -0.04345114335758146   0.013845458443833024
0.023250655145251015   -0.04345114335758146   0.013845458443833024
0.023250655145251015   -0.04345114335758146   0.013845458443833024
-0.5118916916368309   -0.07597882937014203   -0.00987040645591363
-0.5118916916368309   -0.07597882937014203   -0.00987040645591363
-0.5118916916368309   -0.07597882937014203   -0.00987040645591363
-0.5118916916368309   -0.07597882937014203   -0.00987040645591363
-0.5556972807042403   -0.16459826253934673   -0.014788212002787206
-0.5556972807042403   -0.16459826253934673   -0.014788212002787206
-0.5556972807042403   -0.16459826253934673   -0.014788212002787206
-0.5556972807042403   -0.16459826253934673   -0.014788212002787206
0.017775912980417377   0.03137890560287041   0.02163154598116013
0.017775912980417377   0.03137890560287041   0.02163154598116013
0.017775912980417377   0.03137890560287041   0.02163154598116013
0.017775912980417377   0.03137890560287041   0.02163154598116013
-0.25780131160647435   -0.059174012478608165   -0.020694944807213258
-0.25780131160647435   -0.059174012478608165   -0.020694944807213258
-0.25780131160647435   -0.059174012478608165   -0.020694944807213258
-0.25780131160647435   -0.059174012478608165   -0.020694944807213258
-0.4599992614780385   -0.0394608158903145   0.007315917666391756
-0.4599992614780385   -0.0394608158903145   0.007315917666391756
-0.4599992614780385   -0.0394608158903145   0.007315917666391756
-0.4599992614780385   -0.0394608158903145   0.007315917666391756
-0.979441960767066   -0.0631535958269129   -0.025822938166442405
-0.979441960767066   -0.0631535958269129   -0.025822938166442405
-0.979441960767066   -0.0631535958269129   -0.025822938166442405
-0.979441960767066   -0.0631535958269129   -0.025822938166442405
-1.0245598170046988   -0.16168454477534824   -0.025077036356716806
-1.0245598170046988   -0.16168454477534824   -0.025077036356716806
-1.0245598170046988   -0.16168454477534824   -0.025077036356716806
-1.0245598170046988   -0.16168454477534824   -0.025077036356716806
-0.46235489236169486   0.039129251737667195   0.004917630974518035
-0.46235489236169486   0.039129251737667195   0.004917630974518035
-0.46235489236169486   0.039129251737667195   0.004917630974518035
-0.46235489236169486   0.039129251737667195   0.004917630974518035
-0.7255751364779163   -0.05368737182133963   -0.010313716011638701
-0.7255751364779163   -0.05368737182133963   -0.010313716011638701
-0.7255751364779163   -0.05368737182133963   -0.010313716011638701
-0.7255751364779163   -0.05368737182133963   -0.010313716011638701
-0.4763863056708714   -0.04354706000330959   0.017436876169618306
-0.4763863056708714   -0.04354706000330959   0.017436876169618306
-0.4763863056708714   -0.04354706000330959   0.017436876169618306
-0.4763863056708714   -0.04354706000330959   0.017436876169618306
-1.007669130729939   -0.07614896006878344   -0.026159189689490943
-1.007669130729939   -0.07614896006878344   -0.026159189689490943
-1.007669130729939   -0.07614896006878344   -0.026159189689490943
-1.007669130729939   -0.07614896006878344   -0.026159189689490943
-1.0564745509258717   -0.17195400760591364   -0.01764736152449168
-1.0564745509258717   -0.17195400760591364   -0.01764736152449168
-1.0564745509258717   -0.17195400760591364   -0.01764736152449168
-1.0564745509258717   -0.17195400760591364   -0.01764736152449168
-0.48803229941508164   0.027451150397078974   0.005996574885612033
-0.48803229941508164   0.027451150397078974   0.005996574885612033
-0.48803229941508164   0.027451150397078974   0.005996574885612033
-0.48803229941508164   0.027451150397078974   0.005996574885612033
-0.7457031036529791   -0.05934244052822292   -0.010323631849981963
-0.7457031036529791   -0.05934244052822292   -0.010323631849981963
-0.7457031036529791   -0.05934244052822292   -0.010323631849981963
-0.7457031036529791   -0.05934244052822292   -0.010323631849981963
-0.5018739184323298   -0.0538804023025147   0.01812003249896093
-0.5018739184323298   -0.0538804023025147   0.01812003249896093
-0.5018739184323298   -0.0538804023025147   0.01812003249896093
-0.5018739184323298   -0.0538804023025147   0.01812003249896093
-1.0407146843672939   -0.08870420736499066   -0.022097828972524033
-1.0407146843672939   -0.08870420736499066   -0.022097828972524033
-1.0407146843672939   -0.08870420736499066   -0.022097828972524033
-1.0407146843672939   -0.08870420736499066   -0.022097828972524033
-1.0925718792074337   -0.18551747128669058   -0.018855795789154577
-1.0925718792074337   -0.18551747128669058   -0.018855795789154577
-1.0925718792074337   -0.18551747128669058   -0.018855795789154577
-1.0925718792074337   -0.18551747128669058   -0.018855795789154577
-0.5157860042483484   0.013019509034587304   0.00715039870272835
-0.5157860042483484   0.013019509034587304   0.00715039870272835
-0.5157860042483484   0.013019509034587304   0.00715039870272835
-0.5157860042483484   0.013019509034587304   0.00715039870272835
-0.7815888763624637   -0.0732876433562775   -0.01683698138309765
-0.7815888763624637   -0.0732876433562775   -0.01683698138309765
-0.7815888763624637   -0.0732876433562775   -0.01683698138309765
-0.7815888763624637   -0.0732876433562775   -0.01683698138309765
-0.9464214455047356   0.04436541284996043   0.031760629468336826
-0.9464214455047356   0.04436541284996043   0.031760629468336826
-0.9464214455047356   0.04436541284996043   0.031760629468336826
-0.9464214455047356   0.04436541284996043   0.031760629468336826
-1.4671852702747825   -0.07307551660713132   -0.019543207235733807
-1.4671852702747825   -0.07307551660713132   -0.019543207235733807
-1.4671852702747825   -0.07307551660713132   -0.019543207235733807
-1.4671852702747825   -0.07307551660713132   -0.019543207235733807
-1.502955913797802   -0.07443288690479172   0.03256691631159317
-1.502955913797802   -0.07443288690479172   0.03256691631159317
-1.502955913797802   -0.07443288690479172   0.03256691631159317
-1.502955913797802   -0.07443288690479172   0.03256691631159317
-0.9826236248906922   0.030623276053120735   -0.0077038966151605215
-0.9826236248906922   0.030623276053120735   -0.0077038966151605215
-0.9826236248906922   0.030623276053120735   -0.0077038966151605215
-0.9826236248906922   0.030623276053120735   -0.0077038966151605215
-1.167698436927366   0.0008082750795996296   0.02967745255550322
-1.167698436927366   0.0008082750795996296   0.02967745255550322
-1.167698436927366   0.0008082750795996296   0.02967745255550322
-1.167698436927366   0.0008082750795996296   0.02967745255550322
-0.9725407612052263   0.033169583270384106   0.040164114594896966
-0.9725407612052263   0.033169583270384106   0.040164114594896966
-0.9725407612052263   0.033169583270384106   0.040164114594896966
-0.9725407612052263   0.033169583270384106   0.040164114594896966
-1.5123659728090109   -0.07630638944779977   -0.012609876201444353
-1.5123659728090109   -0.07630638944779977   -0.012609876201444353
-1.5123659728090109   -0.07630638944779977   -0.012609876201444353
-1.5123659728090109   -0.07630638944779977   -0.012609876201444353
-1.548075899958425   -0.08663939510582905   0.04432363556701326
-1.548075899958425   -0.08663939510582905   0.04432363556701326
-1.548075899958425   -0.08663939510582905   0.04432363556701326
-1.548075899958425   -0.08663939510582905   0.04432363556701326
-1.0157036775930879   0.022324420484892804   -0.008071422951385465
-1.0157036775930879   0.022324420484892804   -0.008071422951385465
-1.0157036775930879   0.022324420484892804   -0.008071422951385465
-1.0157036775930879   0.022324420484892804   -0.008071422951385465
-1.2260687508036825   -0.013460051884667257   0.01636077280104474
-1.2260687508036825   -0.013460051884667257   0.01636077280104474
-1.2260687508036825   -0.013460051884667257   0.01636077280104474
-1.2260687508036825   -0.013460051884667257   0.01636077280104474
-1.0064844378658429   0.020736674527692706   0.03961252164203984
-1.0064844378658429   0.020736674527692706   0.03961252164203984
-1.0064844378658429   0.020736674527692706   0.03961252164203984
-1.0064844378658429   0.020736674527692706   0.03961252164203984
-1.5590317073804913   -0.08678821684345522   -0.010306579805691704
-1.5590317073804913   -0.08678821684345522   -0.010306579805691704
-1.5590317073804913   -0.08678821684345522   -0.010306579805691704
-1.5590317073804913   -0.08678821684345522   -0.010306579805691704
-1.6122619115144858   -0.13604472139651466   0.038428169598162316
-1.6122619115144858   -0.13604472139651466   0.038428169598162316
-1.6122619115144858   -0.13604472139651466   0.038428169598162316
-1.6122619115144858   -0.13604472139651466   0.038428169598162316
-1.0538457171136837   -0.0031327187985910054   -0.007609737808522858
-1.0538457171136837   -0.0031327187985910054   -0.007609737808522858
-1.0538457171136837   -0.0031327187985910054   -0.007609737808522858
-1.0538457171136837   -0.0031327187985910054   -0.007609737808522858
-1.2506642527758505   -0.03147105698376318   0.004713649536116735
-1.2506642527758505   -0.03147105698376318   0.004713649536116735
-1.2506642527758505   -0.03147105698376318   0.004713649536116735
-1.2506642527758505   -0.03147105698376318   0.004713649536116735
0.9679250180953184   0.05192957051286523   -0.03423103561602263
0.9679250180953184   0.05192957051286523   -0.03423103561602263
0.9679250180953184   0.05192957051286523   -0.03423103561602263
0.9679250180953184   0.05192957051286523   -0.03423103561602263
0.47942049336609016   -0.0007879532616523605   0.012325716253290559
0.47942049336609016   -0.0007879532616523605   0.012325716253290559
0.47942049336609016   -0.0007879532616523605   0.012325716253290559
0.47942049336609016   -0.0007879532616523605   0.012325716253290559
0.43846914885327865   -0.07128554240814264   -0.031460835254788586
0.43846914885327865   -0.07128554240814264   -0.031460835254788586
0.43846914885327865   -0.07128554240814264   -0.031460835254788586
0.43846914885327865   -0.07128554240814264   -0.031460835254788586
0.9498432846024552   0.07812809356568787   0.015468001418557857
0.9498432846024552   0.07812809356568787   0.015468001418557857
0.9498432846024552   0.07812809356568787   0.015468001418557857
0.9498432846024552   0.07812809356568787   0.015468001418557857
0.6722643353008488   0.005924326666549962   -0.022132376783851368
0.6722643353008488   0.005924326666549962   -0.022132376783851368
0.6722643353008488   0.005924326666549962   -0.022132376783851368
0.6722643353008488   0.005924326666549962   -0.022132376783851368
0.9298600774944308   0.02668401854989838   -0.03300395910576632
0.9298600774944308   0.02668401854989838   -0.03300395910576632
0.9298600774944308   0.02668401854989838   -0.03300395910576632
0.9298600774944308   0.02668401854989838   -0.03300395910576632
0.45760165250268964   -0.02069217085096127   0.013608311435077604
0.45760165250268964   -0.02069217085096127   0.013608311435077604
0.45760165250268964   -0.02069217085096127   0.013608311435077604
0.45760165250268964   -0.02069217085096127   0.013608311435077604
0.4179900057767346   -0.07719479732197936   -0.027364902617788373
0.4179900057767346   -0.07719479732197936   -0.027364902617788373
0.4179900057767346   -0.07719479732197936   -0.027364902617788373
0.4179900057767346   -0.07719479732197936   -0.027364902617788373
0.919220690239989   0.06999146796452554   0.02119173417247156
0.919220690239989   0.06999146796452554   0.02119173417247156
0.919220690239989   0.06999146796452554   0.02119173417247156
0.919220690239989   0.06999146796452554   0.02119173417247156
0.6563516227738552   -0.0047579659936297924   -0.02898264404679292
0.6563516227738552   -0.0047579659936297924   -0.02898264404679292
0.6563516227738552   -0.0047579659936297924   -0.02898264404679292
0.6563516227738552   -0.0047579659936297924   -0.02898264404679292
0.8996592415580295   0.019406018419395016   -0.026030059692180585
0.8996592415580295   0.019406018419395016   -0.026030059692180585
0.8996592415580295   0.019406018419395016   -0.026030059692180585
0.8996592415580295   0.019406018419395016   -0.026030059692180585
0.43678306181981524   -0.027377740415731086   0.016783320691362145
0.43678306181981524   -0.027377740415731086   0.016783320691362145
0.43678306181981524   -0.027377740415731086   0.016783320691362145
0.43678306181981524   -0.027377740415731086   0.016783320691362145
0.3993044139180741   -0.0788388149835636   -0.02236191165644584
0.3993044139180741   -0.0788388149835636   -0.02236191165644584
0.3993044139180741   -0.0788388149835636   -0.02236191165644584
0.3993044139180741   -0.0788388149835636   -0.02236191165644584
0.8846989683276937   0.06294039687737601   0.026413144359435092
0.8846989683276937   0.06294039687737601   0.026413144359435092
0.8846989683276937   0.06294039687737601   0.026413144359435092
0.8846989683276937   0.06294039687737601   0.026413144359435092
0.6189038342884566   -0.012079347689590375   -0.03931958483303954
0.6189038342884566   -0.012079347689590375   -0.03931958483303954
0.6189038342884566   -0.012079347689590375   -0.03931958483303954
0.6189038342884566   -0.012079347689590375   -0.03931958483303954
0.4878118469087517   0.050691431555842326   0.002803099149103004
0.4878118469087517   0.050691431555842326   0.002803099149103004
0.4878118469087517   0.050691431555842326   0.002803099149103004
0.4878118469087517   0.050691431555842326   0.002803099149103004
0.016063631060438673   -0.016196655521187632   -0.0020696962442415057
0.016063631060438673   -0.016196655521187632   -0.0020696962442415057
0.016063631060438673   -0.016196655521187632   -0.0020696962442415057
0.016063631060438673   -0.016196655521187632   -0.0020696962442415057
-0.014807512349386223   -0.06426623397437603   -0.021451867049648497
-0.014807512349386223   -0.06426623397437603   -0.021451867049648497
-0.014807512349386223   -0.06426623397437603   -0.021451867049648497
-0.014807512349386223   -0.06426623397437603   -0.021451867049648497
0.4784714882536136   0.0708098445463421   0.026455474792394136
0.4784714882536136   0.0708098445463421   0.026455474792394136
0.4784714882536136   0.0708098445463421   0.026455474792394136
0.4784714882536136   0.0708098445463421   0.026455474792394136
0.2381132574711446   0.010090760113835723   -0.002692368204640482
0.2381132574711446   0.010090760113835723   -0.002692368204640482
0.2381132574711446   0.010090760113835723   -0.002692368204640482
0.2381132574711446   0.010090760113835723   -0.002692368204640482
0.4676487208722654   0.0376214021385695   0.005530080293427546
0.4676487208722654   0.0376214021385695   0.005530080293427546
0.4676487208722654   0.0376214021385695   0.005530080293427546
0.4676487208722654   0.0376214021385695   0.005530080293427546
-0.0037904437377602983   -0.03088349033632541   0.0002507323704305092
-0.0037904437377602983   -0.03088349033632541   0.0002507323704305092
-0.0037904437377602983   -0.03088349033632541   0.0002507323704305092
-0.0037904437377602983   -0.03088349033632541   0.0002507323704305092
-0.03420613308613339   -0.07381759304958331   -0.018558545457566168
-0.03420613308613339   -0.07381759304958331   -0.018558545457566168
-0.03420613308613339   -0.07381759304958331   -0.018558545457566168
-0.03420613308613339   -0.07381759304958331   -0.018558545457566168
0.45649459138324217   0.05869824559282136   0.02926498249994464
0.45649459138324217   0.05869824559282136   0.02926498249994464
0.45649459138324217   0.05869824559282136   0.02926498249994464
0.45649459138324217   0.05869824559282136   0.02926498249994464
0.21438972372291468   -0.0018561841562620696   -0.009476721593805474
0.21438972372291468   -0.0018561841562620696   -0.009476721593805474
0.21438972372291468   -0.0018561841562620696   -0.009476721593805474
0.21438972372291468   -0.0018561841562620696   -0.009476721593805474
0.44608002618737996   0.02760785693277544   0.008282545180683536
0.44608002618737996   0.02760785693277544   0.008282545180683536
0.44608002618737996   0.02760785693277544   0.008282545180683536
0.44608002618737996   0.02760785693277544   0.008282545180683536
-0.023773642778103593   -0.04270927927736402   0.002495592310363552
-0.023773642778103593   -0.04270927927736402   0.002495592310363552
-0.023773642778103593   -0.04270927927736402   0.002495592310363552
-0.023773642778103593   -0.04270927927736402   0.002495592310363552
-0.05340384476748161   -0.07953157412949573   -0.014786501514892896
-0.05340384476748161   -0.07953157412949573   -0.014786501514892896
-0.05340384476748161   -0.07953157412949573   -0.014786501514892896
-0.05340384476748161   -0.07953157412949573   -0.014786501514892896
0.43559141082156405   0.048511432752147976   0.03172282512528773
0.43559141082156405   0.048511432752147976   0.03172282512528773
0.43559141082156405   0.048511432752147976   0.03172282512528773
0.43559141082156405   0.048511432752147976   0.03172282512528773
0.19689367267929322   -0.009459186157072356   -0.014464267000791795
0.19689367267929322   -0.009459186157072356   -0.014464267000791795
0.19689367267929322   -0.009459186157072356   -0.014464267000791795
0.19689367267929322   -0.009459186157072356   -0.014464267000791795
0.032132986476406084   0.051075788170018954   0.01100463714438896
0.032132986476406084   0.051075788170018954   0.01100463714438896
0.032132986476406084   0.051075788170018954   0.01100463714438896
0.032132986476406084   0.051075788170018954   0.01100463714438896
-0.4330042804357066   -0.0281793677867498   -0.014877780371534699
-0.4330042804357066   -0.0281793677867498   -0.014877780371534699
-0.4330042804357066   -0.0281793677867498   -0.014877780371534699
-0.4330042804357066   -0.0281793677867498   -0.014877780371534699
-0.45708766383182536   -0.05898921524924557   -0.013652616716890232
-0.45708766383182536   -0.05898921524924557   -0.013652616716890232
-0.45708766383182536   -0.05898921524924557   -0.013652616716890232
-0.45708766383182536   -0.05898921524924557   -0.013652616716890232
0.01650731243227187   0.05799804312491941   0.012857979759346543
0.01650731243227187   0.05799804312491941   0.012857979759346543
0.01650731243227187   0.05799804312491941   0.012857979759346543
0.01650731243227187   0.05799804312491941   0.012857979759346543
-0.21009719885968736   0.00644248687201987   0.0008191001384519805
-0.21009719885968736   0.00644248687201987   0.0008191001384519805
-0.21009719885968736   0.00644248687201987   0.0008191001384519805
-0.21009719885968736   0.00644248687201987   0.0008191001384519805
0.013208186681041513   0.040560464185273905   0.013799929942840256
0.013208186681041513   0.040560464185273905   0.013799929942840256
0.013208186681041513   0.040560464185273905   0.013799929942840256
0.013208186681041513   0.040560464185273905   0.013799929942840256
-0.4532580639131263   -0.04102116214213135   -0.012472670230509058
-0.4532580639131263   -0.04102116214213135   -0.012472670230509058
-0.4532580639131263   -0.04102116214213135   -0.012472670230509058
-0.4532580639131263   -0.04102116214213135   -0.012472670230509058
-0.47790299446879625   -0.06947975779818924   -0.011363745764184535
-0.47790299446879625   -0.06947975779818924   -0.011363745764184535
-0.47790299446879625   -0.06947975779818924   -0.011363745764184535
-0.47790299446879625   -0.06947975779818924   -0.011363745764184535
-0.0035041304111681857   0.04554098480388387   0.015592890063790788
-0.0035041304111681857   0.04554098480388387   0.015592890063790788
-0.0035041304111681857   0.04554098480388387   0.015592890063790788
-0.0035041304111681857   0.04554098480388387   0.015592890063790788
-0.23004232044262143   -0.0038404403250556565   -0.004271656116106049
-0.23004232044262143   -0.0038404403250556565   -0.004271656116106049
-0.23004232044262143   -0.0038404403250556565   -0.004271656116106049
-0.23004232044262143   -0.0038404403250556565   -0.004271656116106049
-0.006319291396084484   0.030434454964840856   0.01662361497825423
-0.006319291396084484   0.030434454964840856   0.01662361497825423
-0.006319291396084484   0.030434454964840856   0.01662361497825423
-0.006319291396084484   0.030434454964840856   0.01662361497825423
-0.474634285501555   -0.053919679976820296   -0.010580278749343206
-0.474634285501555   -0.053919679976820296   -0.010580278749343206
-0.474634285501555   -0.053919679976820296   -0.010580278749343206
-0.474634285501555   -0.053919679976820296   -0.010580278749343206
-0.498573632244732   -0.07772866497821318   -0.007556761699108451
-0.498573632244732   -0.07772866497821318   -0.007556761699108451
-0.498573632244732   -0.07772866497821318   -0.007556761699108451
-0.498573632244732   -0.07772866497821318   -0.007556761699108451
-0.024237828560762557   0.03380616198325012   0.01770584340595459
-0.024237828560762557   0.03380616198325012   0.01770584340595459
-0.024237828560762557   0.03380616198325012   0.01770584340595459
-0.024237828560762557   0.03380616198325012   0.01770584340595459
-0.25150446244349717   -0.014297104310786263   -0.009839030945240215
-0.25150446244349717   -0.014297104310786263   -0.009839030945240215
-0.25150446244349717   -0.014297104310786263   -0.009839030945240215
-0.25150446244349717   -0.014297104310786263   -0.009839030945240215
-0.4083636833769723   0.06021317892622294   0.01993265820917369
-0.4083636833769723   0.06021317892622294   0.01993265820917369
-0.4083636833769723   0.06021317892622294   0.01993265820917369
-0.4083636833769723   0.06021317892622294   0.01993265820917369
-0.8674437568636908   -0.038705736889966924   -0.024345916441240734
-0.8674437568636908   -0.038705736889966924   -0.024345916441240734
-0.8674437568636908   -0.038705736889966924   -0.024345916441240734
-0.8674437568636908   -0.038705736889966924   -0.024345916441240734
-0.8862123998525596   -0.0474323305406677   -0.004032772926291707
-0.8862123998525596   -0.0474323305406677   -0.004032772926291707
-0.8862123998525596   -0.0474323305406677   -0.004032772926291707
-0.8862123998525596   -0.0474323305406677   -0.004032772926291707
-0.4339034780620083   0.04391736935199865   -0.0006382724690453465
-0.4339034780620083   0.04391736935199865   -0.0006382724690453465
-0.4339034780620083   0.04391736935199865   -0.0006382724690453465
-0.4339034780620083   0.04391736935199865   -0.0006382724690453465
-0.6442899151504847   0.0064669916531151506   0.0047112948777816716
-0.6442899151504847   0.0064669916531151506   0.0047112948777816716
-0.6442899151504847   0.0064669916531151506   0.0047112948777816716
-0.6442899151504847   0.0064669916531151506   0.0047112948777816716
-0.42819657806946676   0.04945008980861784   0.022363507037043158
-0.42819657806946676   0.04945008980861784   0.022363507037043158
-0.42819657806946676   0.04945008980861784   0.022363507037043158
-0.42819657806946676   0.04945008980861784   0.022363507037043158
-0.8912047227186156   -0.05225047387080328   -0.024176243926447648
-0.8912047227186156   -0.05225047387080328   -0.024176243926447648
-0.8912047227186156   -0.05225047387080328   -0.024176243926447648
-0.8912047227186156   -0.05225047387080328   -0.024176243926447648
-0.9118424175002476   -0.059232290836495644   -0.003610513197095086
-0.9118424175002476   -0.059232290836495644   -0.003610513197095086
-0.9118424175002476   -0.059232290836495644   -0.003610513197095086
-0.9118424175002476   -0.059232290836495644   -0.003610513197095086
-0.4549691873663082   0.03203016203565777   0.0017953699144127727
-0.4549691873663082   0.03203016203565777   0.0017953699144127727
-0.4549691873663082   0.03203016203565777   0.0017953699144127727
-0.4549691873663082   0.03203016203565777   0.0017953699144127727
-0.6621975482719753   -0.002917818348466439   0.0005390450808366171
-0.6621975482719753   -0.002917818348466439   0.0005390450808366171
-0.6621975482719753   -0.002917818348466439   0.0005390450808366171
-0.6621975482719753   -0.002917818348466439   0.0005390450808366171
-0.44871532832689826   0.039278495889180726   0.02581633125793746
-0.44871532832689826   0.039278495889180726   0.02581633125793746
-0.44871532832689826   0.039278495889180726   0.02581633125793746
-0.44871532832689826   0.039278495889180726   0.02581633125793746
-0.9166365351147293   -0.06502088326509262   -0.021792508840918018
-0.9166365351147293   -0.06502088326509262   -0.021792508840918018
-0.9166365351147293   -0.06502088326509262   -0.021792508840918018
-0.9166365351147293   -0.06502088326509262   -0.021792508840918018
-0.9354325907206695   -0.07187500182756537   0.0023244308642858813
-0.9354325907206695   -0.07187500182756537   0.0023244308642858813
-0.9354325907206695   -0.07187500182756537   0.0023244308642858813
-0.9354325907206695   -0.07187500182756537   0.0023244308642858813
-0.4772940410859787   0.01786735248943014   0.003245176627022131
-0.4772940410859787   0.01786735248943014   0.003245176627022131
-0.4772940410859787   0.01786735248943014   0.003245176627022131
-0.4772940410859787   0.01786735248943014   0.003245176627022131
-0.6902506072497044   -0.016138785186335353   -0.0050882255174171595
-0.6902506072497044   -0.016138785186335353   -0.0050882255174171595
-0.6902506072497044   -0.016138785186335353   -0.0050882255174171595
-0.6902506072497044   -0.016138785186335353   -0.0050882255174171595
-0.8367687090951301   0.06248429514855358   0.027839290363038442
-0.8367687090951301   0.06248429514855358   0.027839290363038442
-0.8367687090951301   0.06248429514855358   0.027839290363038442
-0.8367687090951301   0.06248429514855358   0.027839290363038442
-1.280725360238824   -0.05927895248042364   -0.022342909637960942
-1.280725360238824   -0.05927895248042364   -0.022342909637960942
-1.280725360238824   -0.05927895248042364   -0.022342909637960942
-1.280725360238824   -0.05927895248042364   -0.022342909637960942
-1.2981264231044167   -0.02620809496108223   0.02364204652754917
-1.2981264231044167   -0.02620809496108223   0.02364204652754917
-1.2981264231044167   -0.02620809496108223   0.02364204652754917
-1.2981264231044167   -0.02620809496108223   0.02364204652754917
-0.8731213924743505   0.02644185800788798   -0.01245192458380169
-0.8731213924743505   0.02644185800788798   -0.01245192458380169
-0.8731213924743505   0.02644185800788798   -0.01245192458380169
-0.8731213924743505   0.02644185800788798   -0.01245192458380169
-1.0247752188446408   0.012929784564988972   0.02361606681040125
-1.0247752188446408   0.012929784564988972   0.02361606681040125
-1.0247752188446408   0.012929784564988972   0.02361606681040125
-1.0247752188446408   0.012929784564988972   0.02361606681040125
-0.856773418836701   0.06373338075784116   0.03199642085448119
-0.856773418836701   0.06373338075784116   0.03199642085448119
-0.856773418836701   0.06373338075784116   0.03199642085448119
-0.856773418836701   0.06373338075784116   0.03199642085448119
-1.3135103046773056   -0.06253552564627723   -0.016949930651672704
-1.3135103046773056   -0.06253552564627723   -0.016949930651672704
-1.3135103046773056   -0.06253552564627723   -0.016949930651672704
-1.3135103046773056   -0.06253552564627723   -0.016949930651672704
-1.3299658580477447   -0.03238275634134791   0.032654873372098506
-1.3299658580477447   -0.03238275634134791   0.032654873372098506
-1.3299658580477447   -0.03238275634134791   0.032654873372098506
-1.3299658580477447   -0.03238275634134791   0.032654873372098506
-0.8975667469737285   0.0196117521685944   -0.011076203569589917
-0.8975667469737285   0.0196117521685944   -0.011076203569589917
-0.8975667469737285   0.0196117521685944   -0.011076203569589917
-0.8975667469737285   0.0196117521685944   -0.011076203569589917
-1.0687205422244968   0.006393343716302707   0.01525507968127083
-1.0687205422244968   0.006393343716302707   0.01525507968127083
-1.0687205422244968   0.006393343716302707   0.01525507968127083
-1.0687205422244968   0.006393343716302707   0.01525507968127083
-0.8795083435573343   0.05911940418209133   0.039708161498884245
-0.8795083435573343   0.05911940418209133   0.039708161498884245
-0.8795083435573343   0.05911940418209133   0.039708161498884245
-0.8795083435573343   0.05911940418209133   0.039708161498884245
-1.3470895103445195   -0.07095565723522149   -0.014390487217878424
-1.3470895103445195   -0.07095565723522149   -0.014390487217878424
-1.3470895103445195   -0.07095565723522149   -0.014390487217878424
-1.3470895103445195   -0.07095565723522149   -0.014390487217878424
-1.3731564264398268   -0.058987176199883945   0.032428684511155444
-1.3731564264398268   -0.058987176199883945   0.032428684511155444
-1.3731564264398268   -0.058987176199883945   0.032428684511155444
-1.3731564264398268   -0.058987176199883945   0.032428684511155444
-0.9237983401622001   -0.0009655208112827607   -0.010413797359649833
-0.9237983401622001   -0.0009655208112827607   -0.010413797359649833
-0.9237983401622001   -0.0009655208112827607   -0.010413797359649833
-0.9237983401622001   -0.0009655208112827607   -0.010413797359649833
-1.0813232940213233   -0.0030579157393944567   0.012526829446089821
-1.0813232940213233   -0.0030579157393944567   0.012526829446089821
-1.0813232940213233   -0.0030579157393944567   0.012526829446089821
-1.0813232940213233   -0.0030579157393944567   0.012526829446089821
0.7354330272332484   0.04098070469524685   -0.0348435278293715
0.7354330272332484   0.04098070469524685   -0.0348435278293715
0.7354330272332484   0.04098070469524685   -0.0348435278293715
0.7354330272332484   0.04098070469524685   -0.0348435278293715
0.34945521434526916   0.0067598458835990555   0.013225344443544354
0.34945521434526916   0.0067598458835990555   0.013225344443544354
0.34945521434526916   0.0067598458835990555   0.013225344443544354
0.34945521434526916   0.0067598458835990555   0.013225344443544354
0.31077327809284766   -0.05940493255183002   -0.03312712265939347
0.31077327809284766   -0.05940493255183002   -0.03312712265939347
0.31077327809284766   -0.05940493255183002   -0.03312712265939347
0.31077327809284766   -0.05940493255183002   -0.03312712265939347
0.7196543992543964   0.06746285114749152   0.016362749236313045
0.7196543992543964   0.06746285114749152   0.016362749236313045
0.7196543992543964   0.06746285114749152   0.016362749236313045
0.7196543992543964   0.06746285114749152   0.016362749236313045
0.5015171674042653   0.006772331698263523   -0.0148369078529835
0.5015171674042653   0.006772331698263523   -0.0148369078529835
0.5015171674042653   0.006772331698263523   -0.0148369078529835
0.5015171674042653   0.006772331698263523   -0.0148369078529835
0.6999922932232211   0.018472757543095963   -0.03295768731516772
0.6999922932232211   0.018472757543095963   -0.03295768731516772
0.6999922932232211   0.018472757543095963   -0.03295768731516772
0.6999922932232211   0.018472757543095963   -0.03295768731516772
0.3300499184527098   -0.010800304618743012   0.01465145120682693
0.3300499184527098   -0.010800304618743012   0.01465145120682693
0.3300499184527098   -0.010800304618743012   0.01465145120682693
0.3300499184527098   -0.010800304618743012   0.01465145120682693
0.29271410535417786   -0.06520244647085159   -0.02827125311860302
0.29271410535417786   -0.06520244647085159   -0.02827125311860302
0.29271410535417786   -0.06520244647085159   -0.02827125311860302
0.29271410535417786   -0.06520244647085159   -0.02827125311860302
0.6915709907030428   0.05916802595219531   0.021554915068497514
0.6915709907030428   0.05916802595219531   0.021554915068497514
0.6915709907030428   0.05916802595219531   0.021554915068497514
0.6915709907030428   0.05916802595219531   0.021554915068497514
0.48543456892540754   -0.003302727345007306   -0.02076227756577693
0.48543456892540754   -0.003302727345007306   -0.02076227756577693
0.48543456892540754   -0.003302727345007306   -0.02076227756577693
0.48543456892540754   -0.003302727345007306   -0.02076227756577693
0.672361073443352   0.011096557262627343   -0.026423202540382405
0.672361073443352   0.011096557262627343   -0.026423202540382405
0.672361073443352   0.011096557262627343   -0.026423202540382405
0.672361073443352   0.011096557262627343   -0.026423202540382405
0.3114323527750085   -0.01762264762014315   0.017740185134839513
0.3114323527750085   -0.01762264762014315   0.017740185134839513
0.3114323527750085   -0.01762264762014315   0.017740185134839513
0.3114323527750085   -0.01762264762014315   0.017740185134839513
0.27644981897397153   -0.0687016852335286   -0.023548116841365707
0.27644981897397153   -0.0687016852335286   -0.023548116841365707
0.27644981897397153   -0.0687016852335286   -0.023548116841365707
0.27644981897397153   -0.0687016852335286   -0.023548116841365707
0.6598917723024416   0.05023972578753198   0.025635248781243094
0.6598917723024416   0.05023972578753198   0.025635248781243094
0.6598917723024416   0.05023972578753198   0.025635248781243094
0.6598917723024416   0.05023972578753198   0.025635248781243094
0.4533886726109644   -0.010890636622973529   -0.029574044394205537
0.4533886726109644   -0.010890636622973529   -0.029574044394205537
0.4533886726109644   -0.010890636622973529   -0.029574044394205537
0.4533886726109644   -0.010890636622973529   -0.029574044394205537
0.35539901968537035   0.051687670715148404   -0.0019834536874930664
0.35539901968537035   0.051687670715148404   -0.0019834536874930664
0.35539901968537035   0.051687670715148404   -0.0019834536874930664
0.35539901968537035   0.051687670715148404   -0.0019834536874930664
-0.02348676767022943   -0.005220868073223933   -0.0002527987846220151
-0.02348676767022943   -0.005220868073223933   -0.0002527987846220151
-0.02348676767022943   -0.005220868073223933   -0.0002527987846220151
-0.02348676767022943   -0.005220868073223933   -0.0002527987846220151
-0.05073823178828974   -0.04454306454423681   -0.021099350618597024
-0.05073823178828974   -0.04454306454423681   -0.021099350618597024
-0.05073823178828974   -0.04454306454423681   -0.021099350618597024
-0.05073823178828974   -0.04454306454423681   -0.021099350618597024
0.3462516774357499   0.0613560613486364   0.02350388015464798
0.3462516774357499   0.0613560613486364   0.02350388015464798
0.3462516774357499   0.0613560613486364   0.02350388015464798
0.3462516774357499   0.0613560613486364   0.02350388015464798
0.15443559672265372   0.015107361944108236   0.0011199719108159045
0.15443559672265372   0.015107361944108236   0.0011199719108159045
0.15443559672265372   0.015107361944108236   0.0011199719108159045
0.15443559672265372   0.015107361944108236   0.0011199719108159045
0.33699156210617814   0.03744553110788513   0.0011138337475447794
0.33699156210617814   0.03744553110788513   0.0011138337475447794
0.33699156210617814   0.03744553110788513   0.0011138337475447794
0.33699156210617814   0.03744553110788513   0.0011138337475447794
-0.041320895392436024   -0.020475313237202857   0.0019195800536376145
-0.041320895392436024   -0.020475313237202857   0.0019195800536376145
-0.041320895392436024   -0.020475313237202857   0.0019195800536376145
-0.041320895392436024   -0.020475313237202857   0.0019195800536376145
-0.06774601580200226   -0.05549542618671565   -0.017462769212495934
-0.06774601580200226   -0.05549542618671565   -0.017462769212495934
-0.06774601580200226   -0.05549542618671565   -0.017462769212495934
-0.06774601580200226   -0.05549542618671565   -0.017462769212495934
0.32619715041431213   0.04825047265693187   0.025691053054282365
0.32619715041431213   0.04825047265693187   0.025691053054282365
0.32619715041431213   0.04825047265693187   0.025691053054282365
0.32619715041431213   0.04825047265693187   0.025691053054282365
0.13345038034491252   0.0021398135100856724   -0.0053875831322277795
0.13345038034491252   0.0021398135100856724   -0.0053875831322277795
0.13345038034491252   0.0021398135100856724   -0.0053875831322277795
0.13345038034491252   0.0021398135100856724   -0.0053875831322277795
0.3172455467541679   0.025693451374263904   0.003490056036231679
0.3172455467541679   0.025693451374263904   0.003490056036231679
0.3172455467541679   0.025693451374263904   0.003490056036231679
0.3172455467541679   0.025693451374263904   0.003490056036231679
-0.05892738800391782   -0.03307138076610705   0.004206324357317664
-0.05892738800391782   -0.03307138076610705   0.004206324357317664
-0.05892738800391782   -0.03307138076610705   0.004206324357317664
-0.05892738800391782   -0.03307138076610705   0.004206324357317664
-0.08452785367635413   -0.06466631664089162   -0.01404665734199207
-0.08452785367635413   -0.06466631664089162   -0.01404665734199207
-0.08452785367635413   -0.06466631664089162   -0.01404665734199207
-0.08452785367635413   -0.06466631664089162   -0.01404665734199207
0.30768075033645986   0.036158717138655955   0.0277461375988896
0.30768075033645986   0.036158717138655955   0.0277461375988896
0.30768075033645986   0.036158717138655955   0.0277461375988896
0.30768075033645986   0.036158717138655955   0.0277461375988896
0.1173928342219466   -0.007655054301123565   -0.010797422470769346
0.1173928342219466   -0.007655054301123565   -0.010797422470769346
0.1173928342219466   -0.007655054301123565   -0.010797422470769346
0.1173928342219466   -0.007655054301123565   -0.010797422470769346
-0.008392828936676491   0.061431403291122746   0.008564623518797922
-0.008392828936676491   0.061431403291122746   0.008564623518797922
-0.008392828936676491   0.061431403291122746   0.008564623518797922
-0.008392828936676491   0.061431403291122746   0.008564623518797922
-0.38850425600910743   -0.017029867311589023   -0.012883924909173092
-0.38850425600910743   -0.017029867311589023   -0.012883924909173092
-0.38850425600910743   -0.017029867311589023   -0.012883924909173092
-0.38850425600910743   -0.017029867311589023   -0.012883924909173092
-0.40606434324458784   -0.031102778997410388   -0.010074475175442684
-0.40606434324458784   -0.031102778997410388   -0.010074475175442684
-0.40606434324458784   -0.031102778997410388   -0.010074475175442684
-0.40606434324458784   -0.031102778997410388   -0.010074475175442684
-0.025646703208686845   0.04954653334404111   0.01026869439113951
-0.025646703208686845   0.04954653334404111   0.01026869439113951
-0.025646703208686845   0.04954653334404111   0.01026869439113951
-0.025646703208686845   0.04954653334404111   0.01026869439113951
-0.20665995101151463   0.015808130257571232   0.004050155393878541
-0.20665995101151463   0.015808130257571232   0.004050155393878541
-0.20665995101151463   0.015808130257571232   0.004050155393878541
-0.20665995101151463   0.015808130257571232   0.004050155393878541
-0.02531346976418025   0.04946547477108533   0.012015920186628283
-0.02531346976418025   0.04946547477108533   0.012015920186628283
-0.02531346976418025   0.04946547477108533   0.012015920186628283
-0.02531346976418025   0.04946547477108533   0.012015920186628283
-0.40607073587737363   -0.030694879612733754   -0.010514337724048037
-0.40607073587737363   -0.030694879612733754   -0.010514337724048037
-0.40607073587737363   -0.030694879612733754   -0.010514337724048037
-0.40607073587737363   -0.030694879612733754   -0.010514337724048037
-0.4234863554400475   -0.042955059829316196   -0.00690510807333026
-0.4234863554400475   -0.042955059829316196   -0.00690510807333026
-0.4234863554400475   -0.042955059829316196   -0.00690510807333026
-0.4234863554400475   -0.042955059829316196   -0.00690510807333026
-0.0433812041231625   0.03605273503338021   0.012813127961608932
-0.0433812041231625   0.03605273503338021   0.012813127961608932
-0.0433812041231625   0.03605273503338021   0.012813127961608932
-0.0433812041231625   0.03605273503338021   0.012813127961608932
-0.22426145165981898   0.00410031189908136   -0.0012233949463823779
-0.22426145165981898   0.00410031189908136   -0.0012233949463823779
-0.22426145165981898   0.00410031189908136   -0.0012233949463823779
-0.22426145165981898   0.00410031189908136   -0.0012233949463823779
-0.04269502702606247   0.03753631430353726   0.014760434176952034
-0.04269502702606247   0.03753631430353726   0.014760434176952034
-0.04269502702606247   0.03753631430353726   0.014760434176952034
-0.04269502702606247   0.03753631430353726   0.014760434176952034
-0.42407937148330155   -0.04434547804562729   -0.008479770073289535
-0.42407937148330155   -0.04434547804562729   -0.008479770073289535
-0.42407937148330155   -0.04434547804562729   -0.008479770073289535
-0.42407937148330155   -0.04434547804562729   -0.008479770073289535
-0.4406987577902522   -0.053780249985600326   -0.003765287208838654
-0.4406987577902522   -0.053780249985600326   -0.003765287208838654
-0.4406987577902522   -0.053780249985600326   -0.003765287208838654
-0.4406987577902522   -0.053780249985600326   -0.003765287208838654
-0.0611911882766709   0.02300209379962137   0.014968259215912928
-0.0611911882766709   0.02300209379962137   0.014968259215912928
-0.0611911882766709   0.02300209379962137   0.014968259215912928
-0.0611911882766709   0.02300209379962137   0.014968259215912928
-0.24267258755429558   -0.00770417250445668   -0.007098829109062392
-0.24267258755429558   -0.00770417250445668   -0.007098829109062392
-0.24267258755429558   -0.00770417250445668   -0.007098829109062392
-0.24267258755429558   -0.00770417250445668   -0.007098829109062392
-0.36474301200440024   0.07040173410891108   0.01849069369385875
-0.36474301200440024   0.07040173410891108   0.01849069369385875
-0.36474301200440024   0.07040173410891108   0.01849069369385875
-0.36474301200440024   0.07040173410891108   0.01849069369385875
-0.7453749557975574   -0.029107306642612046   -0.02318626229401064
-0.7453749557975574   -0.029107306642612046   -0.02318626229401064
-0.7453749557975574   -0.029107306642612046   -0.02318626229401064
-0.7453749557975574   -0.029107306642612046   -0.02318626229401064
-0.7549627303165511   -0.019779728495692428   0.0019354905470420972
-0.7549627303165511   -0.019779728495692428   0.0019354905470420972
-0.7549627303165511   -0.019779728495692428   0.0019354905470420972
-0.7549627303165511   -0.019779728495692428   0.0019354905470420972
-0.3912893435354595   0.0356105944374335   -0.002912850064639004
-0.3912893435354595   0.0356105944374335   -0.002912850064639004
-0.3912893435354595   0.0356105944374335   -0.002912850064639004
-0.3912893435354595   0.0356105944374335   -0.002912850064639004
-0.5604182291616708   0.014983628213769418   0.006859729900516448
-0.5604182291616708   0.014983628213769418   0.006859729900516448
-0.5604182291616708   0.014983628213769418   0.006859729900516448
-0.5604182291616708   0.014983628213769418   0.006859729900516448
-0.3816962986670326   0.05884921122315631   0.02181375749176722
-0.3816962986670326   0.05884921122315631   0.02181375749176722
-0.3816962986670326   0.05884921122315631   0.02181375749176722
-0.3816962986670326   0.05884921122315631   0.02181375749176722
-0.764472106277269   -0.04293467637370707   -0.022456441378532387
-0.764472106277269   -0.04293467637370707   -0.022456441378532387
-0.764472106277269   -0.04293467637370707   -0.022456441378532387
-0.764472106277269   -0.04293467637370707   -0.022456441378532387
-0.7752531564760472   -0.03176340932284072   0.0031114822316593294
-0.7752531564760472   -0.03176340932284072   0.0031114822316593294
-0.7752531564760472   -0.03176340932284072   0.0031114822316593294
-0.7752531564760472   -0.03176340932284072   0.0031114822316593294
-0.40895808323309774   0.023111687003961615   -0.00033049387185359394
-0.40895808323309774   0.023111687003961615   -0.00033049387185359394
-0.40895808323309774   0.023111687003961615   -0.00033049387185359394
-0.40895808323309774   0.023111687003961615   -0.00033049387185359394
-0.5752677064675149   0.004559749420872811   0.0019556627146424255
-0.5752677064675149   0.004559749420872811   0.0019556627146424255
-0.5752677064675149   0.004559749420872811   0.0019556627146424255
-0.5752677064675149   0.004559749420872811   0.0019556627146424255
-0.3989616243238071   0.04785441516415574   0.02490907251440158
-0.3989616243238071   0.04785441516415574   0.02490907251440158
-0.3989616243238071   0.04785441516415574   0.02490907251440158
-0.3989616243238071   0.04785441516415574   0.02490907251440158
-0.78473728187865   -0.05599380397634769   -0.020078750127847853
-0.78473728187865   -0.05599380397634769   -0.020078750127847853
-0.78473728187865   -0.05599380397634769   -0.020078750127847853
-0.78473728187865   -0.05599380397634769   -0.020078750127847853
-0.7936473879784921   -0.044677554965216   0.006873986246304753
-0.7936473879784921   -0.044677554965216   0.006873986246304753
-0.7936473879784921   -0.044677554965216   0.006873986246304753
-0.7936473879784921   -0.044677554965216   0.006873986246304753
-0.4271234605949244   0.008792034223908785   0.0015389145582932959
-0.4271234605949244   0.008792034223908785   0.0015389145582932959
-0.4271234605949244   0.008792034223908785   0.0015389145582932959
-0.4271234605949244   0.008792034223908785   0.0015389145582932959
-0.5979791556432696   -0.008555745625301897   -0.004287525817706847
-0.5979791556432696   -0.008555745625301897   -0.004287525817706847
-0.5979791556432696   -0.008555745625301897   -0.004287525817706847
-0.5979791556432696   -0.008555745625301897   -0.004287525817706847
-0.7170684122879187   0.0631407072997198   0.02609844131185103
-0.7170684122879187   0.0631407072997198   0.02609844131185103
-0.7170684122879187   0.0631407072997198   0.02609844131185103
-0.7170684122879187   0.0631407072997198   0.02609844131185103
-1.0851655055078628   -0.050123721307237024   -0.02543390991453999
-1.0851655055078628   -0.050123721307237024   -0.02543390991453999
-1.0851655055078628   -0.050123721307237024   -0.02543390991453999
-1.0851655055078628   -0.050123721307237024   -0.02543390991453999
-1.0970980419306502   -0.011057727148610558   0.024026799090036
-1.0970980419306502   -0.011057727148610558   0.024026799090036
-1.0970980419306502   -0.011057727148610558   0.024026799090036
-1.0970980419306502   -0.011057727148610558   0.024026799090036
-0.7507360607605796   0.01810510982441646   -0.014815999993209393
-0.7507360607605796   0.01810510982441646   -0.014815999993209393
-0.7507360607605796   0.01810510982441646   -0.014815999993209393
-0.7507360607605796   0.01810510982441646   -0.014815999993209393
-0.8721216825347625   0.014114456116278484   0.02141840519564657
-0.8721216825347625   0.014114456116278484   0.02141840519564657
-0.8721216825347625   0.014114456116278484   0.02141840519564657
-0.8721216825347625   0.014114456116278484   0.02141840519564657
-0.7326400594712016   0.06315194398408064   0.030617172294012715
-0.7326400594712016   0.06315194398408064   0.030617172294012715
-0.7326400594712016   0.06315194398408064   0.030617172294012715
-0.7326400594712016   0.06315194398408064   0.030617172294012715
-1.1148938269040742   -0.055804344992314736   -0.020205507933370857
-1.1148938269040742   -0.055804344992314736   -0.020205507933370857
-1.1148938269040742   -0.055804344992314736   -0.020205507933370857
-1.1148938269040742   -0.055804344992314736   -0.020205507933370857
-1.1236727561805075   -0.017384658461938818   0.03004775248455375
-1.1236727561805075   -0.017384658461938818   0.03004775248455375
-1.1236727561805075   -0.017384658461938818   0.03004775248455375
-1.1236727561805075   -0.017384658461938818   0.03004775248455375
-0.7698092520378198   0.01125377529654742   -0.012686180196591644
-0.7698092520378198   0.01125377529654742   -0.012686180196591644
-0.7698092520378198   0.01125377529654742   -0.012686180196591644
-0.7698092520378198   0.01125377529654742   -0.012686180196591644
-0.9093739368216764   0.0070637224412352095   0.01309819697197074
-0.9093739368216764   0.0070637224412352095   0.01309819697197074
-0.9093739368216764   0.0070637224412352095   0.01309819697197074
-0.9093739368216764   0.0070637224412352095   0.01309819697197074
-0.7506143797552609   0.05843821469062993   0.036103741822120165
-0.7506143797552609   0.05843821469062993   0.036103741822120165
-0.7506143797552609   0.05843821469062993   0.036103741822120165
-0.7506143797552609   0.05843821469062993   0.036103741822120165
-1.1423664022570708   -0.06406787165001879   -0.016737264710171333
-1.1423664022570708   -0.06406787165001879   -0.016737264710171333
-1.1423664022570708   -0.06406787165001879   -0.016737264710171333
-1.1423664022570708   -0.06406787165001879   -0.016737264710171333
-1.1587500038210394   -0.039978526004536   0.029472840332953887
-1.1587500038210394   -0.039978526004536   0.029472840332953887
-1.1587500038210394   -0.039978526004536   0.029472840332953887
-1.1587500038210394   -0.039978526004536   0.029472840332953887
-0.7899622690140161   -0.007877489280733452   -0.011500484615798223
-0.7899622690140161   -0.007877489280733452   -0.011500484615798223
-0.7899622690140161   -0.007877489280733452   -0.011500484615798223
-0.7899622690140161   -0.007877489280733452   -0.011500484615798223
-0.9188087752588869   -0.001739154201360088   0.01035286112680351
-0.9188087752588869   -0.001739154201360088   0.01035286112680351
-0.9188087752588869   -0.001739154201360088   0.01035286112680351
-0.9188087752588869   -0.001739154201360088   0.01035286112680351
0.5068033667193039   0.028796252051719096   -0.03394077708985953
0.5068033667193039   0.028796252051719096   -0.03394077708985953
0.5068033667193039   0.028796252051719096   -0.03394077708985953
0.5068033667193039   0.028796252051719096   -0.03394077708985953
0.21646215769153426   0.013576690030723551   0.014513661468832028
0.21646215769153426   0.013576690030723551   0.014513661468832028
0.21646215769153426   0.013576690030723551   0.014513661468832028
0.21646215769153426   0.013576690030723551   0.014513661468832028
0.181519314035059   -0.049770288231960474   -0.03166786244160957
0.181519314035059   -0.049770288231960474   -0.03166786244160957
0.181519314035059   -0.049770288231960474   -0.03166786244160957
0.181519314035059   -0.049770288231960474   -0.03166786244160957
0.49505722576472105   0.0574000048453663   0.017640201225913074
0.49505722576472105   0.0574000048453663   0.017640201225913074
0.49505722576472105   0.0574000048453663   0.017640201225913074
0.49505722576472105   0.0574000048453663   0.017640201225913074
0.33143285607321415   0.007335069769500685   -0.00905060367754986
0.33143285607321415   0.007335069769500685   -0.00905060367754986
0.33143285607321415   0.007335069769500685   -0.00905060367754986
0.33143285607321415   0.007335069769500685   -0.00905060367754986
0.47551757538573997   0.0090261061348096   -0.031684151958440196
0.47551757538573997   0.0090261061348096   -0.031684151958440196
0.47551757538573997   0.0090261061348096   -0.031684151958440196
0.47551757538573997   0.0090261061348096   -0.031684151958440196
0.20069142832972067   -0.0017639256057233321   0.01618634640546532
0.20069142832972067   -0.0017639256057233321   0.01618634640546532
0.20069142832972067   -0.0017639256057233321   0.01618634640546532
0.20069142832972067   -0.0017639256057233321   0.01618634640546532
0.16664984518416823   -0.05552175694781842   -0.026972853912696472
0.16664984518416823   -0.05552175694781842   -0.026972853912696472
0.16664984518416823   -0.05552175694781842   -0.026972853912696472
0.16664984518416823   -0.05552175694781842   -0.026972853912696472
0.4705836649173161   0.04923610959838012   0.022765517104377207
0.4705836649173161   0.04923610959838012   0.022765517104377207
0.4705836649173161   0.04923610959838012   0.022765517104377207
0.4705836649173161   0.04923610959838012   0.022765517104377207
0.3161250518208284   -0.002167914734860568   -0.014674326380674691
0.3161250518208284   -0.002167914734860568   -0.014674326380674691
0.3161250518208284   -0.002167914734860568   -0.014674326380674691
0.3161250518208284   -0.002167914734860568   -0.014674326380674691
0.45135698674116587   0.0016565744254341264   -0.025788338603431417
0.45135698674116587   0.0016565744254341264   -0.025788338603431417
0.45135698674116587   0.0016565744254341264   -0.025788338603431417
0.45135698674116587   0.0016565744254341264   -0.025788338603431417
0.18533094801478484   -0.008487797120406398   0.0193987004129759
0.18533094801478484   -0.008487797120406398   0.0193987004129759
0.18533094801478484   -0.008487797120406398   0.0193987004129759
0.18533094801478484   -0.008487797120406398   0.0193987004129759
0.1533675419210058   -0.06068939536186487   -0.02248612658430538
0.1533675419210058   -0.06068939536186487   -0.02248612658430538
0.1533675419210058   -0.06068939536186487   -0.02248612658430538
0.1533675419210058   -0.06068939536186487   -0.02248612658430538
0.4419974139564333   0.038542455782061044   0.026008132518905287
0.4419974139564333   0.038542455782061044   0.026008132518905287
0.4419974139564333   0.038542455782061044   0.026008132518905287
0.4419974139564333   0.038542455782061044   0.026008132518905287
0.29003745424734856   -0.00994281860877079   -0.022428862292113834
0.29003745424734856   -0.00994281860877079   -0.022428862292113834
0.29003745424734856   -0.00994281860877079   -0.022428862292113834
0.29003745424734856   -0.00994281860877079   -0.022428862292113834
0.2180238131061147   0.04192627796121674   -0.006027649388762807
0.2180238131061147   0.04192627796121674   -0.006027649388762807
0.2180238131061147   0.04192627796121674   -0.006027649388762807
0.2180238131061147   0.04192627796121674   -0.006027649388762807
-0.06662637790002421   0.003462267170789013   0.0019138583986655702
-0.06662637790002421   0.003462267170789013   0.0019138583986655702
-0.06662637790002421   0.003462267170789013   0.0019138583986655702
-0.06662637790002421   0.003462267170789013   0.0019138583986655702
-0.09051588971919644   -0.03460533128045478   -0.019535515835861585
-0.09051588971919644   -0.03460533128045478   -0.019535515835861585
-0.09051588971919644   -0.03460533128045478   -0.019535515835861585
-0.09051588971919644   -0.03460533128045478   -0.019535515835861585
0.21208088116635296   0.050373014021043695   0.0209966709618598
0.21208088116635296   0.050373014021043695   0.0209966709618598
0.21208088116635296   0.050373014021043695   0.0209966709618598
0.21208088116635296   0.050373014021043695   0.0209966709618598
0.06674669533472527   0.014543306827756477   0.0025677394393798254
0.06674669533472527   0.014543306827756477   0.0025677394393798254
0.06674669533472527   0.014543306827756477   0.0025677394393798254
0.06674669533472527   0.014543306827756477   0.0025677394393798254
0.20262062637491154   0.027285631092231533   -0.0032172200665380106
0.20262062637491154   0.027285631092231533   -0.0032172200665380106
0.20262062637491154   0.027285631092231533   -0.0032172200665380106
0.20262062637491154   0.027285631092231533   -0.0032172200665380106
-0.08119833651841445   -0.011660649942307637   0.004107568829901224
-0.08119833651841445   -0.011660649942307637   0.004107568829901224
-0.08119833651841445   -0.011660649942307637   0.004107568829901224
-0.08119833651841445   -0.011660649942307637   0.004107568829901224
-0.10434247130714606   -0.04615999666103021   -0.015821671814069866
-0.10434247130714606   -0.04615999666103021   -0.015821671814069866
-0.10434247130714606   -0.04615999666103021   -0.015821671814069866
-0.10434247130714606   -0.04615999666103021   -0.015821671814069866
0.19511836694290105   0.03701956556992049   0.022828432363230164
0.19511836694290105   0.03701956556992049   0.022828432363230164
0.19511836694290105   0.03701956556992049   0.022828432363230164
0.19511836694290105   0.03701956556992049   0.022828432363230164
0.049676074757731024   0.0014486135362114187   -0.0037221861975129905
0.049676074757731024   0.0014486135362114187   -0.0037221861975129905
0.049676074757731024   0.0014486135362114187   -0.0037221861975129905
0.049676074757731024   0.0014486135362114187   -0.0037221861975129905
0.18595726263671267   0.014893983142497236   -0.000851506740291396
0.18595726263671267   0.014893983142497236   -0.000851506740291396
0.18595726263671267   0.014893983142497236   -0.000851506740291396
0.18595726263671267   0.014893983142497236   -0.000851506740291396
-0.09553909032729412   -0.024392137559948332   0.006427373984111888
-0.09553909032729412   -0.024392137559948332   0.006427373984111888
-0.09553909032729412   -0.024392137559948332   0.006427373984111888
-0.09553909032729412   -0.024392137559948332   0.006427373984111888
-0.11798262125580947   -0.05700132700785801   -0.012390711541410856
-0.11798262125580947   -0.05700132700785801   -0.012390711541410856
-0.11798262125580947   -0.05700132700785801   -0.012390711541410856
-0.11798262125580947   -0.05700132700785801   -0.012390711541410856
0.17981142112869988   0.024209599693719518   0.0248342743985841
0.17981142112869988   0.024209599693719518   0.0248342743985841
0.17981142112869988   0.024209599693719518   0.0248342743985841
0.17981142112869988   0.024209599693719518   0.0248342743985841
0.036000668511708   -0.009391909200446816   -0.009269273981451366
0.036000668511708   -0.009391909200446816   -0.009269273981451366
0.036000668511708   -0.009391909200446816   -0.009269273981451366
0.036000668511708   -0.009391909200446816   -0.009269273981451366
-0.05613053189431244   0.052993944677339394   0.004861410920674049
-0.05613053189431244   0.052993944677339394   0.004861410920674049
-0.05613053189431244   0.052993944677339394   0.004861410920674049
-0.05613053189431244   0.052993944677339394   0.004861410920674049
-0.34548632662476475   -0.008887089157226968   -0.010522549501253121
-0.34548632662476475   -0.008887089157226968   -0.010522549501253121
-0.34548632662476475   -0.008887089157226968   -0.010522549501253121
-0.34548632662476475   -0.008887089157226968   -0.010522549501253121
-0.3591400105414548   -0.0207571744493805   -0.007756537243200657
-0.3591400105414548   -0.0207571744493805   -0.007756537243200657
-0.3591400105414548   -0.0207571744493805   -0.007756537243200657
-0.3591400105414548   -0.0207571744493805   -0.007756537243200657
-0.07037722996145127   0.03840101426682123   0.008151437405586414
-0.07037722996145127   0.03840101426682123   0.008151437405586414
-0.07037722996145127   0.03840101426682123   0.008151437405586414
-0.07037722996145127   0.03840101426682123   0.008151437405586414
-0.2072748659138279   0.01519009311705486   0.004112680263269582
-0.2072748659138279   0.01519009311705486   0.004112680263269582
-0.2072748659138279   0.01519009311705486   0.004112680263269582
-0.2072748659138279   0.01519009311705486   0.004112680263269582
-0.06995831230461574   0.040299900531620705   0.008347139424966383
-0.06995831230461574   0.040299900531620705   0.008347139424966383
-0.06995831230461574   0.040299900531620705   0.008347139424966383
-0.06995831230461574   0.040299900531620705   0.008347139424966383
-0.3596013700324986   -0.022698502548382835   -0.008122006599417319
-0.3596013700324986   -0.022698502548382835   -0.008122006599417319
-0.3596013700324986   -0.022698502548382835   -0.008122006599417319
-0.3596013700324986   -0.022698502548382835   -0.008122006599417319
-0.3731115615987573   -0.03334652858668344   -0.004452832663114522
-0.3731115615987573   -0.03334652858668344   -0.004452832663114522
-0.3731115615987573   -0.03334652858668344   -0.004452832663114522
-0.3731115615987573   -0.03334652858668344   -0.004452832663114522
-0.08488755865603363   0.024659200324686038   0.010633694455776123
-0.08488755865603363   0.024659200324686038   0.010633694455776123
-0.08488755865603363   0.024659200324686038   0.010633694455776123
-0.08488755865603363   0.024659200324686038   0.010633694455776123
-0.22163823875680472   0.002923117482890536   -0.0012897847337359665
-0.22163823875680472   0.002923117482890536   -0.0012897847337359665
-0.22163823875680472   0.002923117482890536   -0.0012897847337359665
-0.22163823875680472   0.002923117482890536   -0.0012897847337359665
-0.08417003390874778   0.027590372656100027   0.011290145860793285
-0.08417003390874778   0.027590372656100027   0.011290145860793285
-0.08417003390874778   0.027590372656100027   0.011290145860793285
-0.08417003390874778   0.027590372656100027   0.011290145860793285
-0.37405724695952786   -0.036505861531576686   -0.006021926522073978
-0.37405724695952786   -0.036505861531576686   -0.006021926522073978
-0.37405724695952786   -0.036505861531576686   -0.006021926522073978
-0.37405724695952786   -0.036505861531576686   -0.006021926522073978
-0.3868434215756371   -0.04536948083320898   -0.0012373806492725938
-0.3868434215756371   -0.04536948083320898   -0.0012373806492725938
-0.3868434215756371   -0.04536948083320898   -0.0012373806492725938
-0.3868434215756371   -0.04536948083320898   -0.0012373806492725938
-0.09927875698266792   0.011307845542841973   0.012819437273594993
-0.09927875698266792   0.011307845542841973   0.012819437273594993
-0.09927875698266792   0.011307845542841973   0.012819437273594993
-0.09927875698266792   0.011307845542841973   0.012819437273594993
-0.23659709490972117   -0.0093559620379585   -0.0071480609727639175
-0.23659709490972117   -0.0093559620379585   -0.0071480609727639175
-0.23659709490972117   -0.0093559620379585   -0.0071480609727639175
-0.23659709490972117   -0.0093559620379585   -0.0071480609727639175
-0.3259971552337798   0.0625106246568621   0.015525593639582468
-0.3259971552337798   0.0625106246568621   0.015525593639582468
-0.3259971552337798   0.0625106246568621   0.015525593639582468
-0.3259971552337798   0.0625106246568621   0.015525593639582468
-0.619572872058339   -0.021191770576720337   -0.0213656968208809
-0.619572872058339   -0.021191770576720337   -0.0213656968208809
-0.619572872058339   -0.021191770576720337   -0.0213656968208809
-0.619572872058339   -0.021191770576720337   -0.0213656968208809
-0.6246920398650948   -0.0095135608035051   0.0048690700603032724
-0.6246920398650948   -0.0095135608035051   0.0048690700603032724
-0.6246920398650948   -0.0095135608035051   0.0048690700603032724
-0.6246920398650948   -0.0095135608035051   0.0048690700603032724
-0.34932998038261454   0.025041917935828578   -0.0045054788342121545
-0.34932998038261454   0.025041917935828578   -0.0045054788342121545
-0.34932998038261454   0.025041917935828578   -0.0045054788342121545
-0.34932998038261454   0.025041917935828578   -0.0045054788342121545
-0.47703671790616975   0.014345946190498962   0.0059609836744726405
-0.47703671790616975   0.014345946190498962   0.0059609836744726405
-0.47703671790616975   0.014345946190498962   0.0059609836744726405
-0.47703671790616975   0.014345946190498962   0.0059609836744726405
-0.3395720150778687   0.05033490272245775   0.018991362902891433
-0.3395720150778687   0.05033490272245775   0.018991362902891433
-0.3395720150778687   0.05033490272245775   0.018991362902891433
-0.3395720150778687   0.05033490272245775   0.018991362902891433
-0.6348818053600505   -0.03523834578034911   -0.02035497243763403
-0.6348818053600505   -0.03523834578034911   -0.02035497243763403
-0.6348818053600505   -0.03523834578034911   -0.02035497243763403
-0.6348818053600505   -0.03523834578034911   -0.02035497243763403
-0.6411681152470603   -0.02198537729584378   0.006394216643082009
-0.6411681152470603   -0.02198537729584378   0.006394216643082009
-0.6411681152470603   -0.02198537729584378   0.006394216643082009
-0.6411681152470603   -0.02198537729584378   0.006394216643082009
-0.36345235896985684   0.01237429647659423   -0.0018776445818935554
-0.36345235896985684   0.01237429647659423   -0.0018776445818935554
-0.36345235896985684   0.01237429647659423   -0.0018776445818935554
-0.36345235896985684   0.01237429647659423   -0.0018776445818935554
-0.4891030626494708   0.00323726076097014   0.0005487372975318781
-0.4891030626494708   0.00323726076097014   0.0005487372975318781
-0.4891030626494708   0.00323726076097014   0.0005487372975318781
-0.4891030626494708   0.00323726076097014   0.0005487372975318781
-0.3533422653160405   0.038758644495418174   0.022288475668371954
-0.3533422653160405   0.038758644495418174   0.022288475668371954
-0.3533422653160405   0.038758644495418174   0.022288475668371954
-0.3533422653160405   0.038758644495418174   0.022288475668371954
-0.6513187888799806   -0.048410305293766526   -0.01793422352360416
-0.6513187888799806   -0.048410305293766526   -0.01793422352360416
-0.6513187888799806   -0.048410305293766526   -0.01793422352360416
-0.6513187888799806   -0.048410305293766526   -0.01793422352360416
-0.6558277241029409   -0.03528772598420879   0.009844377025721766
-0.6558277241029409   -0.03528772598420879   0.009844377025721766
-0.6558277241029409   -0.03528772598420879   0.009844377025721766
-0.6558277241029409   -0.03528772598420879   0.009844377025721766
-0.3778236993266988   -0.0016951712905038802   0.00018692105270600584
-0.3778236993266988   -0.0016951712905038802   0.00018692105270600584
-0.3778236993266988   -0.0016951712905038802   0.00018692105270600584
-0.3778236993266988   -0.0016951712905038802   0.00018692105270600584
-0.5072872944618481   -0.009691295607675579   -0.0057468643010625715
-0.5072872944618481   -0.009691295607675579   -0.0057468643010625715
-0.5072872944618481   -0.009691295607675579   -0.0057468643010625715
-0.5072872944618481   -0.009691295607675579   -0.0057468643010625715
-0.5945942117622244   0.05795373853449409   0.024382095548477187
-0.5945942117622244   0.05795373853449409   0.024382095548477187
-0.5945942117622244   0.05795373853449409   0.024382095548477187
-0.5945942117622244   0.05795373853449409   0.024382095548477187
-0.8778027110842422   -0.04048524542094395   -0.027629384029652156
-0.8778027110842422   -0.04048524542094395   -0.027629384029652156
-0.8778027110842422   -0.04048524542094395   -0.027629384029652156
-0.8778027110842422   -0.04048524542094395   -0.027629384029652156
-0.8861786743214892   -0.0011901799711325212   0.024150164589955232
-0.8861786743214892   -0.0011901799711325212   0.024150164589955232
-0.8861786743214892   -0.0011901799711325212   0.024150164589955232
-0.8861786743214892   -0.0011901799711325212   0.024150164589955232
-0.6253357795306297   0.008680612607589372   -0.016543801678477306
-0.6253357795306297   0.008680612607589372   -0.016543801678477306
-0.6253357795306297   0.008680612607589372   -0.016543801678477306
-0.6253357795306297   0.008680612607589372   -0.016543801678477306
-0.7131264021580377   0.01336051358021309   0.018109219199702035
-0.7131264021580377   0.01336051358021309   0.018109219199702035
-0.7131264021580377   0.01336051358021309   0.018109219199702035
-0.7131264021580377   0.01336051358021309   0.018109219199702035
-0.6068922582608272   0.055589961482196165   0.028764455795936623
-0.6068922582608272   0.055589961482196165   0.028764455795936623
-0.6068922582608272   0.055589961482196165   0.028764455795936623
-0.6068922582608272   0.055589961482196165   0.028764455795936623
-0.9049926322530595   -0.04846996550749935   -0.022639839531521884
-0.9049926322530595   -0.04846996550749935   -0.022639839531521884
-0.9049926322530595   -0.04846996550749935   -0.022639839531521884
-0.9049926322530595   -0.04846996550749935   -0.022639839531521884
-0.9094743067037532   -0.008056402683635139   0.030427984568428885
-0.9094743067037532   -0.008056402683635139   0.030427984568428885
-0.9094743067037532   -0.008056402683635139   0.030427984568428885
-0.9094743067037532   -0.008056402683635139   0.030427984568428885
-0.6405204071564135   0.0017353362010815165   -0.014087956400620522
-0.6405204071564135   0.0017353362010815165   -0.014087956400620522
-0.6405204071564135   0.0017353362010815165   -0.014087956400620522
-0.6405204071564135   0.0017353362010815165   -0.014087956400620522
-0.744646878211363   0.005478183945007015   0.009561872070816373
-0.744646878211363   0.005478183945007015   0.009561872070816373
-0.744646878211363   0.005478183945007015   0.009561872070816373
-0.744646878211363   0.005478183945007015   0.009561872070816373
-0.621216445466514   0.050285841916767354   0.03388134633320237
-0.621216445466514   0.050285841916767354   0.03388134633320237
-0.621216445466514   0.050285841916767354   0.03388134633320237
-0.621216445466514   0.050285841916767354   0.03388134633320237
-0.9290450299303661   -0.05687366993603263   -0.018608364312238557
-0.9290450299303661   -0.05687366993603263   -0.018608364312238557
-0.9290450299303661   -0.05687366993603263   -0.018608364312238557
-0.9290450299303661   -0.05687366993603263   -0.018608364312238557
-0.9406383702826813   -0.02961273896704661   0.030499368221301226
-0.9406383702826813   -0.02961273896704661   0.030499368221301226
-0.9406383702826813   -0.02961273896704661   0.030499368221301226
-0.9406383702826813   -0.02961273896704661   0.030499368221301226
-0.656417609834218   -0.015934042465988257   -0.012458735148896165
-0.656417609834218   -0.015934042465988257   -0.012458735148896165
-0.656417609834218   -0.015934042465988257   -0.012458735148896165
-0.656417609834218   -0.015934042465988257   -0.012458735148896165
-0.7534221462515696   -0.003541944891596205   0.0055226219293741385
-0.7534221462515696   -0.003541944891596205   0.0055226219293741385
-0.7534221462515696   -0.003541944891596205   0.0055226219293741385
-0.7534221462515696   -0.003541944891596205   0.0055226219293741385
0.28083235719171395   0.016886503068167448   -0.03330747284412813
0.28083235719171395   0.016886503068167448   -0.03330747284412813
0.28083235719171395   0.016886503068167448   -0.03330747284412813
0.28083235719171395   0.016886503068167448   -0.03330747284412813
0.08226451214334303   0.019918930916907572   0.01588220514665096
0.08226451214334303   0.019918930916907572   0.01588220514665096
0.08226451214334303   0.019918930916907572   0.01588220514665096
0.08226451214334303   0.019918930916907572   0.01588220514665096
0.05128983349778826   -0.040759106383765925   -0.029387962652815264
0.05128983349778826   -0.040759106383765925   -0.029387962652815264
0.05128983349778826   -0.040759106383765925   -0.029387962652815264
0.05128983349778826   -0.040759106383765925   -0.029387962652815264
0.273230720468136   0.04751722438896035   0.019107007564377103
0.273230720468136   0.04751722438896035   0.019107007564377103
0.273230720468136   0.04751722438896035   0.019107007564377103
0.273230720468136   0.04751722438896035   0.019107007564377103
0.16188953970524145   0.007937470786828875   -0.0037259028095449342
0.16188953970524145   0.007937470786828875   -0.0037259028095449342
0.16188953970524145   0.007937470786828875   -0.0037259028095449342
0.16188953970524145   0.007937470786828875   -0.0037259028095449342
0.253690438321763   -0.0005140238700999528   -0.030563154908429514
0.253690438321763   -0.0005140238700999528   -0.030563154908429514
0.253690438321763   -0.0005140238700999528   -0.030563154908429514
0.253690438321763   -0.0005140238700999528   -0.030563154908429514
0.07022065732066333   0.006662683551791084   0.017844366526003505
0.07022065732066333   0.006662683551791084   0.017844366526003505
0.07022065732066333   0.006662683551791084   0.017844366526003505
0.07022065732066333   0.006662683551791084   0.017844366526003505
0.03960365188493844   -0.04650904289732714   -0.024980232341812077
0.03960365188493844   -0.04650904289732714   -0.024980232341812077
0.03960365188493844   -0.04650904289732714   -0.024980232341812077
0.03960365188493844   -0.04650904289732714   -0.024980232341812077
0.252222844740568   0.0395856547859376   0.024574590118067268
0.252222844740568   0.0395856547859376   0.024574590118067268
0.252222844740568   0.0395856547859376   0.024574590118067268
0.252222844740568   0.0395856547859376   0.024574590118067268
0.1472822527950063   -0.001055916727197622   -0.009543062676690774
0.1472822527950063   -0.001055916727197622   -0.009543062676690774
0.1472822527950063   -0.001055916727197622   -0.009543062676690774
0.1472822527950063   -0.001055916727197622   -0.009543062676690774
0.23278600411231054   -0.007901098025794584   -0.02512286021149069
0.23278600411231054   -0.007901098025794584   -0.02512286021149069
0.23278600411231054   -0.007901098025794584   -0.02512286021149069
0.23278600411231054   -0.007901098025794584   -0.02512286021149069
0.058221921097154045   0.00015913849835783728   0.02144293232358242
0.058221921097154045   0.00015913849835783728   0.02144293232358242
0.058221921097154045   0.00015913849835783728   0.02144293232358242
0.058221921097154045   0.00015913849835783728   0.02144293232358242
0.029160598407053213   -0.05338968317550802   -0.02081574671959055
0.029160598407053213   -0.05338968317550802   -0.02081574671959055
0.029160598407053213   -0.05338968317550802   -0.02081574671959055
0.029160598407053213   -0.05338968317550802   -0.02081574671959055
0.2261928882412561   0.026934562028279846   0.02730760368021561
0.2261928882412561   0.026934562028279846   0.02730760368021561
0.2261928882412561   0.026934562028279846   0.02730760368021561
0.2261928882412561   0.026934562028279846   0.02730760368021561
0.12694548252012353   -0.00904159902935895   -0.016680981740972083
0.12694548252012353   -0.00904159902935895   -0.016680981740972083
0.12694548252012353   -0.00904159902935895   -0.016680981740972083
0.12694548252012353   -0.00904159902935895   -0.016680981740972083
0.07925772297721474   0.030341461427577612   -0.009574271194661067
0.07925772297721474   0.030341461427577612   -0.009574271194661067
0.07925772297721474   0.030341461427577612   -0.009574271194661067
0.07925772297721474   0.030341461427577612   -0.009574271194661067
-0.11249160787587148   0.009616830931168711   0.003815756144322311
-0.11249160787587148   0.009616830931168711   0.003815756144322311
-0.11249160787587148   0.009616830931168711   0.003815756144322311
-0.11249160787587148   0.009616830931168711   0.003815756144322311
-0.13245069565477352   -0.026168049221710392   -0.01717706843078417
-0.13245069565477352   -0.026168049221710392   -0.01717706843078417
-0.13245069565477352   -0.026168049221710392   -0.01717706843078417
-0.13245069565477352   -0.026168049221710392   -0.01717706843078417
0.07650098258018549   0.037635802770639104   0.018272873604766333
0.07650098258018549   0.037635802770639104   0.018272873604766333
0.07650098258018549   0.037635802770639104   0.018272873604766333
0.07650098258018549   0.037635802770639104   0.018272873604766333
-0.022972177951737668   0.012310713173618117   0.0031627875349543033
-0.022972177951737668   0.012310713173618117   0.0031627875349543033
-0.022972177951737668   0.012310713173618117   0.0031627875349543033
-0.022972177951737668   0.012310713173618117   0.0031627875349543033
0.06706537185457902   0.015763918763159624   -0.007033296015786611
0.06706537185457902   0.015763918763159624   -0.007033296015786611
0.06706537185457902   0.015763918763159624   -0.007033296015786611
0.06706537185457902   0.015763918763159624   -0.007033296015786611
-0.12353746714020934   -0.004818547425273212   0.006039572345599561
-0.12353746714020934   -0.004818547425273212   0.006039572345599561
-0.12353746714020934   -0.004818547425273212   0.006039572345599561
-0.12353746714020934   -0.004818547425273212   0.006039572345599561
-0.1429025146084828   -0.037844296430138015   -0.013469996085678523
-0.1429025146084828   -0.037844296430138015   -0.013469996085678523
-0.1429025146084828   -0.037844296430138015   -0.013469996085678523
-0.1429025146084828   -0.037844296430138015   -0.013469996085678523
0.0627884886072723   0.024507926916303237   0.019926981456228305
0.0627884886072723   0.024507926916303237   0.019926981456228305
0.0627884886072723   0.024507926916303237   0.019926981456228305
0.0627884886072723   0.024507926916303237   0.019926981456228305
-0.035898756816682226   -0.00030761002445907695   -0.0028864808575261923
-0.035898756816682226   -0.00030761002445907695   -0.0028864808575261923
-0.035898756816682226   -0.00030761002445907695   -0.0028864808575261923
-0.035898756816682226   -0.00030761002445907695   -0.0028864808575261923
0.05362952879829263   0.0032367777782274874   -0.004596668450595757
0.05362952879829263   0.0032367777782274874   -0.004596668450595757
0.05362952879829263   0.0032367777782274874   -0.004596668450595757
0.05362952879829263   0.0032367777782274874   -0.004596668450595757
-0.13442008875222336   -0.017249681244785306   0.008347518010265913
-0.13442008875222336   -0.017249681244785306   0.008347518010265913
-0.13442008875222336   -0.017249681244785306   0.008347518010265913
-0.13442008875222336   -0.017249681244785306   0.008347518010265913
-0.15327291620375139   -0.049398245196172474   -0.010120612718424588
-0.15327291620375139   -0.049398245196172474   -0.010120612718424588
-0.15327291620375139   -0.049398245196172474   -0.010120612718424588
-0.15327291620375139   -0.049398245196172474   -0.010120612718424588
0.0507818357508726   0.01164805772445305   0.022252699099545744
0.0507818357508726   0.01164805772445305   0.022252699099545744
0.0507818357508726   0.01164805772445305   0.022252699099545744
0.0507818357508726   0.01164805772445305   0.022252699099545744
-0.047061727469017746   -0.0115729025184014   -0.00858989460167715
-0.047061727469017746   -0.0115729025184014   -0.00858989460167715
-0.047061727469017746   -0.0115729025184014   -0.00858989460167715
-0.047061727469017746   -0.0115729025184014   -0.00858989460167715
-0.10662531515316381   0.04128536097929144   0.0014786897097379473
-0.10662531515316381   0.04128536097929144   0.0014786897097379473
-0.10662531515316381   0.04128536097929144   0.0014786897097379473
-0.10662531515316381   0.04128536097929144   0.0014786897097379473
-0.30458756158689926   -0.003785666805542681   -0.00840934733152636
-0.30458756158689926   -0.003785666805542681   -0.00840934733152636
-0.30458756158689926   -0.003785666805542681   -0.00840934733152636
-0.30458756158689926   -0.003785666805542681   -0.00840934733152636
-0.3140119771996569   -0.012964869811341914   -0.005043235747054339
-0.3140119771996569   -0.012964869811341914   -0.005043235747054339
-0.3140119771996569   -0.012964869811341914   -0.005043235747054339
-0.3140119771996569   -0.012964869811341914   -0.005043235747054339
-0.11766141701605198   0.02478570617588234   0.005815569365228939
-0.11766141701605198   0.02478570617588234   0.005815569365228939
-0.11766141701605198   0.02478570617588234   0.005815569365228939
-0.11766141701605198   0.02478570617588234   0.005815569365228939
-0.21021761105699224   0.012062573436684307   0.0032673797026801493
-0.21021761105699224   0.012062573436684307   0.0032673797026801493
-0.21021761105699224   0.012062573436684307   0.0032673797026801493
-0.21021761105699224   0.012062573436684307   0.0032673797026801493
-0.11711143044362567   0.028411773641603442   0.004939434761641194
-0.11711143044362567   0.028411773641603442   0.004939434761641194
-0.11711143044362567   0.028411773641603442   0.004939434761641194
-0.11711143044362567   0.028411773641603442   0.004939434761641194
-0.31502048616489325   -0.017049459669873444   -0.006001190714708683
-0.31502048616489325   -0.017049459669873444   -0.006001190714708683
-0.31502048616489325   -0.017049459669873444   -0.006001190714708683
-0.31502048616489325   -0.017049459669873444   -0.006001190714708683
-0.3244204779181847   -0.025711820783619756   -0.001688491823601741
-0.3244204779181847   -0.025711820783619756   -0.001688491823601741
-0.3244204779181847   -0.025711820783619756   -0.001688491823601741
-0.3244204779181847   -0.025711820783619756   -0.001688491823601741
-0.12869206694864033   0.011471319928688238   0.008266625854705558
-0.12869206694864033   0.011471319928688238   0.008266625854705558
-0.12869206694864033   0.011471319928688238   0.008266625854705558
-0.12869206694864033   0.011471319928688238   0.008266625854705558
-0.22107467454633464   -5.021162003154833e-05   -0.00215193031359049
-0.22107467454633464   -5.021162003154833e-05   -0.00215193031359049
-0.22107467454633464   -5.021162003154833e-05   -0.00215193031359049
-0.22107467454633464   -5.021162003154833e-05   -0.00215193031359049
-0.12795417547082785   0.015503848920886347   0.007923554251571882
-0.12795417547082785   0.015503848920886347   0.007923554251571882
-0.12795417547082785   0.015503848920886347   0.007923554251571882
-0.12795417547082785   0.015503848920886347   0.007923554251571882
-0.3258097646643407   -0.030395745044161697   -0.003951001293843749
-0.3258097646643407   -0.030395745044161697   -0.003951001293843749
-0.3258097646643407   -0.030395745044161697   -0.003951001293843749
-0.3258097646643407   -0.030395745044161697   -0.003951001293843749
-0.33462540363929977   -0.038012758701610416   0.001563062707964892
-0.33462540363929977   -0.038012758701610416   0.001563062707964892
-0.33462540363929977   -0.038012758701610416   0.001563062707964892
-0.33462540363929977   -0.038012758701610416   0.001563062707964892
-0.139538503380773   -0.0013504709443500316   0.010503677144642856
-0.139538503380773   -0.0013504709443500316   0.010503677144642856
-0.139538503380773   -0.0013504709443500316   0.010503677144642856
-0.139538503380773   -0.0013504709443500316   0.010503677144642856
-0.23250140339230754   -0.01218981337834657   -0.008037707917467123
-0.23250140339230754   -0.01218981337834657   -0.008037707917467123
-0.23250140339230754   -0.01218981337834657   -0.008037707917467123
-0.23250140339230754   -0.01218981337834657   -0.008037707917467123
-0.2892350439399091   0.05171870769226508   0.012848866405616409
-0.2892350439399091   0.05171870769226508   0.012848866405616409
-0.2892350439399091   0.05171870769226508   0.012848866405616409
-0.2892350439399091   0.05171870769226508   0.012848866405616409
-0.4926327924081003   -0.014832218687094459   -0.01912903946191426
-0.4926327924081003   -0.014832218687094459   -0.01912903946191426
-0.4926327924081003   -0.014832218687094459   -0.01912903946191426
-0.4926327924081003   -0.014832218687094459   -0.01912903946191426
-0.49356008752336805   -0.0013416300887441196   0.0078068881837086955
-0.49356008752336805   -0.0013416300887441196   0.0078068881837086955
-0.49356008752336805   -0.0013416300887441196   0.0078068881837086955
-0.49356008752336805   -0.0013416300887441196   0.0078068881837086955
-0.30905650577644556   0.012762711971649937   -0.005993460413997089
-0.30905650577644556   0.012762711971649937   -0.005993460413997089
-0.30905650577644556   0.012762711971649937   -0.005993460413997089
-0.30905650577644556   0.012762711971649937   -0.005993460413997089
-0.39408424385107393   0.012046280709859802   0.004280647230810307
-0.39408424385107393   0.012046280709859802   0.004280647230810307
-0.39408424385107393   0.012046280709859802   0.004280647230810307
-0.39408424385107393   0.012046280709859802   0.004280647230810307
-0.29930401295998826   0.039212125262654704   0.01631959037729226
-0.29930401295998826   0.039212125262654704   0.01631959037729226
-0.29930401295998826   0.039212125262654704   0.01631959037729226
-0.29930401295998826   0.039212125262654704   0.01631959037729226
-0.5041910127376511   -0.028669475777569495   -0.01801989219888862
-0.5041910127376511   -0.028669475777569495   -0.01801989219888862
-0.5041910127376511   -0.028669475777569495   -0.01801989219888862
-0.5041910127376511   -0.028669475777569495   -0.01801989219888862
-0.5063782120716209   -0.013913189741822263   0.009610777427757428
-0.5063782120716209   -0.013913189741822263   0.009610777427757428
-0.5063782120716209   -0.013913189741822263   0.009610777427757428
-0.5063782120716209   -0.013913189741822263   0.009610777427757428
-0.31951970698778004   0.0004955708250879848   -0.003392028780293748
-0.31951970698778004   0.0004955708250879848   -0.003392028780293748
-0.31951970698778004   0.0004955708250879848   -0.003392028780293748
-0.31951970698778004   0.0004955708250879848   -0.003392028780293748
-0.40329287443591066   0.0007679908744606528   -0.0013979151693262297
-0.40329287443591066   0.0007679908744606528   -0.0013979151693262297
-0.40329287443591066   0.0007679908744606528   -0.0013979151693262297
-0.40329287443591066   0.0007679908744606528   -0.0013979151693262297
-0.3095085192288503   0.027475407924224732   0.019684072915221812
-0.3095085192288503   0.027475407924224732   0.019684072915221812
-0.3095085192288503   0.027475407924224732   0.019684072915221812
-0.3095085192288503   0.027475407924224732   0.019684072915221812
-0.5169376561464859   -0.041441283156895006   -0.015658349531502812
-0.5169376561464859   -0.041441283156895006   -0.015658349531502812
-0.5169376561464859   -0.041441283156895006   -0.015658349531502812
-0.5169376561464859   -0.041441283156895006   -0.015658349531502812
-0.517441267007107   -0.027032709015814504   0.013116800106561154
-0.517441267007107   -0.027032709015814504   0.013116800106561154
-0.517441267007107   -0.027032709015814504   0.013116800106561154
-0.517441267007107   -0.027032709015814504   0.013116800106561154
-0.33011615490391516   -0.012641934986503199   -0.0012615173302270247
-0.33011615490391516   -0.012641934986503199   -0.0012615173302270247
-0.33011615490391516   -0.012641934986503199   -0.0012615173302270247
-0.33011615490391516   -0.012641934986503199   -0.0012615173302270247
-0.4170429688354556   -0.011551431348409691   -0.00759867986249441
-0.4170429688354556   -0.011551431348409691   -0.00759867986249441
-0.4170429688354556   -0.011551431348409691   -0.00759867986249441
-0.4170429688354556   -0.011551431348409691   -0.00759867986249441
-0.471103821612566   0.050930940370880584   0.022752655457794264
-0.471103821612566   0.050930940370880584   0.022752655457794264
-0.471103821612566   0.050930940370880584   0.022752655457794264
-0.471103821612566   0.050930940370880584   0.022752655457794264
-0.6638718339740257   -0.030643299867923718   -0.028907422940372927
-0.6638718339740257   -0.030643299867923718   -0.028907422940372927
-0.6638718339740257   -0.030643299867923718   -0.028907422940372927
-0.6638718339740257   -0.030643299867923718   -0.028907422940372927
-0.6686832972466457   0.008102269754686448   0.023912001772993234
-0.6686832972466457   0.008102269754686448   0.023912001772993234
-0.6686832972466457   0.008102269754686448   0.023912001772993234
-0.6686832972466457   0.008102269754686448   0.023912001772993234
-0.49864846516303424   -0.0013424165232430452   -0.01763421358013076
-0.49864846516303424   -0.0013424165232430452   -0.01763421358013076
-0.49864846516303424   -0.0013424165232430452   -0.01763421358013076
-0.49864846516303424   -0.0013424165232430452   -0.01763421358013076
-0.5508062158924026   0.012120700056303377   0.013409377601543072
-0.5508062158924026   0.012120700056303377   0.013409377601543072
-0.5508062158924026   0.012120700056303377   0.013409377601543072
-0.5508062158924026   0.012120700056303377   0.013409377601543072
-0.4801908249804392   0.046400565012702705   0.026911005796898764
-0.4801908249804392   0.046400565012702705   0.026911005796898764
-0.4801908249804392   0.046400565012702705   0.026911005796898764
-0.4801908249804392   0.046400565012702705   0.026911005796898764
-0.6880774710814861   -0.04057724543350977   -0.02437935221301263
-0.6880774710814861   -0.04057724543350977   -0.02437935221301263
-0.6880774710814861   -0.04057724543350977   -0.02437935221301263
-0.6880774710814861   -0.04057724543350977   -0.02437935221301263
-0.6886645952938284   0.0010292104646743294   0.030525603054758654
-0.6886645952938284   0.0010292104646743294   0.030525603054758654
-0.6886645952938284   0.0010292104646743294   0.030525603054758654
-0.6886645952938284   0.0010292104646743294   0.030525603054758654
-0.5101793518410201   -0.008187038580850459   -0.015121072580218622
-0.5101793518410201   -0.008187038580850459   -0.015121072580218622
-0.5101793518410201   -0.008187038580850459   -0.015121072580218622
-0.5101793518410201   -0.008187038580850459   -0.015121072580218622
-0.5764196355129008   0.0037665278014768766   0.004930098652439374
-0.5764196355129008   0.0037665278014768766   0.004930098652439374
-0.5764196355129008   0.0037665278014768766   0.004930098652439374
-0.5764196355129008   0.0037665278014768766   0.004930098652439374
-0.4909450872810004   0.04086719482007409   0.03199601681896001
-0.4909450872810004   0.04086719482007409   0.03199601681896001
-0.4909450872810004   0.04086719482007409   0.03199601681896001
-0.4909450872810004   0.04086719482007409   0.03199601681896001
-0.7087820078543067   -0.04890817093671307   -0.020124078346245175
-0.7087820078543067   -0.04890817093671307   -0.020124078346245175
-0.7087820078543067   -0.04890817093671307   -0.020124078346245175
-0.7087820078543067   -0.04890817093671307   -0.020124078346245175
-0.7162812824610193   -0.01911583971645381   0.03149595122554657
-0.7162812824610193   -0.01911583971645381   0.03149595122554657
-0.7162812824610193   -0.01911583971645381   0.03149595122554657
-0.7162812824610193   -0.01911583971645381   0.03149595122554657
-0.5220835224083105   -0.02393993313565762   -0.01318725277962024
-0.5220835224083105   -0.02393993313565762   -0.01318725277962024
-0.5220835224083105   -0.02393993313565762   -0.01318725277962024
-0.5220835224083105   -0.02393993313565762   -0.01318725277962024
-0.5846581456041907   -0.005141959957639039   -8.896731846235947e-05
-0.5846581456041907   -0.005141959957639039   -8.896731846235947e-05
-0.5846581456041907   -0.005141959957639039   -8.896731846235947e-05
-0.5846581456041907   -0.005141959957639039   -8.896731846235947e-05
0.05408976911042408   0.004440224754168872   -0.03333658263412359
0.05408976911042408   0.004440224754168872   -0.03333658263412359
0.05408976911042408   0.004440224754168872   -0.03333658263412359
0.05408976911042408   0.004440224754168872   -0.03333658263412359
-0.05222866084071403   0.024911486623442305   0.016997586918523704
-0.05222866084071403   0.024911486623442305   0.016997586918523704
-0.05222866084071403   0.024911486623442305   0.016997586918523704
-0.05222866084071403   0.024911486623442305   0.016997586918523704
-0.07940173294697879   -0.032205868560309284   -0.026876003766856206
-0.07940173294697879   -0.032205868560309284   -0.026876003766856206
-0.07940173294697879   -0.032205868560309284   -0.026876003766856206
-0.07940173294697879   -0.032205868560309284   -0.026876003766856206
0.04997329800221072   0.035632242570930936   0.020841752868359816
0.04997329800221072   0.035632242570930936   0.020841752868359816
0.04997329800221072   0.035632242570930936   0.020841752868359816
0.04997329800221072   0.035632242570930936   0.020841752868359816
-0.008175763147895504   0.007825144249329589   0.0028761014703471257
-0.008175763147895504   0.007825144249329589   0.0028761014703471257
-0.008175763147895504   0.007825144249329589   0.0028761014703471257
-0.008175763147895504   0.007825144249329589   0.0028761014703471257
0.0305490457368428   -0.010808304373069571   -0.029838961514479255
0.0305490457368428   -0.010808304373069571   -0.029838961514479255
0.0305490457368428   -0.010808304373069571   -0.029838961514479255
0.0305490457368428   -0.010808304373069571   -0.029838961514479255
-0.06111803523060217   0.013094123834699945   0.019242492420017736
-0.06111803523060217   0.013094123834699945   0.019242492420017736
-0.06111803523060217   0.013094123834699945   0.019242492420017736
-0.06111803523060217   0.013094123834699945   0.019242492420017736
-0.08837291168567536   -0.0380101992917208   -0.02280892384396603
-0.08837291168567536   -0.0380101992917208   -0.02280892384396603
-0.08837291168567536   -0.0380101992917208   -0.02280892384396603
-0.08837291168567536   -0.0380101992917208   -0.02280892384396603
0.03154665923445864   0.027760732450190992   0.02861822966105839
0.03154665923445864   0.027760732450190992   0.02861822966105839
0.03154665923445864   0.027760732450190992   0.02861822966105839
0.03154665923445864   0.027760732450190992   0.02861822966105839
-0.022655970452018767   -0.0008754588232020976   -0.003813058793168181
-0.022655970452018767   -0.0008754588232020976   -0.003813058793168181
-0.022655970452018767   -0.0008754588232020976   -0.003813058793168181
-0.022655970452018767   -0.0008754588232020976   -0.003813058793168181
0.011664374635930804   -0.018372874529070264   -0.024659586352319525
0.011664374635930804   -0.018372874529070264   -0.024659586352319525
0.011664374635930804   -0.018372874529070264   -0.024659586352319525
0.011664374635930804   -0.018372874529070264   -0.024659586352319525
-0.07007685857352948   0.006537176201158417   0.024123966223883637
-0.07007685857352948   0.006537176201158417   0.024123966223883637
-0.07007685857352948   0.006537176201158417   0.024123966223883637
-0.07007685857352948   0.006537176201158417   0.024123966223883637
-0.09658764330899758   -0.04686794444716757   -0.01892439714675241
-0.09658764330899758   -0.04686794444716757   -0.01892439714675241
-0.09658764330899758   -0.04686794444716757   -0.01892439714675241
-0.09658764330899758   -0.04686794444716757   -0.01892439714675241
0.005954277766624618   0.011303907687090907   0.03265855379427251
0.005954277766624618   0.011303907687090907   0.03265855379427251
0.005954277766624618   0.011303907687090907   0.03265855379427251
0.005954277766624618   0.011303907687090907   0.03265855379427251
-0.03834434678057236   -0.00960849398188544   -0.011552557766103266
-0.03834434678057236   -0.00960849398188544   -0.011552557766103266
-0.03834434678057236   -0.00960849398188544   -0.011552557766103266
-0.03834434678057236   -0.00960849398188544   -0.011552557766103266
-0.05990121788454138   0.016734179470946766   -0.013187891148117508
-0.05990121788454138   0.016734179470946766   -0.013187891148117508
-0.05990121788454138   0.016734179470946766   -0.013187891148117508
-0.05990121788454138   0.016734179470946766   -0.013187891148117508
-0.15916686444568778   0.006709054648242799   0.004406380924650882
-0.15916686444568778   0.006709054648242799   0.004406380924650882
-0.15916686444568778   0.006709054648242799   0.004406380924650882
-0.15916686444568778   0.006709054648242799   0.004406380924650882
-0.1732199231167178   -0.018764174695532244   -0.014006108029187144
-0.1732199231167178   -0.018764174695532244   -0.014006108029187144
-0.1732199231167178   -0.018764174695532244   -0.014006108029187144
-0.1732199231167178   -0.018764174695532244   -0.014006108029187144
-0.061643028428852296   0.01631602848938289   0.013395621774084166
-0.061643028428852296   0.01631602848938289   0.013395621774084166
-0.061643028428852296   0.01631602848938289   0.013395621774084166
-0.061643028428852296   0.01631602848938289   0.013395621774084166
-0.11326387552644099   0.004915917973173929   0.0026427551994218958
-0.11326387552644099   0.004915917973173929   0.0026427551994218958
-0.11326387552644099   0.004915917973173929   0.0026427551994218958
-0.11326387552644099   0.004915917973173929   0.0026427551994218958
-0.06922019556695025   0.002668462779045127   -0.010842648206067824
-0.06922019556695025   0.002668462779045127   -0.010842648206067824
-0.06922019556695025   0.002668462779045127   -0.010842648206067824
-0.06922019556695025   0.002668462779045127   -0.010842648206067824
-0.16658446858918077   -0.006058321595755395   0.006465311508721193
-0.16658446858918077   -0.006058321595755395   0.006465311508721193
-0.16658446858918077   -0.006058321595755395   0.006465311508721193
-0.16658446858918077   -0.006058321595755395   0.006465311508721193
-0.1802122601858513   -0.030149952592978035   -0.010361667297069796
-0.1802122601858513   -0.030149952592978035   -0.010361667297069796
-0.1802122601858513   -0.030149952592978035   -0.010361667297069796
-0.1802122601858513   -0.030149952592978035   -0.010361667297069796
-0.07244197768294015   0.0037305564294821247   0.015104990448506574
-0.07244197768294015   0.0037305564294821247   0.015104990448506574
-0.07244197768294015   0.0037305564294821247   0.015104990448506574
-0.07244197768294015   0.0037305564294821247   0.015104990448506574
-0.12209516942236098   -0.00653046691022921   -0.0031078632554523812
-0.12209516942236098   -0.00653046691022921   -0.0031078632554523812
-0.12209516942236098   -0.00653046691022921   -0.0031078632554523812
-0.12209516942236098   -0.00653046691022921   -0.0031078632554523812
-0.07975133192390699   -0.009606398622120175   -0.008104825704724814
-0.07975133192390699   -0.009606398622120175   -0.008104825704724814
-0.07975133192390699   -0.009606398622120175   -0.008104825704724814
-0.07975133192390699   -0.009606398622120175   -0.008104825704724814
-0.17391495335100626   -0.017825044947497464   0.008799959231674741
-0.17391495335100626   -0.017825044947497464   0.008799959231674741
-0.17391495335100626   -0.017825044947497464   0.008799959231674741
-0.17391495335100626   -0.017825044947497464   0.008799959231674741
-0.18725064626718552   -0.04183615619564432   -0.007135888482898322
-0.18725064626718552   -0.04183615619564432   -0.007135888482898322
-0.18725064626718552   -0.04183615619564432   -0.007135888482898322
-0.18725064626718552   -0.04183615619564432   -0.007135888482898322
-0.08147829187851656   -0.008984857303474524   0.018739272861959633
-0.08147829187851656   -0.008984857303474524   0.018739272861959633
-0.08147829187851656   -0.008984857303474524   0.018739272861959633
-0.08147829187851656   -0.008984857303474524   0.018739272861959633
-0.13089503649162898   -0.017814609948278076   -0.008946350607934746
-0.13089503649162898   -0.017814609948278076   -0.008946350607934746
-0.13089503649162898   -0.017814609948278076   -0.008946350607934746
-0.13089503649162898   -0.017814609948278076   -0.008946350607934746
-0.15620982770268355   0.027293227745990592   -0.0013926084580757267
-0.15620982770268355   0.027293227745990592   -0.0013926084580757267
-0.15620982770268355   0.027293227745990592   -0.0013926084580757267
-0.15620982770268355   0.027293227745990592   -0.0013926084580757267
-0.2650022679314814   -0.009155158214790439   -0.007534926982878101
-0.2650022679314814   -0.009155158214790439   -0.007534926982878101
-0.2650022679314814   -0.009155158214790439   -0.007534926982878101
-0.2650022679314814   -0.009155158214790439   -0.007534926982878101
-0.267816525101954   -0.006737531926072508   -0.0016455130586432703
-0.267816525101954   -0.006737531926072508   -0.0016455130586432703
-0.267816525101954   -0.006737531926072508   -0.0016455130586432703
-0.267816525101954   -0.006737531926072508   -0.0016455130586432703
-0.1658969141101783   0.0017718352048949337   0.0020729271030832074
-0.1658969141101783   0.0017718352048949337   0.0020729271030832074
-0.1658969141101783   0.0017718352048949337   0.0020729271030832074
-0.1658969141101783   0.0017718352048949337   0.0020729271030832074
-0.21327960464124104   0.003076765744911905   0.0009423114270028024
-0.21327960464124104   0.003076765744911905   0.0009423114270028024
-0.21327960464124104   0.003076765744911905   0.0009423114270028024
-0.21327960464124104   0.003076765744911905   0.0009423114270028024
-0.16327717092287575   0.014906780975308315   0.0020366972691825847
-0.16327717092287575   0.014906780975308315   0.0020366972691825847
-0.16327717092287575   0.014906780975308315   0.0020366972691825847
-0.16327717092287575   0.014906780975308315   0.0020366972691825847
-0.27134402882104797   -0.020780238228277327   -0.0052403253519084335
-0.27134402882104797   -0.020780238228277327   -0.0052403253519084335
-0.27134402882104797   -0.020780238228277327   -0.0052403253519084335
-0.27134402882104797   -0.020780238228277327   -0.0052403253519084335
-0.274377282400083   -0.01897039576885299   0.0017432628184574587
-0.274377282400083   -0.01897039576885299   0.0017432628184574587
-0.274377282400083   -0.01897039576885299   0.0017432628184574587
-0.274377282400083   -0.01897039576885299   0.0017432628184574587
-0.1733053704309611   -0.010258305479260831   0.004281134363664041
-0.1733053704309611   -0.010258305479260831   0.004281134363664041
-0.1733053704309611   -0.010258305479260831   0.004281134363664041
-0.1733053704309611   -0.010258305479260831   0.004281134363664041
-0.22038550493968798   -0.008049023075242683   -0.004337995353942152
-0.22038550493968798   -0.008049023075242683   -0.004337995353942152
-0.22038550493968798   -0.008049023075242683   -0.004337995353942152
-0.22038550493968798   -0.008049023075242683   -0.004337995353942152
-0.17061162907617336   0.0024436578865907263   0.005047877771751025
-0.17061162907617336   0.0024436578865907263   0.005047877771751025
-0.17061162907617336   0.0024436578865907263   0.005047877771751025
-0.17061162907617336   0.0024436578865907263   0.005047877771751025
-0.2781660343369768   -0.03276736971680867   -0.003403522918059524
-0.2781660343369768   -0.03276736971680867   -0.003403522918059524
-0.2781660343369768   -0.03276736971680867   -0.003403522918059524
-0.2781660343369768   -0.03276736971680867   -0.003403522918059524
-0.28076494796652446   -0.030696951124498415   0.004997720829652364
-0.28076494796652446   -0.030696951124498415   0.004997720829652364
-0.28076494796652446   -0.030696951124498415   0.004997720829652364
-0.28076494796652446   -0.030696951124498415   0.004997720829652364
-0.18042714986534394   -0.021597576323034513   0.006743013653699796
-0.18042714986534394   -0.021597576323034513   0.006743013653699796
-0.18042714986534394   -0.021597576323034513   0.006743013653699796
-0.18042714986534394   -0.021597576323034513   0.006743013653699796
-0.22803186578814713   -0.019239713395058894   -0.010076424635391209
-0.22803186578814713   -0.019239713395058894   -0.010076424635391209
-0.22803186578814713   -0.019239713395058894   -0.010076424635391209
-0.22803186578814713   -0.019239713395058894   -0.010076424635391209
-0.2516309882038685   0.03935601061184628   0.010810302828557588
-0.2516309882038685   0.03935601061184628   0.010810302828557588
-0.2516309882038685   0.03935601061184628   0.010810302828557588
-0.2516309882038685   0.03935601061184628   0.010810302828557588
-0.3667979680213408   -0.015299771916050073   -0.016873399220040487
-0.3667979680213408   -0.015299771916050073   -0.016873399220040487
-0.3667979680213408   -0.015299771916050073   -0.016873399220040487
-0.3667979680213408   -0.015299771916050073   -0.016873399220040487
-0.3619449816129862   0.0056028147646320775   0.011095529387454273
-0.3619449816129862   0.0056028147646320775   0.011095529387454273
-0.3619449816129862   0.0056028147646320775   0.011095529387454273
-0.3619449816129862   0.0056028147646320775   0.011095529387454273
-0.26866800547792546   -0.005169503346136854   -0.007470943518436189
-0.26866800547792546   -0.005169503346136854   -0.007470943518436189
-0.26866800547792546   -0.005169503346136854   -0.007470943518436189
-0.26866800547792546   -0.005169503346136854   -0.007470943518436189
-0.311157678720265   0.006157733691787931   0.0015470310756180994
-0.311157678720265   0.006157733691787931   0.0015470310756180994
-0.311157678720265   0.006157733691787931   0.0015470310756180994
-0.311157678720265   0.006157733691787931   0.0015470310756180994
-0.2578817113216825   0.02704547310727777   0.014245550809363707
-0.2578817113216825   0.02704547310727777   0.014245550809363707
-0.2578817113216825   0.02704547310727777   0.014245550809363707
-0.2578817113216825   0.02704547310727777   0.014245550809363707
-0.3740575234712714   -0.027938409390820415   -0.01592595574852331
-0.3740575234712714   -0.027938409390820415   -0.01592595574852331
-0.3740575234712714   -0.027938409390820415   -0.01592595574852331
-0.3740575234712714   -0.027938409390820415   -0.01592595574852331
-0.3707296064683241   -0.00644452757589993   0.0131173786953107
-0.3707296064683241   -0.00644452757589993   0.0131173786953107
-0.3707296064683241   -0.00644452757589993   0.0131173786953107
-0.3707296064683241   -0.00644452757589993   0.0131173786953107
-0.27517122733106475   -0.016122616830873203   -0.005074240774430961
-0.27517122733106475   -0.016122616830873203   -0.005074240774430961
-0.27517122733106475   -0.016122616830873203   -0.005074240774430961
-0.27517122733106475   -0.016122616830873203   -0.005074240774430961
-0.31711947583327277   -0.004560387239466571   -0.0041761983969148785
-0.31711947583327277   -0.004560387239466571   -0.0041761983969148785
-0.31711947583327277   -0.004560387239466571   -0.0041761983969148785
-0.31711947583327277   -0.004560387239466571   -0.0041761983969148785
-0.2642665012815147   0.015741643542406883   0.017585129100035377
-0.2642665012815147   0.015741643542406883   0.017585129100035377
-0.2642665012815147   0.015741643542406883   0.017585129100035377
-0.2642665012815147   0.015741643542406883   0.017585129100035377
-0.3826816471701571   -0.03935610260146748   -0.013731249788294615
-0.3826816471701571   -0.03935610260146748   -0.013731249788294615
-0.3826816471701571   -0.03935610260146748   -0.013731249788294615
-0.3826816471701571   -0.03935610260146748   -0.013731249788294615
-0.3778681912669598   -0.018595082060323294   0.01672478366371715
-0.3778681912669598   -0.018595082060323294   0.01672478366371715
-0.3778681912669598   -0.018595082060323294   0.01672478366371715
-0.3778681912669598   -0.018595082060323294   0.01672478366371715
-0.2817011123151548   -0.027352489556390247   -0.0030275624816114496
-0.2817011123151548   -0.027352489556390247   -0.0030275624816114496
-0.2817011123151548   -0.027352489556390247   -0.0030275624816114496
-0.2817011123151548   -0.027352489556390247   -0.0030275624816114496
-0.32611298801782324   -0.015516861660031911   -0.010051362092050441
-0.32611298801782324   -0.015516861660031911   -0.010051362092050441
-0.32611298801782324   -0.015516861660031911   -0.010051362092050441
-0.32611298801782324   -0.015516861660031911   -0.010051362092050441
-0.34754911691789075   0.04268078750634405   0.02139029687481557
-0.34754911691789075   0.04268078750634405   0.02139029687481557
-0.34754911691789075   0.04268078750634405   0.02139029687481557
-0.34754911691789075   0.04268078750634405   0.02139029687481557
-0.44852807919337945   -0.022530227978517392   -0.028102532516309814
-0.44852807919337945   -0.022530227978517392   -0.028102532516309814
-0.44852807919337945   -0.022530227978517392   -0.028102532516309814
-0.44852807919337945   -0.022530227978517392   -0.028102532516309814
-0.4489190003456333   0.016846541570876367   0.023581112073065374
-0.4489190003456333   0.016846541570876367   0.023581112073065374
-0.4489190003456333   0.016846541570876367   0.023581112073065374
-0.4489190003456333   0.016846541570876367   0.023581112073065374
-0.37121205827034165   -0.012450646873383556   -0.017186392261307464
-0.37121205827034165   -0.012450646873383556   -0.017186392261307464
-0.37121205827034165   -0.012450646873383556   -0.017186392261307464
-0.37121205827034165   -0.012450646873383556   -0.017186392261307464
-0.38766419651761863   0.010032309152856092   0.007590456163460758
-0.38766419651761863   0.010032309152856092   0.007590456163460758
-0.38766419651761863   0.010032309152856092   0.007590456163460758
-0.38766419651761863   0.010032309152856092   0.007590456163460758
-0.35296452140113016   0.03636778665619447   0.025232858555168165
-0.35296452140113016   0.03636778665619447   0.025232858555168165
-0.35296452140113016   0.03636778665619447   0.025232858555168165
-0.35296452140113016   0.03636778665619447   0.025232858555168165
-0.4685477084322965   -0.0333530631761514   -0.02436282361320716
-0.4685477084322965   -0.0333530631761514   -0.02436282361320716
-0.4685477084322965   -0.0333530631761514   -0.02436282361320716
-0.4685477084322965   -0.0333530631761514   -0.02436282361320716
-0.46489289148488844   0.009967781838563908   0.030366569160721432
-0.46489289148488844   0.009967781838563908   0.030366569160721432
-0.46489289148488844   0.009967781838563908   0.030366569160721432
-0.46489289148488844   0.009967781838563908   0.030366569160721432
-0.37882245611018145   -0.018750113909779   -0.015041283180096923
-0.37882245611018145   -0.018750113909779   -0.015041283180096923
-0.37882245611018145   -0.018750113909779   -0.015041283180096923
-0.37882245611018145   -0.018750113909779   -0.015041283180096923
-0.4067186549240463   0.0016798852965781708   -0.00037702848048873014
-0.4067186549240463   0.0016798852965781708   -0.00037702848048873014
-0.4067186549240463   0.0016798852965781708   -0.00037702848048873014
-0.4067186549240463   0.0016798852965781708   -0.00037702848048873014
-0.3598239505934048   0.03095706856959564   0.03024406192441175
-0.3598239505934048   0.03095706856959564   0.03024406192441175
-0.3598239505934048   0.03095706856959564   0.03024406192441175
-0.3598239505934048   0.03095706856959564   0.03024406192441175
-0.48529428635494476   -0.04114228999409168   -0.020530333356897006
-0.48529428635494476   -0.04114228999409168   -0.020530333356897006
-0.48529428635494476   -0.04114228999409168   -0.020530333356897006
-0.48529428635494476   -0.04114228999409168   -0.020530333356897006
-0.4884535518298544   -0.008158165682130014   0.03209161390956171
-0.4884535518298544   -0.008158165682130014   0.03209161390956171
-0.4884535518298544   -0.008158165682130014   0.03209161390956171
-0.4884535518298544   -0.008158165682130014   0.03209161390956171
-0.38646690729645927   -0.03187233104237466   -0.012991547501736478
-0.38646690729645927   -0.03187233104237466   -0.012991547501736478
-0.38646690729645927   -0.03187233104237466   -0.012991547501736478
-0.38646690729645927   -0.03187233104237466   -0.012991547501736478
-0.41397269236914713   -0.006614758228931691   -0.006011965510509695
-0.41397269236914713   -0.006614758228931691   -0.006011965510509695
-0.41397269236914713   -0.006614758228931691   -0.006011965510509695
-0.41397269236914713   -0.006614758228931691   -0.006011965510509695
-0.18411531678285506   -0.01196442257214432   -0.03549530311726839
-0.18411531678285506   -0.01196442257214432   -0.03549530311726839
-0.18411531678285506   -0.01196442257214432   -0.03549530311726839
-0.18411531678285506   -0.01196442257214432   -0.03549530311726839
-0.18448940534155167   0.027034627207314504   0.015931370307287956
-0.18448940534155167   0.027034627207314504   0.015931370307287956
-0.18448940534155167   0.027034627207314504   0.015931370307287956
-0.18448940534155167   0.027034627207314504   0.015931370307287956
-0.20796911079053224   -0.02494911441720344   -0.024122623279569093
-0.20796911079053224   -0.02494911441720344   -0.024122623279569093
-0.20796911079053224   -0.02494911441720344   -0.024122623279569093
-0.20796911079053224   -0.02494911441720344   -0.024122623279569093
-0.18808523999355928   0.014533041189599007   0.023839279357658866
-0.18808523999355928   0.014533041189599007   0.023839279357658866
-0.18808523999355928   0.014533041189599007   0.023839279357658866
-0.18808523999355928   0.014533041189599007   0.023839279357658866
-0.1815576714643488   0.004651251173141982   0.016255848617757265
-0.1815576714643488   0.004651251173141982   0.016255848617757265
-0.1815576714643488   0.004651251173141982   0.016255848617757265
-0.1815576714643488   0.004651251173141982   0.016255848617757265
-0.20689245352530458   -0.025868339775445313   -0.029795407336021477
-0.20689245352530458   -0.025868339775445313   -0.029795407336021477
-0.20689245352530458   -0.025868339775445313   -0.029795407336021477
-0.20689245352530458   -0.025868339775445313   -0.029795407336021477
-0.1914736572299717   0.013140506576659015   0.020265023529371325
-0.1914736572299717   0.013140506576659015   0.020265023529371325
-0.1914736572299717   0.013140506576659015   0.020265023529371325
-0.1914736572299717   0.013140506576659015   0.020265023529371325
-0.21510008208829612   -0.03138209384402484   -0.020449160487266013
-0.21510008208829612   -0.03138209384402484   -0.020449160487266013
-0.21510008208829612   -0.03138209384402484   -0.020449160487266013
-0.21510008208829612   -0.03138209384402484   -0.020449160487266013
-0.2062957829350141   0.005800394563993373   0.04442731082348942
-0.2062957829350141   0.005800394563993373   0.04442731082348942
-0.2062957829350141   0.005800394563993373   0.04442731082348942
-0.2062957829350141   0.005800394563993373   0.04442731082348942
-0.1982774181982262   -0.00639052358028834   0.006542376372162491
-0.1982774181982262   -0.00639052358028834   0.006542376372162491
-0.1982774181982262   -0.00639052358028834   0.006542376372162491
-0.1982774181982262   -0.00639052358028834   0.006542376372162491
-0.2278973957431742   -0.03450649684017535   -0.023273861813140465
-0.2278973957431742   -0.03450649684017535   -0.023273861813140465
-0.2278973957431742   -0.03450649684017535   -0.023273861813140465
-0.2278973957431742   -0.03450649684017535   -0.023273861813140465
-0.19900536151547019   0.003417905324810011   0.02522444320802871
-0.19900536151547019   0.003417905324810011   0.02522444320802871
-0.19900536151547019   0.003417905324810011   0.02522444320802871
-0.19900536151547019   0.003417905324810011   0.02522444320802871
-0.22095164247467833   -0.043834033624315434   -0.0161252325214409
-0.22095164247467833   -0.043834033624315434   -0.0161252325214409
-0.22095164247467833   -0.043834033624315434   -0.0161252325214409
-0.22095164247467833   -0.043834033624315434   -0.0161252325214409
-0.23457086903345323   -0.023059838872274318   0.041558604896136456
-0.23457086903345323   -0.023059838872274318   0.041558604896136456
-0.23457086903345323   -0.023059838872274318   0.041558604896136456
-0.23457086903345323   -0.023059838872274318   0.041558604896136456
-0.21290585874383017   -0.019430391120955928   -0.00890369126869273
-0.21290585874383017   -0.019430391120955928   -0.00890369126869273
-0.21290585874383017   -0.019430391120955928   -0.00890369126869273
-0.21290585874383017   -0.019430391120955928   -0.00890369126869273
-0.19783562396207277   -0.005549160464640379   -0.01821593512336468
-0.19783562396207277   -0.005549160464640379   -0.01821593512336468
-0.19783562396207277   -0.005549160464640379   -0.01821593512336468
-0.19783562396207277   -0.005549160464640379   -0.01821593512336468
-0.20220709179889398   -0.024912357190076596   -0.0010705548404283654
-0.20220709179889398   -0.024912357190076596   -0.0010705548404283654
-0.20220709179889398   -0.024912357190076596   -0.0010705548404283654
-0.20220709179889398   -0.024912357190076596   -0.0010705548404283654
-0.20379968435515777   -0.016632110258412942   -0.009188416038574173
-0.20379968435515777   -0.016632110258412942   -0.009188416038574173
-0.20379968435515777   -0.016632110258412942   -0.009188416038574173
-0.20379968435515777   -0.016632110258412942   -0.009188416038574173
-0.2049194792785783   -0.03355167517951865   -0.00027190495748399867
-0.2049194792785783   -0.03355167517951865   -0.00027190495748399867
-0.2049194792785783   -0.03355167517951865   -0.00027190495748399867
-0.2049194792785783   -0.03355167517951865   -0.00027190495748399867
-0.20047760671837944   -0.021040268337375205   -0.0006125297036709571
-0.20047760671837944   -0.021040268337375205   -0.0006125297036709571
-0.20047760671837944   -0.021040268337375205   -0.0006125297036709571
-0.20047760671837944   -0.021040268337375205   -0.0006125297036709571
-0.20494618569032644   -0.018179291464064773   -0.01577782073168002
-0.20494618569032644   -0.018179291464064773   -0.01577782073168002
-0.20494618569032644   -0.018179291464064773   -0.01577782073168002
-0.20494618569032644   -0.018179291464064773   -0.01577782073168002
-0.20507171863552565   -0.03330323466598084   0.0011225369671524345
-0.20507171863552565   -0.03330323466598084   0.0011225369671524345
-0.20507171863552565   -0.03330323466598084   0.0011225369671524345
-0.20507171863552565   -0.03330323466598084   0.0011225369671524345
-0.2073222271705819   -0.027458965349405343   -0.0059623689582890245
-0.2073222271705819   -0.027458965349405343   -0.0059623689582890245
-0.2073222271705819   -0.027458965349405343   -0.0059623689582890245
-0.2073222271705819   -0.027458965349405343   -0.0059623689582890245
-0.21250973452371347   -0.04359101938639064   0.004711502878013037
-0.21250973452371347   -0.04359101938639064   0.004711502878013037
-0.21250973452371347   -0.04359101938639064   0.004711502878013037
-0.21250973452371347   -0.04359101938639064   0.004711502878013037
-0.20521768949514246   -0.029805233222880957   -0.005651272481936394
-0.20521768949514246   -0.029805233222880957   -0.005651272481936394
-0.20521768949514246   -0.029805233222880957   -0.005651272481936394
-0.20521768949514246   -0.029805233222880957   -0.005651272481936394
-0.21302929675372834   -0.029752809171720122   -0.011724518486731816
-0.21302929675372834   -0.029752809171720122   -0.011724518486731816
-0.21302929675372834   -0.029752809171720122   -0.011724518486731816
-0.21302929675372834   -0.029752809171720122   -0.011724518486731816
-0.20846204333831414   -0.04295655396181948   0.003836138815461884
-0.20846204333831414   -0.04295655396181948   0.003836138815461884
-0.20846204333831414   -0.04295655396181948   0.003836138815461884
-0.20846204333831414   -0.04295655396181948   0.003836138815461884
-0.21049930067667452   -0.039090931129468674   -0.002770087469853154
-0.21049930067667452   -0.039090931129468674   -0.002770087469853154
-0.21049930067667452   -0.039090931129468674   -0.002770087469853154
-0.21049930067667452   -0.039090931129468674   -0.002770087469853154
-0.21833374803591848   -0.056287482325779674   0.009417688373821119
-0.21833374803591848   -0.056287482325779674   0.009417688373821119
-0.21833374803591848   -0.056287482325779674   0.009417688373821119
-0.21833374803591848   -0.056287482325779674   0.009417688373821119
-0.211679981970823   -0.040342983376463894   -0.012038162123736856
-0.211679981970823   -0.040342983376463894   -0.012038162123736856
-0.211679981970823   -0.040342983376463894   -0.012038162123736856
-0.211679981970823   -0.040342983376463894   -0.012038162123736856
-0.1966088371997093   0.005360154601020024   -0.003351793635597884
-0.1966088371997093   0.005360154601020024   -0.003351793635597884
-0.1966088371997093   0.005360154601020024   -0.003351793635597884
-0.1966088371997093   0.005360154601020024   -0.003351793635597884
-0.22386590205703288   -0.04251862398584579   -0.010767645929068346
-0.22386590205703288   -0.04251862398584579   -0.010767645929068346
-0.22386590205703288   -0.04251862398584579   -0.010767645929068346
-0.22386590205703288   -0.04251862398584579   -0.010767645929068346
-0.21483560081808756   -0.007879791604949803   0.0027534797617687935
-0.21483560081808756   -0.007879791604949803   0.0027534797617687935
-0.21483560081808756   -0.007879791604949803   0.0027534797617687935
-0.21483560081808756   -0.007879791604949803   0.0027534797617687935
-0.2090890363044694   -0.04566901145001587   -0.0065982745935312765
-0.2090890363044694   -0.04566901145001587   -0.0065982745935312765
-0.2090890363044694   -0.04566901145001587   -0.0065982745935312765
-0.2090890363044694   -0.04566901145001587   -0.0065982745935312765
-0.21095135363995637   -0.02339921282187779   -0.004713629053479447
-0.21095135363995637   -0.02339921282187779   -0.004713629053479447
-0.21095135363995637   -0.02339921282187779   -0.004713629053479447
-0.21095135363995637   -0.02339921282187779   -0.004713629053479447
-0.19972550395306082   -0.005415327534665559   -3.429675183675915e-05
-0.19972550395306082   -0.005415327534665559   -3.429675183675915e-05
-0.19972550395306082   -0.005415327534665559   -3.429675183675915e-05
-0.19972550395306082   -0.005415327534665559   -3.429675183675915e-05
-0.22538060224371506   -0.04931494459451997   -0.008536374376798458
-0.22538060224371506   -0.04931494459451997   -0.008536374376798458
-0.22538060224371506   -0.04931494459451997   -0.008536374376798458
-0.22538060224371506   -0.04931494459451997   -0.008536374376798458
-0.21739679789331443   -0.018741441821464106   0.0059568801150010195
-0.21739679789331443   -0.018741441821464106   0.0059568801150010195
-0.21739679789331443   -0.018741441821464106   0.0059568801150010195
-0.21739679789331443   -0.018741441821464106   0.0059568801150010195
-0.2123870098113809   -0.05422114431405565   -0.004524103197633618
-0.2123870098113809   -0.05422114431405565   -0.004524103197633618
-0.2123870098113809   -0.05422114431405565   -0.004524103197633618
-0.2123870098113809   -0.05422114431405565   -0.004524103197633618
-0.21366073692567553   -0.031664033368301106   -0.009035114153500473
-0.21366073692567553   -0.031664033368301106   -0.009035114153500473
-0.21366073692567553   -0.031664033368301106   -0.009035114153500473
-0.21366073692567553   -0.031664033368301106   -0.009035114153500473
-0.20329370572516609   -0.016473287355798092   0.003194560275182743
-0.20329370572516609   -0.016473287355798092   0.003194560275182743
-0.20329370572516609   -0.016473287355798092   0.003194560275182743
-0.20329370572516609   -0.016473287355798092   0.003194560275182743
-0.22781002638226877   -0.05780922318246186   -0.007041480968776775
-0.22781002638226877   -0.05780922318246186   -0.007041480968776775
-0.22781002638226877   -0.05780922318246186   -0.007041480968776775
-0.22781002638226877   -0.05780922318246186   -0.007041480968776775
-0.21950019832987422   -0.02894183864722494   0.009094750497277919
-0.21950019832987422   -0.02894183864722494   0.009094750497277919
-0.21950019832987422   -0.02894183864722494   0.009094750497277919
-0.21950019832987422   -0.02894183864722494   0.009094750497277919
-0.2148743200703295   -0.0624009248575179   -0.001335190710080811
-0.2148743200703295   -0.0624009248575179   -0.001335190710080811
-0.2148743200703295   -0.0624009248575179   -0.001335190710080811
-0.2148743200703295   -0.0624009248575179   -0.001335190710080811
-0.21687590395700598   -0.04030292032924161   -0.013781788876887403
-0.21687590395700598   -0.04030292032924161   -0.013781788876887403
-0.21687590395700598   -0.04030292032924161   -0.013781788876887403
-0.21687590395700598   -0.04030292032924161   -0.013781788876887403
-0.20669542569933275   0.022173865639230808   0.010392246234355886
-0.20669542569933275   0.022173865639230808   0.010392246234355886
-0.20669542569933275   0.022173865639230808   0.010392246234355886
-0.20669542569933275   0.022173865639230808   0.010392246234355886
-0.24554410445262947   -0.031887570667862186   -0.01506063643375444
-0.24554410445262947   -0.031887570667862186   -0.01506063643375444
-0.24554410445262947   -0.031887570667862186   -0.01506063643375444
-0.24554410445262947   -0.031887570667862186   -0.01506063643375444
-0.23247206852583202   0.006431478917107623   0.014338030845692797
-0.23247206852583202   0.006431478917107623   0.014338030845692797
-0.23247206852583202   0.006431478917107623   0.014338030845692797
-0.23247206852583202   0.006431478917107623   0.014338030845692797
-0.22268149334122944   -0.03527394589179308   -0.009081828567097256
-0.22268149334122944   -0.03527394589179308   -0.009081828567097256
-0.22268149334122944   -0.03527394589179308   -0.009081828567097256
-0.22268149334122944   -0.03527394589179308   -0.009081828567097256
-0.2268082977371569   -0.009406338887644791   -0.002813569796139028
-0.2268082977371569   -0.009406338887644791   -0.002813569796139028
-0.2268082977371569   -0.009406338887644791   -0.002813569796139028
-0.2268082977371569   -0.009406338887644791   -0.002813569796139028
-0.2088884831351973   0.011002037616960947   0.013607238954309354
-0.2088884831351973   0.011002037616960947   0.013607238954309354
-0.2088884831351973   0.011002037616960947   0.013607238954309354
-0.2088884831351973   0.011002037616960947   0.013607238954309354
-0.24783700257628255   -0.04141642843606224   -0.014638732053389966
-0.24783700257628255   -0.04141642843606224   -0.014638732053389966
-0.24783700257628255   -0.04141642843606224   -0.014638732053389966
-0.24783700257628255   -0.04141642843606224   -0.014638732053389966
-0.23684416354989787   -0.004189037809344279   0.016266590552046826
-0.23684416354989787   -0.004189037809344279   0.016266590552046826
-0.23684416354989787   -0.004189037809344279   0.016266590552046826
-0.23684416354989787   -0.004189037809344279   0.016266590552046826
-0.22492321819609604   -0.0431956288100036   -0.00722103441037138
-0.22492321819609604   -0.0431956288100036   -0.00722103441037138
-0.22492321819609604   -0.0431956288100036   -0.00722103441037138
-0.22492321819609604   -0.0431956288100036   -0.00722103441037138
-0.2290506550295074   -0.018373732903596174   -0.007884982977754052
-0.2290506550295074   -0.018373732903596174   -0.007884982977754052
-0.2290506550295074   -0.018373732903596174   -0.007884982977754052
-0.2290506550295074   -0.018373732903596174   -0.007884982977754052
-0.21129164097921216   0.0010136609726577733   0.016727561891386685
-0.21129164097921216   0.0010136609726577733   0.016727561891386685
-0.21129164097921216   0.0010136609726577733   0.016727561891386685
-0.21129164097921216   0.0010136609726577733   0.016727561891386685
-0.25183724946276803   -0.04975983628799444   -0.013128040533653632
-0.25183724946276803   -0.04975983628799444   -0.013128040533653632
-0.25183724946276803   -0.04975983628799444   -0.013128040533653632
-0.25183724946276803   -0.04975983628799444   -0.013128040533653632
-0.23976141683978475   -0.01438982771393673   0.019846051255286094
-0.23976141683978475   -0.01438982771393673   0.019846051255286094
-0.23976141683978475   -0.01438982771393673   0.019846051255286094
-0.23976141683978475   -0.01438982771393673   0.019846051255286094
-0.22686682747953826   -0.05115769778877735   -0.005522536109493775
-0.22686682747953826   -0.05115769778877735   -0.005522536109493775
-0.22686682747953826   -0.05115769778877735   -0.005522536109493775
-0.22686682747953826   -0.05115769778877735   -0.005522536109493775
-0.2329313754501449   -0.026845744607472823   -0.012806245055430408
-0.2329313754501449   -0.026845744607472823   -0.012806245055430408
-0.2329313754501449   -0.026845744607472823   -0.012806245055430408
-0.2329313754501449   -0.026845744607472823   -0.012806245055430408
-0.22563216916621198   0.03182646199689282   0.020785007333573843
-0.22563216916621198   0.03182646199689282   0.020785007333573843
-0.22563216916621198   0.03182646199689282   0.020785007333573843
-0.22563216916621198   0.03182646199689282   0.020785007333573843
-0.24265382531853585   -0.01939663477515044   -0.021776513838937375
-0.24265382531853585   -0.01939663477515044   -0.021776513838937375
-0.24265382531853585   -0.01939663477515044   -0.021776513838937375
-0.24265382531853585   -0.01939663477515044   -0.021776513838937375
-0.23738317368647865   0.02237386180396382   0.023107266541566383
-0.23738317368647865   0.02237386180396382   0.023107266541566383
-0.23738317368647865   0.02237386180396382   0.023107266541566383
-0.23738317368647865   0.02237386180396382   0.023107266541566383
-0.24419037804325322   -0.024508050671668693   -0.01331398715264059
-0.24419037804325322   -0.024508050671668693   -0.01331398715264059
-0.24419037804325322   -0.024508050671668693   -0.01331398715264059
-0.24419037804325322   -0.024508050671668693   -0.01331398715264059
-0.2293407411658283   0.0056002196751074665   0.001009034525342548
-0.2293407411658283   0.0056002196751074665   0.001009034525342548
-0.2293407411658283   0.0056002196751074665   0.001009034525342548
-0.2293407411658283   0.0056002196751074665   0.001009034525342548
-0.22688933551575668   0.024656509243694516   0.024026665569482627
-0.22688933551575668   0.024656509243694516   0.024026665569482627
-0.22688933551575668   0.024656509243694516   0.024026665569482627
-0.22688933551575668   0.024656509243694516   0.024026665569482627
-0.2559721259681445   -0.028078607865565524   -0.01938502519723349
-0.2559721259681445   -0.028078607865565524   -0.01938502519723349
-0.2559721259681445   -0.028078607865565524   -0.01938502519723349
-0.2559721259681445   -0.028078607865565524   -0.01938502519723349
-0.24783365939175758   0.016402106079115936   0.029731020045953977
-0.24783365939175758   0.016402106079115936   0.029731020045953977
-0.24783365939175758   0.016402106079115936   0.029731020045953977
-0.24783365939175758   0.016402106079115936   0.029731020045953977
-0.24752149955473796   -0.029180651266360772   -0.012128476015140839
-0.24752149955473796   -0.029180651266360772   -0.012128476015140839
-0.24752149955473796   -0.029180651266360772   -0.012128476015140839
-0.24752149955473796   -0.029180651266360772   -0.012128476015140839
-0.24061475220612555   -0.0016247600814414537   -0.005009001191531467
-0.24061475220612555   -0.0016247600814414537   -0.005009001191531467
-0.24061475220612555   -0.0016247600814414537   -0.005009001191531467
-0.24061475220612555   -0.0016247600814414537   -0.005009001191531467
-0.22953882285540095   0.019863100516860938   0.028741155698322297
-0.22953882285540095   0.019863100516860938   0.028741155698322297
-0.22953882285540095   0.019863100516860938   0.028741155698322297
-0.22953882285540095   0.019863100516860938   0.028741155698322297
-0.26748571950132516   -0.034311029114335034   -0.01781614530843265
-0.26748571950132516   -0.034311029114335034   -0.01781614530843265
-0.26748571950132516   -0.034311029114335034   -0.01781614530843265
-0.26748571950132516   -0.034311029114335034   -0.01781614530843265
-0.26614187501907915   0.0011424023909036435   0.03175708738727498
-0.26614187501907915   0.0011424023909036435   0.03175708738727498
-0.26614187501907915   0.0011424023909036435   0.03175708738727498
-0.26614187501907915   0.0011424023909036435   0.03175708738727498
-0.25057136317875495   -0.03805884344520788   -0.010534664708293704
-0.25057136317875495   -0.03805884344520788   -0.010534664708293704
-0.25057136317875495   -0.03805884344520788   -0.010534664708293704
-0.25057136317875495   -0.03805884344520788   -0.010534664708293704
-0.24595262305062388   -0.008292482635292385   -0.010415010009617176
-0.24595262305062388   -0.008292482635292385   -0.010415010009617176
-0.24595262305062388   -0.008292482635292385   -0.010415010009617176
-0.24595262305062388   -0.008292482635292385   -0.010415010009617176
-0.4763752624665125   -0.04361863016052665   -0.045449059406956996
-0.4763752624665125   -0.04361863016052665   -0.045449059406956996
-0.4763752624665125   -0.04361863016052665   -0.045449059406956996
-0.4763752624665125   -0.04361863016052665   -0.045449059406956996
-0.303278130041862   0.025480844859442367   0.010680221952434767
-0.303278130041862   0.025480844859442367   0.010680221952434767
-0.303278130041862   0.025480844859442367   0.010680221952434767
-0.303278130041862   0.025480844859442367   0.010680221952434767
-0.31858307925755774   -0.020409625539799685   -0.02037621502533609
-0.31858307925755774   -0.020409625539799685   -0.02037621502533609
-0.31858307925755774   -0.020409625539799685   -0.02037621502533609
-0.31858307925755774   -0.020409625539799685   -0.02037621502533609
-0.5070221198929616   -0.057689019173323836   0.05069114170508066
-0.5070221198929616   -0.057689019173323836   0.05069114170508066
-0.5070221198929616   -0.057689019173323836   0.05069114170508066
-0.5070221198929616   -0.057689019173323836   0.05069114170508066
-0.36880062981343065   -0.014230489198173851   0.049286114118826274
-0.36880062981343065   -0.014230489198173851   0.049286114118826274
-0.36880062981343065   -0.014230489198173851   0.049286114118826274
-0.36880062981343065   -0.014230489198173851   0.049286114118826274
-0.5251615432729955   -0.06432422850958447   -0.03337076585882235
-0.5251615432729955   -0.06432422850958447   -0.03337076585882235
-0.5251615432729955   -0.06432422850958447   -0.03337076585882235
-0.5251615432729955   -0.06432422850958447   -0.03337076585882235
-0.3132165693919455   -0.026547329717959672   0.012594038480885257
-0.3132165693919455   -0.026547329717959672   0.012594038480885257
-0.3132165693919455   -0.026547329717959672   0.012594038480885257
-0.3132165693919455   -0.026547329717959672   0.012594038480885257
-0.32366274660498573   -0.02949858277801195   -0.014700612216565568
-0.32366274660498573   -0.02949858277801195   -0.014700612216565568
-0.32366274660498573   -0.02949858277801195   -0.014700612216565568
-0.32366274660498573   -0.02949858277801195   -0.014700612216565568
-0.5234355887819203   -0.080532948203607   0.0011015576230753027
-0.5234355887819203   -0.080532948203607   0.0011015576230753027
-0.5234355887819203   -0.080532948203607   0.0011015576230753027
-0.5234355887819203   -0.080532948203607   0.0011015576230753027
-0.4087118223234263   -0.04858790425866126   0.011441148278772843
-0.4087118223234263   -0.04858790425866126   0.011441148278772843
-0.4087118223234263   -0.04858790425866126   0.011441148278772843
-0.4087118223234263   -0.04858790425866126   0.011441148278772843
-0.5274828908887998   -0.07271339117870543   -0.02695450993621898
-0.5274828908887998   -0.07271339117870543   -0.02695450993621898
-0.5274828908887998   -0.07271339117870543   -0.02695450993621898
-0.5274828908887998   -0.07271339117870543   -0.02695450993621898
-0.32346584437966985   -0.04116853968447684   -0.0020461441835243205
-0.32346584437966985   -0.04116853968447684   -0.0020461441835243205
-0.32346584437966985   -0.04116853968447684   -0.0020461441835243205
-0.32346584437966985   -0.04116853968447684   -0.0020461441835243205
-0.3240567733733256   -0.05141940079705931   -0.010753300387916137
-0.3240567733733256   -0.05141940079705931   -0.010753300387916137
-0.3240567733733256   -0.05141940079705931   -0.010753300387916137
-0.3240567733733256   -0.05141940079705931   -0.010753300387916137
-0.5362995433719016   -0.12286124561228559   0.007845135774881822
-0.5362995433719016   -0.12286124561228559   0.007845135774881822
-0.5362995433719016   -0.12286124561228559   0.007845135774881822
-0.5362995433719016   -0.12286124561228559   0.007845135774881822
-0.40848688098282065   -0.06674538778475723   0.0009239200548608849
-0.40848688098282065   -0.06674538778475723   0.0009239200548608849
-0.40848688098282065   -0.06674538778475723   0.0009239200548608849
-0.40848688098282065   -0.06674538778475723   0.0009239200548608849
-0.3274655209847297   -0.055587591366373555   -0.029188296536085158
-0.3274655209847297   -0.055587591366373555   -0.029188296536085158
-0.3274655209847297   -0.055587591366373555   -0.029188296536085158
-0.3274655209847297   -0.055587591366373555   -0.029188296536085158
-0.22587093282257165   -0.14698414778771235   -0.02750880981164716
-0.22587093282257165   -0.14698414778771235   -0.02750880981164716
-0.22587093282257165   -0.14698414778771235   -0.02750880981164716
-0.22587093282257165   -0.14698414778771235   -0.02750880981164716
-0.19833800692091796   -0.03254568021026391   -0.0018234024688705973
-0.19833800692091796   -0.03254568021026391   -0.0018234024688705973
-0.19833800692091796   -0.03254568021026391   -0.0018234024688705973
-0.19833800692091796   -0.03254568021026391   -0.0018234024688705973
-0.34846756370416354   -0.1556286908718757   -0.03457957192628916
-0.34846756370416354   -0.1556286908718757   -0.03457957192628916
-0.34846756370416354   -0.1556286908718757   -0.03457957192628916
-0.34846756370416354   -0.1556286908718757   -0.03457957192628916
-0.2718660168733373   -0.1036204202712166   -0.007951275681225953
-0.2718660168733373   -0.1036204202712166   -0.007951275681225953
-0.2718660168733373   -0.1036204202712166   -0.007951275681225953
-0.2718660168733373   -0.1036204202712166   -0.007951275681225953
-0.3273014970139989   -0.06237440300381161   -0.02200352634352814
-0.3273014970139989   -0.06237440300381161   -0.02200352634352814
-0.3273014970139989   -0.06237440300381161   -0.02200352634352814
-0.3273014970139989   -0.06237440300381161   -0.02200352634352814
-0.22082625774910908   -0.12712215221635448   -0.0196881846037375
-0.22082625774910908   -0.12712215221635448   -0.0196881846037375
-0.22082625774910908   -0.12712215221635448   -0.0196881846037375
-0.22082625774910908   -0.12712215221635448   -0.0196881846037375
-0.20074957974981547   -0.042137256949703675   0.00022016028754986245
-0.20074957974981547   -0.042137256949703675   0.00022016028754986245
-0.20074957974981547   -0.042137256949703675   0.00022016028754986245
-0.20074957974981547   -0.042137256949703675   0.00022016028754986245
-0.3498618023053936   -0.15480744278200625   -0.020387030714613678
-0.3498618023053936   -0.15480744278200625   -0.020387030714613678
-0.3498618023053936   -0.15480744278200625   -0.020387030714613678
-0.3498618023053936   -0.15480744278200625   -0.020387030714613678
-0.2689527041766322   -0.09712538788823472   -0.008449538113736232
-0.2689527041766322   -0.09712538788823472   -0.008449538113736232
-0.2689527041766322   -0.09712538788823472   -0.008449538113736232
-0.2689527041766322   -0.09712538788823472   -0.008449538113736232
-0.33249474139871404   -0.07183512927469766   -0.016524039688521494
-0.33249474139871404   -0.07183512927469766   -0.016524039688521494
-0.33249474139871404   -0.07183512927469766   -0.016524039688521494
-0.33249474139871404   -0.07183512927469766   -0.016524039688521494
-0.22087009948559988   -0.12786302928611695   -0.014656666054960934
-0.22087009948559988   -0.12786302928611695   -0.014656666054960934
-0.22087009948559988   -0.12786302928611695   -0.014656666054960934
-0.22087009948559988   -0.12786302928611695   -0.014656666054960934
-0.20084930234837686   -0.05404597010611762   0.003140803784589771
-0.20084930234837686   -0.05404597010611762   0.003140803784589771
-0.20084930234837686   -0.05404597010611762   0.003140803784589771
-0.20084930234837686   -0.05404597010611762   0.003140803784589771
-0.3491525667737344   -0.15725157288465122   -0.0304000953023721
-0.3491525667737344   -0.15725157288465122   -0.0304000953023721
-0.3491525667737344   -0.15725157288465122   -0.0304000953023721
-0.3491525667737344   -0.15725157288465122   -0.0304000953023721
-0.27318034713933487   -0.10443599040234508   -0.01571341310148723
-0.27318034713933487   -0.10443599040234508   -0.01571341310148723
-0.27318034713933487   -0.10443599040234508   -0.01571341310148723
-0.27318034713933487   -0.10443599040234508   -0.01571341310148723
-0.19864665128946074   -0.035829628861065575   -0.0025419210727393973
-0.19864665128946074   -0.035829628861065575   -0.0025419210727393973
-0.19864665128946074   -0.035829628861065575   -0.0025419210727393973
-0.19864665128946074   -0.035829628861065575   -0.0025419210727393973
-0.16749250178730662   -0.11264006855036615   -0.01944255909115181
-0.16749250178730662   -0.11264006855036615   -0.01944255909115181
-0.16749250178730662   -0.11264006855036615   -0.01944255909115181
-0.16749250178730662   -0.11264006855036615   -0.01944255909115181
-0.1443831549098482   -0.02987672353424776   0.007657283590688052
-0.1443831549098482   -0.02987672353424776   0.007657283590688052
-0.1443831549098482   -0.02987672353424776   0.007657283590688052
-0.1443831549098482   -0.02987672353424776   0.007657283590688052
-0.22019516121588512   -0.12223169018433727   -0.02142316396963496
-0.22019516121588512   -0.12223169018433727   -0.02142316396963496
-0.22019516121588512   -0.12223169018433727   -0.02142316396963496
-0.22019516121588512   -0.12223169018433727   -0.02142316396963496
-0.18188621803546587   -0.07616426548525587   -0.008954445732581917
-0.18188621803546587   -0.07616426548525587   -0.008954445732581917
-0.18188621803546587   -0.07616426548525587   -0.008954445732581917
-0.18188621803546587   -0.07616426548525587   -0.008954445732581917
-0.19988632866203465   -0.04244246106647219   0.00033176968175234196
-0.19988632866203465   -0.04244246106647219   0.00033176968175234196
-0.19988632866203465   -0.04244246106647219   0.00033176968175234196
-0.19988632866203465   -0.04244246106647219   0.00033176968175234196
-0.16587019900058153   -0.11084416418899506   -0.01881049620822751
-0.16587019900058153   -0.11084416418899506   -0.01881049620822751
-0.16587019900058153   -0.11084416418899506   -0.01881049620822751
-0.16587019900058153   -0.11084416418899506   -0.01881049620822751
-0.1445722001481287   -0.03776635703086866   0.009935023555049128
-0.1445722001481287   -0.03776635703086866   0.009935023555049128
-0.1445722001481287   -0.03776635703086866   0.009935023555049128
-0.1445722001481287   -0.03776635703086866   0.009935023555049128
-0.22102692205740246   -0.12416660098163783   -0.019137207218452894
-0.22102692205740246   -0.12416660098163783   -0.019137207218452894
-0.22102692205740246   -0.12416660098163783   -0.019137207218452894
-0.22102692205740246   -0.12416660098163783   -0.019137207218452894
-0.18167908135174776   -0.07911280074007021   -0.011623506213188842
-0.18167908135174776   -0.07911280074007021   -0.011623506213188842
-0.18167908135174776   -0.07911280074007021   -0.011623506213188842
-0.18167908135174776   -0.07911280074007021   -0.011623506213188842
-0.20171769586286148   -0.050444996941918514   0.003687319714532658
-0.20171769586286148   -0.050444996941918514   0.003687319714532658
-0.20171769586286148   -0.050444996941918514   0.003687319714532658
-0.20171769586286148   -0.050444996941918514   0.003687319714532658
-0.16453150303648492   -0.11213803776440325   -0.0154898101531975
-0.16453150303648492   -0.11213803776440325   -0.0154898101531975
-0.16453150303648492   -0.11213803776440325   -0.0154898101531975
-0.16453150303648492   -0.11213803776440325   -0.0154898101531975
-0.1430258836095996   -0.045279959353025354   0.012421200351644358
-0.1430258836095996   -0.045279959353025354   0.012421200351644358
-0.1430258836095996   -0.045279959353025354   0.012421200351644358
-0.1430258836095996   -0.045279959353025354   0.012421200351644358
-0.21856092970228677   -0.12570089737500198   -0.013762405716075368
-0.21856092970228677   -0.12570089737500198   -0.013762405716075368
-0.21856092970228677   -0.12570089737500198   -0.013762405716075368
-0.21856092970228677   -0.12570089737500198   -0.013762405716075368
-0.18128932689246038   -0.08302118030543579   -0.013497369283272003
-0.18128932689246038   -0.08302118030543579   -0.013497369283272003
-0.18128932689246038   -0.08302118030543579   -0.013497369283272003
-0.18128932689246038   -0.08302118030543579   -0.013497369283272003
-0.1393225745130806   -0.00489811303939924   0.013665121769011423
-0.1393225745130806   -0.00489811303939924   0.013665121769011423
-0.1393225745130806   -0.00489811303939924   0.013665121769011423
-0.1393225745130806   -0.00489811303939924   0.013665121769011423
-0.13260586290936535   -0.059802192775400886   -0.011718839791917334
-0.13260586290936535   -0.059802192775400886   -0.011718839791917334
-0.13260586290936535   -0.059802192775400886   -0.011718839791917334
-0.13260586290936535   -0.059802192775400886   -0.011718839791917334
-0.1144744961192066   -0.008656271729863064   0.015799545020529954
-0.1144744961192066   -0.008656271729863064   0.015799545020529954
-0.1144744961192066   -0.008656271729863064   0.015799545020529954
-0.1144744961192066   -0.008656271729863064   0.015799545020529954
-0.15537040860256635   -0.06888798471918312   -0.008267723687967245
-0.15537040860256635   -0.06888798471918312   -0.008267723687967245
-0.15537040860256635   -0.06888798471918312   -0.008267723687967245
-0.15537040860256635   -0.06888798471918312   -0.008267723687967245
-0.13588841516133618   -0.035218283084036156   -0.004866398834178259
-0.13588841516133618   -0.035218283084036156   -0.004866398834178259
-0.13588841516133618   -0.035218283084036156   -0.004866398834178259
-0.13588841516133618   -0.035218283084036156   -0.004866398834178259
-0.13952100394550676   -0.0136726827696663   0.01576399764781394
-0.13952100394550676   -0.0136726827696663   0.01576399764781394
-0.13952100394550676   -0.0136726827696663   0.01576399764781394
-0.13952100394550676   -0.0136726827696663   0.01576399764781394
-0.13158658864928754   -0.06513426155240121   -0.013282927807336553
-0.13158658864928754   -0.06513426155240121   -0.013282927807336553
-0.13158658864928754   -0.06513426155240121   -0.013282927807336553
-0.13158658864928754   -0.06513426155240121   -0.013282927807336553
-0.11477139087701815   -0.016322417988936133   0.016993192375888044
-0.11477139087701815   -0.016322417988936133   0.016993192375888044
-0.11477139087701815   -0.016322417988936133   0.016993192375888044
-0.11477139087701815   -0.016322417988936133   0.016993192375888044
-0.15546111792507963   -0.07309672933770509   -0.009179193022869205
-0.15546111792507963   -0.07309672933770509   -0.009179193022869205
-0.15546111792507963   -0.07309672933770509   -0.009179193022869205
-0.15546111792507963   -0.07309672933770509   -0.009179193022869205
-0.1354153450517276   -0.0413615066772755   -0.008273267702342837
-0.1354153450517276   -0.0413615066772755   -0.008273267702342837
-0.1354153450517276   -0.0413615066772755   -0.008273267702342837
-0.1354153450517276   -0.0413615066772755   -0.008273267702342837
-0.13964115087677773   -0.02110852157323219   0.017932434454167364
-0.13964115087677773   -0.02110852157323219   0.017932434454167364
-0.13964115087677773   -0.02110852157323219   0.017932434454167364
-0.13964115087677773   -0.02110852157323219   0.017932434454167364
-0.13135666340129398   -0.06907593122938298   -0.013179657005044278
-0.13135666340129398   -0.06907593122938298   -0.013179657005044278
-0.13135666340129398   -0.06907593122938298   -0.013179657005044278
-0.13135666340129398   -0.06907593122938298   -0.013179657005044278
-0.11393260986973427   -0.023526433454592634   0.01969956795163348
-0.11393260986973427   -0.023526433454592634   0.01969956795163348
-0.11393260986973427   -0.023526433454592634   0.01969956795163348
-0.11393260986973427   -0.023526433454592634   0.01969956795163348
-0.1531623163918611   -0.07729379803441347   -0.0062471248782748935
-0.1531623163918611   -0.07729379803441347   -0.0062471248782748935
-0.1531623163918611   -0.07729379803441347   -0.0062471248782748935
-0.1531623163918611   -0.07729379803441347   -0.0062471248782748935
-0.1351587706450026   -0.0466708131128615   -0.010661363964868234
-0.1351587706450026   -0.0466708131128615   -0.010661363964868234
-0.1351587706450026   -0.0466708131128615   -0.010661363964868234
-0.1351587706450026   -0.0466708131128615   -0.010661363964868234
-0.11091430387136633   0.015578270672171941   0.02135849195050501
-0.11091430387136633   0.015578270672171941   0.02135849195050501
-0.11091430387136633   0.015578270672171941   0.02135849195050501
-0.11091430387136633   0.015578270672171941   0.02135849195050501
-0.07488394958530374   -0.019797850632231263   -0.007266028925690598
-0.07488394958530374   -0.019797850632231263   -0.007266028925690598
-0.07488394958530374   -0.019797850632231263   -0.007266028925690598
-0.07488394958530374   -0.019797850632231263   -0.007266028925690598
-0.06569150184443254   0.018076643292506498   0.021110606469414674
-0.06569150184443254   0.018076643292506498   0.021110606469414674
-0.06569150184443254   0.018076643292506498   0.021110606469414674
-0.06569150184443254   0.018076643292506498   0.021110606469414674
-0.12266245763293646   -0.03002234508035909   -0.0037741891976232882
-0.12266245763293646   -0.03002234508035909   -0.0037741891976232882
-0.12266245763293646   -0.03002234508035909   -0.0037741891976232882
-0.12266245763293646   -0.03002234508035909   -0.0037741891976232882
-0.09220529662133006   -0.0019599063513494747   -0.0037900114291795697
-0.09220529662133006   -0.0019599063513494747   -0.0037900114291795697
-0.09220529662133006   -0.0019599063513494747   -0.0037900114291795697
-0.09220529662133006   -0.0019599063513494747   -0.0037900114291795697
-0.10927995183132357   0.009800025789383538   0.023315968940690896
-0.10927995183132357   0.009800025789383538   0.023315968940690896
-0.10927995183132357   0.009800025789383538   0.023315968940690896
-0.10927995183132357   0.009800025789383538   0.023315968940690896
-0.07921340985147976   -0.021885129782672385   -0.006537160490650293
-0.07921340985147976   -0.021885129782672385   -0.006537160490650293
-0.07921340985147976   -0.021885129782672385   -0.006537160490650293
-0.07921340985147976   -0.021885129782672385   -0.006537160490650293
-0.0687047852699424   0.014317937184094277   0.026547751952338886
-0.0687047852699424   0.014317937184094277   0.026547751952338886
-0.0687047852699424   0.014317937184094277   0.026547751952338886
-0.0687047852699424   0.014317937184094277   0.026547751952338886
-0.12225934680689206   -0.031981981778366975   -0.00478702348405071
-0.12225934680689206   -0.031981981778366975   -0.00478702348405071
-0.12225934680689206   -0.031981981778366975   -0.00478702348405071
-0.12225934680689206   -0.031981981778366975   -0.00478702348405071
-0.09510945943876475   -0.006060424743847711   -0.005441871640954436
-0.09510945943876475   -0.006060424743847711   -0.005441871640954436
-0.09510945943876475   -0.006060424743847711   -0.005441871640954436
-0.09510945943876475   -0.006060424743847711   -0.005441871640954436
-0.1082448507093112   0.006467557292375071   0.026835917933111637
-0.1082448507093112   0.006467557292375071   0.026835917933111637
-0.1082448507093112   0.006467557292375071   0.026835917933111637
-0.1082448507093112   0.006467557292375071   0.026835917933111637
-0.0836789347513441   -0.025091255270468595   -0.008913803000106756
-0.0836789347513441   -0.025091255270468595   -0.008913803000106756
-0.0836789347513441   -0.025091255270468595   -0.008913803000106756
-0.0836789347513441   -0.025091255270468595   -0.008913803000106756
-0.07855365616903628   0.003977214098513555   0.02762791600059484
-0.07855365616903628   0.003977214098513555   0.02762791600059484
-0.07855365616903628   0.003977214098513555   0.02762791600059484
-0.07855365616903628   0.003977214098513555   0.02762791600059484
-0.12072477760652751   -0.03379134215559241   -0.003996362031332969
-0.12072477760652751   -0.03379134215559241   -0.003996362031332969
-0.12072477760652751   -0.03379134215559241   -0.003996362031332969
-0.12072477760652751   -0.03379134215559241   -0.003996362031332969
-0.09656826605841722   -0.00905714927565232   -0.008060353962123406
-0.09656826605841722   -0.00905714927565232   -0.008060353962123406
-0.09656826605841722   -0.00905714927565232   -0.008060353962123406
-0.09656826605841722   -0.00905714927565232   -0.008060353962123406
-1.1304373274600874   -0.16101860230148488   -0.09465781643397611
-1.1304373274600874   -0.16101860230148488   -0.09465781643397611
-1.1304373274600874   -0.16101860230148488   -0.09465781643397611
-1.1304373274600874   -0.16101860230148488   -0.09465781643397611
-0.39345595949662976   -0.6280923668063731   -0.0739155411962748
-0.39345595949662976   -0.6280923668063731   -0.0739155411962748
-0.39345595949662976   -0.6280923668063731   -0.0739155411962748
-0.39345595949662976   -0.6280923668063731   -0.0739155411962748
-0.30281207442691965   -0.026926860000441484   0.0002918921034465293
-0.30281207442691965   -0.026926860000441484   0.0002918921034465293
-0.30281207442691965   -0.026926860000441484   0.0002918921034465293
-0.30281207442691965   -0.026926860000441484   0.0002918921034465293
-1.2094607949672023   -0.7363455281419775   -0.389161264621836
-1.2094607949672023   -0.7363455281419775   -0.389161264621836
-1.2094607949672023   -0.7363455281419775   -0.389161264621836
-1.2094607949672023   -0.7363455281419775   -0.389161264621836
-0.7400226251495193   -0.3660454761487928   -0.053373283718593595
-0.7400226251495193   -0.3660454761487928   -0.053373283718593595
-0.7400226251495193   -0.3660454761487928   -0.053373283718593595
-0.7400226251495193   -0.3660454761487928   -0.053373283718593595
-1.0505459178259218   -0.20226540709367904   -0.12866699996373923
-1.0505459178259218   -0.20226540709367904   -0.12866699996373923
-1.0505459178259218   -0.20226540709367904   -0.12866699996373923
-1.0505459178259218   -0.20226540709367904   -0.12866699996373923
-0.42526408835367   -0.5245441178342105   -0.11435091969653327
-0.42526408835367   -0.5245441178342105   -0.11435091969653327
-0.42526408835367   -0.5245441178342105   -0.11435091969653327
-0.42526408835367   -0.5245441178342105   -0.11435091969653327
-0.30924832922762624   -0.035600393047807335   0.011577073847779645
-0.30924832922762624   -0.035600393047807335   0.011577073847779645
-0.30924832922762624   -0.035600393047807335   0.011577073847779645
-0.30924832922762624   -0.035600393047807335   0.011577073847779645
-1.1319986089005891   -0.6579048645460331   -0.3579806946893244
-1.1319986089005891   -0.6579048645460331   -0.3579806946893244
-1.1319986089005891   -0.6579048645460331   -0.3579806946893244
-1.1319986089005891   -0.6579048645460331   -0.3579806946893244
-0.6971905427797888   -0.3304217000447356   0.02795104176231642
-0.6971905427797888   -0.3304217000447356   0.02795104176231642
-0.6971905427797888   -0.3304217000447356   0.02795104176231642
-0.6971905427797888   -0.3304217000447356   0.02795104176231642
-0.9865763435039395   -0.19261354760254126   -0.09616068464957674
-0.9865763435039395   -0.19261354760254126   -0.09616068464957674
-0.9865763435039395   -0.19261354760254126   -0.09616068464957674
-0.9865763435039395   -0.19261354760254126   -0.09616068464957674
-0.41411943054918726   -0.46034054591621154   -0.0880382798916182
-0.41411943054918726   -0.46034054591621154   -0.0880382798916182
-0.41411943054918726   -0.46034054591621154   -0.0880382798916182
-0.41411943054918726   -0.46034054591621154   -0.0880382798916182
-0.3561441226101504   -0.09215500728485156   -0.01877909334969532
-0.3561441226101504   -0.09215500728485156   -0.01877909334969532
-0.3561441226101504   -0.09215500728485156   -0.01877909334969532
-0.3561441226101504   -0.09215500728485156   -0.01877909334969532
-1.0318653580802486   -0.5543230869201919   -0.31723768900008814
-1.0318653580802486   -0.5543230869201919   -0.31723768900008814
-1.0318653580802486   -0.5543230869201919   -0.31723768900008814
-1.0318653580802486   -0.5543230869201919   -0.31723768900008814
-0.6460140662598516   -0.2867260335081636   0.11991756570877551
-0.6460140662598516   -0.2867260335081636   0.11991756570877551
-0.6460140662598516   -0.2867260335081636   0.11991756570877551
-0.6460140662598516   -0.2867260335081636   0.11991756570877551
-0.28952389773787474   -0.1589020822085154   -0.023445517000359267
-0.28952389773787474   -0.1589020822085154   -0.023445517000359267
-0.28952389773787474   -0.1589020822085154   -0.023445517000359267
-0.28952389773787474   -0.1589020822085154   -0.023445517000359267
-0.13490332678797717   -0.20138031115723515   -0.033381566704156235
-0.13490332678797717   -0.20138031115723515   -0.033381566704156235
-0.13490332678797717   -0.20138031115723515   -0.033381566704156235
-0.13490332678797717   -0.20138031115723515   -0.033381566704156235
-0.11834689878069457   -0.10209383144903199   0.0029740602644642428
-0.11834689878069457   -0.10209383144903199   0.0029740602644642428
-0.11834689878069457   -0.10209383144903199   0.0029740602644642428
-0.11834689878069457   -0.10209383144903199   0.0029740602644642428
-0.3558571454014462   -0.29256918146138433   0.0007088586917596215
-0.3558571454014462   -0.29256918146138433   0.0007088586917596215
-0.3558571454014462   -0.29256918146138433   0.0007088586917596215
-0.3558571454014462   -0.29256918146138433   0.0007088586917596215
-0.190671586194839   -0.14161200143182667   0.06146013385350028
-0.190671586194839   -0.14161200143182667   0.06146013385350028
-0.190671586194839   -0.14161200143182667   0.06146013385350028
-0.190671586194839   -0.14161200143182667   0.06146013385350028
-0.3301146580091671   -0.1480598104243883   -0.01508807538384472
-0.3301146580091671   -0.1480598104243883   -0.01508807538384472
-0.3301146580091671   -0.1480598104243883   -0.01508807538384472
-0.3301146580091671   -0.1480598104243883   -0.01508807538384472
-0.15424804205434364   -0.25676185836739834   -0.021863629185412826
-0.15424804205434364   -0.25676185836739834   -0.021863629185412826
-0.15424804205434364   -0.25676185836739834   -0.021863629185412826
-0.15424804205434364   -0.25676185836739834   -0.021863629185412826
-0.12812832923191048   -0.10575851637061692   0.003124128268849724
-0.12812832923191048   -0.10575851637061692   0.003124128268849724
-0.12812832923191048   -0.10575851637061692   0.003124128268849724
-0.12812832923191048   -0.10575851637061692   0.003124128268849724
-0.37367765653537904   -0.28920428831062966   -0.0569656674281588
-0.37367765653537904   -0.28920428831062966   -0.0569656674281588
-0.37367765653537904   -0.28920428831062966   -0.0569656674281588
-0.37367765653537904   -0.28920428831062966   -0.0569656674281588
-0.22794335789541934   -0.1813101730328322   0.02778056460671658
-0.22794335789541934   -0.1813101730328322   0.02778056460671658
-0.22794335789541934   -0.1813101730328322   0.02778056460671658
-0.22794335789541934   -0.1813101730328322   0.02778056460671658
-0.34101433474977294   -0.15460934374175966   -0.02824400306900145
-0.34101433474977294   -0.15460934374175966   -0.02824400306900145
-0.34101433474977294   -0.15460934374175966   -0.02824400306900145
-0.34101433474977294   -0.15460934374175966   -0.02824400306900145
-0.159859676114957   -0.23942148603692787   -0.021869636480071855
-0.159859676114957   -0.23942148603692787   -0.021869636480071855
-0.159859676114957   -0.23942148603692787   -0.021869636480071855
-0.159859676114957   -0.23942148603692787   -0.021869636480071855
-0.14330842972471286   -0.10908028298279557   0.004612217157880839
-0.14330842972471286   -0.10908028298279557   0.004612217157880839
-0.14330842972471286   -0.10908028298279557   0.004612217157880839
-0.14330842972471286   -0.10908028298279557   0.004612217157880839
-0.4000989818366131   -0.2812852631674985   -0.0494231335993606
-0.4000989818366131   -0.2812852631674985   -0.0494231335993606
-0.4000989818366131   -0.2812852631674985   -0.0494231335993606
-0.4000989818366131   -0.2812852631674985   -0.0494231335993606
-0.23890820124755746   -0.17095053202359972   0.029337078962741556
-0.23890820124755746   -0.17095053202359972   0.029337078962741556
-0.23890820124755746   -0.17095053202359972   0.029337078962741556
-0.23890820124755746   -0.17095053202359972   0.029337078962741556
-0.10555407081307235   -0.09497249177888531   0.006956893792018113
-0.10555407081307235   -0.09497249177888531   0.006956893792018113
-0.10555407081307235   -0.09497249177888531   0.006956893792018113
-0.10555407081307235   -0.09497249177888531   0.006956893792018113
-0.06533272704679184   -0.06432691786821684   -0.016372921648573388
-0.06533272704679184   -0.06432691786821684   -0.016372921648573388
-0.06533272704679184   -0.06432691786821684   -0.016372921648573388
-0.06533272704679184   -0.06432691786821684   -0.016372921648573388
-0.06306375966786745   -0.0851318088252551   0.006944841277758209
-0.06306375966786745   -0.0851318088252551   0.006944841277758209
-0.06306375966786745   -0.0851318088252551   0.006944841277758209
-0.06306375966786745   -0.0851318088252551   0.006944841277758209
-0.11740498286748835   -0.08733696327493615   -0.007073228343598609
-0.11740498286748835   -0.08733696327493615   -0.007073228343598609
-0.11740498286748835   -0.08733696327493615   -0.007073228343598609
-0.11740498286748835   -0.08733696327493615   -0.007073228343598609
-0.07408054456244334   -0.06988433656917192   0.030886869541377166
-0.07408054456244334   -0.06988433656917192   0.030886869541377166
-0.07408054456244334   -0.06988433656917192   0.030886869541377166
-0.07408054456244334   -0.06988433656917192   0.030886869541377166
-0.11613841831472284   -0.09562598548426637   0.007548616629557279
-0.11613841831472284   -0.09562598548426637   0.007548616629557279
-0.11613841831472284   -0.09562598548426637   0.007548616629557279
-0.11613841831472284   -0.09562598548426637   0.007548616629557279
-0.0654088398718151   -0.07792130226710735   -0.011991066300127811
-0.0654088398718151   -0.07792130226710735   -0.011991066300127811
-0.0654088398718151   -0.07792130226710735   -0.011991066300127811
-0.0654088398718151   -0.07792130226710735   -0.011991066300127811
-0.06395497071775577   -0.08768384667999019   0.006204612950138667
-0.06395497071775577   -0.08768384667999019   0.006204612950138667
-0.06395497071775577   -0.08768384667999019   0.006204612950138667
-0.06395497071775577   -0.08768384667999019   0.006204612950138667
-0.12494746439120644   -0.10173243493245114   0.01500237103420416
-0.12494746439120644   -0.10173243493245114   0.01500237103420416
-0.12494746439120644   -0.10173243493245114   0.01500237103420416
-0.12494746439120644   -0.10173243493245114   0.01500237103420416
-0.08086021653705797   -0.0779307118544652   0.025980331917267105
-0.08086021653705797   -0.0779307118544652   0.025980331917267105
-0.08086021653705797   -0.0779307118544652   0.025980331917267105
-0.08086021653705797   -0.0779307118544652   0.025980331917267105
-0.12540267274258682   -0.09917960900501158   0.01017350334986274
-0.12540267274258682   -0.09917960900501158   0.01017350334986274
-0.12540267274258682   -0.09917960900501158   0.01017350334986274
-0.12540267274258682   -0.09917960900501158   0.01017350334986274
-0.0689765241465661   -0.09571343438762044   -0.010873566486282668
-0.0689765241465661   -0.09571343438762044   -0.010873566486282668
-0.0689765241465661   -0.09571343438762044   -0.010873566486282668
-0.0689765241465661   -0.09571343438762044   -0.010873566486282668
-0.06500842019452545   -0.0904889911839788   0.00874461573127926
-0.06500842019452545   -0.0904889911839788   0.00874461573127926
-0.06500842019452545   -0.0904889911839788   0.00874461573127926
-0.06500842019452545   -0.0904889911839788   0.00874461573127926
-0.1466212281196415   -0.12474534010494559   0.0037132823053877932
-0.1466212281196415   -0.12474534010494559   0.0037132823053877932
-0.1466212281196415   -0.12474534010494559   0.0037132823053877932
-0.1466212281196415   -0.12474534010494559   0.0037132823053877932
-0.0906145690199724   -0.08869600613936389   0.012018231359361337
-0.0906145690199724   -0.08869600613936389   0.012018231359361337
-0.0906145690199724   -0.08869600613936389   0.012018231359361337
-0.0906145690199724   -0.08869600613936389   0.012018231359361337
-0.053090092731248914   -0.037877170307673735   0.01839050236859814
-0.053090092731248914   -0.037877170307673735   0.01839050236859814
-0.053090092731248914   -0.037877170307673735   0.01839050236859814
-0.053090092731248914   -0.037877170307673735   0.01839050236859814
-0.03783017765802298   -0.001338612275959438   -0.0037146864870218803
-0.03783017765802298   -0.001338612275959438   -0.0037146864870218803
-0.03783017765802298   -0.001338612275959438   -0.0037146864870218803
-0.03783017765802298   -0.001338612275959438   -0.0037146864870218803
-0.03585825781141318   -0.04105602694459286   0.011379914393834662
-0.03585825781141318   -0.04105602694459286   0.011379914393834662
-0.03585825781141318   -0.04105602694459286   0.011379914393834662
-0.03585825781141318   -0.04105602694459286   0.011379914393834662
-0.04957174664422543   -0.008642967029058327   -0.0020839354002284015
-0.04957174664422543   -0.008642967029058327   -0.0020839354002284015
-0.04957174664422543   -0.008642967029058327   -0.0020839354002284015
-0.04957174664422543   -0.008642967029058327   -0.0020839354002284015
-0.04073438370964126   -0.021246318720395625   0.009118971879793474
-0.04073438370964126   -0.021246318720395625   0.009118971879793474
-0.04073438370964126   -0.021246318720395625   0.009118971879793474
-0.04073438370964126   -0.021246318720395625   0.009118971879793474
-0.05259262401801713   -0.04320428410360802   0.01737299480536278
-0.05259262401801713   -0.04320428410360802   0.01737299480536278
-0.05259262401801713   -0.04320428410360802   0.01737299480536278
-0.05259262401801713   -0.04320428410360802   0.01737299480536278
-0.03194176706099422   -0.0055990964934159015   -0.004494562305247481
-0.03194176706099422   -0.0055990964934159015   -0.004494562305247481
-0.03194176706099422   -0.0055990964934159015   -0.004494562305247481
-0.03194176706099422   -0.0055990964934159015   -0.004494562305247481
-0.03302443039168157   -0.04466904374533195   0.010522547405598444
-0.03302443039168157   -0.04466904374533195   0.010522547405598444
-0.03302443039168157   -0.04466904374533195   0.010522547405598444
-0.03302443039168157   -0.04466904374533195   0.010522547405598444
-0.050145914380905474   -0.015899776080896332   0.003465824035296331
-0.050145914380905474   -0.015899776080896332   0.003465824035296331
-0.050145914380905474   -0.015899776080896332   0.003465824035296331
-0.050145914380905474   -0.015899776080896332   0.003465824035296331
-0.03757789315289472   -0.024398433390926233   0.01073195113496574
-0.03757789315289472   -0.024398433390926233   0.01073195113496574
-0.03757789315289472   -0.024398433390926233   0.01073195113496574
-0.03757789315289472   -0.024398433390926233   0.01073195113496574
-0.05304474028563168   -0.046802692932573865   0.01987461136333898
-0.05304474028563168   -0.046802692932573865   0.01987461136333898
-0.05304474028563168   -0.046802692932573865   0.01987461136333898
-0.05304474028563168   -0.046802692932573865   0.01987461136333898
-0.030453963687283776   -0.014094486093983472   -0.007199676723761062
-0.030453963687283776   -0.014094486093983472   -0.007199676723761062
-0.030453963687283776   -0.014094486093983472   -0.007199676723761062
-0.030453963687283776   -0.014094486093983472   -0.007199676723761062
-0.027901518096437244   -0.04867385597845184   0.0115917871061132
-0.027901518096437244   -0.04867385597845184   0.0115917871061132
-0.027901518096437244   -0.04867385597845184   0.0115917871061132
-0.027901518096437244   -0.04867385597845184   0.0115917871061132
-0.054425983895852514   -0.03334285200059914   0.0045106580412643165
-0.054425983895852514   -0.03334285200059914   0.0045106580412643165
-0.054425983895852514   -0.03334285200059914   0.0045106580412643165
-0.054425983895852514   -0.03334285200059914   0.0045106580412643165
-0.0364037263374126   -0.030709169441980825   0.009113590727258588
-0.0364037263374126   -0.030709169441980825   0.009113590727258588
-0.0364037263374126   -0.030709169441980825   0.009113590727258588
-0.0364037263374126   -0.030709169441980825   0.009113590727258588
-0.0344119875574176   -0.006535601744588994   0.018573253484634598
-0.0344119875574176   -0.006535601744588994   0.018573253484634598
-0.0344119875574176   -0.006535601744588994   0.018573253484634598
-0.0344119875574176   -0.006535601744588994   0.018573253484634598
-0.006473522162126456   0.0037794601928854703   -0.00037544409715590675
-0.006473522162126456   0.0037794601928854703   -0.00037544409715590675
-0.006473522162126456   0.0037794601928854703   -0.00037544409715590675
-0.006473522162126456   0.0037794601928854703   -0.00037544409715590675
0.0014893669913361256   -0.0021286473049616566   0.011542475055091298
0.0014893669913361256   -0.0021286473049616566   0.011542475055091298
0.0014893669913361256   -0.0021286473049616566   0.011542475055091298
0.0014893669913361256   -0.0021286473049616566   0.011542475055091298
-0.02964256399434751   0.002676498194720863   -0.0012741416601507252
-0.02964256399434751   0.002676498194720863   -0.0012741416601507252
-0.02964256399434751   0.002676498194720863   -0.0012741416601507252
-0.02964256399434751   0.002676498194720863   -0.0012741416601507252
-0.01752618971815608   -0.0013658865772116081   -0.0013920166548083467
-0.01752618971815608   -0.0013658865772116081   -0.0013920166548083467
-0.01752618971815608   -0.0013658865772116081   -0.0013920166548083467
-0.01752618971815608   -0.0013658865772116081   -0.0013920166548083467
-0.027323865190636495   -0.006333848868123858   0.019329699421249076
-0.027323865190636495   -0.006333848868123858   0.019329699421249076
-0.027323865190636495   -0.006333848868123858   0.019329699421249076
-0.027323865190636495   -0.006333848868123858   0.019329699421249076
0.00018787103428164484   0.00789890260454024   -0.004992554639683002
0.00018787103428164484   0.00789890260454024   -0.004992554639683002
0.00018787103428164484   0.00789890260454024   -0.004992554639683002
0.00018787103428164484   0.00789890260454024   -0.004992554639683002
0.005407182693942911   -0.0026442441524951333   0.014235135144469693
0.005407182693942911   -0.0026442441524951333   0.014235135144469693
0.005407182693942911   -0.0026442441524951333   0.014235135144469693
0.005407182693942911   -0.0026442441524951333   0.014235135144469693
-0.026199511441838564   0.0018369919101789084   -0.0018588935006973888
-0.026199511441838564   0.0018369919101789084   -0.0018588935006973888
-0.026199511441838564   0.0018369919101789084   -0.0018588935006973888
-0.026199511441838564   0.0018369919101789084   -0.0018588935006973888
-0.011736075260813788   -0.0004222425290889267   0.0017857001702660032
-0.011736075260813788   -0.0004222425290889267   0.0017857001702660032
-0.011736075260813788   -0.0004222425290889267   0.0017857001702660032
-0.011736075260813788   -0.0004222425290889267   0.0017857001702660032
-0.02345732508167412   -0.007105305578710414   0.020794335789014157
-0.02345732508167412   -0.007105305578710414   0.020794335789014157
-0.02345732508167412   -0.007105305578710414   0.020794335789014157
-0.02345732508167412   -0.007105305578710414   0.020794335789014157
0.0035614290834858576   0.007194486086100942   -0.004832363146411644
0.0035614290834858576   0.007194486086100942   -0.004832363146411644
0.0035614290834858576   0.007194486086100942   -0.004832363146411644
0.0035614290834858576   0.007194486086100942   -0.004832363146411644
0.00931303179939436   -0.004212437078452636   0.013860353948444032
0.00931303179939436   -0.004212437078452636   0.013860353948444032
0.00931303179939436   -0.004212437078452636   0.013860353948444032
0.00931303179939436   -0.004212437078452636   0.013860353948444032
-0.020584848201183968   0.0015901975097267883   -0.002088916905799048
-0.020584848201183968   0.0015901975097267883   -0.002088916905799048
-0.020584848201183968   0.0015901975097267883   -0.002088916905799048
-0.020584848201183968   0.0015901975097267883   -0.002088916905799048
-0.006602319902239627   9.837993813502127e-05   0.004530154684899292
-0.006602319902239627   9.837993813502127e-05   0.004530154684899292
-0.006602319902239627   9.837993813502127e-05   0.004530154684899292
-0.006602319902239627   9.837993813502127e-05   0.004530154684899292
              </DataArray>   
             <DataArray type="Float64" NumberOfComponents="3" Name="Displacements" format="ascii">   
0.0   0.0   0.0
-0.0031540164059561926   -0.0020743440143324945   -0.0010568747920603153
0.0   0.0   0.0
0.0   0.0   0.0
-0.0031540164059561926   -0.0020743440143324945   -0.0010568747920603153
-0.0020065307114823195   -0.0018650482074583073   -0.0007765500593145449
0.0   0.0   0.0
-0.0019665555776177527   -0.001958345416323928   -0.0006506809899447791
0.0   0.0   0.0
0.0   0.0   0.0
-0.0019665555776177527   -0.001958345416323928   -0.0006506809899447791
0.0   0.0   0.0
0.0   0.0   0.0
-0.0019665555776177527   -0.001958345416323928   -0.0006506809899447791
-0.003300465792407353   -0.0022096765633146747   -0.000848670598589772
-0.0031540164059561926   -0.0020743440143324945   -0.0010568747920603153
0.0   0.0   0.0
-0.0019665555776177527   -0.001958345416323928   -0.0006506809899447791
-0.0031540164059561926   -0.0020743440143324945   -0.0010568747920603153
0.0   0.0   0.0
0.0   0.0   0.0
-0.003300465792407353   -0.0022096765633146747   -0.000848670598589772
0.0   0.0   0.0
0.0   0.0   0.0
-0.003300465792407353   -0.0022096765633146747   -0.000848670598589772
-0.0019665555776177527   -0.001958345416323928   -0.0006506809899447791
0.0   0.0   0.0
-0.001971785378098563   -0.002006193713074952   -0.0005250292869007336
0.0   0.0   0.0
0.0   0.0   0.0
-0.001971785378098563   -0.002006193713074952   -0.0005250292869007336
0.0   0.0   0.0
0.0   0.0   0.0
-0.001971785378098563   -0.002006193713074952   -0.0005250292869007336
-0.003403170584704328   -0.0022755022313249345   -0.0006492470407498242
-0.003300465792407353   -0.0022096765633146747   -0.000848670598589772
0.0   0.0   0.0
-0.001971785378098563   -0.002006193713074952   -0.0005250292869007336
-0.003300465792407353   -0.0022096765633146747   -0.000848670598589772
0.0   0.0   0.0
0.0   0.0   0.0
-0.003403170584704328   -0.0022755022313249345   -0.0006492470407498242
0.0   0.0   0.0
0.0   0.0   0.0
-0.003403170584704328   -0.0022755022313249345   -0.0006492470407498242
-0.001971785378098563   -0.002006193713074952   -0.0005250292869007336
0.0   0.0   0.0
-0.0019703924798416695   -0.0020185386838447216   -0.00039514872100624907
0.0   0.0   0.0
0.0   0.0   0.0
-0.0019703924798416695   -0.0020185386838447216   -0.00039514872100624907
0.0   0.0   0.0
0.0   0.0   0.0
-0.0019703924798416695   -0.0020185386838447216   -0.00039514872100624907
-0.003624738829665174   -0.002325477035355828   -0.0004179318670265744
-0.003403170584704328   -0.0022755022313249345   -0.0006492470407498242
0.0   0.0   0.0
-0.0019703924798416695   -0.0020185386838447216   -0.00039514872100624907
-0.003403170584704328   -0.0022755022313249345   -0.0006492470407498242
0.0   0.0   0.0
0.0   0.0   0.0
-0.0020065307114823195   -0.0018650482074583073   -0.0007765500593145449
0.0   0.0   0.0
0.0   0.0   0.0
-0.0020065307114823195   -0.0018650482074583073   -0.0007765500593145449
-0.0009141506383383433   -0.0017883536700188272   -0.0005907956209697456
0.0   0.0   0.0
-0.0008789089372207323   -0.0018490418696597102   -0.000531335982686379
0.0   0.0   0.0
0.0   0.0   0.0
-0.0008789089372207323   -0.0018490418696597102   -0.000531335982686379
0.0   0.0   0.0
0.0   0.0   0.0
-0.0008789089372207323   -0.0018490418696597102   -0.000531335982686379
-0.0019665555776177527   -0.001958345416323928   -0.0006506809899447791
-0.0020065307114823195   -0.0018650482074583073   -0.0007765500593145449
0.0   0.0   0.0
-0.0008789089372207323   -0.0018490418696597102   -0.000531335982686379
-0.0020065307114823195   -0.0018650482074583073   -0.0007765500593145449
0.0   0.0   0.0
0.0   0.0   0.0
-0.0019665555776177527   -0.001958345416323928   -0.0006506809899447791
0.0   0.0   0.0
0.0   0.0   0.0
-0.0019665555776177527   -0.001958345416323928   -0.0006506809899447791
-0.0008789089372207323   -0.0018490418696597102   -0.000531335982686379
0.0   0.0   0.0
-0.0008589868441895685   -0.0018721869358371852   -0.00047346461830573505
0.0   0.0   0.0
0.0   0.0   0.0
-0.0008589868441895685   -0.0018721869358371852   -0.00047346461830573505
0.0   0.0   0.0
0.0   0.0   0.0
-0.0008589868441895685   -0.0018721869358371852   -0.00047346461830573505
-0.001971785378098563   -0.002006193713074952   -0.0005250292869007336
-0.0019665555776177527   -0.001958345416323928   -0.0006506809899447791
0.0   0.0   0.0
-0.0008589868441895685   -0.0018721869358371852   -0.00047346461830573505
-0.0019665555776177527   -0.001958345416323928   -0.0006506809899447791
0.0   0.0   0.0
0.0   0.0   0.0
-0.001971785378098563   -0.002006193713074952   -0.0005250292869007336
0.0   0.0   0.0
0.0   0.0   0.0
-0.001971785378098563   -0.002006193713074952   -0.0005250292869007336
-0.0008589868441895685   -0.0018721869358371852   -0.00047346461830573505
0.0   0.0   0.0
-0.0008407939779048794   -0.0018625611523144649   -0.00041367317327544736
0.0   0.0   0.0
0.0   0.0   0.0
-0.0008407939779048794   -0.0018625611523144649   -0.00041367317327544736
0.0   0.0   0.0
0.0   0.0   0.0
-0.0008407939779048794   -0.0018625611523144649   -0.00041367317327544736
-0.0019703924798416695   -0.0020185386838447216   -0.00039514872100624907
-0.001971785378098563   -0.002006193713074952   -0.0005250292869007336
0.0   0.0   0.0
-0.0008407939779048794   -0.0018625611523144649   -0.00041367317327544736
-0.001971785378098563   -0.002006193713074952   -0.0005250292869007336
0.0   0.0   0.0
0.0   0.0   0.0
-0.0009141506383383433   -0.0017883536700188272   -0.0005907956209697456
0.0   0.0   0.0
0.0   0.0   0.0
-0.0009141506383383433   -0.0017883536700188272   -0.0005907956209697456
0.00011767305670600556   -0.0017982297455756068   -0.0004725255797902495
0.0   0.0   0.0
0.00014031436866851027   -0.0018296417961912604   -0.00048066174145869816
0.0   0.0   0.0
0.0   0.0   0.0
0.00014031436866851027   -0.0018296417961912604   -0.00048066174145869816
0.0   0.0   0.0
0.0   0.0   0.0
0.00014031436866851027   -0.0018296417961912604   -0.00048066174145869816
-0.0008789089372207323   -0.0018490418696597102   -0.000531335982686379
-0.0009141506383383433   -0.0017883536700188272   -0.0005907956209697456
0.0   0.0   0.0
0.00014031436866851027   -0.0018296417961912604   -0.00048066174145869816
-0.0009141506383383433   -0.0017883536700188272   -0.0005907956209697456
0.0   0.0   0.0
0.0   0.0   0.0
-0.0008789089372207323   -0.0018490418696597102   -0.000531335982686379
0.0   0.0   0.0
0.0   0.0   0.0
-0.0008789089372207323   -0.0018490418696597102   -0.000531335982686379
0.00014031436866851027   -0.0018296417961912604   -0.00048066174145869816
0.0   0.0   0.0
0.000158226125313662   -0.0018269999329611748   -0.0004880417068454402
0.0   0.0   0.0
0.0   0.0   0.0
0.000158226125313662   -0.0018269999329611748   -0.0004880417068454402
0.0   0.0   0.0
0.0   0.0   0.0
0.000158226125313662   -0.0018269999329611748   -0.0004880417068454402
-0.0008589868441895685   -0.0018721869358371852   -0.00047346461830573505
-0.0008789089372207323   -0.0018490418696597102   -0.000531335982686379
0.0   0.0   0.0
0.000158226125313662   -0.0018269999329611748   -0.0004880417068454402
-0.0008789089372207323   -0.0018490418696597102   -0.000531335982686379
0.0   0.0   0.0
0.0   0.0   0.0
-0.0008589868441895685   -0.0018721869358371852   -0.00047346461830573505
0.0   0.0   0.0
0.0   0.0   0.0
-0.0008589868441895685   -0.0018721869358371852   -0.00047346461830573505
0.000158226125313662   -0.0018269999329611748   -0.0004880417068454402
0.0   0.0   0.0
0.0001822215035707663   -0.001787517594401992   -0.0004956636792108587
0.0   0.0   0.0
0.0   0.0   0.0
0.0001822215035707663   -0.001787517594401992   -0.0004956636792108587
0.0   0.0   0.0
0.0   0.0   0.0
0.0001822215035707663   -0.001787517594401992   -0.0004956636792108587
-0.0008407939779048794   -0.0018625611523144649   -0.00041367317327544736
-0.0008589868441895685   -0.0018721869358371852   -0.00047346461830573505
0.0   0.0   0.0
0.0001822215035707663   -0.001787517594401992   -0.0004956636792108587
-0.0008589868441895685   -0.0018721869358371852   -0.00047346461830573505
0.0   0.0   0.0
0.0   0.0   0.0
0.00011767305670600556   -0.0017982297455756068   -0.0004725255797902495
0.0   0.0   0.0
0.0   0.0   0.0
0.00011767305670600556   -0.0017982297455756068   -0.0004725255797902495
0.0012379711096366824   -0.0018853515651709042   -0.0004141663337128999
0.0   0.0   0.0
0.0012405507618527029   -0.0018952666367872098   -0.0004934312923753165
0.0   0.0   0.0
0.0   0.0   0.0
0.0012405507618527029   -0.0018952666367872098   -0.0004934312923753165
0.0   0.0   0.0
0.0   0.0   0.0
0.0012405507618527029   -0.0018952666367872098   -0.0004934312923753165
0.00014031436866851027   -0.0018296417961912604   -0.00048066174145869816
0.00011767305670600556   -0.0017982297455756068   -0.0004725255797902495
0.0   0.0   0.0
0.0012405507618527029   -0.0018952666367872098   -0.0004934312923753165
0.00011767305670600556   -0.0017982297455756068   -0.0004725255797902495
0.0   0.0   0.0
0.0   0.0   0.0
0.00014031436866851027   -0.0018296417961912604   -0.00048066174145869816
0.0   0.0   0.0
0.0   0.0   0.0
0.00014031436866851027   -0.0018296417961912604   -0.00048066174145869816
0.0012405507618527029   -0.0018952666367872098   -0.0004934312923753165
0.0   0.0   0.0
0.0012355637015819818   -0.001868205655220932   -0.0005695186178293484
0.0   0.0   0.0
0.0   0.0   0.0
0.0012355637015819818   -0.001868205655220932   -0.0005695186178293484
0.0   0.0   0.0
0.0   0.0   0.0
0.0012355637015819818   -0.001868205655220932   -0.0005695186178293484
0.000158226125313662   -0.0018269999329611748   -0.0004880417068454402
0.00014031436866851027   -0.0018296417961912604   -0.00048066174145869816
0.0   0.0   0.0
0.0012355637015819818   -0.001868205655220932   -0.0005695186178293484
0.00014031436866851027   -0.0018296417961912604   -0.00048066174145869816
0.0   0.0   0.0
0.0   0.0   0.0
0.000158226125313662   -0.0018269999329611748   -0.0004880417068454402
0.0   0.0   0.0
0.0   0.0   0.0
0.000158226125313662   -0.0018269999329611748   -0.0004880417068454402
0.0012355637015819818   -0.001868205655220932   -0.0005695186178293484
0.0   0.0   0.0
0.0012598061325456145   -0.0017959213949198072   -0.0006441942473678992
0.0   0.0   0.0
0.0   0.0   0.0
0.0012598061325456145   -0.0017959213949198072   -0.0006441942473678992
0.0   0.0   0.0
0.0   0.0   0.0
0.0012598061325456145   -0.0017959213949198072   -0.0006441942473678992
0.0001822215035707663   -0.001787517594401992   -0.0004956636792108587
0.000158226125313662   -0.0018269999329611748   -0.0004880417068454402
0.0   0.0   0.0
0.0012598061325456145   -0.0017959213949198072   -0.0006441942473678992
0.000158226125313662   -0.0018269999329611748   -0.0004880417068454402
0.0   0.0   0.0
0.0   0.0   0.0
0.0012379711096366824   -0.0018853515651709042   -0.0004141663337128999
0.0   0.0   0.0
0.0   0.0   0.0
0.0012379711096366824   -0.0018853515651709042   -0.0004141663337128999
0.002796896943816761   -0.0021063576864825246   -0.0003911215665151183
0.0   0.0   0.0
0.002627229014312967   -0.002083187783159921   -0.0005709620043625372
0.0   0.0   0.0
0.0   0.0   0.0
0.002627229014312967   -0.002083187783159921   -0.0005709620043625372
0.0   0.0   0.0
0.0   0.0   0.0
0.002627229014312967   -0.002083187783159921   -0.0005709620043625372
0.0012405507618527029   -0.0018952666367872098   -0.0004934312923753165
0.0012379711096366824   -0.0018853515651709042   -0.0004141663337128999
0.0   0.0   0.0
0.002627229014312967   -0.002083187783159921   -0.0005709620043625372
0.0012379711096366824   -0.0018853515651709042   -0.0004141663337128999
0.0   0.0   0.0
0.0   0.0   0.0
0.0012405507618527029   -0.0018952666367872098   -0.0004934312923753165
0.0   0.0   0.0
0.0   0.0   0.0
0.0012405507618527029   -0.0018952666367872098   -0.0004934312923753165
0.002627229014312967   -0.002083187783159921   -0.0005709620043625372
0.0   0.0   0.0
0.002549135616323908   -0.002039880743140328   -0.0007230773465481489
0.0   0.0   0.0
0.0   0.0   0.0
0.002549135616323908   -0.002039880743140328   -0.0007230773465481489
0.0   0.0   0.0
0.0   0.0   0.0
0.002549135616323908   -0.002039880743140328   -0.0007230773465481489
0.0012355637015819818   -0.001868205655220932   -0.0005695186178293484
0.0012405507618527029   -0.0018952666367872098   -0.0004934312923753165
0.0   0.0   0.0
0.002549135616323908   -0.002039880743140328   -0.0007230773465481489
0.0012405507618527029   -0.0018952666367872098   -0.0004934312923753165
0.0   0.0   0.0
0.0   0.0   0.0
0.0012355637015819818   -0.001868205655220932   -0.0005695186178293484
0.0   0.0   0.0
0.0   0.0   0.0
0.0012355637015819818   -0.001868205655220932   -0.0005695186178293484
0.002549135616323908   -0.002039880743140328   -0.0007230773465481489
0.0   0.0   0.0
0.002432648630192305   -0.0019292104861685893   -0.0008841306878726447
0.0   0.0   0.0
0.0   0.0   0.0
0.002432648630192305   -0.0019292104861685893   -0.0008841306878726447
0.0   0.0   0.0
0.0   0.0   0.0
0.002432648630192305   -0.0019292104861685893   -0.0008841306878726447
0.0012598061325456145   -0.0017959213949198072   -0.0006441942473678992
0.0012355637015819818   -0.001868205655220932   -0.0005695186178293484
0.0   0.0   0.0
0.002432648630192305   -0.0019292104861685893   -0.0008841306878726447
0.0012355637015819818   -0.001868205655220932   -0.0005695186178293484
0.0   0.0   0.0
-0.0031540164059561926   -0.0020743440143324945   -0.0010568747920603153
-0.005887348035789763   -0.005783136718863208   -0.0014240677240511077
-0.0020065307114823195   -0.0018650482074583073   -0.0007765500593145449
-0.003300465792407353   -0.0022096765633146747   -0.000848670598589772
-0.005887348035789763   -0.005783136718863208   -0.0014240677240511077
-0.0037574973801438637   -0.00559503777440064   -0.001172553019670718
-0.0020065307114823195   -0.0018650482074583073   -0.0007765500593145449
-0.00376141283588668   -0.005690421522987585   -0.0010562347750000215
-0.003300465792407353   -0.0022096765633146747   -0.000848670598589772
-0.0019665555776177527   -0.001958345416323928   -0.0006506809899447791
-0.00376141283588668   -0.005690421522987585   -0.0010562347750000215
-0.0020065307114823195   -0.0018650482074583073   -0.0007765500593145449
-0.003300465792407353   -0.0022096765633146747   -0.000848670598589772
-0.00376141283588668   -0.005690421522987585   -0.0010562347750000215
-0.006063041570393181   -0.005916289645182275   -0.0012352644015739375
-0.005887348035789763   -0.005783136718863208   -0.0014240677240511077
-0.003300465792407353   -0.0022096765633146747   -0.000848670598589772
-0.00376141283588668   -0.005690421522987585   -0.0010562347750000215
-0.005887348035789763   -0.005783136718863208   -0.0014240677240511077
-0.0020065307114823195   -0.0018650482074583073   -0.0007765500593145449
-0.003300465792407353   -0.0022096765633146747   -0.000848670598589772
-0.006063041570393181   -0.005916289645182275   -0.0012352644015739375
-0.0019665555776177527   -0.001958345416323928   -0.0006506809899447791
-0.003403170584704328   -0.0022755022313249345   -0.0006492470407498242
-0.006063041570393181   -0.005916289645182275   -0.0012352644015739375
-0.00376141283588668   -0.005690421522987585   -0.0010562347750000215
-0.0019665555776177527   -0.001958345416323928   -0.0006506809899447791
-0.003775663929089807   -0.0057486165400645545   -0.0009444919002910698
-0.003403170584704328   -0.0022755022313249345   -0.0006492470407498242
-0.001971785378098563   -0.002006193713074952   -0.0005250292869007336
-0.003775663929089807   -0.0057486165400645545   -0.0009444919002910698
-0.0019665555776177527   -0.001958345416323928   -0.0006506809899447791
-0.003403170584704328   -0.0022755022313249345   -0.0006492470407498242
-0.003775663929089807   -0.0057486165400645545   -0.0009444919002910698
-0.006184891070834741   -0.005991535053489425   -0.0010504409289703574
-0.006063041570393181   -0.005916289645182275   -0.0012352644015739375
-0.003403170584704328   -0.0022755022313249345   -0.0006492470407498242
-0.003775663929089807   -0.0057486165400645545   -0.0009444919002910698
-0.006063041570393181   -0.005916289645182275   -0.0012352644015739375
-0.0019665555776177527   -0.001958345416323928   -0.0006506809899447791
-0.003403170584704328   -0.0022755022313249345   -0.0006492470407498242
-0.006184891070834741   -0.005991535053489425   -0.0010504409289703574
-0.001971785378098563   -0.002006193713074952   -0.0005250292869007336
-0.003624738829665174   -0.002325477035355828   -0.0004179318670265744
-0.006184891070834741   -0.005991535053489425   -0.0010504409289703574
-0.003775663929089807   -0.0057486165400645545   -0.0009444919002910698
-0.001971785378098563   -0.002006193713074952   -0.0005250292869007336
-0.003763831312173347   -0.005778896166514332   -0.0008399309114271528
-0.003624738829665174   -0.002325477035355828   -0.0004179318670265744
-0.0019703924798416695   -0.0020185386838447216   -0.00039514872100624907
-0.003763831312173347   -0.005778896166514332   -0.0008399309114271528
-0.001971785378098563   -0.002006193713074952   -0.0005250292869007336
-0.003624738829665174   -0.002325477035355828   -0.0004179318670265744
-0.003763831312173347   -0.005778896166514332   -0.0008399309114271528
-0.006328888330984719   -0.006035429881788889   -0.0008823617894258796
-0.006184891070834741   -0.005991535053489425   -0.0010504409289703574
-0.003624738829665174   -0.002325477035355828   -0.0004179318670265744
-0.003763831312173347   -0.005778896166514332   -0.0008399309114271528
-0.006184891070834741   -0.005991535053489425   -0.0010504409289703574
-0.001971785378098563   -0.002006193713074952   -0.0005250292869007336
-0.0020065307114823195   -0.0018650482074583073   -0.0007765500593145449
-0.0037574973801438637   -0.00559503777440064   -0.001172553019670718
-0.0009141506383383433   -0.0017883536700188272   -0.0005907956209697456
-0.0019665555776177527   -0.001958345416323928   -0.0006506809899447791
-0.0037574973801438637   -0.00559503777440064   -0.001172553019670718
-0.001744375560727676   -0.005507508760877641   -0.0010009115185984658
-0.0009141506383383433   -0.0017883536700188272   -0.0005907956209697456
-0.0017287943186548044   -0.005568163806045323   -0.00094125528392099
-0.0019665555776177527   -0.001958345416323928   -0.0006506809899447791
-0.0008789089372207323   -0.0018490418696597102   -0.000531335982686379
-0.0017287943186548044   -0.005568163806045323   -0.00094125528392099
-0.0009141506383383433   -0.0017883536700188272   -0.0005907956209697456
-0.0019665555776177527   -0.001958345416323928   -0.0006506809899447791
-0.0017287943186548044   -0.005568163806045323   -0.00094125528392099
-0.00376141283588668   -0.005690421522987585   -0.0010562347750000215
-0.0037574973801438637   -0.00559503777440064   -0.001172553019670718
-0.0019665555776177527   -0.001958345416323928   -0.0006506809899447791
-0.0017287943186548044   -0.005568163806045323   -0.00094125528392099
-0.0037574973801438637   -0.00559503777440064   -0.001172553019670718
-0.0009141506383383433   -0.0017883536700188272   -0.0005907956209697456
-0.0019665555776177527   -0.001958345416323928   -0.0006506809899447791
-0.00376141283588668   -0.005690421522987585   -0.0010562347750000215
-0.0008789089372207323   -0.0018490418696597102   -0.000531335982686379
-0.001971785378098563   -0.002006193713074952   -0.0005250292869007336
-0.00376141283588668   -0.005690421522987585   -0.0010562347750000215
-0.0017287943186548044   -0.005568163806045323   -0.00094125528392099
-0.0008789089372207323   -0.0018490418696597102   -0.000531335982686379
-0.0017149269063342855   -0.005597599890003244   -0.0008871986947768312
-0.001971785378098563   -0.002006193713074952   -0.0005250292869007336
-0.0008589868441895685   -0.0018721869358371852   -0.00047346461830573505
-0.0017149269063342855   -0.005597599890003244   -0.0008871986947768312
-0.0008789089372207323   -0.0018490418696597102   -0.000531335982686379
-0.001971785378098563   -0.002006193713074952   -0.0005250292869007336
-0.0017149269063342855   -0.005597599890003244   -0.0008871986947768312
-0.003775663929089807   -0.0057486165400645545   -0.0009444919002910698
-0.00376141283588668   -0.005690421522987585   -0.0010562347750000215
-0.001971785378098563   -0.002006193713074952   -0.0005250292869007336
-0.0017149269063342855   -0.005597599890003244   -0.0008871986947768312
-0.00376141283588668   -0.005690421522987585   -0.0010562347750000215
-0.0008789089372207323   -0.0018490418696597102   -0.000531335982686379
-0.001971785378098563   -0.002006193713074952   -0.0005250292869007336
-0.003775663929089807   -0.0057486165400645545   -0.0009444919002910698
-0.0008589868441895685   -0.0018721869358371852   -0.00047346461830573505
-0.0019703924798416695   -0.0020185386838447216   -0.00039514872100624907
-0.003775663929089807   -0.0057486165400645545   -0.0009444919002910698
-0.0017149269063342855   -0.005597599890003244   -0.0008871986947768312
-0.0008589868441895685   -0.0018721869358371852   -0.00047346461830573505
-0.001694480734351267   -0.0055969252391353105   -0.0008401632746971582
-0.0019703924798416695   -0.0020185386838447216   -0.00039514872100624907
-0.0008407939779048794   -0.0018625611523144649   -0.00041367317327544736
-0.001694480734351267   -0.0055969252391353105   -0.0008401632746971582
-0.0008589868441895685   -0.0018721869358371852   -0.00047346461830573505
-0.0019703924798416695   -0.0020185386838447216   -0.00039514872100624907
-0.001694480734351267   -0.0055969252391353105   -0.0008401632746971582
-0.003763831312173347   -0.005778896166514332   -0.0008399309114271528
-0.003775663929089807   -0.0057486165400645545   -0.0009444919002910698
-0.0019703924798416695   -0.0020185386838447216   -0.00039514872100624907
-0.001694480734351267   -0.0055969252391353105   -0.0008401632746971582
-0.003775663929089807   -0.0057486165400645545   -0.0009444919002910698
-0.0008589868441895685   -0.0018721869358371852   -0.00047346461830573505
-0.0009141506383383433   -0.0017883536700188272   -0.0005907956209697456
-0.001744375560727676   -0.005507508760877641   -0.0010009115185984658
0.00011767305670600556   -0.0017982297455756068   -0.0004725255797902495
-0.0008789089372207323   -0.0018490418696597102   -0.000531335982686379
-0.001744375560727676   -0.005507508760877641   -0.0010009115185984658
0.00019654535517716246   -0.005510146744135963   -0.0008925236544945459
0.00011767305670600556   -0.0017982297455756068   -0.0004725255797902495
0.0002156043806345097   -0.0055387983780072585   -0.0008884751401535457
-0.0008789089372207323   -0.0018490418696597102   -0.000531335982686379
0.00014031436866851027   -0.0018296417961912604   -0.00048066174145869816
0.0002156043806345097   -0.0055387983780072585   -0.0008884751401535457
0.00011767305670600556   -0.0017982297455756068   -0.0004725255797902495
-0.0008789089372207323   -0.0018490418696597102   -0.000531335982686379
0.0002156043806345097   -0.0055387983780072585   -0.0008884751401535457
-0.0017287943186548044   -0.005568163806045323   -0.00094125528392099
-0.001744375560727676   -0.005507508760877641   -0.0010009115185984658
-0.0008789089372207323   -0.0018490418696597102   -0.000531335982686379
0.0002156043806345097   -0.0055387983780072585   -0.0008884751401535457
-0.001744375560727676   -0.005507508760877641   -0.0010009115185984658
0.00011767305670600556   -0.0017982297455756068   -0.0004725255797902495
-0.0008789089372207323   -0.0018490418696597102   -0.000531335982686379
-0.0017287943186548044   -0.005568163806045323   -0.00094125528392099
0.00014031436866851027   -0.0018296417961912604   -0.00048066174145869816
-0.0008589868441895685   -0.0018721869358371852   -0.00047346461830573505
-0.0017287943186548044   -0.005568163806045323   -0.00094125528392099
0.0002156043806345097   -0.0055387983780072585   -0.0008884751401535457
0.00014031436866851027   -0.0018296417961912604   -0.00048066174145869816
0.0002285972062573524   -0.005536961027863579   -0.000890780108064792
-0.0008589868441895685   -0.0018721869358371852   -0.00047346461830573505
0.000158226125313662   -0.0018269999329611748   -0.0004880417068454402
0.0002285972062573524   -0.005536961027863579   -0.000890780108064792
0.00014031436866851027   -0.0018296417961912604   -0.00048066174145869816
-0.0008589868441895685   -0.0018721869358371852   -0.00047346461830573505
0.0002285972062573524   -0.005536961027863579   -0.000890780108064792
-0.0017149269063342855   -0.005597599890003244   -0.0008871986947768312
-0.0017287943186548044   -0.005568163806045323   -0.00094125528392099
-0.0008589868441895685   -0.0018721869358371852   -0.00047346461830573505
0.0002285972062573524   -0.005536961027863579   -0.000890780108064792
-0.0017287943186548044   -0.005568163806045323   -0.00094125528392099
0.00014031436866851027   -0.0018296417961912604   -0.00048066174145869816
-0.0008589868441895685   -0.0018721869358371852   -0.00047346461830573505
-0.0017149269063342855   -0.005597599890003244   -0.0008871986947768312
0.000158226125313662   -0.0018269999329611748   -0.0004880417068454402
-0.0008407939779048794   -0.0018625611523144649   -0.00041367317327544736
-0.0017149269063342855   -0.005597599890003244   -0.0008871986947768312
0.0002285972062573524   -0.005536961027863579   -0.000890780108064792
0.000158226125313662   -0.0018269999329611748   -0.0004880417068454402
0.00024249693399777168   -0.005503706908539265   -0.000899538350369568
-0.0008407939779048794   -0.0018625611523144649   -0.00041367317327544736
0.0001822215035707663   -0.001787517594401992   -0.0004956636792108587
0.00024249693399777168   -0.005503706908539265   -0.000899538350369568
0.000158226125313662   -0.0018269999329611748   -0.0004880417068454402
-0.0008407939779048794   -0.0018625611523144649   -0.00041367317327544736
0.00024249693399777168   -0.005503706908539265   -0.000899538350369568
-0.001694480734351267   -0.0055969252391353105   -0.0008401632746971582
-0.0017149269063342855   -0.005597599890003244   -0.0008871986947768312
-0.0008407939779048794   -0.0018625611523144649   -0.00041367317327544736
0.00024249693399777168   -0.005503706908539265   -0.000899538350369568
-0.0017149269063342855   -0.005597599890003244   -0.0008871986947768312
0.000158226125313662   -0.0018269999329611748   -0.0004880417068454402
0.00011767305670600556   -0.0017982297455756068   -0.0004725255797902495
0.00019654535517716246   -0.005510146744135963   -0.0008925236544945459
0.0012379711096366824   -0.0018853515651709042   -0.0004141663337128999
0.00014031436866851027   -0.0018296417961912604   -0.00048066174145869816
0.00019654535517716246   -0.005510146744135963   -0.0008925236544945459
0.002253673633074424   -0.005599707464487999   -0.0008421697179671057
0.0012379711096366824   -0.0018853515651709042   -0.0004141663337128999
0.002264770052558573   -0.00559925886770858   -0.0008955284868667585
0.00014031436866851027   -0.0018296417961912604   -0.00048066174145869816
0.0012405507618527029   -0.0018952666367872098   -0.0004934312923753165
0.002264770052558573   -0.00559925886770858   -0.0008955284868667585
0.0012379711096366824   -0.0018853515651709042   -0.0004141663337128999
0.00014031436866851027   -0.0018296417961912604   -0.00048066174145869816
0.002264770052558573   -0.00559925886770858   -0.0008955284868667585
0.0002156043806345097   -0.0055387983780072585   -0.0008884751401535457
0.00019654535517716246   -0.005510146744135963   -0.0008925236544945459
0.00014031436866851027   -0.0018296417961912604   -0.00048066174145869816
0.002264770052558573   -0.00559925886770858   -0.0008955284868667585
0.00019654535517716246   -0.005510146744135963   -0.0008925236544945459
0.0012379711096366824   -0.0018853515651709042   -0.0004141663337128999
0.00014031436866851027   -0.0018296417961912604   -0.00048066174145869816
0.0002156043806345097   -0.0055387983780072585   -0.0008884751401535457
0.0012405507618527029   -0.0018952666367872098   -0.0004934312923753165
0.000158226125313662   -0.0018269999329611748   -0.0004880417068454402
0.0002156043806345097   -0.0055387983780072585   -0.0008884751401535457
0.002264770052558573   -0.00559925886770858   -0.0008955284868667585
0.0012405507618527029   -0.0018952666367872098   -0.0004934312923753165
0.002254920542438602   -0.0055689301375578095   -0.0009560750681139324
0.000158226125313662   -0.0018269999329611748   -0.0004880417068454402
0.0012355637015819818   -0.001868205655220932   -0.0005695186178293484
0.002254920542438602   -0.0055689301375578095   -0.0009560750681139324
0.0012405507618527029   -0.0018952666367872098   -0.0004934312923753165
0.000158226125313662   -0.0018269999329611748   -0.0004880417068454402
0.002254920542438602   -0.0055689301375578095   -0.0009560750681139324
0.0002285972062573524   -0.005536961027863579   -0.000890780108064792
0.0002156043806345097   -0.0055387983780072585   -0.0008884751401535457
0.000158226125313662   -0.0018269999329611748   -0.0004880417068454402
0.002254920542438602   -0.0055689301375578095   -0.0009560750681139324
0.0002156043806345097   -0.0055387983780072585   -0.0008884751401535457
0.0012405507618527029   -0.0018952666367872098   -0.0004934312923753165
0.000158226125313662   -0.0018269999329611748   -0.0004880417068454402
0.0002285972062573524   -0.005536961027863579   -0.000890780108064792
0.0012355637015819818   -0.001868205655220932   -0.0005695186178293484
0.0001822215035707663   -0.001787517594401992   -0.0004956636792108587
0.0002285972062573524   -0.005536961027863579   -0.000890780108064792
0.002254920542438602   -0.0055689301375578095   -0.0009560750681139324
0.0012355637015819818   -0.001868205655220932   -0.0005695186178293484
0.0022494995788477435   -0.005500452837636663   -0.0010215672295286879
0.0001822215035707663   -0.001787517594401992   -0.0004956636792108587
0.0012598061325456145   -0.0017959213949198072   -0.0006441942473678992
0.0022494995788477435   -0.005500452837636663   -0.0010215672295286879
0.0012355637015819818   -0.001868205655220932   -0.0005695186178293484
0.0001822215035707663   -0.001787517594401992   -0.0004956636792108587
0.0022494995788477435   -0.005500452837636663   -0.0010215672295286879
0.00024249693399777168   -0.005503706908539265   -0.000899538350369568
0.0002285972062573524   -0.005536961027863579   -0.000890780108064792
0.0001822215035707663   -0.001787517594401992   -0.0004956636792108587
0.0022494995788477435   -0.005500452837636663   -0.0010215672295286879
0.0002285972062573524   -0.005536961027863579   -0.000890780108064792
0.0012355637015819818   -0.001868205655220932   -0.0005695186178293484
0.0012379711096366824   -0.0018853515651709042   -0.0004141663337128999
0.002253673633074424   -0.005599707464487999   -0.0008421697179671057
0.002796896943816761   -0.0021063576864825246   -0.0003911215665151183
0.0012405507618527029   -0.0018952666367872098   -0.0004934312923753165
0.002253673633074424   -0.005599707464487999   -0.0008421697179671057
0.004736840485961591   -0.005766069544417727   -0.000829048777205013
0.002796896943816761   -0.0021063576864825246   -0.0003911215665151183
0.004641389609858837   -0.005750082109110217   -0.0009491759015589586
0.0012405507618527029   -0.0018952666367872098   -0.0004934312923753165
0.002627229014312967   -0.002083187783159921   -0.0005709620043625372
0.004641389609858837   -0.005750082109110217   -0.0009491759015589586
0.002796896943816761   -0.0021063576864825246   -0.0003911215665151183
0.0012405507618527029   -0.0018952666367872098   -0.0004934312923753165
0.004641389609858837   -0.005750082109110217   -0.0009491759015589586
0.002264770052558573   -0.00559925886770858   -0.0008955284868667585
0.002253673633074424   -0.005599707464487999   -0.0008421697179671057
0.0012405507618527029   -0.0018952666367872098   -0.0004934312923753165
0.004641389609858837   -0.005750082109110217   -0.0009491759015589586
0.002253673633074424   -0.005599707464487999   -0.0008421697179671057
0.002796896943816761   -0.0021063576864825246   -0.0003911215665151183
0.0012405507618527029   -0.0018952666367872098   -0.0004934312923753165
0.002264770052558573   -0.00559925886770858   -0.0008955284868667585
0.002627229014312967   -0.002083187783159921   -0.0005709620043625372
0.0012355637015819818   -0.001868205655220932   -0.0005695186178293484
0.002264770052558573   -0.00559925886770858   -0.0008955284868667585
0.004641389609858837   -0.005750082109110217   -0.0009491759015589586
0.002627229014312967   -0.002083187783159921   -0.0005709620043625372
0.004556008453716863   -0.005703360065714917   -0.0010844192746972854
0.0012355637015819818   -0.001868205655220932   -0.0005695186178293484
0.002549135616323908   -0.002039880743140328   -0.0007230773465481489
0.004556008453716863   -0.005703360065714917   -0.0010844192746972854
0.002627229014312967   -0.002083187783159921   -0.0005709620043625372
0.0012355637015819818   -0.001868205655220932   -0.0005695186178293484
0.004556008453716863   -0.005703360065714917   -0.0010844192746972854
0.002254920542438602   -0.0055689301375578095   -0.0009560750681139324
0.002264770052558573   -0.00559925886770858   -0.0008955284868667585
0.0012355637015819818   -0.001868205655220932   -0.0005695186178293484
0.004556008453716863   -0.005703360065714917   -0.0010844192746972854
0.002264770052558573   -0.00559925886770858   -0.0008955284868667585
0.002627229014312967   -0.002083187783159921   -0.0005709620043625372
0.0012355637015819818   -0.001868205655220932   -0.0005695186178293484
0.002254920542438602   -0.0055689301375578095   -0.0009560750681139324
0.002549135616323908   -0.002039880743140328   -0.0007230773465481489
0.0012598061325456145   -0.0017959213949198072   -0.0006441942473678992
0.002254920542438602   -0.0055689301375578095   -0.0009560750681139324
0.004556008453716863   -0.005703360065714917   -0.0010844192746972854
0.002549135616323908   -0.002039880743140328   -0.0007230773465481489
0.004427677113697385   -0.005599614103304731   -0.0012252652765137758
0.0012598061325456145   -0.0017959213949198072   -0.0006441942473678992
0.002432648630192305   -0.0019292104861685893   -0.0008841306878726447
0.004427677113697385   -0.005599614103304731   -0.0012252652765137758
0.002549135616323908   -0.002039880743140328   -0.0007230773465481489
0.0012598061325456145   -0.0017959213949198072   -0.0006441942473678992
0.004427677113697385   -0.005599614103304731   -0.0012252652765137758
0.0022494995788477435   -0.005500452837636663   -0.0010215672295286879
0.002254920542438602   -0.0055689301375578095   -0.0009560750681139324
0.0012598061325456145   -0.0017959213949198072   -0.0006441942473678992
0.004427677113697385   -0.005599614103304731   -0.0012252652765137758
0.002254920542438602   -0.0055689301375578095   -0.0009560750681139324
0.002549135616323908   -0.002039880743140328   -0.0007230773465481489
-0.005887348035789763   -0.005783136718863208   -0.0014240677240511077
-0.008062040762471507   -0.01083592559696394   -0.0016225562648349888
-0.0037574973801438637   -0.00559503777440064   -0.001172553019670718
-0.006063041570393181   -0.005916289645182275   -0.0012352644015739375
-0.008062040762471507   -0.01083592559696394   -0.0016225562648349888
-0.005183848005277903   -0.01069233734431411   -0.0014188501511596366
-0.0037574973801438637   -0.00559503777440064   -0.001172553019670718
-0.005194566321483868   -0.010774564544355962   -0.001328700170639558
-0.006063041570393181   -0.005916289645182275   -0.0012352644015739375
-0.00376141283588668   -0.005690421522987585   -0.0010562347750000215
-0.005194566321483868   -0.010774564544355962   -0.001328700170639558
-0.0037574973801438637   -0.00559503777440064   -0.001172553019670718
-0.006063041570393181   -0.005916289645182275   -0.0012352644015739375
-0.005194566321483868   -0.010774564544355962   -0.001328700170639558
-0.008204510748118612   -0.010948340093736573   -0.0014819675210005902
-0.008062040762471507   -0.01083592559696394   -0.0016225562648349888
-0.006063041570393181   -0.005916289645182275   -0.0012352644015739375
-0.005194566321483868   -0.010774564544355962   -0.001328700170639558
-0.008062040762471507   -0.01083592559696394   -0.0016225562648349888
-0.0037574973801438637   -0.00559503777440064   -0.001172553019670718
-0.006063041570393181   -0.005916289645182275   -0.0012352644015739375
-0.008204510748118612   -0.010948340093736573   -0.0014819675210005902
-0.00376141283588668   -0.005690421522987585   -0.0010562347750000215
-0.006184891070834741   -0.005991535053489425   -0.0010504409289703574
-0.008204510748118612   -0.010948340093736573   -0.0014819675210005902
-0.005194566321483868   -0.010774564544355962   -0.001328700170639558
-0.00376141283588668   -0.005690421522987585   -0.0010562347750000215
-0.005207266967079582   -0.010831843414943301   -0.001245098039638106
-0.006184891070834741   -0.005991535053489425   -0.0010504409289703574
-0.003775663929089807   -0.0057486165400645545   -0.0009444919002910698
-0.005207266967079582   -0.010831843414943301   -0.001245098039638106
-0.00376141283588668   -0.005690421522987585   -0.0010562347750000215
-0.006184891070834741   -0.005991535053489425   -0.0010504409289703574
-0.005207266967079582   -0.010831843414943301   -0.001245098039638106
-0.008294028420957349   -0.011018895123080219   -0.0013509746909626601
-0.008204510748118612   -0.010948340093736573   -0.0014819675210005902
-0.006184891070834741   -0.005991535053489425   -0.0010504409289703574
-0.005207266967079582   -0.010831843414943301   -0.001245098039638106
-0.008204510748118612   -0.010948340093736573   -0.0014819675210005902
-0.00376141283588668   -0.005690421522987585   -0.0010562347750000215
-0.006184891070834741   -0.005991535053489425   -0.0010504409289703574
-0.008294028420957349   -0.011018895123080219   -0.0013509746909626601
-0.003775663929089807   -0.0057486165400645545   -0.0009444919002910698
-0.006328888330984719   -0.006035429881788889   -0.0008823617894258796
-0.008294028420957349   -0.011018895123080219   -0.0013509746909626601
-0.005207266967079582   -0.010831843414943301   -0.001245098039638106
-0.003775663929089807   -0.0057486165400645545   -0.0009444919002910698
-0.005196820642001616   -0.010869613420295429   -0.0011666471590689718
-0.006328888330984719   -0.006035429881788889   -0.0008823617894258796
-0.003763831312173347   -0.005778896166514332   -0.0008399309114271528
-0.005196820642001616   -0.010869613420295429   -0.0011666471590689718
-0.003775663929089807   -0.0057486165400645545   -0.0009444919002910698
-0.006328888330984719   -0.006035429881788889   -0.0008823617894258796
-0.005196820642001616   -0.010869613420295429   -0.0011666471590689718
-0.00839588087326962   -0.011069776070187548   -0.0012304757480013089
-0.008294028420957349   -0.011018895123080219   -0.0013509746909626601
-0.006328888330984719   -0.006035429881788889   -0.0008823617894258796
-0.005196820642001616   -0.010869613420295429   -0.0011666471590689718
-0.008294028420957349   -0.011018895123080219   -0.0013509746909626601
-0.003775663929089807   -0.0057486165400645545   -0.0009444919002910698
-0.0037574973801438637   -0.00559503777440064   -0.001172553019670718
-0.005183848005277903   -0.01069233734431411   -0.0014188501511596366
-0.001744375560727676   -0.005507508760877641   -0.0010009115185984658
-0.00376141283588668   -0.005690421522987585   -0.0010562347750000215
-0.005183848005277903   -0.01069233734431411   -0.0014188501511596366
-0.0024710333837096544   -0.010620687481324836   -0.0012773541105778358
-0.001744375560727676   -0.005507508760877641   -0.0010009115185984658
-0.002464203269714827   -0.010673214561656305   -0.0012263411827953968
-0.00376141283588668   -0.005690421522987585   -0.0010562347750000215
-0.0017287943186548044   -0.005568163806045323   -0.00094125528392099
-0.002464203269714827   -0.010673214561656305   -0.0012263411827953968
-0.001744375560727676   -0.005507508760877641   -0.0010009115185984658
-0.00376141283588668   -0.005690421522987585   -0.0010562347750000215
-0.002464203269714827   -0.010673214561656305   -0.0012263411827953968
-0.005194566321483868   -0.010774564544355962   -0.001328700170639558
-0.005183848005277903   -0.01069233734431411   -0.0014188501511596366
-0.00376141283588668   -0.005690421522987585   -0.0010562347750000215
-0.002464203269714827   -0.010673214561656305   -0.0012263411827953968
-0.005183848005277903   -0.01069233734431411   -0.0014188501511596366
-0.001744375560727676   -0.005507508760877641   -0.0010009115185984658
-0.00376141283588668   -0.005690421522987585   -0.0010562347750000215
-0.005194566321483868   -0.010774564544355962   -0.001328700170639558
-0.0017287943186548044   -0.005568163806045323   -0.00094125528392099
-0.003775663929089807   -0.0057486165400645545   -0.0009444919002910698
-0.005194566321483868   -0.010774564544355962   -0.001328700170639558
-0.002464203269714827   -0.010673214561656305   -0.0012263411827953968
-0.0017287943186548044   -0.005568163806045323   -0.00094125528392099
-0.002455985037241875   -0.010704090666897065   -0.0011815592464928107
-0.003775663929089807   -0.0057486165400645545   -0.0009444919002910698
-0.0017149269063342855   -0.005597599890003244   -0.0008871986947768312
-0.002455985037241875   -0.010704090666897065   -0.0011815592464928107
-0.0017287943186548044   -0.005568163806045323   -0.00094125528392099
-0.003775663929089807   -0.0057486165400645545   -0.0009444919002910698
-0.002455985037241875   -0.010704090666897065   -0.0011815592464928107
-0.005207266967079582   -0.010831843414943301   -0.001245098039638106
-0.005194566321483868   -0.010774564544355962   -0.001328700170639558
-0.003775663929089807   -0.0057486165400645545   -0.0009444919002910698
-0.002455985037241875   -0.010704090666897065   -0.0011815592464928107
-0.005194566321483868   -0.010774564544355962   -0.001328700170639558
-0.0017287943186548044   -0.005568163806045323   -0.00094125528392099
-0.003775663929089807   -0.0057486165400645545   -0.0009444919002910698
-0.005207266967079582   -0.010831843414943301   -0.001245098039638106
-0.0017149269063342855   -0.005597599890003244   -0.0008871986947768312
-0.003763831312173347   -0.005778896166514332   -0.0008399309114271528
-0.005207266967079582   -0.010831843414943301   -0.001245098039638106
-0.002455985037241875   -0.010704090666897065   -0.0011815592464928107
-0.0017149269063342855   -0.005597599890003244   -0.0008871986947768312
-0.0024428765404271575   -0.010713757060645857   -0.0011429916378477456
-0.003763831312173347   -0.005778896166514332   -0.0008399309114271528
-0.001694480734351267   -0.0055969252391353105   -0.0008401632746971582
-0.0024428765404271575   -0.010713757060645857   -0.0011429916378477456
-0.0017149269063342855   -0.005597599890003244   -0.0008871986947768312
-0.003763831312173347   -0.005778896166514332   -0.0008399309114271528
-0.0024428765404271575   -0.010713757060645857   -0.0011429916378477456
-0.005196820642001616   -0.010869613420295429   -0.0011666471590689718
-0.005207266967079582   -0.010831843414943301   -0.001245098039638106
-0.003763831312173347   -0.005778896166514332   -0.0008399309114271528
-0.0024428765404271575   -0.010713757060645857   -0.0011429916378477456
-0.005207266967079582   -0.010831843414943301   -0.001245098039638106
-0.0017149269063342855   -0.005597599890003244   -0.0008871986947768312
-0.001744375560727676   -0.005507508760877641   -0.0010009115185984658
-0.0024710333837096544   -0.010620687481324836   -0.0012773541105778358
0.00019654535517716246   -0.005510146744135963   -0.0008925236544945459
-0.0017287943186548044   -0.005568163806045323   -0.00094125528392099
-0.0024710333837096544   -0.010620687481324836   -0.0012773541105778358
0.00016183305538780058   -0.010616862568488622   -0.0011897638843363725
0.00019654535517716246   -0.005510146744135963   -0.0008925236544945459
0.00017387990209449185   -0.010640138874289239   -0.0011776825261550518
-0.0017287943186548044   -0.005568163806045323   -0.00094125528392099
0.0002156043806345097   -0.0055387983780072585   -0.0008884751401535457
0.00017387990209449185   -0.010640138874289239   -0.0011776825261550518
0.00019654535517716246   -0.005510146744135963   -0.0008925236544945459
-0.0017287943186548044   -0.005568163806045323   -0.00094125528392099
0.00017387990209449185   -0.010640138874289239   -0.0011776825261550518
-0.002464203269714827   -0.010673214561656305   -0.0012263411827953968
-0.0024710333837096544   -0.010620687481324836   -0.0012773541105778358
-0.0017287943186548044   -0.005568163806045323   -0.00094125528392099
0.00017387990209449185   -0.010640138874289239   -0.0011776825261550518
-0.0024710333837096544   -0.010620687481324836   -0.0012773541105778358
0.00019654535517716246   -0.005510146744135963   -0.0008925236544945459
-0.0017287943186548044   -0.005568163806045323   -0.00094125528392099
-0.002464203269714827   -0.010673214561656305   -0.0012263411827953968
0.0002156043806345097   -0.0055387983780072585   -0.0008884751401535457
-0.0017149269063342855   -0.005597599890003244   -0.0008871986947768312
-0.002464203269714827   -0.010673214561656305   -0.0012263411827953968
0.00017387990209449185   -0.010640138874289239   -0.0011776825261550518
0.0002156043806345097   -0.0055387983780072585   -0.0008884751401535457
0.00018183181432843257   -0.010641849807103173   -0.001171671607188277
-0.0017149269063342855   -0.005597599890003244   -0.0008871986947768312
0.0002285972062573524   -0.005536961027863579   -0.000890780108064792
0.00018183181432843257   -0.010641849807103173   -0.001171671607188277
0.0002156043806345097   -0.0055387983780072585   -0.0008884751401535457
-0.0017149269063342855   -0.005597599890003244   -0.0008871986947768312
0.00018183181432843257   -0.010641849807103173   -0.001171671607188277
-0.002455985037241875   -0.010704090666897065   -0.0011815592464928107
-0.002464203269714827   -0.010673214561656305   -0.0012263411827953968
-0.0017149269063342855   -0.005597599890003244   -0.0008871986947768312
0.00018183181432843257   -0.010641849807103173   -0.001171671607188277
-0.002464203269714827   -0.010673214561656305   -0.0012263411827953968
0.0002156043806345097   -0.0055387983780072585   -0.0008884751401535457
-0.0017149269063342855   -0.005597599890003244   -0.0008871986947768312
-0.002455985037241875   -0.010704090666897065   -0.0011815592464928107
0.0002285972062573524   -0.005536961027863579   -0.000890780108064792
-0.001694480734351267   -0.0055969252391353105   -0.0008401632746971582
-0.002455985037241875   -0.010704090666897065   -0.0011815592464928107
0.00018183181432843257   -0.010641849807103173   -0.001171671607188277
0.0002285972062573524   -0.005536961027863579   -0.000890780108064792
0.00018776869714862206   -0.010621674731461455   -0.0011720975595031862
-0.001694480734351267   -0.0055969252391353105   -0.0008401632746971582
0.00024249693399777168   -0.005503706908539265   -0.000899538350369568
0.00018776869714862206   -0.010621674731461455   -0.0011720975595031862
0.0002285972062573524   -0.005536961027863579   -0.000890780108064792
-0.001694480734351267   -0.0055969252391353105   -0.0008401632746971582
0.00018776869714862206   -0.010621674731461455   -0.0011720975595031862
-0.0024428765404271575   -0.010713757060645857   -0.0011429916378477456
-0.002455985037241875   -0.010704090666897065   -0.0011815592464928107
-0.001694480734351267   -0.0055969252391353105   -0.0008401632746971582
0.00018776869714862206   -0.010621674731461455   -0.0011720975595031862
-0.002455985037241875   -0.010704090666897065   -0.0011815592464928107
0.0002285972062573524   -0.005536961027863579   -0.000890780108064792
0.00019654535517716246   -0.005510146744135963   -0.0008925236544945459
0.00016183305538780058   -0.010616862568488622   -0.0011897638843363725
0.002253673633074424   -0.005599707464487999   -0.0008421697179671057
0.0002156043806345097   -0.0055387983780072585   -0.0008884751401535457
0.00016183305538780058   -0.010616862568488622   -0.0011897638843363725
0.002907254876313488   -0.010676825104643415   -0.0011546020478533689
0.002253673633074424   -0.005599707464487999   -0.0008421697179671057
0.0029179240557097126   -0.01067326740253124   -0.0011822554708899099
0.0002156043806345097   -0.0055387983780072585   -0.0008884751401535457
0.002264770052558573   -0.00559925886770858   -0.0008955284868667585
0.0029179240557097126   -0.01067326740253124   -0.0011822554708899099
0.002253673633074424   -0.005599707464487999   -0.0008421697179671057
0.0002156043806345097   -0.0055387983780072585   -0.0008884751401535457
0.0029179240557097126   -0.01067326740253124   -0.0011822554708899099
0.00017387990209449185   -0.010640138874289239   -0.0011776825261550518
0.00016183305538780058   -0.010616862568488622   -0.0011897638843363725
0.0002156043806345097   -0.0055387983780072585   -0.0008884751401535457
0.0029179240557097126   -0.01067326740253124   -0.0011822554708899099
0.00016183305538780058   -0.010616862568488622   -0.0011897638843363725
0.002253673633074424   -0.005599707464487999   -0.0008421697179671057
0.0002156043806345097   -0.0055387983780072585   -0.0008884751401535457
0.00017387990209449185   -0.010640138874289239   -0.0011776825261550518
0.002264770052558573   -0.00559925886770858   -0.0008955284868667585
0.0002285972062573524   -0.005536961027863579   -0.000890780108064792
0.00017387990209449185   -0.010640138874289239   -0.0011776825261550518
0.0029179240557097126   -0.01067326740253124   -0.0011822554708899099
0.002264770052558573   -0.00559925886770858   -0.0008955284868667585
0.002911275643475999   -0.010648629291350109   -0.0012155332900485871
0.0002285972062573524   -0.005536961027863579   -0.000890780108064792
0.002254920542438602   -0.0055689301375578095   -0.0009560750681139324
0.002911275643475999   -0.010648629291350109   -0.0012155332900485871
0.002264770052558573   -0.00559925886770858   -0.0008955284868667585
0.0002285972062573524   -0.005536961027863579   -0.000890780108064792
0.002911275643475999   -0.010648629291350109   -0.0012155332900485871
0.00018183181432843257   -0.010641849807103173   -0.001171671607188277
0.00017387990209449185   -0.010640138874289239   -0.0011776825261550518
0.0002285972062573524   -0.005536961027863579   -0.000890780108064792
0.002911275643475999   -0.010648629291350109   -0.0012155332900485871
0.00017387990209449185   -0.010640138874289239   -0.0011776825261550518
0.002264770052558573   -0.00559925886770858   -0.0008955284868667585
0.0002285972062573524   -0.005536961027863579   -0.000890780108064792
0.00018183181432843257   -0.010641849807103173   -0.001171671607188277
0.002254920542438602   -0.0055689301375578095   -0.0009560750681139324
0.00024249693399777168   -0.005503706908539265   -0.000899538350369568
0.00018183181432843257   -0.010641849807103173   -0.001171671607188277
0.002911275643475999   -0.010648629291350109   -0.0012155332900485871
0.002254920542438602   -0.0055689301375578095   -0.0009560750681139324
0.00290090065887072   -0.010597665915973043   -0.0012551038655394548
0.00024249693399777168   -0.005503706908539265   -0.000899538350369568
0.0022494995788477435   -0.005500452837636663   -0.0010215672295286879
0.00290090065887072   -0.010597665915973043   -0.0012551038655394548
0.002254920542438602   -0.0055689301375578095   -0.0009560750681139324
0.00024249693399777168   -0.005503706908539265   -0.000899538350369568
0.00290090065887072   -0.010597665915973043   -0.0012551038655394548
0.00018776869714862206   -0.010621674731461455   -0.0011720975595031862
0.00018183181432843257   -0.010641849807103173   -0.001171671607188277
0.00024249693399777168   -0.005503706908539265   -0.000899538350369568
0.00290090065887072   -0.010597665915973043   -0.0012551038655394548
0.00018183181432843257   -0.010641849807103173   -0.001171671607188277
0.002254920542438602   -0.0055689301375578095   -0.0009560750681139324
0.002253673633074424   -0.005599707464487999   -0.0008421697179671057
0.002907254876313488   -0.010676825104643415   -0.0011546020478533689
0.004736840485961591   -0.005766069544417727   -0.000829048777205013
0.002264770052558573   -0.00559925886770858   -0.0008955284868667585
0.002907254876313488   -0.010676825104643415   -0.0011546020478533689
0.006034264230131431   -0.010785436405809555   -0.0011558567922766846
0.004736840485961591   -0.005766069544417727   -0.000829048777205013
0.005982872501088421   -0.010766380568941351   -0.001228285829568918
0.002264770052558573   -0.00559925886770858   -0.0008955284868667585
0.004641389609858837   -0.005750082109110217   -0.0009491759015589586
0.005982872501088421   -0.010766380568941351   -0.001228285829568918
0.004736840485961591   -0.005766069544417727   -0.000829048777205013
0.002264770052558573   -0.00559925886770858   -0.0008955284868667585
0.005982872501088421   -0.010766380568941351   -0.001228285829568918
0.0029179240557097126   -0.01067326740253124   -0.0011822554708899099
0.002907254876313488   -0.010676825104643415   -0.0011546020478533689
0.002264770052558573   -0.00559925886770858   -0.0008955284868667585
0.005982872501088421   -0.010766380568941351   -0.001228285829568918
0.002907254876313488   -0.010676825104643415   -0.0011546020478533689
0.004736840485961591   -0.005766069544417727   -0.000829048777205013
0.002264770052558573   -0.00559925886770858   -0.0008955284868667585
0.0029179240557097126   -0.01067326740253124   -0.0011822554708899099
0.004641389609858837   -0.005750082109110217   -0.0009491759015589586
0.002254920542438602   -0.0055689301375578095   -0.0009560750681139324
0.0029179240557097126   -0.01067326740253124   -0.0011822554708899099
0.005982872501088421   -0.010766380568941351   -0.001228285829568918
0.004641389609858837   -0.005750082109110217   -0.0009491759015589586
0.005931417891443572   -0.010728490801827065   -0.0013108576406740684
0.002254920542438602   -0.0055689301375578095   -0.0009560750681139324
0.004556008453716863   -0.005703360065714917   -0.0010844192746972854
0.005931417891443572   -0.010728490801827065   -0.0013108576406740684
0.004641389609858837   -0.005750082109110217   -0.0009491759015589586
0.002254920542438602   -0.0055689301375578095   -0.0009560750681139324
0.005931417891443572   -0.010728490801827065   -0.0013108576406740684
0.002911275643475999   -0.010648629291350109   -0.0012155332900485871
0.0029179240557097126   -0.01067326740253124   -0.0011822554708899099
0.002254920542438602   -0.0055689301375578095   -0.0009560750681139324
0.005931417891443572   -0.010728490801827065   -0.0013108576406740684
0.0029179240557097126   -0.01067326740253124   -0.0011822554708899099
0.004641389609858837   -0.005750082109110217   -0.0009491759015589586
0.002254920542438602   -0.0055689301375578095   -0.0009560750681139324
0.002911275643475999   -0.010648629291350109   -0.0012155332900485871
0.004556008453716863   -0.005703360065714917   -0.0010844192746972854
0.0022494995788477435   -0.005500452837636663   -0.0010215672295286879
0.002911275643475999   -0.010648629291350109   -0.0012155332900485871
0.005931417891443572   -0.010728490801827065   -0.0013108576406740684
0.004556008453716863   -0.005703360065714917   -0.0010844192746972854
0.005839292837629189   -0.010649252423590525   -0.0014035832830600154
0.0022494995788477435   -0.005500452837636663   -0.0010215672295286879
0.004427677113697385   -0.005599614103304731   -0.0012252652765137758
0.005839292837629189   -0.010649252423590525   -0.0014035832830600154
0.004556008453716863   -0.005703360065714917   -0.0010844192746972854
0.0022494995788477435   -0.005500452837636663   -0.0010215672295286879
0.005839292837629189   -0.010649252423590525   -0.0014035832830600154
0.00290090065887072   -0.010597665915973043   -0.0012551038655394548
0.002911275643475999   -0.010648629291350109   -0.0012155332900485871
0.0022494995788477435   -0.005500452837636663   -0.0010215672295286879
0.005839292837629189   -0.010649252423590525   -0.0014035832830600154
0.002911275643475999   -0.010648629291350109   -0.0012155332900485871
0.004556008453716863   -0.005703360065714917   -0.0010844192746972854
-0.008062040762471507   -0.01083592559696394   -0.0016225562648349888
-0.009622501107475586   -0.01682160328643563   -0.0017311739096421976
-0.005183848005277903   -0.01069233734431411   -0.0014188501511596366
-0.008204510748118612   -0.010948340093736573   -0.0014819675210005902
-0.009622501107475586   -0.01682160328643563   -0.0017311739096421976
-0.0062472665329598815   -0.016730393979361425   -0.0015653455015120694
-0.005183848005277903   -0.01069233734431411   -0.0014188501511596366
-0.006254096119215125   -0.01680102317245404   -0.0015008937230658024
-0.008204510748118612   -0.010948340093736573   -0.0014819675210005902
-0.005194566321483868   -0.010774564544355962   -0.001328700170639558
-0.006254096119215125   -0.01680102317245404   -0.0015008937230658024
-0.005183848005277903   -0.01069233734431411   -0.0014188501511596366
-0.008204510748118612   -0.010948340093736573   -0.0014819675210005902
-0.006254096119215125   -0.01680102317245404   -0.0015008937230658024
-0.00971808182341182   -0.016917189488477237   -0.001638000651446882
-0.009622501107475586   -0.01682160328643563   -0.0017311739096421976
-0.008204510748118612   -0.010948340093736573   -0.0014819675210005902
-0.006254096119215125   -0.01680102317245404   -0.0015008937230658024
-0.009622501107475586   -0.01682160328643563   -0.0017311739096421976
-0.005183848005277903   -0.01069233734431411   -0.0014188501511596366
-0.008204510748118612   -0.010948340093736573   -0.0014819675210005902
-0.00971808182341182   -0.016917189488477237   -0.001638000651446882
-0.005194566321483868   -0.010774564544355962   -0.001328700170639558
-0.008294028420957349   -0.011018895123080219   -0.0013509746909626601
-0.00971808182341182   -0.016917189488477237   -0.001638000651446882
-0.006254096119215125   -0.01680102317245404   -0.0015008937230658024
-0.005194566321483868   -0.010774564544355962   -0.001328700170639558
-0.0062587494926676515   -0.016857077415052296   -0.001442876669075875
-0.008294028420957349   -0.011018895123080219   -0.0013509746909626601
-0.005207266967079582   -0.010831843414943301   -0.001245098039638106
-0.0062587494926676515   -0.016857077415052296   -0.001442876669075875
-0.005194566321483868   -0.010774564544355962   -0.001328700170639558
-0.008294028420957349   -0.011018895123080219   -0.0013509746909626601
-0.0062587494926676515   -0.016857077415052296   -0.001442876669075875
-0.009772586860099018   -0.016984891063903617   -0.0015537974463382107
-0.00971808182341182   -0.016917189488477237   -0.001638000651446882
-0.008294028420957349   -0.011018895123080219   -0.0013509746909626601
-0.0062587494926676515   -0.016857077415052296   -0.001442876669075875
-0.00971808182341182   -0.016917189488477237   -0.001638000651446882
-0.005194566321483868   -0.010774564544355962   -0.001328700170639558
-0.008294028420957349   -0.011018895123080219   -0.0013509746909626601
-0.009772586860099018   -0.016984891063903617   -0.0015537974463382107
-0.005207266967079582   -0.010831843414943301   -0.001245098039638106
-0.00839588087326962   -0.011069776070187548   -0.0012304757480013089
-0.009772586860099018   -0.016984891063903617   -0.0015537974463382107
-0.0062587494926676515   -0.016857077415052296   -0.001442876669075875
-0.005207266967079582   -0.010831843414943301   -0.001245098039638106
-0.006245106865782111   -0.01690321183568661   -0.0013904346197319423
-0.00839588087326962   -0.011069776070187548   -0.0012304757480013089
-0.005196820642001616   -0.010869613420295429   -0.0011666471590689718
-0.006245106865782111   -0.01690321183568661   -0.0013904346197319423
-0.005207266967079582   -0.010831843414943301   -0.001245098039638106
-0.00839588087326962   -0.011069776070187548   -0.0012304757480013089
-0.006245106865782111   -0.01690321183568661   -0.0013904346197319423
-0.009828672766230081   -0.017045701340257305   -0.0014796345245472616
-0.009772586860099018   -0.016984891063903617   -0.0015537974463382107
-0.00839588087326962   -0.011069776070187548   -0.0012304757480013089
-0.006245106865782111   -0.01690321183568661   -0.0013904346197319423
-0.009772586860099018   -0.016984891063903617   -0.0015537974463382107
-0.005207266967079582   -0.010831843414943301   -0.001245098039638106
-0.005183848005277903   -0.01069233734431411   -0.0014188501511596366
-0.0062472665329598815   -0.016730393979361425   -0.0015653455015120694
-0.0024710333837096544   -0.010620687481324836   -0.0012773541105778358
-0.005194566321483868   -0.010774564544355962   -0.001328700170639558
-0.0062472665329598815   -0.016730393979361425   -0.0015653455015120694
-0.00308364754225005   -0.01668314885422722   -0.0014505408763862513
-0.0024710333837096544   -0.010620687481324836   -0.0012773541105778358
-0.0030771237591552644   -0.016727417026671212   -0.0014079085060493685
-0.005194566321483868   -0.010774564544355962   -0.001328700170639558
-0.002464203269714827   -0.010673214561656305   -0.0012263411827953968
-0.0030771237591552644   -0.016727417026671212   -0.0014079085060493685
-0.0024710333837096544   -0.010620687481324836   -0.0012773541105778358
-0.005194566321483868   -0.010774564544355962   -0.001328700170639558
-0.0030771237591552644   -0.016727417026671212   -0.0014079085060493685
-0.006254096119215125   -0.01680102317245404   -0.0015008937230658024
-0.0062472665329598815   -0.016730393979361425   -0.0015653455015120694
-0.005194566321483868   -0.010774564544355962   -0.001328700170639558
-0.0030771237591552644   -0.016727417026671212   -0.0014079085060493685
-0.0062472665329598815   -0.016730393979361425   -0.0015653455015120694
-0.0024710333837096544   -0.010620687481324836   -0.0012773541105778358
-0.005194566321483868   -0.010774564544355962   -0.001328700170639558
-0.006254096119215125   -0.01680102317245404   -0.0015008937230658024
-0.002464203269714827   -0.010673214561656305   -0.0012263411827953968
-0.005207266967079582   -0.010831843414943301   -0.001245098039638106
-0.006254096119215125   -0.01680102317245404   -0.0015008937230658024
-0.0030771237591552644   -0.016727417026671212   -0.0014079085060493685
-0.002464203269714827   -0.010673214561656305   -0.0012263411827953968
-0.003068464709302981   -0.01675946530350598   -0.0013716106539569215
-0.005207266967079582   -0.010831843414943301   -0.001245098039638106
-0.002455985037241875   -0.010704090666897065   -0.0011815592464928107
-0.003068464709302981   -0.01675946530350598   -0.0013716106539569215
-0.002464203269714827   -0.010673214561656305   -0.0012263411827953968
-0.005207266967079582   -0.010831843414943301   -0.001245098039638106
-0.003068464709302981   -0.01675946530350598   -0.0013716106539569215
-0.0062587494926676515   -0.016857077415052296   -0.001442876669075875
-0.006254096119215125   -0.01680102317245404   -0.0015008937230658024
-0.005207266967079582   -0.010831843414943301   -0.001245098039638106
-0.003068464709302981   -0.01675946530350598   -0.0013716106539569215
-0.006254096119215125   -0.01680102317245404   -0.0015008937230658024
-0.002464203269714827   -0.010673214561656305   -0.0012263411827953968
-0.005207266967079582   -0.010831843414943301   -0.001245098039638106
-0.0062587494926676515   -0.016857077415052296   -0.001442876669075875
-0.002455985037241875   -0.010704090666897065   -0.0011815592464928107
-0.005196820642001616   -0.010869613420295429   -0.0011666471590689718
-0.0062587494926676515   -0.016857077415052296   -0.001442876669075875
-0.003068464709302981   -0.01675946530350598   -0.0013716106539569215
-0.002455985037241875   -0.010704090666897065   -0.0011815592464928107
-0.0030558644977528725   -0.01677950449584341   -0.0013417548213937424
-0.005196820642001616   -0.010869613420295429   -0.0011666471590689718
-0.0024428765404271575   -0.010713757060645857   -0.0011429916378477456
-0.0030558644977528725   -0.01677950449584341   -0.0013417548213937424
-0.002455985037241875   -0.010704090666897065   -0.0011815592464928107
-0.005196820642001616   -0.010869613420295429   -0.0011666471590689718
-0.0030558644977528725   -0.01677950449584341   -0.0013417548213937424
-0.006245106865782111   -0.01690321183568661   -0.0013904346197319423
-0.0062587494926676515   -0.016857077415052296   -0.001442876669075875
-0.005196820642001616   -0.010869613420295429   -0.0011666471590689718
-0.0030558644977528725   -0.01677950449584341   -0.0013417548213937424
-0.0062587494926676515   -0.016857077415052296   -0.001442876669075875
-0.002455985037241875   -0.010704090666897065   -0.0011815592464928107
-0.0024710333837096544   -0.010620687481324836   -0.0012773541105778358
-0.00308364754225005   -0.01668314885422722   -0.0014505408763862513
0.00016183305538780058   -0.010616862568488622   -0.0011897638843363725
-0.002464203269714827   -0.010673214561656305   -0.0012263411827953968
-0.00308364754225005   -0.01668314885422722   -0.0014505408763862513
-6.103256244353006e-06   -0.01667495904530067   -0.0013838267232754071
0.00016183305538780058   -0.010616862568488622   -0.0011897638843363725
5.609990540434059e-06   -0.016692703081131164   -0.0013631915944211305
-0.002464203269714827   -0.010673214561656305   -0.0012263411827953968
0.00017387990209449185   -0.010640138874289239   -0.0011776825261550518
5.609990540434059e-06   -0.016692703081131164   -0.0013631915944211305
0.00016183305538780058   -0.010616862568488622   -0.0011897638843363725
-0.002464203269714827   -0.010673214561656305   -0.0012263411827953968
5.609990540434059e-06   -0.016692703081131164   -0.0013631915944211305
-0.0030771237591552644   -0.016727417026671212   -0.0014079085060493685
-0.00308364754225005   -0.01668314885422722   -0.0014505408763862513
-0.002464203269714827   -0.010673214561656305   -0.0012263411827953968
5.609990540434059e-06   -0.016692703081131164   -0.0013631915944211305
-0.00308364754225005   -0.01668314885422722   -0.0014505408763862513
0.00016183305538780058   -0.010616862568488622   -0.0011897638843363725
-0.002464203269714827   -0.010673214561656305   -0.0012263411827953968
-0.0030771237591552644   -0.016727417026671212   -0.0014079085060493685
0.00017387990209449185   -0.010640138874289239   -0.0011776825261550518
-0.002455985037241875   -0.010704090666897065   -0.0011815592464928107
-0.0030771237591552644   -0.016727417026671212   -0.0014079085060493685
5.609990540434059e-06   -0.016692703081131164   -0.0013631915944211305
0.00017387990209449185   -0.010640138874289239   -0.0011776825261550518
1.413830943001992e-05   -0.016698142111221753   -0.001348813124054541
-0.002455985037241875   -0.010704090666897065   -0.0011815592464928107
0.00018183181432843257   -0.010641849807103173   -0.001171671607188277
1.413830943001992e-05   -0.016698142111221753   -0.001348813124054541
0.00017387990209449185   -0.010640138874289239   -0.0011776825261550518
-0.002455985037241875   -0.010704090666897065   -0.0011815592464928107
1.413830943001992e-05   -0.016698142111221753   -0.001348813124054541
-0.003068464709302981   -0.01675946530350598   -0.0013716106539569215
-0.0030771237591552644   -0.016727417026671212   -0.0014079085060493685
-0.002455985037241875   -0.010704090666897065   -0.0011815592464928107
1.413830943001992e-05   -0.016698142111221753   -0.001348813124054541
-0.0030771237591552644   -0.016727417026671212   -0.0014079085060493685
0.00017387990209449185   -0.010640138874289239   -0.0011776825261550518
-0.002455985037241875   -0.010704090666897065   -0.0011815592464928107
-0.003068464709302981   -0.01675946530350598   -0.0013716106539569215
0.00018183181432843257   -0.010641849807103173   -0.001171671607188277
-0.0024428765404271575   -0.010713757060645857   -0.0011429916378477456
-0.003068464709302981   -0.01675946530350598   -0.0013716106539569215
1.413830943001992e-05   -0.016698142111221753   -0.001348813124054541
0.00018183181432843257   -0.010641849807103173   -0.001171671607188277
1.980705182527783e-05   -0.01669110683201574   -0.001340966134854742
-0.0024428765404271575   -0.010713757060645857   -0.0011429916378477456
0.00018776869714862206   -0.010621674731461455   -0.0011720975595031862
1.980705182527783e-05   -0.01669110683201574   -0.001340966134854742
0.00018183181432843257   -0.010641849807103173   -0.001171671607188277
-0.0024428765404271575   -0.010713757060645857   -0.0011429916378477456
1.980705182527783e-05   -0.01669110683201574   -0.001340966134854742
-0.0030558644977528725   -0.01677950449584341   -0.0013417548213937424
-0.003068464709302981   -0.01675946530350598   -0.0013716106539569215
-0.0024428765404271575   -0.010713757060645857   -0.0011429916378477456
1.980705182527783e-05   -0.01669110683201574   -0.001340966134854742
-0.003068464709302981   -0.01675946530350598   -0.0013716106539569215
0.00018183181432843257   -0.010641849807103173   -0.001171671607188277
0.00016183305538780058   -0.010616862568488622   -0.0011897638843363725
-6.103256244353006e-06   -0.01667495904530067   -0.0013838267232754071
0.002907254876313488   -0.010676825104643415   -0.0011546020478533689
0.00017387990209449185   -0.010640138874289239   -0.0011776825261550518
-6.103256244353006e-06   -0.01667495904530067   -0.0013838267232754071
0.0031773108031335024   -0.01670247140758552   -0.0013649591648405937
0.002907254876313488   -0.010676825104643415   -0.0011546020478533689
0.0031915484764264406   -0.016695212100694388   -0.001366779559669254
0.00017387990209449185   -0.010640138874289239   -0.0011776825261550518
0.0029179240557097126   -0.01067326740253124   -0.0011822554708899099
0.0031915484764264406   -0.016695212100694388   -0.001366779559669254
0.002907254876313488   -0.010676825104643415   -0.0011546020478533689
0.00017387990209449185   -0.010640138874289239   -0.0011776825261550518
0.0031915484764264406   -0.016695212100694388   -0.001366779559669254
5.609990540434059e-06   -0.016692703081131164   -0.0013631915944211305
-6.103256244353006e-06   -0.01667495904530067   -0.0013838267232754071
0.00017387990209449185   -0.010640138874289239   -0.0011776825261550518
0.0031915484764264406   -0.016695212100694388   -0.001366779559669254
-6.103256244353006e-06   -0.01667495904530067   -0.0013838267232754071
0.002907254876313488   -0.010676825104643415   -0.0011546020478533689
0.00017387990209449185   -0.010640138874289239   -0.0011776825261550518
5.609990540434059e-06   -0.016692703081131164   -0.0013631915944211305
0.0029179240557097126   -0.01067326740253124   -0.0011822554708899099
0.00018183181432843257   -0.010641849807103173   -0.001171671607188277
5.609990540434059e-06   -0.016692703081131164   -0.0013631915944211305
0.0031915484764264406   -0.016695212100694388   -0.001366779559669254
0.0029179240557097126   -0.01067326740253124   -0.0011822554708899099
0.0031933645223111355   -0.016676615780169542   -0.0013745179909633706
0.00018183181432843257   -0.010641849807103173   -0.001171671607188277
0.002911275643475999   -0.010648629291350109   -0.0012155332900485871
0.0031933645223111355   -0.016676615780169542   -0.0013745179909633706
0.0029179240557097126   -0.01067326740253124   -0.0011822554708899099
0.00018183181432843257   -0.010641849807103173   -0.001171671607188277
0.0031933645223111355   -0.016676615780169542   -0.0013745179909633706
1.413830943001992e-05   -0.016698142111221753   -0.001348813124054541
5.609990540434059e-06   -0.016692703081131164   -0.0013631915944211305
0.00018183181432843257   -0.010641849807103173   -0.001171671607188277
0.0031933645223111355   -0.016676615780169542   -0.0013745179909633706
5.609990540434059e-06   -0.016692703081131164   -0.0013631915944211305
0.0029179240557097126   -0.01067326740253124   -0.0011822554708899099
0.00018183181432843257   -0.010641849807103173   -0.001171671607188277
1.413830943001992e-05   -0.016698142111221753   -0.001348813124054541
0.002911275643475999   -0.010648629291350109   -0.0012155332900485871
0.00018776869714862206   -0.010621674731461455   -0.0011720975595031862
1.413830943001992e-05   -0.016698142111221753   -0.001348813124054541
0.0031933645223111355   -0.016676615780169542   -0.0013745179909633706
0.002911275643475999   -0.010648629291350109   -0.0012155332900485871
0.003187145959545183   -0.01664205359437702   -0.0013884022313280463
0.00018776869714862206   -0.010621674731461455   -0.0011720975595031862
0.00290090065887072   -0.010597665915973043   -0.0012551038655394548
0.003187145959545183   -0.01664205359437702   -0.0013884022313280463
0.002911275643475999   -0.010648629291350109   -0.0012155332900485871
0.00018776869714862206   -0.010621674731461455   -0.0011720975595031862
0.003187145959545183   -0.01664205359437702   -0.0013884022313280463
1.980705182527783e-05   -0.01669110683201574   -0.001340966134854742
1.413830943001992e-05   -0.016698142111221753   -0.001348813124054541
0.00018776869714862206   -0.010621674731461455   -0.0011720975595031862
0.003187145959545183   -0.01664205359437702   -0.0013884022313280463
1.413830943001992e-05   -0.016698142111221753   -0.001348813124054541
0.002911275643475999   -0.010648629291350109   -0.0012155332900485871
0.002907254876313488   -0.010676825104643415   -0.0011546020478533689
0.0031773108031335024   -0.01670247140758552   -0.0013649591648405937
0.006034264230131431   -0.010785436405809555   -0.0011558567922766846
0.0029179240557097126   -0.01067326740253124   -0.0011822554708899099
0.0031773108031335024   -0.01670247140758552   -0.0013649591648405937
0.0066925123075376155   -0.01675291134218202   -0.001383612885768919
0.006034264230131431   -0.010785436405809555   -0.0011558567922766846
0.006687515947573202   -0.016728690542561753   -0.0014095837910090443
0.0029179240557097126   -0.01067326740253124   -0.0011822554708899099
0.005982872501088421   -0.010766380568941351   -0.001228285829568918
0.006687515947573202   -0.016728690542561753   -0.0014095837910090443
0.006034264230131431   -0.010785436405809555   -0.0011558567922766846
0.0029179240557097126   -0.01067326740253124   -0.0011822554708899099
0.006687515947573202   -0.016728690542561753   -0.0014095837910090443
0.0031915484764264406   -0.016695212100694388   -0.001366779559669254
0.0031773108031335024   -0.01670247140758552   -0.0013649591648405937
0.0029179240557097126   -0.01067326740253124   -0.0011822554708899099
0.006687515947573202   -0.016728690542561753   -0.0014095837910090443
0.0031773108031335024   -0.01670247140758552   -0.0013649591648405937
0.006034264230131431   -0.010785436405809555   -0.0011558567922766846
0.0029179240557097126   -0.01067326740253124   -0.0011822554708899099
0.0031915484764264406   -0.016695212100694388   -0.001366779559669254
0.005982872501088421   -0.010766380568941351   -0.001228285829568918
0.002911275643475999   -0.010648629291350109   -0.0012155332900485871
0.0031915484764264406   -0.016695212100694388   -0.001366779559669254
0.006687515947573202   -0.016728690542561753   -0.0014095837910090443
0.005982872501088421   -0.010766380568941351   -0.001228285829568918
0.006671808248751231   -0.01669840788692353   -0.0014451612150041975
0.002911275643475999   -0.010648629291350109   -0.0012155332900485871
0.005931417891443572   -0.010728490801827065   -0.0013108576406740684
0.006671808248751231   -0.01669840788692353   -0.0014451612150041975
0.005982872501088421   -0.010766380568941351   -0.001228285829568918
0.002911275643475999   -0.010648629291350109   -0.0012155332900485871
0.006671808248751231   -0.01669840788692353   -0.0014451612150041975
0.0031933645223111355   -0.016676615780169542   -0.0013745179909633706
0.0031915484764264406   -0.016695212100694388   -0.001366779559669254
0.002911275643475999   -0.010648629291350109   -0.0012155332900485871
0.006671808248751231   -0.01669840788692353   -0.0014451612150041975
0.0031915484764264406   -0.016695212100694388   -0.001366779559669254
0.005982872501088421   -0.010766380568941351   -0.001228285829568918
0.002911275643475999   -0.010648629291350109   -0.0012155332900485871
0.0031933645223111355   -0.016676615780169542   -0.0013745179909633706
0.005931417891443572   -0.010728490801827065   -0.0013108576406740684
0.00290090065887072   -0.010597665915973043   -0.0012551038655394548
0.0031933645223111355   -0.016676615780169542   -0.0013745179909633706
0.006671808248751231   -0.01669840788692353   -0.0014451612150041975
0.005931417891443572   -0.010728490801827065   -0.0013108576406740684
0.006627239447022059   -0.016640916334073632   -0.0014902753953661455
0.00290090065887072   -0.010597665915973043   -0.0012551038655394548
0.005839292837629189   -0.010649252423590525   -0.0014035832830600154
0.006627239447022059   -0.016640916334073632   -0.0014902753953661455
0.005931417891443572   -0.010728490801827065   -0.0013108576406740684
0.00290090065887072   -0.010597665915973043   -0.0012551038655394548
0.006627239447022059   -0.016640916334073632   -0.0014902753953661455
0.003187145959545183   -0.01664205359437702   -0.0013884022313280463
0.0031933645223111355   -0.016676615780169542   -0.0013745179909633706
0.00290090065887072   -0.010597665915973043   -0.0012551038655394548
0.006627239447022059   -0.016640916334073632   -0.0014902753953661455
0.0031933645223111355   -0.016676615780169542   -0.0013745179909633706
0.005931417891443572   -0.010728490801827065   -0.0013108576406740684
-0.009622501107475586   -0.01682160328643563   -0.0017311739096421976
-0.010565002543394158   -0.02333166941034036   -0.0017637131661253306
-0.0062472665329598815   -0.016730393979361425   -0.0015653455015120694
-0.00971808182341182   -0.016917189488477237   -0.001638000651446882
-0.010565002543394158   -0.02333166941034036   -0.0017637131661253306
-0.006944457590400881   -0.023294634819935482   -0.0016318544390906717
-0.0062472665329598815   -0.016730393979361425   -0.0015653455015120694
-0.006941103279747463   -0.023354784253340477   -0.0015923758141433006
-0.00971808182341182   -0.016917189488477237   -0.001638000651446882
-0.006254096119215125   -0.01680102317245404   -0.0015008937230658024
-0.006941103279747463   -0.023354784253340477   -0.0015923758141433006
-0.0062472665329598815   -0.016730393979361425   -0.0015653455015120694
-0.00971808182341182   -0.016917189488477237   -0.001638000651446882
-0.006941103279747463   -0.023354784253340477   -0.0015923758141433006
-0.010609214039841438   -0.02341255844465573   -0.0017158317320289627
-0.010565002543394158   -0.02333166941034036   -0.0017637131661253306
-0.00971808182341182   -0.016917189488477237   -0.001638000651446882
-0.006941103279747463   -0.023354784253340477   -0.0015923758141433006
-0.010565002543394158   -0.02333166941034036   -0.0017637131661253306
-0.0062472665329598815   -0.016730393979361425   -0.0015653455015120694
-0.00971808182341182   -0.016917189488477237   -0.001638000651446882
-0.010609214039841438   -0.02341255844465573   -0.0017158317320289627
-0.006254096119215125   -0.01680102317245404   -0.0015008937230658024
-0.009772586860099018   -0.016984891063903617   -0.0015537974463382107
-0.010609214039841438   -0.02341255844465573   -0.0017158317320289627
-0.006941103279747463   -0.023354784253340477   -0.0015923758141433006
-0.006254096119215125   -0.01680102317245404   -0.0015008937230658024
-0.006931200222729114   -0.023410344288747845   -0.0015594547235140755
-0.009772586860099018   -0.016984891063903617   -0.0015537974463382107
-0.0062587494926676515   -0.016857077415052296   -0.001442876669075875
-0.006931200222729114   -0.023410344288747845   -0.0015594547235140755
-0.006254096119215125   -0.01680102317245404   -0.0015008937230658024
-0.009772586860099018   -0.016984891063903617   -0.0015537974463382107
-0.006931200222729114   -0.023410344288747845   -0.0015594547235140755
-0.010622806842326473   -0.02347862111276648   -0.0016773865626898293
-0.010609214039841438   -0.02341255844465573   -0.0017158317320289627
-0.009772586860099018   -0.016984891063903617   -0.0015537974463382107
-0.006931200222729114   -0.023410344288747845   -0.0015594547235140755
-0.010609214039841438   -0.02341255844465573   -0.0017158317320289627
-0.006254096119215125   -0.01680102317245404   -0.0015008937230658024
-0.009772586860099018   -0.016984891063903617   -0.0015537974463382107
-0.010622806842326473   -0.02347862111276648   -0.0016773865626898293
-0.0062587494926676515   -0.016857077415052296   -0.001442876669075875
-0.009828672766230081   -0.017045701340257305   -0.0014796345245472616
-0.010622806842326473   -0.02347862111276648   -0.0016773865626898293
-0.006931200222729114   -0.023410344288747845   -0.0015594547235140755
-0.0062587494926676515   -0.016857077415052296   -0.001442876669075875
-0.006907697239410238   -0.02346555682651947   -0.0015326254994416173
-0.009828672766230081   -0.017045701340257305   -0.0014796345245472616
-0.006245106865782111   -0.01690321183568661   -0.0013904346197319423
-0.006907697239410238   -0.02346555682651947   -0.0015326254994416173
-0.0062587494926676515   -0.016857077415052296   -0.001442876669075875
-0.009828672766230081   -0.017045701340257305   -0.0014796345245472616
-0.006907697239410238   -0.02346555682651947   -0.0015326254994416173
-0.010626812300858513   -0.02355048207443563   -0.0016491950608503397
-0.010622806842326473   -0.02347862111276648   -0.0016773865626898293
-0.009828672766230081   -0.017045701340257305   -0.0014796345245472616
-0.006907697239410238   -0.02346555682651947   -0.0015326254994416173
-0.010622806842326473   -0.02347862111276648   -0.0016773865626898293
-0.0062587494926676515   -0.016857077415052296   -0.001442876669075875
-0.0062472665329598815   -0.016730393979361425   -0.0015653455015120694
-0.006944457590400881   -0.023294634819935482   -0.0016318544390906717
-0.00308364754225005   -0.01668314885422722   -0.0014505408763862513
-0.006254096119215125   -0.01680102317245404   -0.0015008937230658024
-0.006944457590400881   -0.023294634819935482   -0.0016318544390906717
-0.0035813644578378155   -0.023273243441530846   -0.0015421069729197128
-0.00308364754225005   -0.01668314885422722   -0.0014505408763862513
-0.00356822125042733   -0.023309598614892246   -0.001507589589952058
-0.006254096119215125   -0.01680102317245404   -0.0015008937230658024
-0.0030771237591552644   -0.016727417026671212   -0.0014079085060493685
-0.00356822125042733   -0.023309598614892246   -0.001507589589952058
-0.00308364754225005   -0.01668314885422722   -0.0014505408763862513
-0.006254096119215125   -0.01680102317245404   -0.0015008937230658024
-0.00356822125042733   -0.023309598614892246   -0.001507589589952058
-0.006941103279747463   -0.023354784253340477   -0.0015923758141433006
-0.006944457590400881   -0.023294634819935482   -0.0016318544390906717
-0.006254096119215125   -0.01680102317245404   -0.0015008937230658024
-0.00356822125042733   -0.023309598614892246   -0.001507589589952058
-0.006944457590400881   -0.023294634819935482   -0.0016318544390906717
-0.00308364754225005   -0.01668314885422722   -0.0014505408763862513
-0.006254096119215125   -0.01680102317245404   -0.0015008937230658024
-0.006941103279747463   -0.023354784253340477   -0.0015923758141433006
-0.0030771237591552644   -0.016727417026671212   -0.0014079085060493685
-0.0062587494926676515   -0.016857077415052296   -0.001442876669075875
-0.006941103279747463   -0.023354784253340477   -0.0015923758141433006
-0.00356822125042733   -0.023309598614892246   -0.001507589589952058
-0.0030771237591552644   -0.016727417026671212   -0.0014079085060493685
-0.0035522450035712543   -0.02334301361836558   -0.0014796318845613483
-0.0062587494926676515   -0.016857077415052296   -0.001442876669075875
-0.003068464709302981   -0.01675946530350598   -0.0013716106539569215
-0.0035522450035712543   -0.02334301361836558   -0.0014796318845613483
-0.0030771237591552644   -0.016727417026671212   -0.0014079085060493685
-0.0062587494926676515   -0.016857077415052296   -0.001442876669075875
-0.0035522450035712543   -0.02334301361836558   -0.0014796318845613483
-0.006931200222729114   -0.023410344288747845   -0.0015594547235140755
-0.006941103279747463   -0.023354784253340477   -0.0015923758141433006
-0.0062587494926676515   -0.016857077415052296   -0.001442876669075875
-0.0035522450035712543   -0.02334301361836558   -0.0014796318845613483
-0.006941103279747463   -0.023354784253340477   -0.0015923758141433006
-0.0030771237591552644   -0.016727417026671212   -0.0014079085060493685
-0.0062587494926676515   -0.016857077415052296   -0.001442876669075875
-0.006931200222729114   -0.023410344288747845   -0.0015594547235140755
-0.003068464709302981   -0.01675946530350598   -0.0013716106539569215
-0.006245106865782111   -0.01690321183568661   -0.0013904346197319423
-0.006931200222729114   -0.023410344288747845   -0.0015594547235140755
-0.0035522450035712543   -0.02334301361836558   -0.0014796318845613483
-0.003068464709302981   -0.01675946530350598   -0.0013716106539569215
-0.003533156428217999   -0.023373599537095082   -0.0014583946656174388
-0.006245106865782111   -0.01690321183568661   -0.0013904346197319423
-0.0030558644977528725   -0.01677950449584341   -0.0013417548213937424
-0.003533156428217999   -0.023373599537095082   -0.0014583946656174388
-0.003068464709302981   -0.01675946530350598   -0.0013716106539569215
-0.006245106865782111   -0.01690321183568661   -0.0013904346197319423
-0.003533156428217999   -0.023373599537095082   -0.0014583946656174388
-0.006907697239410238   -0.02346555682651947   -0.0015326254994416173
-0.006931200222729114   -0.023410344288747845   -0.0015594547235140755
-0.006245106865782111   -0.01690321183568661   -0.0013904346197319423
-0.003533156428217999   -0.023373599537095082   -0.0014583946656174388
-0.006931200222729114   -0.023410344288747845   -0.0015594547235140755
-0.003068464709302981   -0.01675946530350598   -0.0013716106539569215
-0.00308364754225005   -0.01668314885422722   -0.0014505408763862513
-0.0035813644578378155   -0.023273243441530846   -0.0015421069729197128
-6.103256244353006e-06   -0.01667495904530067   -0.0013838267232754071
-0.0030771237591552644   -0.016727417026671212   -0.0014079085060493685
-0.0035813644578378155   -0.023273243441530846   -0.0015421069729197128
-0.0003093091349883866   -0.023260897944391606   -0.0014958493649444022
-6.103256244353006e-06   -0.01667495904530067   -0.0013838267232754071
-0.00029115643141424167   -0.023272995660347948   -0.001466645486041533
-0.0030771237591552644   -0.016727417026671212   -0.0014079085060493685
5.609990540434059e-06   -0.016692703081131164   -0.0013631915944211305
-0.00029115643141424167   -0.023272995660347948   -0.001466645486041533
-6.103256244353006e-06   -0.01667495904530067   -0.0013838267232754071
-0.0030771237591552644   -0.016727417026671212   -0.0014079085060493685
-0.00029115643141424167   -0.023272995660347948   -0.001466645486041533
-0.00356822125042733   -0.023309598614892246   -0.001507589589952058
-0.0035813644578378155   -0.023273243441530846   -0.0015421069729197128
-0.0030771237591552644   -0.016727417026671212   -0.0014079085060493685
-0.00029115643141424167   -0.023272995660347948   -0.001466645486041533
-0.0035813644578378155   -0.023273243441530846   -0.0015421069729197128
-6.103256244353006e-06   -0.01667495904530067   -0.0013838267232754071
-0.0030771237591552644   -0.016727417026671212   -0.0014079085060493685
-0.00356822125042733   -0.023309598614892246   -0.001507589589952058
5.609990540434059e-06   -0.016692703081131164   -0.0013631915944211305
-0.003068464709302981   -0.01675946530350598   -0.0013716106539569215
-0.00356822125042733   -0.023309598614892246   -0.001507589589952058
-0.00029115643141424167   -0.023272995660347948   -0.001466645486041533
5.609990540434059e-06   -0.016692703081131164   -0.0013631915944211305
-0.00027536191707219277   -0.02328194173279521   -0.001443947370043099
-0.003068464709302981   -0.01675946530350598   -0.0013716106539569215
1.413830943001992e-05   -0.016698142111221753   -0.001348813124054541
-0.00027536191707219277   -0.02328194173279521   -0.001443947370043099
5.609990540434059e-06   -0.016692703081131164   -0.0013631915944211305
-0.003068464709302981   -0.01675946530350598   -0.0013716106539569215
-0.00027536191707219277   -0.02328194173279521   -0.001443947370043099
-0.0035522450035712543   -0.02334301361836558   -0.0014796318845613483
-0.00356822125042733   -0.023309598614892246   -0.001507589589952058
-0.003068464709302981   -0.01675946530350598   -0.0013716106539569215
-0.00027536191707219277   -0.02328194173279521   -0.001443947370043099
-0.00356822125042733   -0.023309598614892246   -0.001507589589952058
5.609990540434059e-06   -0.016692703081131164   -0.0013631915944211305
-0.003068464709302981   -0.01675946530350598   -0.0013716106539569215
-0.0035522450035712543   -0.02334301361836558   -0.0014796318845613483
1.413830943001992e-05   -0.016698142111221753   -0.001348813124054541
-0.0030558644977528725   -0.01677950449584341   -0.0013417548213937424
-0.0035522450035712543   -0.02334301361836558   -0.0014796318845613483
-0.00027536191707219277   -0.02328194173279521   -0.001443947370043099
1.413830943001992e-05   -0.016698142111221753   -0.001348813124054541
-0.00026317119821929154   -0.023287688247367776   -0.001427990512854758
-0.0030558644977528725   -0.01677950449584341   -0.0013417548213937424
1.980705182527783e-05   -0.01669110683201574   -0.001340966134854742
-0.00026317119821929154   -0.023287688247367776   -0.001427990512854758
1.413830943001992e-05   -0.016698142111221753   -0.001348813124054541
-0.0030558644977528725   -0.01677950449584341   -0.0013417548213937424
-0.00026317119821929154   -0.023287688247367776   -0.001427990512854758
-0.003533156428217999   -0.023373599537095082   -0.0014583946656174388
-0.0035522450035712543   -0.02334301361836558   -0.0014796318845613483
-0.0030558644977528725   -0.01677950449584341   -0.0013417548213937424
-0.00026317119821929154   -0.023287688247367776   -0.001427990512854758
-0.0035522450035712543   -0.02334301361836558   -0.0014796318845613483
1.413830943001992e-05   -0.016698142111221753   -0.001348813124054541
-6.103256244353006e-06   -0.01667495904530067   -0.0013838267232754071
-0.0003093091349883866   -0.023260897944391606   -0.0014958493649444022
0.0031773108031335024   -0.01670247140758552   -0.0013649591648405937
5.609990540434059e-06   -0.016692703081131164   -0.0013631915944211305
-0.0003093091349883866   -0.023260897944391606   -0.0014958493649444022
0.003062482042387417   -0.02325546677429509   -0.0014935147019977328
0.0031773108031335024   -0.01670247140758552   -0.0013649591648405937
0.0030863923403180965   -0.023244049727610554   -0.0014698877204899713
5.609990540434059e-06   -0.016692703081131164   -0.0013631915944211305
0.0031915484764264406   -0.016695212100694388   -0.001366779559669254
0.0030863923403180965   -0.023244049727610554   -0.0014698877204899713
0.0031773108031335024   -0.01670247140758552   -0.0013649591648405937
5.609990540434059e-06   -0.016692703081131164   -0.0013631915944211305
0.0030863923403180965   -0.023244049727610554   -0.0014698877204899713
-0.00029115643141424167   -0.023272995660347948   -0.001466645486041533
-0.0003093091349883866   -0.023260897944391606   -0.0014958493649444022
5.609990540434059e-06   -0.016692703081131164   -0.0013631915944211305
0.0030863923403180965   -0.023244049727610554   -0.0014698877204899713
-0.0003093091349883866   -0.023260897944391606   -0.0014958493649444022
0.0031773108031335024   -0.01670247140758552   -0.0013649591648405937
5.609990540434059e-06   -0.016692703081131164   -0.0013631915944211305
-0.00029115643141424167   -0.023272995660347948   -0.001466645486041533
0.0031915484764264406   -0.016695212100694388   -0.001366779559669254
1.413830943001992e-05   -0.016698142111221753   -0.001348813124054541
-0.00029115643141424167   -0.023272995660347948   -0.001466645486041533
0.0030863923403180965   -0.023244049727610554   -0.0014698877204899713
0.0031915484764264406   -0.016695212100694388   -0.001366779559669254
0.0031026526065110927   -0.023230853928633693   -0.0014525779466783182
1.413830943001992e-05   -0.016698142111221753   -0.001348813124054541
0.0031933645223111355   -0.016676615780169542   -0.0013745179909633706
0.0031026526065110927   -0.023230853928633693   -0.0014525779466783182
0.0031915484764264406   -0.016695212100694388   -0.001366779559669254
1.413830943001992e-05   -0.016698142111221753   -0.001348813124054541
0.0031026526065110927   -0.023230853928633693   -0.0014525779466783182
-0.00027536191707219277   -0.02328194173279521   -0.001443947370043099
-0.00029115643141424167   -0.023272995660347948   -0.001466645486041533
1.413830943001992e-05   -0.016698142111221753   -0.001348813124054541
0.0031026526065110927   -0.023230853928633693   -0.0014525779466783182
-0.00029115643141424167   -0.023272995660347948   -0.001466645486041533
0.0031915484764264406   -0.016695212100694388   -0.001366779559669254
1.413830943001992e-05   -0.016698142111221753   -0.001348813124054541
-0.00027536191707219277   -0.02328194173279521   -0.001443947370043099
0.0031933645223111355   -0.016676615780169542   -0.0013745179909633706
1.980705182527783e-05   -0.01669110683201574   -0.001340966134854742
-0.00027536191707219277   -0.02328194173279521   -0.001443947370043099
0.0031026526065110927   -0.023230853928633693   -0.0014525779466783182
0.0031933645223111355   -0.016676615780169542   -0.0013745179909633706
0.003106504865304555   -0.023211585868168995   -0.0014414573836846222
1.980705182527783e-05   -0.01669110683201574   -0.001340966134854742
0.003187145959545183   -0.01664205359437702   -0.0013884022313280463
0.003106504865304555   -0.023211585868168995   -0.0014414573836846222
0.0031933645223111355   -0.016676615780169542   -0.0013745179909633706
1.980705182527783e-05   -0.01669110683201574   -0.001340966134854742
0.003106504865304555   -0.023211585868168995   -0.0014414573836846222
-0.00026317119821929154   -0.023287688247367776   -0.001427990512854758
-0.00027536191707219277   -0.02328194173279521   -0.001443947370043099
1.980705182527783e-05   -0.01669110683201574   -0.001340966134854742
0.003106504865304555   -0.023211585868168995   -0.0014414573836846222
-0.00027536191707219277   -0.02328194173279521   -0.001443947370043099
0.0031933645223111355   -0.016676615780169542   -0.0013745179909633706
0.0031773108031335024   -0.01670247140758552   -0.0013649591648405937
0.003062482042387417   -0.02325546677429509   -0.0014935147019977328
0.0066925123075376155   -0.01675291134218202   -0.001383612885768919
0.0031915484764264406   -0.016695212100694388   -0.001366779559669254
0.003062482042387417   -0.02325546677429509   -0.0014935147019977328
0.006715956749501661   -0.023247763203270645   -0.001530803455670621
0.0066925123075376155   -0.01675291134218202   -0.001383612885768919
0.006762537213041876   -0.02321773865460606   -0.0015112030756928325
0.0031915484764264406   -0.016695212100694388   -0.001366779559669254
0.006687515947573202   -0.016728690542561753   -0.0014095837910090443
0.006762537213041876   -0.02321773865460606   -0.0015112030756928325
0.0066925123075376155   -0.01675291134218202   -0.001383612885768919
0.0031915484764264406   -0.016695212100694388   -0.001366779559669254
0.006762537213041876   -0.02321773865460606   -0.0015112030756928325
0.0030863923403180965   -0.023244049727610554   -0.0014698877204899713
0.003062482042387417   -0.02325546677429509   -0.0014935147019977328
0.0031915484764264406   -0.016695212100694388   -0.001366779559669254
0.006762537213041876   -0.02321773865460606   -0.0015112030756928325
0.003062482042387417   -0.02325546677429509   -0.0014935147019977328
0.0066925123075376155   -0.01675291134218202   -0.001383612885768919
0.0031915484764264406   -0.016695212100694388   -0.001366779559669254
0.0030863923403180965   -0.023244049727610554   -0.0014698877204899713
0.006687515947573202   -0.016728690542561753   -0.0014095837910090443
0.0031933645223111355   -0.016676615780169542   -0.0013745179909633706
0.0030863923403180965   -0.023244049727610554   -0.0014698877204899713
0.006762537213041876   -0.02321773865460606   -0.0015112030756928325
0.006687515947573202   -0.016728690542561753   -0.0014095837910090443
0.006787566873248844   -0.023194089167685075   -0.0015012086057559649
0.0031933645223111355   -0.016676615780169542   -0.0013745179909633706
0.006671808248751231   -0.01669840788692353   -0.0014451612150041975
0.006787566873248844   -0.023194089167685075   -0.0015012086057559649
0.006687515947573202   -0.016728690542561753   -0.0014095837910090443
0.0031933645223111355   -0.016676615780169542   -0.0013745179909633706
0.006787566873248844   -0.023194089167685075   -0.0015012086057559649
0.0031026526065110927   -0.023230853928633693   -0.0014525779466783182
0.0030863923403180965   -0.023244049727610554   -0.0014698877204899713
0.0031933645223111355   -0.016676615780169542   -0.0013745179909633706
0.006787566873248844   -0.023194089167685075   -0.0015012086057559649
0.0030863923403180965   -0.023244049727610554   -0.0014698877204899713
0.006687515947573202   -0.016728690542561753   -0.0014095837910090443
0.0031933645223111355   -0.016676615780169542   -0.0013745179909633706
0.0031026526065110927   -0.023230853928633693   -0.0014525779466783182
0.006671808248751231   -0.01669840788692353   -0.0014451612150041975
0.003187145959545183   -0.01664205359437702   -0.0013884022313280463
0.0031026526065110927   -0.023230853928633693   -0.0014525779466783182
0.006787566873248844   -0.023194089167685075   -0.0015012086057559649
0.006671808248751231   -0.01669840788692353   -0.0014451612150041975
0.006794476471989384   -0.023156334799983514   -0.001500984049493632
0.003187145959545183   -0.01664205359437702   -0.0013884022313280463
0.006627239447022059   -0.016640916334073632   -0.0014902753953661455
0.006794476471989384   -0.023156334799983514   -0.001500984049493632
0.006671808248751231   -0.01669840788692353   -0.0014451612150041975
0.003187145959545183   -0.01664205359437702   -0.0013884022313280463
0.006794476471989384   -0.023156334799983514   -0.001500984049493632
0.003106504865304555   -0.023211585868168995   -0.0014414573836846222
0.0031026526065110927   -0.023230853928633693   -0.0014525779466783182
0.003187145959545183   -0.01664205359437702   -0.0013884022313280463
0.006794476471989384   -0.023156334799983514   -0.001500984049493632
0.0031026526065110927   -0.023230853928633693   -0.0014525779466783182
0.006671808248751231   -0.01669840788692353   -0.0014451612150041975
-0.010565002543394158   -0.02333166941034036   -0.0017637131661253306
-0.010891074823581709   -0.029953854740091237   -0.001734723458238
-0.006944457590400881   -0.023294634819935482   -0.0016318544390906717
-0.010609214039841438   -0.02341255844465573   -0.0017158317320289627
-0.010891074823581709   -0.029953854740091237   -0.001734723458238
-0.007277105521579268   -0.02997127952920467   -0.0016374231242283093
-0.006944457590400881   -0.023294634819935482   -0.0016318544390906717
-0.00725721706984428   -0.030020772060543117   -0.0016224856779904861
-0.010609214039841438   -0.02341255844465573   -0.0017158317320289627
-0.006941103279747463   -0.023354784253340477   -0.0015923758141433006
-0.00725721706984428   -0.030020772060543117   -0.0016224856779904861
-0.006944457590400881   -0.023294634819935482   -0.0016318544390906717
-0.010609214039841438   -0.02341255844465573   -0.0017158317320289627
-0.00725721706984428   -0.030020772060543117   -0.0016224856779904861
-0.010877936591189288   -0.030020098926323138   -0.00173184314400782
-0.010891074823581709   -0.029953854740091237   -0.001734723458238
-0.010609214039841438   -0.02341255844465573   -0.0017158317320289627
-0.00725721706984428   -0.030020772060543117   -0.0016224856779904861
-0.010891074823581709   -0.029953854740091237   -0.001734723458238
-0.006944457590400881   -0.023294634819935482   -0.0016318544390906717
-0.010609214039841438   -0.02341255844465573   -0.0017158317320289627
-0.010877936591189288   -0.030020098926323138   -0.00173184314400782
-0.006941103279747463   -0.023354784253340477   -0.0015923758141433006
-0.010622806842326473   -0.02347862111276648   -0.0016773865626898293
-0.010877936591189288   -0.030020098926323138   -0.00173184314400782
-0.00725721706984428   -0.030020772060543117   -0.0016224856779904861
-0.006941103279747463   -0.023354784253340477   -0.0015923758141433006
-0.007226430647202849   -0.030075698006967164   -0.0016142887648382478
-0.010622806842326473   -0.02347862111276648   -0.0016773865626898293
-0.006931200222729114   -0.023410344288747845   -0.0015594547235140755
-0.007226430647202849   -0.030075698006967164   -0.0016142887648382478
-0.006941103279747463   -0.023354784253340477   -0.0015923758141433006
-0.010622806842326473   -0.02347862111276648   -0.0016773865626898293
-0.007226430647202849   -0.030075698006967164   -0.0016142887648382478
-0.010844178418682758   -0.03008452865638875   -0.0017390335886205304
-0.010877936591189288   -0.030020098926323138   -0.00173184314400782
-0.010622806842326473   -0.02347862111276648   -0.0016773865626898293
-0.007226430647202849   -0.030075698006967164   -0.0016142887648382478
-0.010877936591189288   -0.030020098926323138   -0.00173184314400782
-0.006941103279747463   -0.023354784253340477   -0.0015923758141433006
-0.010622806842326473   -0.02347862111276648   -0.0016773865626898293
-0.010844178418682758   -0.03008452865638875   -0.0017390335886205304
-0.006931200222729114   -0.023410344288747845   -0.0015594547235140755
-0.010626812300858513   -0.02355048207443563   -0.0016491950608503397
-0.010844178418682758   -0.03008452865638875   -0.0017390335886205304
-0.007226430647202849   -0.030075698006967164   -0.0016142887648382478
-0.006931200222729114   -0.023410344288747845   -0.0015594547235140755
-0.0071867009345613795   -0.03013984566240913   -0.0016127165247265362
-0.010626812300858513   -0.02355048207443563   -0.0016491950608503397
-0.006907697239410238   -0.02346555682651947   -0.0015326254994416173
-0.0071867009345613795   -0.03013984566240913   -0.0016127165247265362
-0.006931200222729114   -0.023410344288747845   -0.0015594547235140755
-0.010626812300858513   -0.02355048207443563   -0.0016491950608503397
-0.0071867009345613795   -0.03013984566240913   -0.0016127165247265362
-0.010789720530982233   -0.030167621414680913   -0.0017568122077066268
-0.010844178418682758   -0.03008452865638875   -0.0017390335886205304
-0.010626812300858513   -0.02355048207443563   -0.0016491950608503397
-0.0071867009345613795   -0.03013984566240913   -0.0016127165247265362
-0.010844178418682758   -0.03008452865638875   -0.0017390335886205304
-0.006931200222729114   -0.023410344288747845   -0.0015594547235140755
-0.006944457590400881   -0.023294634819935482   -0.0016318544390906717
-0.007277105521579268   -0.02997127952920467   -0.0016374231242283093
-0.0035813644578378155   -0.023273243441530846   -0.0015421069729197128
-0.006941103279747463   -0.023354784253340477   -0.0015923758141433006
-0.007277105521579268   -0.02997127952920467   -0.0016374231242283093
-0.003966341104075945   -0.029974964056573065   -0.0015727756526446905
-0.0035813644578378155   -0.023273243441530846   -0.0015421069729197128
-0.0039398879460469   -0.03000330228518662   -0.001546121456090548
-0.006941103279747463   -0.023354784253340477   -0.0015923758141433006
-0.00356822125042733   -0.023309598614892246   -0.001507589589952058
-0.0039398879460469   -0.03000330228518662   -0.001546121456090548
-0.0035813644578378155   -0.023273243441530846   -0.0015421069729197128
-0.006941103279747463   -0.023354784253340477   -0.0015923758141433006
-0.0039398879460469   -0.03000330228518662   -0.001546121456090548
-0.00725721706984428   -0.030020772060543117   -0.0016224856779904861
-0.007277105521579268   -0.02997127952920467   -0.0016374231242283093
-0.006941103279747463   -0.023354784253340477   -0.0015923758141433006
-0.0039398879460469   -0.03000330228518662   -0.001546121456090548
-0.007277105521579268   -0.02997127952920467   -0.0016374231242283093
-0.0035813644578378155   -0.023273243441530846   -0.0015421069729197128
-0.006941103279747463   -0.023354784253340477   -0.0015923758141433006
-0.00725721706984428   -0.030020772060543117   -0.0016224856779904861
-0.00356822125042733   -0.023309598614892246   -0.001507589589952058
-0.006931200222729114   -0.023410344288747845   -0.0015594547235140755
-0.00725721706984428   -0.030020772060543117   -0.0016224856779904861
-0.0039398879460469   -0.03000330228518662   -0.001546121456090548
-0.00356822125042733   -0.023309598614892246   -0.001507589589952058
-0.003910064397497915   -0.03003784316318894   -0.0015262307866663642
-0.006931200222729114   -0.023410344288747845   -0.0015594547235140755
-0.0035522450035712543   -0.02334301361836558   -0.0014796318845613483
-0.003910064397497915   -0.03003784316318894   -0.0015262307866663642
-0.00356822125042733   -0.023309598614892246   -0.001507589589952058
-0.006931200222729114   -0.023410344288747845   -0.0015594547235140755
-0.003910064397497915   -0.03003784316318894   -0.0015262307866663642
-0.007226430647202849   -0.030075698006967164   -0.0016142887648382478
-0.00725721706984428   -0.030020772060543117   -0.0016224856779904861
-0.006931200222729114   -0.023410344288747845   -0.0015594547235140755
-0.003910064397497915   -0.03003784316318894   -0.0015262307866663642
-0.00725721706984428   -0.030020772060543117   -0.0016224856779904861
-0.00356822125042733   -0.023309598614892246   -0.001507589589952058
-0.006931200222729114   -0.023410344288747845   -0.0015594547235140755
-0.007226430647202849   -0.030075698006967164   -0.0016142887648382478
-0.0035522450035712543   -0.02334301361836558   -0.0014796318845613483
-0.006907697239410238   -0.02346555682651947   -0.0015326254994416173
-0.007226430647202849   -0.030075698006967164   -0.0016142887648382478
-0.003910064397497915   -0.03003784316318894   -0.0015262307866663642
-0.0035522450035712543   -0.02334301361836558   -0.0014796318845613483
-0.0038779513974116636   -0.030078694567678137   -0.0015133264385210966
-0.006907697239410238   -0.02346555682651947   -0.0015326254994416173
-0.003533156428217999   -0.023373599537095082   -0.0014583946656174388
-0.0038779513974116636   -0.030078694567678137   -0.0015133264385210966
-0.0035522450035712543   -0.02334301361836558   -0.0014796318845613483
-0.006907697239410238   -0.02346555682651947   -0.0015326254994416173
-0.0038779513974116636   -0.030078694567678137   -0.0015133264385210966
-0.0071867009345613795   -0.03013984566240913   -0.0016127165247265362
-0.007226430647202849   -0.030075698006967164   -0.0016142887648382478
-0.006907697239410238   -0.02346555682651947   -0.0015326254994416173
-0.0038779513974116636   -0.030078694567678137   -0.0015133264385210966
-0.007226430647202849   -0.030075698006967164   -0.0016142887648382478
-0.0035522450035712543   -0.02334301361836558   -0.0014796318845613483
-0.0035813644578378155   -0.023273243441530846   -0.0015421069729197128
-0.003966341104075945   -0.029974964056573065   -0.0015727756526446905
-0.0003093091349883866   -0.023260897944391606   -0.0014958493649444022
-0.00356822125042733   -0.023309598614892246   -0.001507589589952058
-0.003966341104075945   -0.029974964056573065   -0.0015727756526446905
-0.0007491567206436764   -0.029957296000538768   -0.001546539158124209
-0.0003093091349883866   -0.023260897944391606   -0.0014958493649444022
-0.0007179351653254309   -0.0299637460267146   -0.001508752601851856
-0.00356822125042733   -0.023309598614892246   -0.001507589589952058
-0.00029115643141424167   -0.023272995660347948   -0.001466645486041533
-0.0007179351653254309   -0.0299637460267146   -0.001508752601851856
-0.0003093091349883866   -0.023260897944391606   -0.0014958493649444022
-0.00356822125042733   -0.023309598614892246   -0.001507589589952058
-0.0007179351653254309   -0.0299637460267146   -0.001508752601851856
-0.0039398879460469   -0.03000330228518662   -0.001546121456090548
-0.003966341104075945   -0.029974964056573065   -0.0015727756526446905
-0.00356822125042733   -0.023309598614892246   -0.001507589589952058
-0.0007179351653254309   -0.0299637460267146   -0.001508752601851856
-0.003966341104075945   -0.029974964056573065   -0.0015727756526446905
-0.0003093091349883866   -0.023260897944391606   -0.0014958493649444022
-0.00356822125042733   -0.023309598614892246   -0.001507589589952058
-0.0039398879460469   -0.03000330228518662   -0.001546121456090548
-0.00029115643141424167   -0.023272995660347948   -0.001466645486041533
-0.0035522450035712543   -0.02334301361836558   -0.0014796318845613483
-0.0039398879460469   -0.03000330228518662   -0.001546121456090548
-0.0007179351653254309   -0.0299637460267146   -0.001508752601851856
-0.00029115643141424167   -0.023272995660347948   -0.001466645486041533
-0.0006883775127705421   -0.02997592125342315   -0.0014776846130832193
-0.0035522450035712543   -0.02334301361836558   -0.0014796318845613483
-0.00027536191707219277   -0.02328194173279521   -0.001443947370043099
-0.0006883775127705421   -0.02997592125342315   -0.0014776846130832193
-0.00029115643141424167   -0.023272995660347948   -0.001466645486041533
-0.0035522450035712543   -0.02334301361836558   -0.0014796318845613483
-0.0006883775127705421   -0.02997592125342315   -0.0014776846130832193
-0.003910064397497915   -0.03003784316318894   -0.0015262307866663642
-0.0039398879460469   -0.03000330228518662   -0.001546121456090548
-0.0035522450035712543   -0.02334301361836558   -0.0014796318845613483
-0.0006883775127705421   -0.02997592125342315   -0.0014776846130832193
-0.0039398879460469   -0.03000330228518662   -0.001546121456090548
-0.00029115643141424167   -0.023272995660347948   -0.001466645486041533
-0.0035522450035712543   -0.02334301361836558   -0.0014796318845613483
-0.003910064397497915   -0.03003784316318894   -0.0015262307866663642
-0.00027536191707219277   -0.02328194173279521   -0.001443947370043099
-0.003533156428217999   -0.023373599537095082   -0.0014583946656174388
-0.003910064397497915   -0.03003784316318894   -0.0015262307866663642
-0.0006883775127705421   -0.02997592125342315   -0.0014776846130832193
-0.00027536191707219277   -0.02328194173279521   -0.001443947370043099
-0.0006632108964799447   -0.02999409567075389   -0.0014535682789229808
-0.003533156428217999   -0.023373599537095082   -0.0014583946656174388
-0.00026317119821929154   -0.023287688247367776   -0.001427990512854758
-0.0006632108964799447   -0.02999409567075389   -0.0014535682789229808
-0.00027536191707219277   -0.02328194173279521   -0.001443947370043099
-0.003533156428217999   -0.023373599537095082   -0.0014583946656174388
-0.0006632108964799447   -0.02999409567075389   -0.0014535682789229808
-0.0038779513974116636   -0.030078694567678137   -0.0015133264385210966
-0.003910064397497915   -0.03003784316318894   -0.0015262307866663642
-0.003533156428217999   -0.023373599537095082   -0.0014583946656174388
-0.0006632108964799447   -0.02999409567075389   -0.0014535682789229808
-0.003910064397497915   -0.03003784316318894   -0.0015262307866663642
-0.00027536191707219277   -0.02328194173279521   -0.001443947370043099
-0.0003093091349883866   -0.023260897944391606   -0.0014958493649444022
-0.0007491567206436764   -0.029957296000538768   -0.001546539158124209
0.003062482042387417   -0.02325546677429509   -0.0014935147019977328
-0.00029115643141424167   -0.023272995660347948   -0.001466645486041533
-0.0007491567206436764   -0.029957296000538768   -0.001546539158124209
0.002564530063831215   -0.029918076786465533   -0.0015599967693213067
0.003062482042387417   -0.02325546677429509   -0.0014935147019977328
0.0026042880431872157   -0.029902552298504925   -0.0015112638122621515
-0.00029115643141424167   -0.023272995660347948   -0.001466645486041533
0.0030863923403180965   -0.023244049727610554   -0.0014698877204899713
0.0026042880431872157   -0.029902552298504925   -0.0015112638122621515
0.003062482042387417   -0.02325546677429509   -0.0014935147019977328
-0.00029115643141424167   -0.023272995660347948   -0.001466645486041533
0.0026042880431872157   -0.029902552298504925   -0.0015112638122621515
-0.0007179351653254309   -0.0299637460267146   -0.001508752601851856
-0.0007491567206436764   -0.029957296000538768   -0.001546539158124209
-0.00029115643141424167   -0.023272995660347948   -0.001466645486041533
0.0026042880431872157   -0.029902552298504925   -0.0015112638122621515
-0.0007491567206436764   -0.029957296000538768   -0.001546539158124209
0.003062482042387417   -0.02325546677429509   -0.0014935147019977328
-0.00029115643141424167   -0.023272995660347948   -0.001466645486041533
-0.0007179351653254309   -0.0299637460267146   -0.001508752601851856
0.0030863923403180965   -0.023244049727610554   -0.0014698877204899713
-0.00027536191707219277   -0.02328194173279521   -0.001443947370043099
-0.0007179351653254309   -0.0299637460267146   -0.001508752601851856
0.0026042880431872157   -0.029902552298504925   -0.0015112638122621515
0.0030863923403180965   -0.023244049727610554   -0.0014698877204899713
0.0026411080248233865   -0.029894470711190554   -0.0014692274802153636
-0.00027536191707219277   -0.02328194173279521   -0.001443947370043099
0.0031026526065110927   -0.023230853928633693   -0.0014525779466783182
0.0026411080248233865   -0.029894470711190554   -0.0014692274802153636
0.0030863923403180965   -0.023244049727610554   -0.0014698877204899713
-0.00027536191707219277   -0.02328194173279521   -0.001443947370043099
0.0026411080248233865   -0.029894470711190554   -0.0014692274802153636
-0.0006883775127705421   -0.02997592125342315   -0.0014776846130832193
-0.0007179351653254309   -0.0299637460267146   -0.001508752601851856
-0.00027536191707219277   -0.02328194173279521   -0.001443947370043099
0.0026411080248233865   -0.029894470711190554   -0.0014692274802153636
-0.0007179351653254309   -0.0299637460267146   -0.001508752601851856
0.0030863923403180965   -0.023244049727610554   -0.0014698877204899713
-0.00027536191707219277   -0.02328194173279521   -0.001443947370043099
-0.0006883775127705421   -0.02997592125342315   -0.0014776846130832193
0.0031026526065110927   -0.023230853928633693   -0.0014525779466783182
-0.00026317119821929154   -0.023287688247367776   -0.001427990512854758
-0.0006883775127705421   -0.02997592125342315   -0.0014776846130832193
0.0026411080248233865   -0.029894470711190554   -0.0014692274802153636
0.0031026526065110927   -0.023230853928633693   -0.0014525779466783182
0.002661091672465437   -0.029889967079650605   -0.0014334505477057776
-0.00026317119821929154   -0.023287688247367776   -0.001427990512854758
0.003106504865304555   -0.023211585868168995   -0.0014414573836846222
0.002661091672465437   -0.029889967079650605   -0.0014334505477057776
0.0031026526065110927   -0.023230853928633693   -0.0014525779466783182
-0.00026317119821929154   -0.023287688247367776   -0.001427990512854758
0.002661091672465437   -0.029889967079650605   -0.0014334505477057776
-0.0006632108964799447   -0.02999409567075389   -0.0014535682789229808
-0.0006883775127705421   -0.02997592125342315   -0.0014776846130832193
-0.00026317119821929154   -0.023287688247367776   -0.001427990512854758
0.002661091672465437   -0.029889967079650605   -0.0014334505477057776
-0.0006883775127705421   -0.02997592125342315   -0.0014776846130832193
0.0031026526065110927   -0.023230853928633693   -0.0014525779466783182
0.003062482042387417   -0.02325546677429509   -0.0014935147019977328
0.002564530063831215   -0.029918076786465533   -0.0015599967693213067
0.006715956749501661   -0.023247763203270645   -0.001530803455670621
0.0030863923403180965   -0.023244049727610554   -0.0014698877204899713
0.002564530063831215   -0.029918076786465533   -0.0015599967693213067
0.006111399571054272   -0.02985207889752186   -0.001615301102186797
0.006715956749501661   -0.023247763203270645   -0.001530803455670621
0.006214778715699107   -0.029816611629880536   -0.001551223099299068
0.0030863923403180965   -0.023244049727610554   -0.0014698877204899713
0.006762537213041876   -0.02321773865460606   -0.0015112030756928325
0.006214778715699107   -0.029816611629880536   -0.001551223099299068
0.006715956749501661   -0.023247763203270645   -0.001530803455670621
0.0030863923403180965   -0.023244049727610554   -0.0014698877204899713
0.006214778715699107   -0.029816611629880536   -0.001551223099299068
0.0026042880431872157   -0.029902552298504925   -0.0015112638122621515
0.002564530063831215   -0.029918076786465533   -0.0015599967693213067
0.0030863923403180965   -0.023244049727610554   -0.0014698877204899713
0.006214778715699107   -0.029816611629880536   -0.001551223099299068
0.002564530063831215   -0.029918076786465533   -0.0015599967693213067
0.006715956749501661   -0.023247763203270645   -0.001530803455670621
0.0030863923403180965   -0.023244049727610554   -0.0014698877204899713
0.0026042880431872157   -0.029902552298504925   -0.0015112638122621515
0.006762537213041876   -0.02321773865460606   -0.0015112030756928325
0.0031026526065110927   -0.023230853928633693   -0.0014525779466783182
0.0026042880431872157   -0.029902552298504925   -0.0015112638122621515
0.006214778715699107   -0.029816611629880536   -0.001551223099299068
0.006762537213041876   -0.02321773865460606   -0.0015112030756928325
0.006286006101176804   -0.02979940071811195   -0.0014966899807872455
0.0031026526065110927   -0.023230853928633693   -0.0014525779466783182
0.006787566873248844   -0.023194089167685075   -0.0015012086057559649
0.006286006101176804   -0.02979940071811195   -0.0014966899807872455
0.006762537213041876   -0.02321773865460606   -0.0015112030756928325
0.0031026526065110927   -0.023230853928633693   -0.0014525779466783182
0.006286006101176804   -0.02979940071811195   -0.0014966899807872455
0.0026411080248233865   -0.029894470711190554   -0.0014692274802153636
0.0026042880431872157   -0.029902552298504925   -0.0015112638122621515
0.0031026526065110927   -0.023230853928633693   -0.0014525779466783182
0.006286006101176804   -0.02979940071811195   -0.0014966899807872455
0.0026042880431872157   -0.029902552298504925   -0.0015112638122621515
0.006762537213041876   -0.02321773865460606   -0.0015112030756928325
0.0031026526065110927   -0.023230853928633693   -0.0014525779466783182
0.0026411080248233865   -0.029894470711190554   -0.0014692274802153636
0.006787566873248844   -0.023194089167685075   -0.0015012086057559649
0.003106504865304555   -0.023211585868168995   -0.0014414573836846222
0.0026411080248233865   -0.029894470711190554   -0.0014692274802153636
0.006286006101176804   -0.02979940071811195   -0.0014966899807872455
0.006787566873248844   -0.023194089167685075   -0.0015012086057559649
0.00634950443633488   -0.029780808708336194   -0.0014520999646859191
0.003106504865304555   -0.023211585868168995   -0.0014414573836846222
0.006794476471989384   -0.023156334799983514   -0.001500984049493632
0.00634950443633488   -0.029780808708336194   -0.0014520999646859191
0.006787566873248844   -0.023194089167685075   -0.0015012086057559649
0.003106504865304555   -0.023211585868168995   -0.0014414573836846222
0.00634950443633488   -0.029780808708336194   -0.0014520999646859191
0.002661091672465437   -0.029889967079650605   -0.0014334505477057776
0.0026411080248233865   -0.029894470711190554   -0.0014692274802153636
0.003106504865304555   -0.023211585868168995   -0.0014414573836846222
0.00634950443633488   -0.029780808708336194   -0.0014520999646859191
0.0026411080248233865   -0.029894470711190554   -0.0014692274802153636
0.006787566873248844   -0.023194089167685075   -0.0015012086057559649
-0.010891074823581709   -0.029953854740091237   -0.001734723458238
-0.010597053183575284   -0.03627278400513488   -0.0016592277992375645
-0.007277105521579268   -0.02997127952920467   -0.0016374231242283093
-0.010877936591189288   -0.030020098926323138   -0.00173184314400782
-0.010597053183575284   -0.03627278400513488   -0.0016592277992375645
-0.007246533416419474   -0.036345517247476096   -0.0016007734843232284
-0.007277105521579268   -0.02997127952920467   -0.0016374231242283093
-0.0072040075153515975   -0.03638241321130228   -0.0016096796230292386
-0.010877936591189288   -0.030020098926323138   -0.00173184314400782
-0.00725721706984428   -0.030020772060543117   -0.0016224856779904861
-0.0072040075153515975   -0.03638241321130228   -0.0016096796230292386
-0.007277105521579268   -0.02997127952920467   -0.0016374231242283093
-0.010877936591189288   -0.030020098926323138   -0.00173184314400782
-0.0072040075153515975   -0.03638241321130228   -0.0016096796230292386
-0.01052025755416396   -0.03632260971617501   -0.001701343787010115
-0.010597053183575284   -0.03627278400513488   -0.0016592277992375645
-0.010877936591189288   -0.030020098926323138   -0.00173184314400782
-0.0072040075153515975   -0.03638241321130228   -0.0016096796230292386
-0.010597053183575284   -0.03627278400513488   -0.0016592277992375645
-0.007277105521579268   -0.02997127952920467   -0.0016374231242283093
-0.010877936591189288   -0.030020098926323138   -0.00173184314400782
-0.01052025755416396   -0.03632260971617501   -0.001701343787010115
-0.00725721706984428   -0.030020772060543117   -0.0016224856779904861
-0.010844178418682758   -0.03008452865638875   -0.0017390335886205304
-0.01052025755416396   -0.03632260971617501   -0.001701343787010115
-0.0072040075153515975   -0.03638241321130228   -0.0016096796230292386
-0.00725721706984428   -0.030020772060543117   -0.0016224856779904861
-0.007146511752919015   -0.03643505312197026   -0.001625480126081482
-0.010844178418682758   -0.03008452865638875   -0.0017390335886205304
-0.007226430647202849   -0.030075698006967164   -0.0016142887648382478
-0.007146511752919015   -0.03643505312197026   -0.001625480126081482
-0.00725721706984428   -0.030020772060543117   -0.0016224856779904861
-0.010844178418682758   -0.03008452865638875   -0.0017390335886205304
-0.007146511752919015   -0.03643505312197026   -0.001625480126081482
-0.010432770914527458   -0.03638390154869122   -0.0017542997439635964
-0.01052025755416396   -0.03632260971617501   -0.001701343787010115
-0.010844178418682758   -0.03008452865638875   -0.0017390335886205304
-0.007146511752919015   -0.03643505312197026   -0.001625480126081482
-0.01052025755416396   -0.03632260971617501   -0.001701343787010115
-0.00725721706984428   -0.030020772060543117   -0.0016224856779904861
-0.010844178418682758   -0.03008452865638875   -0.0017390335886205304
-0.010432770914527458   -0.03638390154869122   -0.0017542997439635964
-0.007226430647202849   -0.030075698006967164   -0.0016142887648382478
-0.010789720530982233   -0.030167621414680913   -0.0017568122077066268
-0.010432770914527458   -0.03638390154869122   -0.0017542997439635964
-0.007146511752919015   -0.03643505312197026   -0.001625480126081482
-0.007226430647202849   -0.030075698006967164   -0.0016142887648382478
-0.007084855616585692   -0.03650665350539142   -0.0016483726987000578
-0.010789720530982233   -0.030167621414680913   -0.0017568122077066268
-0.0071867009345613795   -0.03013984566240913   -0.0016127165247265362
-0.007084855616585692   -0.03650665350539142   -0.0016483726987000578
-0.007226430647202849   -0.030075698006967164   -0.0016142887648382478
-0.010789720530982233   -0.030167621414680913   -0.0017568122077066268
-0.007084855616585692   -0.03650665350539142   -0.0016483726987000578
-0.010313764839436263   -0.03647727149021156   -0.001818304385985892
-0.010432770914527458   -0.03638390154869122   -0.0017542997439635964
-0.010789720530982233   -0.030167621414680913   -0.0017568122077066268
-0.007084855616585692   -0.03650665350539142   -0.0016483726987000578
-0.010432770914527458   -0.03638390154869122   -0.0017542997439635964
-0.007226430647202849   -0.030075698006967164   -0.0016142887648382478
-0.007277105521579268   -0.02997127952920467   -0.0016374231242283093
-0.007246533416419474   -0.036345517247476096   -0.0016007734843232284
-0.003966341104075945   -0.029974964056573065   -0.0015727756526446905
-0.00725721706984428   -0.030020772060543117   -0.0016224856779904861
-0.007246533416419474   -0.036345517247476096   -0.0016007734843232284
-0.004242230524475455   -0.0363741557374133   -0.0015633949616948196
-0.003966341104075945   -0.029974964056573065   -0.0015727756526446905
-0.004195966028808146   -0.03639328990349283   -0.0015439803715160637
-0.00725721706984428   -0.030020772060543117   -0.0016224856779904861
-0.0039398879460469   -0.03000330228518662   -0.001546121456090548
-0.004195966028808146   -0.03639328990349283   -0.0015439803715160637
-0.003966341104075945   -0.029974964056573065   -0.0015727756526446905
-0.00725721706984428   -0.030020772060543117   -0.0016224856779904861
-0.004195966028808146   -0.03639328990349283   -0.0015439803715160637
-0.0072040075153515975   -0.03638241321130228   -0.0016096796230292386
-0.007246533416419474   -0.036345517247476096   -0.0016007734843232284
-0.00725721706984428   -0.030020772060543117   -0.0016224856779904861
-0.004195966028808146   -0.03639328990349283   -0.0015439803715160637
-0.007246533416419474   -0.036345517247476096   -0.0016007734843232284
-0.003966341104075945   -0.029974964056573065   -0.0015727756526446905
-0.00725721706984428   -0.030020772060543117   -0.0016224856779904861
-0.0072040075153515975   -0.03638241321130228   -0.0016096796230292386
-0.0039398879460469   -0.03000330228518662   -0.001546121456090548
-0.007226430647202849   -0.030075698006967164   -0.0016142887648382478
-0.0072040075153515975   -0.03638241321130228   -0.0016096796230292386
-0.004195966028808146   -0.03639328990349283   -0.0015439803715160637
-0.0039398879460469   -0.03000330228518662   -0.001546121456090548
-0.004146216228835322   -0.0364275525149626   -0.0015313750838317753
-0.007226430647202849   -0.030075698006967164   -0.0016142887648382478
-0.003910064397497915   -0.03003784316318894   -0.0015262307866663642
-0.004146216228835322   -0.0364275525149626   -0.0015313750838317753
-0.0039398879460469   -0.03000330228518662   -0.001546121456090548
-0.007226430647202849   -0.030075698006967164   -0.0016142887648382478
-0.004146216228835322   -0.0364275525149626   -0.0015313750838317753
-0.007146511752919015   -0.03643505312197026   -0.001625480126081482
-0.0072040075153515975   -0.03638241321130228   -0.0016096796230292386
-0.007226430647202849   -0.030075698006967164   -0.0016142887648382478
-0.004146216228835322   -0.0364275525149626   -0.0015313750838317753
-0.0072040075153515975   -0.03638241321130228   -0.0016096796230292386
-0.0039398879460469   -0.03000330228518662   -0.001546121456090548
-0.007226430647202849   -0.030075698006967164   -0.0016142887648382478
-0.007146511752919015   -0.03643505312197026   -0.001625480126081482
-0.003910064397497915   -0.03003784316318894   -0.0015262307866663642
-0.0071867009345613795   -0.03013984566240913   -0.0016127165247265362
-0.007146511752919015   -0.03643505312197026   -0.001625480126081482
-0.004146216228835322   -0.0364275525149626   -0.0015313750838317753
-0.003910064397497915   -0.03003784316318894   -0.0015262307866663642
-0.004095080258913264   -0.03647737227435171   -0.0015259157174609135
-0.0071867009345613795   -0.03013984566240913   -0.0016127165247265362
-0.0038779513974116636   -0.030078694567678137   -0.0015133264385210966
-0.004095080258913264   -0.03647737227435171   -0.0015259157174609135
-0.003910064397497915   -0.03003784316318894   -0.0015262307866663642
-0.0071867009345613795   -0.03013984566240913   -0.0016127165247265362
-0.004095080258913264   -0.03647737227435171   -0.0015259157174609135
-0.007084855616585692   -0.03650665350539142   -0.0016483726987000578
-0.007146511752919015   -0.03643505312197026   -0.001625480126081482
-0.0071867009345613795   -0.03013984566240913   -0.0016127165247265362
-0.004095080258913264   -0.03647737227435171   -0.0015259157174609135
-0.007146511752919015   -0.03643505312197026   -0.001625480126081482
-0.003910064397497915   -0.03003784316318894   -0.0015262307866663642
-0.003966341104075945   -0.029974964056573065   -0.0015727756526446905
-0.004242230524475455   -0.0363741557374133   -0.0015633949616948196
-0.0007491567206436764   -0.029957296000538768   -0.001546539158124209
-0.0039398879460469   -0.03000330228518662   -0.001546121456090548
-0.004242230524475455   -0.0363741557374133   -0.0015633949616948196
-0.0013287623276901726   -0.036351891871749364   -0.0015574521791889356
-0.0007491567206436764   -0.029957296000538768   -0.001546539158124209
-0.0012775989598131188   -0.03635221126529779   -0.0015106882735605005
-0.0039398879460469   -0.03000330228518662   -0.001546121456090548
-0.0007179351653254309   -0.0299637460267146   -0.001508752601851856
-0.0012775989598131188   -0.03635221126529779   -0.0015106882735605005
-0.0007491567206436764   -0.029957296000538768   -0.001546539158124209
-0.0039398879460469   -0.03000330228518662   -0.001546121456090548
-0.0012775989598131188   -0.03635221126529779   -0.0015106882735605005
-0.004195966028808146   -0.03639328990349283   -0.0015439803715160637
-0.004242230524475455   -0.0363741557374133   -0.0015633949616948196
-0.0039398879460469   -0.03000330228518662   -0.001546121456090548
-0.0012775989598131188   -0.03635221126529779   -0.0015106882735605005
-0.004242230524475455   -0.0363741557374133   -0.0015633949616948196
-0.0007491567206436764   -0.029957296000538768   -0.001546539158124209
-0.0039398879460469   -0.03000330228518662   -0.001546121456090548
-0.004195966028808146   -0.03639328990349283   -0.0015439803715160637
-0.0007179351653254309   -0.0299637460267146   -0.001508752601851856
-0.003910064397497915   -0.03003784316318894   -0.0015262307866663642
-0.004195966028808146   -0.03639328990349283   -0.0015439803715160637
-0.0012775989598131188   -0.03635221126529779   -0.0015106882735605005
-0.0007179351653254309   -0.0299637460267146   -0.001508752601851856
-0.001227764427957775   -0.03636656444253001   -0.0014707529521244345
-0.003910064397497915   -0.03003784316318894   -0.0015262307866663642
-0.0006883775127705421   -0.02997592125342315   -0.0014776846130832193
-0.001227764427957775   -0.03636656444253001   -0.0014707529521244345
-0.0007179351653254309   -0.0299637460267146   -0.001508752601851856
-0.003910064397497915   -0.03003784316318894   -0.0015262307866663642
-0.001227764427957775   -0.03636656444253001   -0.0014707529521244345
-0.004146216228835322   -0.0364275525149626   -0.0015313750838317753
-0.004195966028808146   -0.03639328990349283   -0.0015439803715160637
-0.003910064397497915   -0.03003784316318894   -0.0015262307866663642
-0.001227764427957775   -0.03636656444253001   -0.0014707529521244345
-0.004195966028808146   -0.03639328990349283   -0.0015439803715160637
-0.0007179351653254309   -0.0299637460267146   -0.001508752601851856
-0.003910064397497915   -0.03003784316318894   -0.0015262307866663642
-0.004146216228835322   -0.0364275525149626   -0.0015313750838317753
-0.0006883775127705421   -0.02997592125342315   -0.0014776846130832193
-0.0038779513974116636   -0.030078694567678137   -0.0015133264385210966
-0.004146216228835322   -0.0364275525149626   -0.0015313750838317753
-0.001227764427957775   -0.03636656444253001   -0.0014707529521244345
-0.0006883775127705421   -0.02997592125342315   -0.0014776846130832193
-0.0011832653926030243   -0.036396129496132   -0.0014378825010659517
-0.0038779513974116636   -0.030078694567678137   -0.0015133264385210966
-0.0006632108964799447   -0.02999409567075389   -0.0014535682789229808
-0.0011832653926030243   -0.036396129496132   -0.0014378825010659517
-0.0006883775127705421   -0.02997592125342315   -0.0014776846130832193
-0.0038779513974116636   -0.030078694567678137   -0.0015133264385210966
-0.0011832653926030243   -0.036396129496132   -0.0014378825010659517
-0.004095080258913264   -0.03647737227435171   -0.0015259157174609135
-0.004146216228835322   -0.0364275525149626   -0.0015313750838317753
-0.0038779513974116636   -0.030078694567678137   -0.0015133264385210966
-0.0011832653926030243   -0.036396129496132   -0.0014378825010659517
-0.004146216228835322   -0.0364275525149626   -0.0015313750838317753
-0.0006883775127705421   -0.02997592125342315   -0.0014776846130832193
-0.0007491567206436764   -0.029957296000538768   -0.001546539158124209
-0.0013287623276901726   -0.036351891871749364   -0.0015574521791889356
0.002564530063831215   -0.029918076786465533   -0.0015599967693213067
-0.0007179351653254309   -0.0299637460267146   -0.001508752601851856
-0.0013287623276901726   -0.036351891871749364   -0.0015574521791889356
0.001684495279987699   -0.036280165756776596   -0.0015854082137787713
0.002564530063831215   -0.029918076786465533   -0.0015599967693213067
0.0017470645510971655   -0.03626040041651931   -0.0015115401847106253
-0.0007179351653254309   -0.0299637460267146   -0.001508752601851856
0.0026042880431872157   -0.029902552298504925   -0.0015112638122621515
0.0017470645510971655   -0.03626040041651931   -0.0015115401847106253
0.002564530063831215   -0.029918076786465533   -0.0015599967693213067
-0.0007179351653254309   -0.0299637460267146   -0.001508752601851856
0.0017470645510971655   -0.03626040041651931   -0.0015115401847106253
-0.0012775989598131188   -0.03635221126529779   -0.0015106882735605005
-0.0013287623276901726   -0.036351891871749364   -0.0015574521791889356
-0.0007179351653254309   -0.0299637460267146   -0.001508752601851856
0.0017470645510971655   -0.03626040041651931   -0.0015115401847106253
-0.0013287623276901726   -0.036351891871749364   -0.0015574521791889356
0.002564530063831215   -0.029918076786465533   -0.0015599967693213067
-0.0007179351653254309   -0.0299637460267146   -0.001508752601851856
-0.0012775989598131188   -0.03635221126529779   -0.0015106882735605005
0.0026042880431872157   -0.029902552298504925   -0.0015112638122621515
-0.0006883775127705421   -0.02997592125342315   -0.0014776846130832193
-0.0012775989598131188   -0.03635221126529779   -0.0015106882735605005
0.0017470645510971655   -0.03626040041651931   -0.0015115401847106253
0.0026042880431872157   -0.029902552298504925   -0.0015112638122621515
0.0018112689205851743   -0.03625667423162025   -0.001444934809609308
-0.0006883775127705421   -0.02997592125342315   -0.0014776846130832193
0.0026411080248233865   -0.029894470711190554   -0.0014692274802153636
0.0018112689205851743   -0.03625667423162025   -0.001444934809609308
0.0026042880431872157   -0.029902552298504925   -0.0015112638122621515
-0.0006883775127705421   -0.02997592125342315   -0.0014776846130832193
0.0018112689205851743   -0.03625667423162025   -0.001444934809609308
-0.001227764427957775   -0.03636656444253001   -0.0014707529521244345
-0.0012775989598131188   -0.03635221126529779   -0.0015106882735605005
-0.0006883775127705421   -0.02997592125342315   -0.0014776846130832193
0.0018112689205851743   -0.03625667423162025   -0.001444934809609308
-0.0012775989598131188   -0.03635221126529779   -0.0015106882735605005
0.0026042880431872157   -0.029902552298504925   -0.0015112638122621515
-0.0006883775127705421   -0.02997592125342315   -0.0014776846130832193
-0.001227764427957775   -0.03636656444253001   -0.0014707529521244345
0.0026411080248233865   -0.029894470711190554   -0.0014692274802153636
-0.0006632108964799447   -0.02999409567075389   -0.0014535682789229808
-0.001227764427957775   -0.03636656444253001   -0.0014707529521244345
0.0018112689205851743   -0.03625667423162025   -0.001444934809609308
0.0026411080248233865   -0.029894470711190554   -0.0014692274802153636
0.0018540486266435344   -0.03626603756870256   -0.0013846333195344544
-0.0006632108964799447   -0.02999409567075389   -0.0014535682789229808
0.002661091672465437   -0.029889967079650605   -0.0014334505477057776
0.0018540486266435344   -0.03626603756870256   -0.0013846333195344544
0.0026411080248233865   -0.029894470711190554   -0.0014692274802153636
-0.0006632108964799447   -0.02999409567075389   -0.0014535682789229808
0.0018540486266435344   -0.03626603756870256   -0.0013846333195344544
-0.0011832653926030243   -0.036396129496132   -0.0014378825010659517
-0.001227764427957775   -0.03636656444253001   -0.0014707529521244345
-0.0006632108964799447   -0.02999409567075389   -0.0014535682789229808
0.0018540486266435344   -0.03626603756870256   -0.0013846333195344544
-0.001227764427957775   -0.03636656444253001   -0.0014707529521244345
0.0026411080248233865   -0.029894470711190554   -0.0014692274802153636
0.002564530063831215   -0.029918076786465533   -0.0015599967693213067
0.001684495279987699   -0.036280165756776596   -0.0015854082137787713
0.006111399571054272   -0.02985207889752186   -0.001615301102186797
0.0026042880431872157   -0.029902552298504925   -0.0015112638122621515
0.001684495279987699   -0.036280165756776596   -0.0015854082137787713
0.00488860914816817   -0.036156813536540884   -0.001657129874629145
0.006111399571054272   -0.02985207889752186   -0.001615301102186797
0.005055128591701559   -0.0361161744938252   -0.0015495748957687371
0.0026042880431872157   -0.029902552298504925   -0.0015112638122621515
0.006214778715699107   -0.029816611629880536   -0.001551223099299068
0.005055128591701559   -0.0361161744938252   -0.0015495748957687371
0.006111399571054272   -0.02985207889752186   -0.001615301102186797
0.0026042880431872157   -0.029902552298504925   -0.0015112638122621515
0.005055128591701559   -0.0361161744938252   -0.0015495748957687371
0.0017470645510971655   -0.03626040041651931   -0.0015115401847106253
0.001684495279987699   -0.036280165756776596   -0.0015854082137787713
0.0026042880431872157   -0.029902552298504925   -0.0015112638122621515
0.005055128591701559   -0.0361161744938252   -0.0015495748957687371
0.001684495279987699   -0.036280165756776596   -0.0015854082137787713
0.006111399571054272   -0.02985207889752186   -0.001615301102186797
0.0026042880431872157   -0.029902552298504925   -0.0015112638122621515
0.0017470645510971655   -0.03626040041651931   -0.0015115401847106253
0.006214778715699107   -0.029816611629880536   -0.001551223099299068
0.0026411080248233865   -0.029894470711190554   -0.0014692274802153636
0.0017470645510971655   -0.03626040041651931   -0.0015115401847106253
0.005055128591701559   -0.0361161744938252   -0.0015495748957687371
0.006214778715699107   -0.029816611629880536   -0.001551223099299068
0.005178538991021993   -0.036104961962211135   -0.0014516853040764843
0.0026411080248233865   -0.029894470711190554   -0.0014692274802153636
0.006286006101176804   -0.02979940071811195   -0.0014966899807872455
0.005178538991021993   -0.036104961962211135   -0.0014516853040764843
0.006214778715699107   -0.029816611629880536   -0.001551223099299068
0.0026411080248233865   -0.029894470711190554   -0.0014692274802153636
0.005178538991021993   -0.036104961962211135   -0.0014516853040764843
0.0018112689205851743   -0.03625667423162025   -0.001444934809609308
0.0017470645510971655   -0.03626040041651931   -0.0015115401847106253
0.0026411080248233865   -0.029894470711190554   -0.0014692274802153636
0.005178538991021993   -0.036104961962211135   -0.0014516853040764843
0.0017470645510971655   -0.03626040041651931   -0.0015115401847106253
0.006214778715699107   -0.029816611629880536   -0.001551223099299068
0.0026411080248233865   -0.029894470711190554   -0.0014692274802153636
0.0018112689205851743   -0.03625667423162025   -0.001444934809609308
0.006286006101176804   -0.02979940071811195   -0.0014966899807872455
0.002661091672465437   -0.029889967079650605   -0.0014334505477057776
0.0018112689205851743   -0.03625667423162025   -0.001444934809609308
0.005178538991021993   -0.036104961962211135   -0.0014516853040764843
0.006286006101176804   -0.02979940071811195   -0.0014966899807872455
0.005303842767180159   -0.03610489359067381   -0.0013639066957719722
0.002661091672465437   -0.029889967079650605   -0.0014334505477057776
0.00634950443633488   -0.029780808708336194   -0.0014520999646859191
0.005303842767180159   -0.03610489359067381   -0.0013639066957719722
0.006286006101176804   -0.02979940071811195   -0.0014966899807872455
0.002661091672465437   -0.029889967079650605   -0.0014334505477057776
0.005303842767180159   -0.03610489359067381   -0.0013639066957719722
0.0018540486266435344   -0.03626603756870256   -0.0013846333195344544
0.0018112689205851743   -0.03625667423162025   -0.001444934809609308
0.002661091672465437   -0.029889967079650605   -0.0014334505477057776
0.005303842767180159   -0.03610489359067381   -0.0013639066957719722
0.0018112689205851743   -0.03625667423162025   -0.001444934809609308
0.006286006101176804   -0.02979940071811195   -0.0014966899807872455
-0.010597053183575284   -0.03627278400513488   -0.0016592277992375645
-0.009671828192827733   -0.04186050291218461   -0.001547796276379454
-0.007246533416419474   -0.036345517247476096   -0.0016007734843232284
-0.01052025755416396   -0.03632260971617501   -0.001701343787010115
-0.009671828192827733   -0.04186050291218461   -0.001547796276379454
-0.006852823150705502   -0.04199142821440123   -0.0015384760427288133
-0.007246533416419474   -0.036345517247476096   -0.0016007734843232284
-0.006782708906772459   -0.04201034592464611   -0.0015694767058741115
-0.01052025755416396   -0.03632260971617501   -0.001701343787010115
-0.0072040075153515975   -0.03638241321130228   -0.0016096796230292386
-0.006782708906772459   -0.04201034592464611   -0.0015694767058741115
-0.007246533416419474   -0.036345517247476096   -0.0016007734843232284
-0.01052025755416396   -0.03632260971617501   -0.001701343787010115
-0.006782708906772459   -0.04201034592464611   -0.0015694767058741115
-0.009525574916495567   -0.04188855315156803   -0.0016346828919060784
-0.009671828192827733   -0.04186050291218461   -0.001547796276379454
-0.01052025755416396   -0.03632260971617501   -0.001701343787010115
-0.006782708906772459   -0.04201034592464611   -0.0015694767058741115
-0.009671828192827733   -0.04186050291218461   -0.001547796276379454
-0.007246533416419474   -0.036345517247476096   -0.0016007734843232284
-0.01052025755416396   -0.03632260971617501   -0.001701343787010115
-0.009525574916495567   -0.04188855315156803   -0.0016346828919060784
-0.0072040075153515975   -0.03638241321130228   -0.0016096796230292386
-0.010432770914527458   -0.03638390154869122   -0.0017542997439635964
-0.009525574916495567   -0.04188855315156803   -0.0016346828919060784
-0.006782708906772459   -0.04201034592464611   -0.0015694767058741115
-0.0072040075153515975   -0.03638241321130228   -0.0016096796230292386
-0.006694634524404658   -0.042055765017317503   -0.001607458148365244
-0.010432770914527458   -0.03638390154869122   -0.0017542997439635964
-0.007146511752919015   -0.03643505312197026   -0.001625480126081482
-0.006694634524404658   -0.042055765017317503   -0.001607458148365244
-0.0072040075153515975   -0.03638241321130228   -0.0016096796230292386
-0.010432770914527458   -0.03638390154869122   -0.0017542997439635964
-0.006694634524404658   -0.042055765017317503   -0.001607458148365244
-0.009379807295145384   -0.041941859875876175   -0.0017329348575384838
-0.009525574916495567   -0.04188855315156803   -0.0016346828919060784
-0.010432770914527458   -0.03638390154869122   -0.0017542997439635964
-0.006694634524404658   -0.042055765017317503   -0.001607458148365244
-0.009525574916495567   -0.04188855315156803   -0.0016346828919060784
-0.0072040075153515975   -0.03638241321130228   -0.0016096796230292386
-0.010432770914527458   -0.03638390154869122   -0.0017542997439635964
-0.009379807295145384   -0.041941859875876175   -0.0017329348575384838
-0.007146511752919015   -0.03643505312197026   -0.001625480126081482
-0.010313764839436263   -0.03647727149021156   -0.001818304385985892
-0.009379807295145384   -0.041941859875876175   -0.0017329348575384838
-0.006694634524404658   -0.042055765017317503   -0.001607458148365244
-0.007146511752919015   -0.03643505312197026   -0.001625480126081482
-0.006607754909076101   -0.04213026720372388   -0.0016523544838831835
-0.010313764839436263   -0.03647727149021156   -0.001818304385985892
-0.007084855616585692   -0.03650665350539142   -0.0016483726987000578
-0.006607754909076101   -0.04213026720372388   -0.0016523544838831835
-0.007146511752919015   -0.03643505312197026   -0.001625480126081482
-0.010313764839436263   -0.03647727149021156   -0.001818304385985892
-0.006607754909076101   -0.04213026720372388   -0.0016523544838831835
-0.009193120909612095   -0.042041262117152756   -0.0018423517553433468
-0.009379807295145384   -0.041941859875876175   -0.0017329348575384838
-0.010313764839436263   -0.03647727149021156   -0.001818304385985892
-0.006607754909076101   -0.04213026720372388   -0.0016523544838831835
-0.009379807295145384   -0.041941859875876175   -0.0017329348575384838
-0.007146511752919015   -0.03643505312197026   -0.001625480126081482
-0.007246533416419474   -0.036345517247476096   -0.0016007734843232284
-0.006852823150705502   -0.04199142821440123   -0.0015384760427288133
-0.004242230524475455   -0.0363741557374133   -0.0015633949616948196
-0.0072040075153515975   -0.03638241321130228   -0.0016096796230292386
-0.006852823150705502   -0.04199142821440123   -0.0015384760427288133
-0.0044105098821624255   -0.04205253869171939   -0.0015348442395318688
-0.004242230524475455   -0.0363741557374133   -0.0015633949616948196
-0.004338614352180131   -0.04205870868259364   -0.00152091823248346
-0.0072040075153515975   -0.03638241321130228   -0.0016096796230292386
-0.004195966028808146   -0.03639328990349283   -0.0015439803715160637
-0.004338614352180131   -0.04205870868259364   -0.00152091823248346
-0.004242230524475455   -0.0363741557374133   -0.0015633949616948196
-0.0072040075153515975   -0.03638241321130228   -0.0016096796230292386
-0.004338614352180131   -0.04205870868259364   -0.00152091823248346
-0.006782708906772459   -0.04201034592464611   -0.0015694767058741115
-0.006852823150705502   -0.04199142821440123   -0.0015384760427288133
-0.0072040075153515975   -0.03638241321130228   -0.0016096796230292386
-0.004338614352180131   -0.04205870868259364   -0.00152091823248346
-0.006852823150705502   -0.04199142821440123   -0.0015384760427288133
-0.004242230524475455   -0.0363741557374133   -0.0015633949616948196
-0.0072040075153515975   -0.03638241321130228   -0.0016096796230292386
-0.006782708906772459   -0.04201034592464611   -0.0015694767058741115
-0.004195966028808146   -0.03639328990349283   -0.0015439803715160637
-0.007146511752919015   -0.03643505312197026   -0.001625480126081482
-0.006782708906772459   -0.04201034592464611   -0.0015694767058741115
-0.004338614352180131   -0.04205870868259364   -0.00152091823248346
-0.004195966028808146   -0.03639328990349283   -0.0015439803715160637
-0.004264393573689679   -0.04208855130985916   -0.0015137660949909495
-0.007146511752919015   -0.03643505312197026   -0.001625480126081482
-0.004146216228835322   -0.0364275525149626   -0.0015313750838317753
-0.004264393573689679   -0.04208855130985916   -0.0015137660949909495
-0.004195966028808146   -0.03639328990349283   -0.0015439803715160637
-0.007146511752919015   -0.03643505312197026   -0.001625480126081482
-0.004264393573689679   -0.04208855130985916   -0.0015137660949909495
-0.006694634524404658   -0.042055765017317503   -0.001607458148365244
-0.006782708906772459   -0.04201034592464611   -0.0015694767058741115
-0.007146511752919015   -0.03643505312197026   -0.001625480126081482
-0.004264393573689679   -0.04208855130985916   -0.0015137660949909495
-0.006782708906772459   -0.04201034592464611   -0.0015694767058741115
-0.004195966028808146   -0.03639328990349283   -0.0015439803715160637
-0.007146511752919015   -0.03643505312197026   -0.001625480126081482
-0.006694634524404658   -0.042055765017317503   -0.001607458148365244
-0.004146216228835322   -0.0364275525149626   -0.0015313750838317753
-0.007084855616585692   -0.03650665350539142   -0.0016483726987000578
-0.006694634524404658   -0.042055765017317503   -0.001607458148365244
-0.004264393573689679   -0.04208855130985916   -0.0015137660949909495
-0.004146216228835322   -0.0364275525149626   -0.0015313750838317753
-0.004190285650610492   -0.04214344118020582   -0.0015133075410306274
-0.007084855616585692   -0.03650665350539142   -0.0016483726987000578
-0.004095080258913264   -0.03647737227435171   -0.0015259157174609135
-0.004190285650610492   -0.04214344118020582   -0.0015133075410306274
-0.004146216228835322   -0.0364275525149626   -0.0015313750838317753
-0.007084855616585692   -0.03650665350539142   -0.0016483726987000578
-0.004190285650610492   -0.04214344118020582   -0.0015133075410306274
-0.006607754909076101   -0.04213026720372388   -0.0016523544838831835
-0.006694634524404658   -0.042055765017317503   -0.001607458148365244
-0.007084855616585692   -0.03650665350539142   -0.0016483726987000578
-0.004190285650610492   -0.04214344118020582   -0.0015133075410306274
-0.006694634524404658   -0.042055765017317503   -0.001607458148365244
-0.004146216228835322   -0.0364275525149626   -0.0015313750838317753
-0.004242230524475455   -0.0363741557374133   -0.0015633949616948196
-0.0044105098821624255   -0.04205253869171939   -0.0015348442395318688
-0.0013287623276901726   -0.036351891871749364   -0.0015574521791889356
-0.004195966028808146   -0.03639328990349283   -0.0015439803715160637
-0.0044105098821624255   -0.04205253869171939   -0.0015348442395318688
-0.0020491299298621033   -0.04204101517343046   -0.00155253593513023
-0.0013287623276901726   -0.036351891871749364   -0.0015574521791889356
-0.001970383534622031   -0.04203285204359878   -0.0014952551679083483
-0.004195966028808146   -0.03639328990349283   -0.0015439803715160637
-0.0012775989598131188   -0.03635221126529779   -0.0015106882735605005
-0.001970383534622031   -0.04203285204359878   -0.0014952551679083483
-0.0013287623276901726   -0.036351891871749364   -0.0015574521791889356
-0.004195966028808146   -0.03639328990349283   -0.0015439803715160637
-0.001970383534622031   -0.04203285204359878   -0.0014952551679083483
-0.004338614352180131   -0.04205870868259364   -0.00152091823248346
-0.0044105098821624255   -0.04205253869171939   -0.0015348442395318688
-0.004195966028808146   -0.03639328990349283   -0.0015439803715160637
-0.001970383534622031   -0.04203285204359878   -0.0014952551679083483
-0.0044105098821624255   -0.04205253869171939   -0.0015348442395318688
-0.0013287623276901726   -0.036351891871749364   -0.0015574521791889356
-0.004195966028808146   -0.03639328990349283   -0.0015439803715160637
-0.004338614352180131   -0.04205870868259364   -0.00152091823248346
-0.0012775989598131188   -0.03635221126529779   -0.0015106882735605005
-0.004146216228835322   -0.0364275525149626   -0.0015313750838317753
-0.004338614352180131   -0.04205870868259364   -0.00152091823248346
-0.001970383534622031   -0.04203285204359878   -0.0014952551679083483
-0.0012775989598131188   -0.03635221126529779   -0.0015106882735605005
-0.0018939357537326226   -0.042046119285556016   -0.0014451959636749012
-0.004146216228835322   -0.0364275525149626   -0.0015313750838317753
-0.001227764427957775   -0.03636656444253001   -0.0014707529521244345
-0.0018939357537326226   -0.042046119285556016   -0.0014451959636749012
-0.0012775989598131188   -0.03635221126529779   -0.0015106882735605005
-0.004146216228835322   -0.0364275525149626   -0.0015313750838317753
-0.0018939357537326226   -0.042046119285556016   -0.0014451959636749012
-0.004264393573689679   -0.04208855130985916   -0.0015137660949909495
-0.004338614352180131   -0.04205870868259364   -0.00152091823248346
-0.004146216228835322   -0.0364275525149626   -0.0015313750838317753
-0.0018939357537326226   -0.042046119285556016   -0.0014451959636749012
-0.004338614352180131   -0.04205870868259364   -0.00152091823248346
-0.0012775989598131188   -0.03635221126529779   -0.0015106882735605005
-0.004146216228835322   -0.0364275525149626   -0.0015313750838317753
-0.004264393573689679   -0.04208855130985916   -0.0015137660949909495
-0.001227764427957775   -0.03636656444253001   -0.0014707529521244345
-0.004095080258913264   -0.03647737227435171   -0.0015259157174609135
-0.004264393573689679   -0.04208855130985916   -0.0015137660949909495
-0.0018939357537326226   -0.042046119285556016   -0.0014451959636749012
-0.001227764427957775   -0.03636656444253001   -0.0014707529521244345
-0.0018248461733944912   -0.04208388333453416   -0.0014017363942221209
-0.004095080258913264   -0.03647737227435171   -0.0015259157174609135
-0.0011832653926030243   -0.036396129496132   -0.0014378825010659517
-0.0018248461733944912   -0.04208388333453416   -0.0014017363942221209
-0.001227764427957775   -0.03636656444253001   -0.0014707529521244345
-0.004095080258913264   -0.03647737227435171   -0.0015259157174609135
-0.0018248461733944912   -0.04208388333453416   -0.0014017363942221209
-0.004190285650610492   -0.04214344118020582   -0.0015133075410306274
-0.004264393573689679   -0.04208855130985916   -0.0015137660949909495
-0.004095080258913264   -0.03647737227435171   -0.0015259157174609135
-0.0018248461733944912   -0.04208388333453416   -0.0014017363942221209
-0.004264393573689679   -0.04208855130985916   -0.0015137660949909495
-0.001227764427957775   -0.03636656444253001   -0.0014707529521244345
-0.0013287623276901726   -0.036351891871749364   -0.0015574521791889356
-0.0020491299298621033   -0.04204101517343046   -0.00155253593513023
0.001684495279987699   -0.036280165756776596   -0.0015854082137787713
-0.0012775989598131188   -0.03635221126529779   -0.0015106882735605005
-0.0020491299298621033   -0.04204101517343046   -0.00155253593513023
0.00042187926682512553   -0.04195425066986066   -0.0015953680792127535
0.001684495279987699   -0.036280165756776596   -0.0015854082137787713
0.0005177192006826897   -0.04192791445848146   -0.0014948686416576902
-0.0012775989598131188   -0.03635221126529779   -0.0015106882735605005
0.0017470645510971655   -0.03626040041651931   -0.0015115401847106253
0.0005177192006826897   -0.04192791445848146   -0.0014948686416576902
0.001684495279987699   -0.036280165756776596   -0.0015854082137787713
-0.0012775989598131188   -0.03635221126529779   -0.0015106882735605005
0.0005177192006826897   -0.04192791445848146   -0.0014948686416576902
-0.001970383534622031   -0.04203285204359878   -0.0014952551679083483
-0.0020491299298621033   -0.04204101517343046   -0.00155253593513023
-0.0012775989598131188   -0.03635221126529779   -0.0015106882735605005
0.0005177192006826897   -0.04192791445848146   -0.0014948686416576902
-0.0020491299298621033   -0.04204101517343046   -0.00155253593513023
0.001684495279987699   -0.036280165756776596   -0.0015854082137787713
-0.0012775989598131188   -0.03635221126529779   -0.0015106882735605005
-0.001970383534622031   -0.04203285204359878   -0.0014952551679083483
0.0017470645510971655   -0.03626040041651931   -0.0015115401847106253
-0.001227764427957775   -0.03636656444253001   -0.0014707529521244345
-0.001970383534622031   -0.04203285204359878   -0.0014952551679083483
0.0005177192006826897   -0.04192791445848146   -0.0014948686416576902
0.0017470645510971655   -0.03626040041651931   -0.0015115401847106253
0.0006187931206803875   -0.04192553537102763   -0.0014035174002630156
-0.001227764427957775   -0.03636656444253001   -0.0014707529521244345
0.0018112689205851743   -0.03625667423162025   -0.001444934809609308
0.0006187931206803875   -0.04192553537102763   -0.0014035174002630156
0.0017470645510971655   -0.03626040041651931   -0.0015115401847106253
-0.001227764427957775   -0.03636656444253001   -0.0014707529521244345
0.0006187931206803875   -0.04192553537102763   -0.0014035174002630156
-0.0018939357537326226   -0.042046119285556016   -0.0014451959636749012
-0.001970383534622031   -0.04203285204359878   -0.0014952551679083483
-0.001227764427957775   -0.03636656444253001   -0.0014707529521244345
0.0006187931206803875   -0.04192553537102763   -0.0014035174002630156
-0.001970383534622031   -0.04203285204359878   -0.0014952551679083483
0.0017470645510971655   -0.03626040041651931   -0.0015115401847106253
-0.001227764427957775   -0.03636656444253001   -0.0014707529521244345
-0.0018939357537326226   -0.042046119285556016   -0.0014451959636749012
0.0018112689205851743   -0.03625667423162025   -0.001444934809609308
-0.0011832653926030243   -0.036396129496132   -0.0014378825010659517
-0.0018939357537326226   -0.042046119285556016   -0.0014451959636749012
0.0006187931206803875   -0.04192553537102763   -0.0014035174002630156
0.0018112689205851743   -0.03625667423162025   -0.001444934809609308
0.0006927133311660414   -0.04194601262462664   -0.0013184623546976498
-0.0011832653926030243   -0.036396129496132   -0.0014378825010659517
0.0018540486266435344   -0.03626603756870256   -0.0013846333195344544
0.0006927133311660414   -0.04194601262462664   -0.0013184623546976498
0.0018112689205851743   -0.03625667423162025   -0.001444934809609308
-0.0011832653926030243   -0.036396129496132   -0.0014378825010659517
0.0006927133311660414   -0.04194601262462664   -0.0013184623546976498
-0.0018248461733944912   -0.04208388333453416   -0.0014017363942221209
-0.0018939357537326226   -0.042046119285556016   -0.0014451959636749012
-0.0011832653926030243   -0.036396129496132   -0.0014378825010659517
0.0006927133311660414   -0.04194601262462664   -0.0013184623546976498
-0.0018939357537326226   -0.042046119285556016   -0.0014451959636749012
0.0018112689205851743   -0.03625667423162025   -0.001444934809609308
0.001684495279987699   -0.036280165756776596   -0.0015854082137787713
0.00042187926682512553   -0.04195425066986066   -0.0015953680792127535
0.00488860914816817   -0.036156813536540884   -0.001657129874629145
0.0017470645510971655   -0.03626040041651931   -0.0015115401847106253
0.00042187926682512553   -0.04195425066986066   -0.0015953680792127535
0.0030543035432566206   -0.04178404955272598   -0.0016865931196873994
0.00488860914816817   -0.036156813536540884   -0.001657129874629145
0.003297619444577236   -0.04173356293233634   -0.0015327486633760726
0.0017470645510971655   -0.03626040041651931   -0.0015115401847106253
0.005055128591701559   -0.0361161744938252   -0.0015495748957687371
0.003297619444577236   -0.04173356293233634   -0.0015327486633760726
0.00488860914816817   -0.036156813536540884   -0.001657129874629145
0.0017470645510971655   -0.03626040041651931   -0.0015115401847106253
0.003297619444577236   -0.04173356293233634   -0.0015327486633760726
0.0005177192006826897   -0.04192791445848146   -0.0014948686416576902
0.00042187926682512553   -0.04195425066986066   -0.0015953680792127535
0.0017470645510971655   -0.03626040041651931   -0.0015115401847106253
0.003297619444577236   -0.04173356293233634   -0.0015327486633760726
0.00042187926682512553   -0.04195425066986066   -0.0015953680792127535
0.00488860914816817   -0.036156813536540884   -0.001657129874629145
0.0017470645510971655   -0.03626040041651931   -0.0015115401847106253
0.0005177192006826897   -0.04192791445848146   -0.0014948686416576902
0.005055128591701559   -0.0361161744938252   -0.0015495748957687371
0.0018112689205851743   -0.03625667423162025   -0.001444934809609308
0.0005177192006826897   -0.04192791445848146   -0.0014948686416576902
0.003297619444577236   -0.04173356293233634   -0.0015327486633760726
0.005055128591701559   -0.0361161744938252   -0.0015495748957687371
0.0034842173936801913   -0.04172481861021363   -0.0013902512071152747
0.0018112689205851743   -0.03625667423162025   -0.001444934809609308
0.005178538991021993   -0.036104961962211135   -0.0014516853040764843
0.0034842173936801913   -0.04172481861021363   -0.0013902512071152747
0.005055128591701559   -0.0361161744938252   -0.0015495748957687371
0.0018112689205851743   -0.03625667423162025   -0.001444934809609308
0.0034842173936801913   -0.04172481861021363   -0.0013902512071152747
0.0006187931206803875   -0.04192553537102763   -0.0014035174002630156
0.0005177192006826897   -0.04192791445848146   -0.0014948686416576902
0.0018112689205851743   -0.03625667423162025   -0.001444934809609308
0.0034842173936801913   -0.04172481861021363   -0.0013902512071152747
0.0005177192006826897   -0.04192791445848146   -0.0014948686416576902
0.005055128591701559   -0.0361161744938252   -0.0015495748957687371
0.0018112689205851743   -0.03625667423162025   -0.001444934809609308
0.0006187931206803875   -0.04192553537102763   -0.0014035174002630156
0.005178538991021993   -0.036104961962211135   -0.0014516853040764843
0.0018540486266435344   -0.03626603756870256   -0.0013846333195344544
0.0006187931206803875   -0.04192553537102763   -0.0014035174002630156
0.0034842173936801913   -0.04172481861021363   -0.0013902512071152747
0.005178538991021993   -0.036104961962211135   -0.0014516853040764843
0.003677785746664883   -0.04173988204096565   -0.001260260586481273
0.0018540486266435344   -0.03626603756870256   -0.0013846333195344544
0.005303842767180159   -0.03610489359067381   -0.0013639066957719722
0.003677785746664883   -0.04173988204096565   -0.001260260586481273
0.005178538991021993   -0.036104961962211135   -0.0014516853040764843
0.0018540486266435344   -0.03626603756870256   -0.0013846333195344544
0.003677785746664883   -0.04173988204096565   -0.001260260586481273
0.0006927133311660414   -0.04194601262462664   -0.0013184623546976498
0.0006187931206803875   -0.04192553537102763   -0.0014035174002630156
0.0018540486266435344   -0.03626603756870256   -0.0013846333195344544
0.003677785746664883   -0.04173988204096565   -0.001260260586481273
0.0006187931206803875   -0.04192553537102763   -0.0014035174002630156
0.005178538991021993   -0.036104961962211135   -0.0014516853040764843
-0.009671828192827733   -0.04186050291218461   -0.001547796276379454
-0.008105538612340972   -0.04624493275988891   -0.001404713538978116
-0.006852823150705502   -0.04199142821440123   -0.0015384760427288133
-0.009525574916495567   -0.04188855315156803   -0.0016346828919060784
-0.008105538612340972   -0.04624493275988891   -0.001404713538978116
-0.006098762359764371   -0.046438487705013694   -0.0014627019546234088
-0.006852823150705502   -0.04199142821440123   -0.0015384760427288133
-0.005998094125469334   -0.04642862647746613   -0.0015103936611173788
-0.009525574916495567   -0.04188855315156803   -0.0016346828919060784
-0.006782708906772459   -0.04201034592464611   -0.0015694767058741115
-0.005998094125469334   -0.04642862647746613   -0.0015103936611173788
-0.006852823150705502   -0.04199142821440123   -0.0015384760427288133
-0.009525574916495567   -0.04188855315156803   -0.0016346828919060784
-0.005998094125469334   -0.04642862647746613   -0.0015103936611173788
-0.00788805297313825   -0.04623955556654832   -0.0015332814583248495
-0.008105538612340972   -0.04624493275988891   -0.001404713538978116
-0.009525574916495567   -0.04188855315156803   -0.0016346828919060784
-0.005998094125469334   -0.04642862647746613   -0.0015103936611173788
-0.008105538612340972   -0.04624493275988891   -0.001404713538978116
-0.006852823150705502   -0.04199142821440123   -0.0015384760427288133
-0.009525574916495567   -0.04188855315156803   -0.0016346828919060784
-0.00788805297313825   -0.04623955556654832   -0.0015332814583248495
-0.006782708906772459   -0.04201034592464611   -0.0015694767058741115
-0.009379807295145384   -0.041941859875876175   -0.0017329348575384838
-0.00788805297313825   -0.04623955556654832   -0.0015332814583248495
-0.005998094125469334   -0.04642862647746613   -0.0015103936611173788
-0.006782708906772459   -0.04201034592464611   -0.0015694767058741115
-0.005879617008203871   -0.04645667613513393   -0.0015652033554154781
-0.009379807295145384   -0.041941859875876175   -0.0017329348575384838
-0.006694634524404658   -0.042055765017317503   -0.001607458148365244
-0.005879617008203871   -0.04645667613513393   -0.0015652033554154781
-0.006782708906772459   -0.04201034592464611   -0.0015694767058741115
-0.009379807295145384   -0.041941859875876175   -0.0017329348575384838
-0.005879617008203871   -0.04645667613513393   -0.0015652033554154781
-0.007687654879281773   -0.04627418140388927   -0.0016718796406050326
-0.00788805297313825   -0.04623955556654832   -0.0015332814583248495
-0.009379807295145384   -0.041941859875876175   -0.0017329348575384838
-0.005879617008203871   -0.04645667613513393   -0.0015652033554154781
-0.00788805297313825   -0.04623955556654832   -0.0015332814583248495
-0.006782708906772459   -0.04201034592464611   -0.0015694767058741115
-0.009379807295145384   -0.041941859875876175   -0.0017329348575384838
-0.007687654879281773   -0.04627418140388927   -0.0016718796406050326
-0.006694634524404658   -0.042055765017317503   -0.001607458148365244
-0.009193120909612095   -0.042041262117152756   -0.0018423517553433468
-0.007687654879281773   -0.04627418140388927   -0.0016718796406050326
-0.005879617008203871   -0.04645667613513393   -0.0015652033554154781
-0.006694634524404658   -0.042055765017317503   -0.001607458148365244
-0.005772139189867104   -0.046523287230302544   -0.0016266773392957167
-0.009193120909612095   -0.042041262117152756   -0.0018423517553433468
-0.006607754909076101   -0.04213026720372388   -0.0016523544838831835
-0.005772139189867104   -0.046523287230302544   -0.0016266773392957167
-0.006694634524404658   -0.042055765017317503   -0.001607458148365244
-0.009193120909612095   -0.042041262117152756   -0.0018423517553433468
-0.005772139189867104   -0.046523287230302544   -0.0016266773392957167
-0.007443183399584771   -0.04636639852818671   -0.0018199258739686093
-0.007687654879281773   -0.04627418140388927   -0.0016718796406050326
-0.009193120909612095   -0.042041262117152756   -0.0018423517553433468
-0.005772139189867104   -0.046523287230302544   -0.0016266773392957167
-0.007687654879281773   -0.04627418140388927   -0.0016718796406050326
-0.006694634524404658   -0.042055765017317503   -0.001607458148365244
-0.006852823150705502   -0.04199142821440123   -0.0015384760427288133
-0.006098762359764371   -0.046438487705013694   -0.0014627019546234088
-0.0044105098821624255   -0.04205253869171939   -0.0015348442395318688
-0.006782708906772459   -0.04201034592464611   -0.0015694767058741115
-0.006098762359764371   -0.046438487705013694   -0.0014627019546234088
-0.004457493198850487   -0.0465634370431393   -0.001508101005099388
-0.0044105098821624255   -0.04205253869171939   -0.0015348442395318688
-0.004354263519206757   -0.04654752683889475   -0.001493525056268503
-0.006782708906772459   -0.04201034592464611   -0.0015694767058741115
-0.004338614352180131   -0.04205870868259364   -0.00152091823248346
-0.004354263519206757   -0.04654752683889475   -0.001493525056268503
-0.0044105098821624255   -0.04205253869171939   -0.0015348442395318688
-0.006782708906772459   -0.04201034592464611   -0.0015694767058741115
-0.004354263519206757   -0.04654752683889475   -0.001493525056268503
-0.005998094125469334   -0.04642862647746613   -0.0015103936611173788
-0.006098762359764371   -0.046438487705013694   -0.0014627019546234088
-0.006782708906772459   -0.04201034592464611   -0.0015694767058741115
-0.004354263519206757   -0.04654752683889475   -0.001493525056268503
-0.006098762359764371   -0.046438487705013694   -0.0014627019546234088
-0.0044105098821624255   -0.04205253869171939   -0.0015348442395318688
-0.006782708906772459   -0.04201034592464611   -0.0015694767058741115
-0.005998094125469334   -0.04642862647746613   -0.0015103936611173788
-0.004338614352180131   -0.04205870868259364   -0.00152091823248346
-0.006694634524404658   -0.042055765017317503   -0.001607458148365244
-0.005998094125469334   -0.04642862647746613   -0.0015103936611173788
-0.004354263519206757   -0.04654752683889475   -0.001493525056268503
-0.004338614352180131   -0.04205870868259364   -0.00152091823248346
-0.00425244253566849   -0.04656436389731616   -0.0014858677561611108
-0.006694634524404658   -0.042055765017317503   -0.001607458148365244
-0.004264393573689679   -0.04208855130985916   -0.0015137660949909495
-0.00425244253566849   -0.04656436389731616   -0.0014858677561611108
-0.004338614352180131   -0.04205870868259364   -0.00152091823248346
-0.006694634524404658   -0.042055765017317503   -0.001607458148365244
-0.00425244253566849   -0.04656436389731616   -0.0014858677561611108
-0.005879617008203871   -0.04645667613513393   -0.0015652033554154781
-0.005998094125469334   -0.04642862647746613   -0.0015103936611173788
-0.006694634524404658   -0.042055765017317503   -0.001607458148365244
-0.00425244253566849   -0.04656436389731616   -0.0014858677561611108
-0.005998094125469334   -0.04642862647746613   -0.0015103936611173788
-0.004338614352180131   -0.04205870868259364   -0.00152091823248346
-0.006694634524404658   -0.042055765017317503   -0.001607458148365244
-0.005879617008203871   -0.04645667613513393   -0.0015652033554154781
-0.004264393573689679   -0.04208855130985916   -0.0015137660949909495
-0.006607754909076101   -0.04213026720372388   -0.0016523544838831835
-0.005879617008203871   -0.04645667613513393   -0.0015652033554154781
-0.00425244253566849   -0.04656436389731616   -0.0014858677561611108
-0.004264393573689679   -0.04208855130985916   -0.0015137660949909495
-0.0041587088152457595   -0.046615018172753   -0.001486570819375277
-0.006607754909076101   -0.04213026720372388   -0.0016523544838831835
-0.004190285650610492   -0.04214344118020582   -0.0015133075410306274
-0.0041587088152457595   -0.046615018172753   -0.001486570819375277
-0.004264393573689679   -0.04208855130985916   -0.0015137660949909495
-0.006607754909076101   -0.04213026720372388   -0.0016523544838831835
-0.0041587088152457595   -0.046615018172753   -0.001486570819375277
-0.005772139189867104   -0.046523287230302544   -0.0016266773392957167
-0.005879617008203871   -0.04645667613513393   -0.0015652033554154781
-0.006607754909076101   -0.04213026720372388   -0.0016523544838831835
-0.0041587088152457595   -0.046615018172753   -0.001486570819375277
-0.005879617008203871   -0.04645667613513393   -0.0015652033554154781
-0.004264393573689679   -0.04208855130985916   -0.0015137660949909495
-0.0044105098821624255   -0.04205253869171939   -0.0015348442395318688
-0.004457493198850487   -0.0465634370431393   -0.001508101005099388
-0.0020491299298621033   -0.04204101517343046   -0.00155253593513023
-0.004338614352180131   -0.04205870868259364   -0.00152091823248346
-0.004457493198850487   -0.0465634370431393   -0.001508101005099388
-0.0028853279837473354   -0.04662830085400502   -0.0015619207371705666
-0.0020491299298621033   -0.04204101517343046   -0.00155253593513023
-0.002768975622770183   -0.04660524242298269   -0.001488592018112209
-0.004338614352180131   -0.04205870868259364   -0.00152091823248346
-0.001970383534622031   -0.04203285204359878   -0.0014952551679083483
-0.002768975622770183   -0.04660524242298269   -0.001488592018112209
-0.0020491299298621033   -0.04204101517343046   -0.00155253593513023
-0.004338614352180131   -0.04205870868259364   -0.00152091823248346
-0.002768975622770183   -0.04660524242298269   -0.001488592018112209
-0.004354263519206757   -0.04654752683889475   -0.001493525056268503
-0.004457493198850487   -0.0465634370431393   -0.001508101005099388
-0.004338614352180131   -0.04205870868259364   -0.00152091823248346
-0.002768975622770183   -0.04660524242298269   -0.001488592018112209
-0.004457493198850487   -0.0465634370431393   -0.001508101005099388
-0.0020491299298621033   -0.04204101517343046   -0.00155253593513023
-0.004338614352180131   -0.04205870868259364   -0.00152091823248346
-0.004354263519206757   -0.04654752683889475   -0.001493525056268503
-0.001970383534622031   -0.04203285204359878   -0.0014952551679083483
-0.004264393573689679   -0.04208855130985916   -0.0015137660949909495
-0.004354263519206757   -0.04654752683889475   -0.001493525056268503
-0.002768975622770183   -0.04660524242298269   -0.001488592018112209
-0.001970383534622031   -0.04203285204359878   -0.0014952551679083483
-0.0026580276071628568   -0.04661102231940783   -0.0014213972684462169
-0.004264393573689679   -0.04208855130985916   -0.0015137660949909495
-0.0018939357537326226   -0.042046119285556016   -0.0014451959636749012
-0.0026580276071628568   -0.04661102231940783   -0.0014213972684462169
-0.001970383534622031   -0.04203285204359878   -0.0014952551679083483
-0.004264393573689679   -0.04208855130985916   -0.0015137660949909495
-0.0026580276071628568   -0.04661102231940783   -0.0014213972684462169
-0.00425244253566849   -0.04656436389731616   -0.0014858677561611108
-0.004354263519206757   -0.04654752683889475   -0.001493525056268503
-0.004264393573689679   -0.04208855130985916   -0.0015137660949909495
-0.0026580276071628568   -0.04661102231940783   -0.0014213972684462169
-0.004354263519206757   -0.04654752683889475   -0.001493525056268503
-0.001970383534622031   -0.04203285204359878   -0.0014952551679083483
-0.004264393573689679   -0.04208855130985916   -0.0015137660949909495
-0.00425244253566849   -0.04656436389731616   -0.0014858677561611108
-0.0018939357537326226   -0.042046119285556016   -0.0014451959636749012
-0.004190285650610492   -0.04214344118020582   -0.0015133075410306274
-0.00425244253566849   -0.04656436389731616   -0.0014858677561611108
-0.0026580276071628568   -0.04661102231940783   -0.0014213972684462169
-0.0018939357537326226   -0.042046119285556016   -0.0014451959636749012
-0.0025656860838035775   -0.046651181174220256   -0.0013641269073252458
-0.004190285650610492   -0.04214344118020582   -0.0015133075410306274
-0.0018248461733944912   -0.04208388333453416   -0.0014017363942221209
-0.0025656860838035775   -0.046651181174220256   -0.0013641269073252458
-0.0018939357537326226   -0.042046119285556016   -0.0014451959636749012
-0.004190285650610492   -0.04214344118020582   -0.0015133075410306274
-0.0025656860838035775   -0.046651181174220256   -0.0013641269073252458
-0.0041587088152457595   -0.046615018172753   -0.001486570819375277
-0.00425244253566849   -0.04656436389731616   -0.0014858677561611108
-0.004190285650610492   -0.04214344118020582   -0.0015133075410306274
-0.0025656860838035775   -0.046651181174220256   -0.0013641269073252458
-0.00425244253566849   -0.04656436389731616   -0.0014858677561611108
-0.0018939357537326226   -0.042046119285556016   -0.0014451959636749012
-0.0020491299298621033   -0.04204101517343046   -0.00155253593513023
-0.0028853279837473354   -0.04662830085400502   -0.0015619207371705666
0.00042187926682512553   -0.04195425066986066   -0.0015953680792127535
-0.001970383534622031   -0.04203285204359878   -0.0014952551679083483
-0.0028853279837473354   -0.04662830085400502   -0.0015619207371705666
-0.0012147022551737712   -0.04661023557017279   -0.0016254630424181852
0.00042187926682512553   -0.04195425066986066   -0.0015953680792127535
-0.0010653127709703291   -0.04657405844328342   -0.0014958843333531845
-0.001970383534622031   -0.04203285204359878   -0.0014952551679083483
0.0005177192006826897   -0.04192791445848146   -0.0014948686416576902
-0.0010653127709703291   -0.04657405844328342   -0.0014958843333531845
0.00042187926682512553   -0.04195425066986066   -0.0015953680792127535
-0.001970383534622031   -0.04203285204359878   -0.0014952551679083483
-0.0010653127709703291   -0.04657405844328342   -0.0014958843333531845
-0.002768975622770183   -0.04660524242298269   -0.001488592018112209
-0.0028853279837473354   -0.04662830085400502   -0.0015619207371705666
-0.001970383534622031   -0.04203285204359878   -0.0014952551679083483
-0.0010653127709703291   -0.04657405844328342   -0.0014958843333531845
-0.0028853279837473354   -0.04662830085400502   -0.0015619207371705666
0.00042187926682512553   -0.04195425066986066   -0.0015953680792127535
-0.001970383534622031   -0.04203285204359878   -0.0014952551679083483
-0.002768975622770183   -0.04660524242298269   -0.001488592018112209
0.0005177192006826897   -0.04192791445848146   -0.0014948686416576902
-0.0018939357537326226   -0.042046119285556016   -0.0014451959636749012
-0.002768975622770183   -0.04660524242298269   -0.001488592018112209
-0.0010653127709703291   -0.04657405844328342   -0.0014958843333531845
0.0005177192006826897   -0.04192791445848146   -0.0014948686416576902
-0.0009124170983597509   -0.04656777208132713   -0.0013728566319890865
-0.0018939357537326226   -0.042046119285556016   -0.0014451959636749012
0.0006187931206803875   -0.04192553537102763   -0.0014035174002630156
-0.0009124170983597509   -0.04656777208132713   -0.0013728566319890865
0.0005177192006826897   -0.04192791445848146   -0.0014948686416576902
-0.0018939357537326226   -0.042046119285556016   -0.0014451959636749012
-0.0009124170983597509   -0.04656777208132713   -0.0013728566319890865
-0.0026580276071628568   -0.04661102231940783   -0.0014213972684462169
-0.002768975622770183   -0.04660524242298269   -0.001488592018112209
-0.0018939357537326226   -0.042046119285556016   -0.0014451959636749012
-0.0009124170983597509   -0.04656777208132713   -0.0013728566319890865
-0.002768975622770183   -0.04660524242298269   -0.001488592018112209
0.0005177192006826897   -0.04192791445848146   -0.0014948686416576902
-0.0018939357537326226   -0.042046119285556016   -0.0014451959636749012
-0.0026580276071628568   -0.04661102231940783   -0.0014213972684462169
0.0006187931206803875   -0.04192553537102763   -0.0014035174002630156
-0.0018248461733944912   -0.04208388333453416   -0.0014017363942221209
-0.0026580276071628568   -0.04661102231940783   -0.0014213972684462169
-0.0009124170983597509   -0.04656777208132713   -0.0013728566319890865
0.0006187931206803875   -0.04192553537102763   -0.0014035174002630156
-0.0007992674554712685   -0.04659774628459561   -0.0012610384737499107
-0.0018248461733944912   -0.04208388333453416   -0.0014017363942221209
0.0006927133311660414   -0.04194601262462664   -0.0013184623546976498
-0.0007992674554712685   -0.04659774628459561   -0.0012610384737499107
0.0006187931206803875   -0.04192553537102763   -0.0014035174002630156
-0.0018248461733944912   -0.04208388333453416   -0.0014017363942221209
-0.0007992674554712685   -0.04659774628459561   -0.0012610384737499107
-0.0025656860838035775   -0.046651181174220256   -0.0013641269073252458
-0.0026580276071628568   -0.04661102231940783   -0.0014213972684462169
-0.0018248461733944912   -0.04208388333453416   -0.0014017363942221209
-0.0007992674554712685   -0.04659774628459561   -0.0012610384737499107
-0.0026580276071628568   -0.04661102231940783   -0.0014213972684462169
0.0006187931206803875   -0.04192553537102763   -0.0014035174002630156
0.00042187926682512553   -0.04195425066986066   -0.0015953680792127535
-0.0012147022551737712   -0.04661023557017279   -0.0016254630424181852
0.0030543035432566206   -0.04178404955272598   -0.0016865931196873994
0.0005177192006826897   -0.04192791445848146   -0.0014948686416576902
-0.0012147022551737712   -0.04661023557017279   -0.0016254630424181852
0.0005810109809210192   -0.04644924138695982   -0.0017551750883355616
0.0030543035432566206   -0.04178404955272598   -0.0016865931196873994
0.0009304123842338806   -0.04637067809971604   -0.0015432973388534474
0.0005177192006826897   -0.04192791445848146   -0.0014948686416576902
0.003297619444577236   -0.04173356293233634   -0.0015327486633760726
0.0009304123842338806   -0.04637067809971604   -0.0015432973388534474
0.0030543035432566206   -0.04178404955272598   -0.0016865931196873994
0.0005177192006826897   -0.04192791445848146   -0.0014948686416576902
0.0009304123842338806   -0.04637067809971604   -0.0015432973388534474
-0.0010653127709703291   -0.04657405844328342   -0.0014958843333531845
-0.0012147022551737712   -0.04661023557017279   -0.0016254630424181852
0.0005177192006826897   -0.04192791445848146   -0.0014948686416576902
0.0009304123842338806   -0.04637067809971604   -0.0015432973388534474
-0.0012147022551737712   -0.04661023557017279   -0.0016254630424181852
0.0030543035432566206   -0.04178404955272598   -0.0016865931196873994
0.0005177192006826897   -0.04192791445848146   -0.0014948686416576902
-0.0010653127709703291   -0.04657405844328342   -0.0014958843333531845
0.003297619444577236   -0.04173356293233634   -0.0015327486633760726
0.0006187931206803875   -0.04192553537102763   -0.0014035174002630156
-0.0010653127709703291   -0.04657405844328342   -0.0014958843333531845
0.0009304123842338806   -0.04637067809971604   -0.0015432973388534474
0.003297619444577236   -0.04173356293233634   -0.0015327486633760726
0.0012049295891415127   -0.046354846536943495   -0.0013442541718828665
0.0006187931206803875   -0.04192553537102763   -0.0014035174002630156
0.0034842173936801913   -0.04172481861021363   -0.0013902512071152747
0.0012049295891415127   -0.046354846536943495   -0.0013442541718828665
0.003297619444577236   -0.04173356293233634   -0.0015327486633760726
0.0006187931206803875   -0.04192553537102763   -0.0014035174002630156
0.0012049295891415127   -0.046354846536943495   -0.0013442541718828665
-0.0009124170983597509   -0.04656777208132713   -0.0013728566319890865
-0.0010653127709703291   -0.04657405844328342   -0.0014958843333531845
0.0006187931206803875   -0.04192553537102763   -0.0014035174002630156
0.0012049295891415127   -0.046354846536943495   -0.0013442541718828665
-0.0010653127709703291   -0.04657405844328342   -0.0014958843333531845
0.003297619444577236   -0.04173356293233634   -0.0015327486633760726
0.0006187931206803875   -0.04192553537102763   -0.0014035174002630156
-0.0009124170983597509   -0.04656777208132713   -0.0013728566319890865
0.0034842173936801913   -0.04172481861021363   -0.0013902512071152747
0.0006927133311660414   -0.04194601262462664   -0.0013184623546976498
-0.0009124170983597509   -0.04656777208132713   -0.0013728566319890865
0.0012049295891415127   -0.046354846536943495   -0.0013442541718828665
0.0034842173936801913   -0.04172481861021363   -0.0013902512071152747
0.0014905203849605326   -0.04636855535950903   -0.0011623483345445636
0.0006927133311660414   -0.04194601262462664   -0.0013184623546976498
0.003677785746664883   -0.04173988204096565   -0.001260260586481273
0.0014905203849605326   -0.04636855535950903   -0.0011623483345445636
0.0034842173936801913   -0.04172481861021363   -0.0013902512071152747
0.0006927133311660414   -0.04194601262462664   -0.0013184623546976498
0.0014905203849605326   -0.04636855535950903   -0.0011623483345445636
-0.0007992674554712685   -0.04659774628459561   -0.0012610384737499107
-0.0009124170983597509   -0.04656777208132713   -0.0013728566319890865
0.0006927133311660414   -0.04194601262462664   -0.0013184623546976498
0.0014905203849605326   -0.04636855535950903   -0.0011623483345445636
-0.0009124170983597509   -0.04656777208132713   -0.0013728566319890865
0.0034842173936801913   -0.04172481861021363   -0.0013902512071152747
-0.008105538612340972   -0.04624493275988891   -0.001404713538978116
-0.005955261651296226   -0.04885332298678584   -0.0012365184202168971
-0.006098762359764371   -0.046438487705013694   -0.0014627019546234088
-0.00788805297313825   -0.04623955556654832   -0.0015332814583248495
-0.005955261651296226   -0.04885332298678584   -0.0012365184202168971
-0.0050187124235657405   -0.0490978648843949   -0.0013831220947237485
-0.006098762359764371   -0.046438487705013694   -0.0014627019546234088
-0.004891923924714058   -0.04904979744637678   -0.001433957226255787
-0.00788805297313825   -0.04623955556654832   -0.0015332814583248495
-0.005998094125469334   -0.04642862647746613   -0.0015103936611173788
-0.004891923924714058   -0.04904979744637678   -0.001433957226255787
-0.006098762359764371   -0.046438487705013694   -0.0014627019546234088
-0.00788805297313825   -0.04623955556654832   -0.0015332814583248495
-0.004891923924714058   -0.04904979744637678   -0.001433957226255787
-0.005684541863589276   -0.04879913642348514   -0.0013907027209740584
-0.005955261651296226   -0.04885332298678584   -0.0012365184202168971
-0.00788805297313825   -0.04623955556654832   -0.0015332814583248495
-0.004891923924714058   -0.04904979744637678   -0.001433957226255787
-0.005955261651296226   -0.04885332298678584   -0.0012365184202168971
-0.006098762359764371   -0.046438487705013694   -0.0014627019546234088
-0.00788805297313825   -0.04623955556654832   -0.0015332814583248495
-0.005684541863589276   -0.04879913642348514   -0.0013907027209740584
-0.005998094125469334   -0.04642862647746613   -0.0015103936611173788
-0.007687654879281773   -0.04627418140388927   -0.0016718796406050326
-0.005684541863589276   -0.04879913642348514   -0.0013907027209740584
-0.004891923924714058   -0.04904979744637678   -0.001433957226255787
-0.005998094125469334   -0.04642862647746613   -0.0015103936611173788
-0.004751375046646808   -0.049052509871006775   -0.001485313419968852
-0.007687654879281773   -0.04627418140388927   -0.0016718796406050326
-0.005879617008203871   -0.04645667613513393   -0.0015652033554154781
-0.004751375046646808   -0.049052509871006775   -0.001485313419968852
-0.005998094125469334   -0.04642862647746613   -0.0015103936611173788
-0.007687654879281773   -0.04627418140388927   -0.0016718796406050326
-0.004751375046646808   -0.049052509871006775   -0.001485313419968852
-0.005450995046522558   -0.04880415113248889   -0.0015443229168683665
-0.005684541863589276   -0.04879913642348514   -0.0013907027209740584
-0.007687654879281773   -0.04627418140388927   -0.0016718796406050326
-0.004751375046646808   -0.049052509871006775   -0.001485313419968852
-0.005684541863589276   -0.04879913642348514   -0.0013907027209740584
-0.005998094125469334   -0.04642862647746613   -0.0015103936611173788
-0.007687654879281773   -0.04627418140388927   -0.0016718796406050326
-0.005450995046522558   -0.04880415113248889   -0.0015443229168683665
-0.005879617008203871   -0.04645667613513393   -0.0015652033554154781
-0.007443183399584771   -0.04636639852818671   -0.0018199258739686093
-0.005450995046522558   -0.04880415113248889   -0.0015443229168683665
-0.004751375046646808   -0.049052509871006775   -0.001485313419968852
-0.005879617008203871   -0.04645667613513393   -0.0015652033554154781
-0.004620876789516021   -0.049106253754822214   -0.0015374049096417174
-0.007443183399584771   -0.04636639852818671   -0.0018199258739686093
-0.005772139189867104   -0.046523287230302544   -0.0016266773392957167
-0.004620876789516021   -0.049106253754822214   -0.0015374049096417174
-0.005879617008203871   -0.04645667613513393   -0.0015652033554154781
-0.007443183399584771   -0.04636639852818671   -0.0018199258739686093
-0.004620876789516021   -0.049106253754822214   -0.0015374049096417174
-0.005173880263819631   -0.048871802807570225   -0.0017012425952841637
-0.005450995046522558   -0.04880415113248889   -0.0015443229168683665
-0.007443183399584771   -0.04636639852818671   -0.0018199258739686093
-0.004620876789516021   -0.049106253754822214   -0.0015374049096417174
-0.005450995046522558   -0.04880415113248889   -0.0015443229168683665
-0.005879617008203871   -0.04645667613513393   -0.0015652033554154781
-0.006098762359764371   -0.046438487705013694   -0.0014627019546234088
-0.0050187124235657405   -0.0490978648843949   -0.0013831220947237485
-0.004457493198850487   -0.0465634370431393   -0.001508101005099388
-0.005998094125469334   -0.04642862647746613   -0.0015103936611173788
-0.0050187124235657405   -0.0490978648843949   -0.0013831220947237485
-0.004331501808997484   -0.04934204928979018   -0.0015126042294904929
-0.004457493198850487   -0.0465634370431393   -0.001508101005099388
-0.004197854649530575   -0.04929266456715574   -0.0014773461429999962
-0.005998094125469334   -0.04642862647746613   -0.0015103936611173788
-0.004354263519206757   -0.04654752683889475   -0.001493525056268503
-0.004197854649530575   -0.04929266456715574   -0.0014773461429999962
-0.004457493198850487   -0.0465634370431393   -0.001508101005099388
-0.005998094125469334   -0.04642862647746613   -0.0015103936611173788
-0.004197854649530575   -0.04929266456715574   -0.0014773461429999962
-0.004891923924714058   -0.04904979744637678   -0.001433957226255787
-0.0050187124235657405   -0.0490978648843949   -0.0013831220947237485
-0.005998094125469334   -0.04642862647746613   -0.0015103936611173788
-0.004197854649530575   -0.04929266456715574   -0.0014773461429999962
-0.0050187124235657405   -0.0490978648843949   -0.0013831220947237485
-0.004457493198850487   -0.0465634370431393   -0.001508101005099388
-0.005998094125469334   -0.04642862647746613   -0.0015103936611173788
-0.004891923924714058   -0.04904979744637678   -0.001433957226255787
-0.004354263519206757   -0.04654752683889475   -0.001493525056268503
-0.005879617008203871   -0.04645667613513393   -0.0015652033554154781
-0.004891923924714058   -0.04904979744637678   -0.001433957226255787
-0.004197854649530575   -0.04929266456715574   -0.0014773461429999962
-0.004354263519206757   -0.04654752683889475   -0.001493525056268503
-0.004068580093133358   -0.04929202990438833   -0.0014416583196922444
-0.005879617008203871   -0.04645667613513393   -0.0015652033554154781
-0.00425244253566849   -0.04656436389731616   -0.0014858677561611108
-0.004068580093133358   -0.04929202990438833   -0.0014416583196922444
-0.004354263519206757   -0.04654752683889475   -0.001493525056268503
-0.005879617008203871   -0.04645667613513393   -0.0015652033554154781
-0.004068580093133358   -0.04929202990438833   -0.0014416583196922444
-0.004751375046646808   -0.049052509871006775   -0.001485313419968852
-0.004891923924714058   -0.04904979744637678   -0.001433957226255787
-0.005879617008203871   -0.04645667613513393   -0.0015652033554154781
-0.004068580093133358   -0.04929202990438833   -0.0014416583196922444
-0.004891923924714058   -0.04904979744637678   -0.001433957226255787
-0.004354263519206757   -0.04654752683889475   -0.001493525056268503
-0.005879617008203871   -0.04645667613513393   -0.0015652033554154781
-0.004751375046646808   -0.049052509871006775   -0.001485313419968852
-0.00425244253566849   -0.04656436389731616   -0.0014858677561611108
-0.005772139189867104   -0.046523287230302544   -0.0016266773392957167
-0.004751375046646808   -0.049052509871006775   -0.001485313419968852
-0.004068580093133358   -0.04929202990438833   -0.0014416583196922444
-0.00425244253566849   -0.04656436389731616   -0.0014858677561611108
-0.0039338509961990556   -0.049339143261630795   -0.0014074012393341174
-0.005772139189867104   -0.046523287230302544   -0.0016266773392957167
-0.0041587088152457595   -0.046615018172753   -0.001486570819375277
-0.0039338509961990556   -0.049339143261630795   -0.0014074012393341174
-0.00425244253566849   -0.04656436389731616   -0.0014858677561611108
-0.005772139189867104   -0.046523287230302544   -0.0016266773392957167
-0.0039338509961990556   -0.049339143261630795   -0.0014074012393341174
-0.004620876789516021   -0.049106253754822214   -0.0015374049096417174
-0.004751375046646808   -0.049052509871006775   -0.001485313419968852
-0.005772139189867104   -0.046523287230302544   -0.0016266773392957167
-0.0039338509961990556   -0.049339143261630795   -0.0014074012393341174
-0.004751375046646808   -0.049052509871006775   -0.001485313419968852
-0.00425244253566849   -0.04656436389731616   -0.0014858677561611108
-0.004457493198850487   -0.0465634370431393   -0.001508101005099388
-0.004331501808997484   -0.04934204928979018   -0.0015126042294904929
-0.0028853279837473354   -0.04662830085400502   -0.0015619207371705666
-0.004354263519206757   -0.04654752683889475   -0.001493525056268503
-0.004331501808997484   -0.04934204928979018   -0.0015126042294904929
-0.0037034403601156826   -0.04963540884960178   -0.0016553714111087743
-0.0028853279837473354   -0.04662830085400502   -0.0015619207371705666
-0.0035396834553739092   -0.04959241414679847   -0.0015292174154309455
-0.004354263519206757   -0.04654752683889475   -0.001493525056268503
-0.002768975622770183   -0.04660524242298269   -0.001488592018112209
-0.0035396834553739092   -0.04959241414679847   -0.0015292174154309455
-0.0028853279837473354   -0.04662830085400502   -0.0015619207371705666
-0.004354263519206757   -0.04654752683889475   -0.001493525056268503
-0.0035396834553739092   -0.04959241414679847   -0.0015292174154309455
-0.004197854649530575   -0.04929266456715574   -0.0014773461429999962
-0.004331501808997484   -0.04934204928979018   -0.0015126042294904929
-0.004354263519206757   -0.04654752683889475   -0.001493525056268503
-0.0035396834553739092   -0.04959241414679847   -0.0015292174154309455
-0.004331501808997484   -0.04934204928979018   -0.0015126042294904929
-0.0028853279837473354   -0.04662830085400502   -0.0015619207371705666
-0.004354263519206757   -0.04654752683889475   -0.001493525056268503
-0.004197854649530575   -0.04929266456715574   -0.0014773461429999962
-0.002768975622770183   -0.04660524242298269   -0.001488592018112209
-0.00425244253566849   -0.04656436389731616   -0.0014858677561611108
-0.004197854649530575   -0.04929266456715574   -0.0014773461429999962
-0.0035396834553739092   -0.04959241414679847   -0.0015292174154309455
-0.002768975622770183   -0.04660524242298269   -0.001488592018112209
-0.0033878589272334993   -0.04959025931458746   -0.0014034363925783657
-0.00425244253566849   -0.04656436389731616   -0.0014858677561611108
-0.0026580276071628568   -0.04661102231940783   -0.0014213972684462169
-0.0033878589272334993   -0.04959025931458746   -0.0014034363925783657
-0.002768975622770183   -0.04660524242298269   -0.001488592018112209
-0.00425244253566849   -0.04656436389731616   -0.0014858677561611108
-0.0033878589272334993   -0.04959025931458746   -0.0014034363925783657
-0.004068580093133358   -0.04929202990438833   -0.0014416583196922444
-0.004197854649530575   -0.04929266456715574   -0.0014773461429999962
-0.00425244253566849   -0.04656436389731616   -0.0014858677561611108
-0.0033878589272334993   -0.04959025931458746   -0.0014034363925783657
-0.004197854649530575   -0.04929266456715574   -0.0014773461429999962
-0.002768975622770183   -0.04660524242298269   -0.001488592018112209
-0.00425244253566849   -0.04656436389731616   -0.0014858677561611108
-0.004068580093133358   -0.04929202990438833   -0.0014416583196922444
-0.0026580276071628568   -0.04661102231940783   -0.0014213972684462169
-0.0041587088152457595   -0.046615018172753   -0.001486570819375277
-0.004068580093133358   -0.04929202990438833   -0.0014416583196922444
-0.0033878589272334993   -0.04959025931458746   -0.0014034363925783657
-0.0026580276071628568   -0.04661102231940783   -0.0014213972684462169
-0.0032249735404883836   -0.049626777090039736   -0.0012774656658775857
-0.0041587088152457595   -0.046615018172753   -0.001486570819375277
-0.0025656860838035775   -0.046651181174220256   -0.0013641269073252458
-0.0032249735404883836   -0.049626777090039736   -0.0012774656658775857
-0.0026580276071628568   -0.04661102231940783   -0.0014213972684462169
-0.0041587088152457595   -0.046615018172753   -0.001486570819375277
-0.0032249735404883836   -0.049626777090039736   -0.0012774656658775857
-0.0039338509961990556   -0.049339143261630795   -0.0014074012393341174
-0.004068580093133358   -0.04929202990438833   -0.0014416583196922444
-0.0041587088152457595   -0.046615018172753   -0.001486570819375277
-0.0032249735404883836   -0.049626777090039736   -0.0012774656658775857
-0.004068580093133358   -0.04929202990438833   -0.0014416583196922444
-0.0026580276071628568   -0.04661102231940783   -0.0014213972684462169
-0.0028853279837473354   -0.04662830085400502   -0.0015619207371705666
-0.0037034403601156826   -0.04963540884960178   -0.0016553714111087743
-0.0012147022551737712   -0.04661023557017279   -0.0016254630424181852
-0.002768975622770183   -0.04660524242298269   -0.001488592018112209
-0.0037034403601156826   -0.04963540884960178   -0.0016553714111087743
-0.003085314417061698   -0.05   -0.001765739123769892
-0.0012147022551737712   -0.04661023557017279   -0.0016254630424181852
-0.0028791557457025253   -0.05   -0.0015735908780953316
-0.002768975622770183   -0.04660524242298269   -0.001488592018112209
-0.0010653127709703291   -0.04657405844328342   -0.0014958843333531845
-0.0028791557457025253   -0.05   -0.0015735908780953316
-0.0012147022551737712   -0.04661023557017279   -0.0016254630424181852
-0.002768975622770183   -0.04660524242298269   -0.001488592018112209
-0.0028791557457025253   -0.05   -0.0015735908780953316
-0.0035396834553739092   -0.04959241414679847   -0.0015292174154309455
-0.0037034403601156826   -0.04963540884960178   -0.0016553714111087743
-0.002768975622770183   -0.04660524242298269   -0.001488592018112209
-0.0028791557457025253   -0.05   -0.0015735908780953316
-0.0037034403601156826   -0.04963540884960178   -0.0016553714111087743
-0.0012147022551737712   -0.04661023557017279   -0.0016254630424181852
-0.002768975622770183   -0.04660524242298269   -0.001488592018112209
-0.0035396834553739092   -0.04959241414679847   -0.0015292174154309455
-0.0010653127709703291   -0.04657405844328342   -0.0014958843333531845
-0.0026580276071628568   -0.04661102231940783   -0.0014213972684462169
-0.0035396834553739092   -0.04959241414679847   -0.0015292174154309455
-0.0028791557457025253   -0.05   -0.0015735908780953316
-0.0010653127709703291   -0.04657405844328342   -0.0014958843333531845
-0.0026718590343374252   -0.05   -0.0013791692860925212
-0.0026580276071628568   -0.04661102231940783   -0.0014213972684462169
-0.0009124170983597509   -0.04656777208132713   -0.0013728566319890865
-0.0026718590343374252   -0.05   -0.0013791692860925212
-0.0010653127709703291   -0.04657405844328342   -0.0014958843333531845
-0.0026580276071628568   -0.04661102231940783   -0.0014213972684462169
-0.0026718590343374252   -0.05   -0.0013791692860925212
-0.0033878589272334993   -0.04959025931458746   -0.0014034363925783657
-0.0035396834553739092   -0.04959241414679847   -0.0015292174154309455
-0.0026580276071628568   -0.04661102231940783   -0.0014213972684462169
-0.0026718590343374252   -0.05   -0.0013791692860925212
-0.0035396834553739092   -0.04959241414679847   -0.0015292174154309455
-0.0010653127709703291   -0.04657405844328342   -0.0014958843333531845
-0.0026580276071628568   -0.04661102231940783   -0.0014213972684462169
-0.0033878589272334993   -0.04959025931458746   -0.0014034363925783657
-0.0009124170983597509   -0.04656777208132713   -0.0013728566319890865
-0.0025656860838035775   -0.046651181174220256   -0.0013641269073252458
-0.0033878589272334993   -0.04959025931458746   -0.0014034363925783657
-0.0026718590343374252   -0.05   -0.0013791692860925212
-0.0009124170983597509   -0.04656777208132713   -0.0013728566319890865
-0.0024694199449321838   -0.05   -0.0011873316343734837
-0.0025656860838035775   -0.046651181174220256   -0.0013641269073252458
-0.0007992674554712685   -0.04659774628459561   -0.0012610384737499107
-0.0024694199449321838   -0.05   -0.0011873316343734837
-0.0009124170983597509   -0.04656777208132713   -0.0013728566319890865
-0.0025656860838035775   -0.046651181174220256   -0.0013641269073252458
-0.0024694199449321838   -0.05   -0.0011873316343734837
-0.0032249735404883836   -0.049626777090039736   -0.0012774656658775857
-0.0033878589272334993   -0.04959025931458746   -0.0014034363925783657
-0.0025656860838035775   -0.046651181174220256   -0.0013641269073252458
-0.0024694199449321838   -0.05   -0.0011873316343734837
-0.0033878589272334993   -0.04959025931458746   -0.0014034363925783657
-0.0009124170983597509   -0.04656777208132713   -0.0013728566319890865
-0.0012147022551737712   -0.04661023557017279   -0.0016254630424181852
-0.003085314417061698   -0.05   -0.001765739123769892
0.0005810109809210192   -0.04644924138695982   -0.0017551750883355616
-0.0010653127709703291   -0.04657405844328342   -0.0014958843333531845
-0.003085314417061698   -0.05   -0.001765739123769892
-0.002635208736077337   -0.05   -0.001899400387154673
0.0005810109809210192   -0.04644924138695982   -0.0017551750883355616
-0.002202888881479263   -0.05   -0.001621134902994206
-0.0010653127709703291   -0.04657405844328342   -0.0014958843333531845
0.0009304123842338806   -0.04637067809971604   -0.0015432973388534474
-0.002202888881479263   -0.05   -0.001621134902994206
0.0005810109809210192   -0.04644924138695982   -0.0017551750883355616
-0.0010653127709703291   -0.04657405844328342   -0.0014958843333531845
-0.002202888881479263   -0.05   -0.001621134902994206
-0.0028791557457025253   -0.05   -0.0015735908780953316
-0.003085314417061698   -0.05   -0.001765739123769892
-0.0010653127709703291   -0.04657405844328342   -0.0014958843333531845
-0.002202888881479263   -0.05   -0.001621134902994206
-0.003085314417061698   -0.05   -0.001765739123769892
0.0005810109809210192   -0.04644924138695982   -0.0017551750883355616
-0.0010653127709703291   -0.04657405844328342   -0.0014958843333531845
-0.0028791557457025253   -0.05   -0.0015735908780953316
0.0009304123842338806   -0.04637067809971604   -0.0015432973388534474
-0.0009124170983597509   -0.04656777208132713   -0.0013728566319890865
-0.0028791557457025253   -0.05   -0.0015735908780953316
-0.002202888881479263   -0.05   -0.001621134902994206
0.0009304123842338806   -0.04637067809971604   -0.0015432973388534474
-0.001858133057024702   -0.05   -0.001354955307484299
-0.0009124170983597509   -0.04656777208132713   -0.0013728566319890865
0.0012049295891415127   -0.046354846536943495   -0.0013442541718828665
-0.001858133057024702   -0.05   -0.001354955307484299
0.0009304123842338806   -0.04637067809971604   -0.0015432973388534474
-0.0009124170983597509   -0.04656777208132713   -0.0013728566319890865
-0.001858133057024702   -0.05   -0.001354955307484299
-0.0026718590343374252   -0.05   -0.0013791692860925212
-0.0028791557457025253   -0.05   -0.0015735908780953316
-0.0009124170983597509   -0.04656777208132713   -0.0013728566319890865
-0.001858133057024702   -0.05   -0.001354955307484299
-0.0028791557457025253   -0.05   -0.0015735908780953316
0.0009304123842338806   -0.04637067809971604   -0.0015432973388534474
-0.0009124170983597509   -0.04656777208132713   -0.0013728566319890865
-0.0026718590343374252   -0.05   -0.0013791692860925212
0.0012049295891415127   -0.046354846536943495   -0.0013442541718828665
-0.0007992674554712685   -0.04659774628459561   -0.0012610384737499107
-0.0026718590343374252   -0.05   -0.0013791692860925212
-0.001858133057024702   -0.05   -0.001354955307484299
0.0012049295891415127   -0.046354846536943495   -0.0013442541718828665
-0.0014323062221937599   -0.05   -0.0010786170416690732
-0.0007992674554712685   -0.04659774628459561   -0.0012610384737499107
0.0014905203849605326   -0.04636855535950903   -0.0011623483345445636
-0.0014323062221937599   -0.05   -0.0010786170416690732
0.0012049295891415127   -0.046354846536943495   -0.0013442541718828665
-0.0007992674554712685   -0.04659774628459561   -0.0012610384737499107
-0.0014323062221937599   -0.05   -0.0010786170416690732
-0.0024694199449321838   -0.05   -0.0011873316343734837
-0.0026718590343374252   -0.05   -0.0013791692860925212
-0.0007992674554712685   -0.04659774628459561   -0.0012610384737499107
-0.0014323062221937599   -0.05   -0.0010786170416690732
-0.0026718590343374252   -0.05   -0.0013791692860925212
0.0012049295891415127   -0.046354846536943495   -0.0013442541718828665
-0.005955261651296226   -0.04885332298678584   -0.0012365184202168971
-0.0035763942395567153   -0.04899592163578821   -0.0010585903116705664
-0.0050187124235657405   -0.0490978648843949   -0.0013831220947237485
-0.005684541863589276   -0.04879913642348514   -0.0013907027209740584
-0.0035763942395567153   -0.04899592163578821   -0.0010585903116705664
-0.0037855492293392625   -0.04918485960666815   -0.001247388745200124
-0.0050187124235657405   -0.0490978648843949   -0.0013831220947237485
-0.003689564925684078   -0.04911916099546926   -0.0013165780318469798
-0.005684541863589276   -0.04879913642348514   -0.0013907027209740584
-0.004891923924714058   -0.04904979744637678   -0.001433957226255787
-0.003689564925684078   -0.04911916099546926   -0.0013165780318469798
-0.0050187124235657405   -0.0490978648843949   -0.0013831220947237485
-0.005684541863589276   -0.04879913642348514   -0.0013907027209740584
-0.003689564925684078   -0.04911916099546926   -0.0013165780318469798
-0.003330813524331633   -0.04891152396058734   -0.0012206226113831414
-0.0035763942395567153   -0.04899592163578821   -0.0010585903116705664
-0.005684541863589276   -0.04879913642348514   -0.0013907027209740584
-0.003689564925684078   -0.04911916099546926   -0.0013165780318469798
-0.0035763942395567153   -0.04899592163578821   -0.0010585903116705664
-0.0050187124235657405   -0.0490978648843949   -0.0013831220947237485
-0.005684541863589276   -0.04879913642348514   -0.0013907027209740584
-0.003330813524331633   -0.04891152396058734   -0.0012206226113831414
-0.004891923924714058   -0.04904979744637678   -0.001433957226255787
-0.005450995046522558   -0.04880415113248889   -0.0015443229168683665
-0.003330813524331633   -0.04891152396058734   -0.0012206226113831414
-0.003689564925684078   -0.04911916099546926   -0.0013165780318469798
-0.004891923924714058   -0.04904979744637678   -0.001433957226255787
-0.0035769028672850297   -0.04909524861303636   -0.0013804658833178188
-0.005450995046522558   -0.04880415113248889   -0.0015443229168683665
-0.004751375046646808   -0.049052509871006775   -0.001485313419968852
-0.0035769028672850297   -0.04909524861303636   -0.0013804658833178188
-0.004891923924714058   -0.04904979744637678   -0.001433957226255787
-0.005450995046522558   -0.04880415113248889   -0.0015443229168683665
-0.0035769028672850297   -0.04909524861303636   -0.0013804658833178188
-0.0031264199512129522   -0.04888592911005684   -0.0013760791768592723
-0.003330813524331633   -0.04891152396058734   -0.0012206226113831414
-0.005450995046522558   -0.04880415113248889   -0.0015443229168683665
-0.0035769028672850297   -0.04909524861303636   -0.0013804658833178188
-0.003330813524331633   -0.04891152396058734   -0.0012206226113831414
-0.004891923924714058   -0.04904979744637678   -0.001433957226255787
-0.005450995046522558   -0.04880415113248889   -0.0015443229168683665
-0.0031264199512129522   -0.04888592911005684   -0.0013760791768592723
-0.004751375046646808   -0.049052509871006775   -0.001485313419968852
-0.005173880263819631   -0.048871802807570225   -0.0017012425952841637
-0.0031264199512129522   -0.04888592911005684   -0.0013760791768592723
-0.0035769028672850297   -0.04909524861303636   -0.0013804658833178188
-0.004751375046646808   -0.049052509871006775   -0.001485313419968852
-0.003480438408948555   -0.049113483567526886   -0.0014387237804847498
-0.005173880263819631   -0.048871802807570225   -0.0017012425952841637
-0.004620876789516021   -0.049106253754822214   -0.0015374049096417174
-0.003480438408948555   -0.049113483567526886   -0.0014387237804847498
-0.004751375046646808   -0.049052509871006775   -0.001485313419968852
-0.005173880263819631   -0.048871802807570225   -0.0017012425952841637
-0.003480438408948555   -0.049113483567526886   -0.0014387237804847498
-0.002894990428739187   -0.0489086614672894   -0.0015242808622786606
-0.0031264199512129522   -0.04888592911005684   -0.0013760791768592723
-0.005173880263819631   -0.048871802807570225   -0.0017012425952841637
-0.003480438408948555   -0.049113483567526886   -0.0014387237804847498
-0.0031264199512129522   -0.04888592911005684   -0.0013760791768592723
-0.004751375046646808   -0.049052509871006775   -0.001485313419968852
-0.0050187124235657405   -0.0490978648843949   -0.0013831220947237485
-0.0037855492293392625   -0.04918485960666815   -0.001247388745200124
-0.004331501808997484   -0.04934204928979018   -0.0015126042294904929
-0.004891923924714058   -0.04904979744637678   -0.001433957226255787
-0.0037855492293392625   -0.04918485960666815   -0.001247388745200124
-0.004071873632121738   -0.04930111162508016   -0.0013982587806164195
-0.004331501808997484   -0.04934204928979018   -0.0015126042294904929
-0.003986973412909624   -0.04924242263075663   -0.0013999919475211594
-0.004891923924714058   -0.04904979744637678   -0.001433957226255787
-0.004197854649530575   -0.04929266456715574   -0.0014773461429999962
-0.003986973412909624   -0.04924242263075663   -0.0013999919475211594
-0.004331501808997484   -0.04934204928979018   -0.0015126042294904929
-0.004891923924714058   -0.04904979744637678   -0.001433957226255787
-0.003986973412909624   -0.04924242263075663   -0.0013999919475211594
-0.003689564925684078   -0.04911916099546926   -0.0013165780318469798
-0.0037855492293392625   -0.04918485960666815   -0.001247388745200124
-0.004891923924714058   -0.04904979744637678   -0.001433957226255787
-0.003986973412909624   -0.04924242263075663   -0.0013999919475211594
-0.0037855492293392625   -0.04918485960666815   -0.001247388745200124
-0.004331501808997484   -0.04934204928979018   -0.0015126042294904929
-0.004891923924714058   -0.04904979744637678   -0.001433957226255787
-0.003689564925684078   -0.04911916099546926   -0.0013165780318469798
-0.004197854649530575   -0.04929266456715574   -0.0014773461429999962
-0.004751375046646808   -0.049052509871006775   -0.001485313419968852
-0.003689564925684078   -0.04911916099546926   -0.0013165780318469798
-0.003986973412909624   -0.04924242263075663   -0.0013999919475211594
-0.004197854649530575   -0.04929266456715574   -0.0014773461429999962
-0.003892494408383408   -0.049221575994380366   -0.0013948526575387466
-0.004751375046646808   -0.049052509871006775   -0.001485313419968852
-0.004068580093133358   -0.04929202990438833   -0.0014416583196922444
-0.003892494408383408   -0.049221575994380366   -0.0013948526575387466
-0.004197854649530575   -0.04929266456715574   -0.0014773461429999962
-0.004751375046646808   -0.049052509871006775   -0.001485313419968852
-0.003892494408383408   -0.049221575994380366   -0.0013948526575387466
-0.0035769028672850297   -0.04909524861303636   -0.0013804658833178188
-0.003689564925684078   -0.04911916099546926   -0.0013165780318469798
-0.004751375046646808   -0.049052509871006775   -0.001485313419968852
-0.003892494408383408   -0.049221575994380366   -0.0013948526575387466
-0.003689564925684078   -0.04911916099546926   -0.0013165780318469798
-0.004197854649530575   -0.04929266456715574   -0.0014773461429999962
-0.004751375046646808   -0.049052509871006775   -0.001485313419968852
-0.0035769028672850297   -0.04909524861303636   -0.0013804658833178188
-0.004068580093133358   -0.04929202990438833   -0.0014416583196922444
-0.004620876789516021   -0.049106253754822214   -0.0015374049096417174
-0.0035769028672850297   -0.04909524861303636   -0.0013804658833178188
-0.003892494408383408   -0.049221575994380366   -0.0013948526575387466
-0.004068580093133358   -0.04929202990438833   -0.0014416583196922444
-0.003796458176193652   -0.04923687129196229   -0.001384319350067428
-0.004620876789516021   -0.049106253754822214   -0.0015374049096417174
-0.0039338509961990556   -0.049339143261630795   -0.0014074012393341174
-0.003796458176193652   -0.04923687129196229   -0.001384319350067428
-0.004068580093133358   -0.04929202990438833   -0.0014416583196922444
-0.004620876789516021   -0.049106253754822214   -0.0015374049096417174
-0.003796458176193652   -0.04923687129196229   -0.001384319350067428
-0.003480438408948555   -0.049113483567526886   -0.0014387237804847498
-0.0035769028672850297   -0.04909524861303636   -0.0013804658833178188
-0.004620876789516021   -0.049106253754822214   -0.0015374049096417174
-0.003796458176193652   -0.04923687129196229   -0.001384319350067428
-0.0035769028672850297   -0.04909524861303636   -0.0013804658833178188
-0.004068580093133358   -0.04929202990438833   -0.0014416583196922444
-0.004331501808997484   -0.04934204928979018   -0.0015126042294904929
-0.004071873632121738   -0.04930111162508016   -0.0013982587806164195
-0.0037034403601156826   -0.04963540884960178   -0.0016553714111087743
-0.004197854649530575   -0.04929266456715574   -0.0014773461429999962
-0.004071873632121738   -0.04930111162508016   -0.0013982587806164195
-0.004379233227917097   -0.049349111951438714   -0.0015468392308827866
-0.0037034403601156826   -0.04963540884960178   -0.0016553714111087743
-0.004291282654611174   -0.049293080273640884   -0.0014837014610712069
-0.004197854649530575   -0.04929266456715574   -0.0014773461429999962
-0.0035396834553739092   -0.04959241414679847   -0.0015292174154309455
-0.004291282654611174   -0.049293080273640884   -0.0014837014610712069
-0.0037034403601156826   -0.04963540884960178   -0.0016553714111087743
-0.004197854649530575   -0.04929266456715574   -0.0014773461429999962
-0.004291282654611174   -0.049293080273640884   -0.0014837014610712069
-0.003986973412909624   -0.04924242263075663   -0.0013999919475211594
-0.004071873632121738   -0.04930111162508016   -0.0013982587806164195
-0.004197854649530575   -0.04929266456715574   -0.0014773461429999962
-0.004291282654611174   -0.049293080273640884   -0.0014837014610712069
-0.004071873632121738   -0.04930111162508016   -0.0013982587806164195
-0.0037034403601156826   -0.04963540884960178   -0.0016553714111087743
-0.004197854649530575   -0.04929266456715574   -0.0014773461429999962
-0.003986973412909624   -0.04924242263075663   -0.0013999919475211594
-0.0035396834553739092   -0.04959241414679847   -0.0015292174154309455
-0.004068580093133358   -0.04929202990438833   -0.0014416583196922444
-0.003986973412909624   -0.04924242263075663   -0.0013999919475211594
-0.004291282654611174   -0.049293080273640884   -0.0014837014610712069
-0.0035396834553739092   -0.04959241414679847   -0.0015292174154309455
-0.004185847278677848   -0.04927550217749917   -0.001412191714719938
-0.004068580093133358   -0.04929202990438833   -0.0014416583196922444
-0.0033878589272334993   -0.04959025931458746   -0.0014034363925783657
-0.004185847278677848   -0.04927550217749917   -0.001412191714719938
-0.0035396834553739092   -0.04959241414679847   -0.0015292174154309455
-0.004068580093133358   -0.04929202990438833   -0.0014416583196922444
-0.004185847278677848   -0.04927550217749917   -0.001412191714719938
-0.003892494408383408   -0.049221575994380366   -0.0013948526575387466
-0.003986973412909624   -0.04924242263075663   -0.0013999919475211594
-0.004068580093133358   -0.04929202990438833   -0.0014416583196922444
-0.004185847278677848   -0.04927550217749917   -0.001412191714719938
-0.003986973412909624   -0.04924242263075663   -0.0013999919475211594
-0.0035396834553739092   -0.04959241414679847   -0.0015292174154309455
-0.004068580093133358   -0.04929202990438833   -0.0014416583196922444
-0.003892494408383408   -0.049221575994380366   -0.0013948526575387466
-0.0033878589272334993   -0.04959025931458746   -0.0014034363925783657
-0.0039338509961990556   -0.049339143261630795   -0.0014074012393341174
-0.003892494408383408   -0.049221575994380366   -0.0013948526575387466
-0.004185847278677848   -0.04927550217749917   -0.001412191714719938
-0.0033878589272334993   -0.04959025931458746   -0.0014034363925783657
-0.004077455651842876   -0.049290406094786965   -0.0013360604446104388
-0.0039338509961990556   -0.049339143261630795   -0.0014074012393341174
-0.0032249735404883836   -0.049626777090039736   -0.0012774656658775857
-0.004077455651842876   -0.049290406094786965   -0.0013360604446104388
-0.0033878589272334993   -0.04959025931458746   -0.0014034363925783657
-0.0039338509961990556   -0.049339143261630795   -0.0014074012393341174
-0.004077455651842876   -0.049290406094786965   -0.0013360604446104388
-0.003796458176193652   -0.04923687129196229   -0.001384319350067428
-0.003892494408383408   -0.049221575994380366   -0.0013948526575387466
-0.0039338509961990556   -0.049339143261630795   -0.0014074012393341174
-0.004077455651842876   -0.049290406094786965   -0.0013360604446104388
-0.003892494408383408   -0.049221575994380366   -0.0013948526575387466
-0.0033878589272334993   -0.04959025931458746   -0.0014034363925783657
-0.0037034403601156826   -0.04963540884960178   -0.0016553714111087743
-0.004379233227917097   -0.049349111951438714   -0.0015468392308827866
-0.003085314417061698   -0.05   -0.001765739123769892
-0.0035396834553739092   -0.04959241414679847   -0.0015292174154309455
-0.004379233227917097   -0.049349111951438714   -0.0015468392308827866
-0.0048246454987135885   -0.04929496793779346   -0.0016882387006694362
-0.003085314417061698   -0.05   -0.001765739123769892
-0.004709790429314207   -0.04924193946880314   -0.0015632847336498293
-0.0035396834553739092   -0.04959241414679847   -0.0015292174154309455
-0.0028791557457025253   -0.05   -0.0015735908780953316
-0.004709790429314207   -0.04924193946880314   -0.0015632847336498293
-0.003085314417061698   -0.05   -0.001765739123769892
-0.0035396834553739092   -0.04959241414679847   -0.0015292174154309455
-0.004709790429314207   -0.04924193946880314   -0.0015632847336498293
-0.004291282654611174   -0.049293080273640884   -0.0014837014610712069
-0.004379233227917097   -0.049349111951438714   -0.0015468392308827866
-0.0035396834553739092   -0.04959241414679847   -0.0015292174154309455
-0.004709790429314207   -0.04924193946880314   -0.0015632847336498293
-0.004379233227917097   -0.049349111951438714   -0.0015468392308827866
-0.003085314417061698   -0.05   -0.001765739123769892
-0.0035396834553739092   -0.04959241414679847   -0.0015292174154309455
-0.004291282654611174   -0.049293080273640884   -0.0014837014610712069
-0.0028791557457025253   -0.05   -0.0015735908780953316
-0.0033878589272334993   -0.04959025931458746   -0.0014034363925783657
-0.004291282654611174   -0.049293080273640884   -0.0014837014610712069
-0.004709790429314207   -0.04924193946880314   -0.0015632847336498293
-0.0028791557457025253   -0.05   -0.0015735908780953316
-0.004558102813717897   -0.04923005655041349   -0.0014289865297735837
-0.0033878589272334993   -0.04959025931458746   -0.0014034363925783657
-0.0026718590343374252   -0.05   -0.0013791692860925212
-0.004558102813717897   -0.04923005655041349   -0.0014289865297735837
-0.0028791557457025253   -0.05   -0.0015735908780953316
-0.0033878589272334993   -0.04959025931458746   -0.0014034363925783657
-0.004558102813717897   -0.04923005655041349   -0.0014289865297735837
-0.004185847278677848   -0.04927550217749917   -0.001412191714719938
-0.004291282654611174   -0.049293080273640884   -0.0014837014610712069
-0.0033878589272334993   -0.04959025931458746   -0.0014034363925783657
-0.004558102813717897   -0.04923005655041349   -0.0014289865297735837
-0.004291282654611174   -0.049293080273640884   -0.0014837014610712069
-0.0028791557457025253   -0.05   -0.0015735908780953316
-0.0033878589272334993   -0.04959025931458746   -0.0014034363925783657
-0.004185847278677848   -0.04927550217749917   -0.001412191714719938
-0.0026718590343374252   -0.05   -0.0013791692860925212
-0.0032249735404883836   -0.049626777090039736   -0.0012774656658775857
-0.004185847278677848   -0.04927550217749917   -0.001412191714719938
-0.004558102813717897   -0.04923005655041349   -0.0014289865297735837
-0.0026718590343374252   -0.05   -0.0013791692860925212
-0.004415627852192635   -0.04925142934880185   -0.0012895506791789605
-0.0032249735404883836   -0.049626777090039736   -0.0012774656658775857
-0.0024694199449321838   -0.05   -0.0011873316343734837
-0.004415627852192635   -0.04925142934880185   -0.0012895506791789605
-0.0026718590343374252   -0.05   -0.0013791692860925212
-0.0032249735404883836   -0.049626777090039736   -0.0012774656658775857
-0.004415627852192635   -0.04925142934880185   -0.0012895506791789605
-0.004077455651842876   -0.049290406094786965   -0.0013360604446104388
-0.004185847278677848   -0.04927550217749917   -0.001412191714719938
-0.0032249735404883836   -0.049626777090039736   -0.0012774656658775857
-0.004415627852192635   -0.04925142934880185   -0.0012895506791789605
-0.004185847278677848   -0.04927550217749917   -0.001412191714719938
-0.0026718590343374252   -0.05   -0.0013791692860925212
-0.003085314417061698   -0.05   -0.001765739123769892
-0.0048246454987135885   -0.04929496793779346   -0.0016882387006694362
-0.002635208736077337   -0.05   -0.001899400387154673
-0.0028791557457025253   -0.05   -0.0015735908780953316
-0.0048246454987135885   -0.04929496793779346   -0.0016882387006694362
-0.005693624888111518   -0.049054016443739856   -0.0018386158188006929
-0.002635208736077337   -0.05   -0.001899400387154673
-0.005386829520587069   -0.04900910033884648   -0.0016336425111139364
-0.0028791557457025253   -0.05   -0.0015735908780953316
-0.002202888881479263   -0.05   -0.001621134902994206
-0.005386829520587069   -0.04900910033884648   -0.0016336425111139364
-0.002635208736077337   -0.05   -0.001899400387154673
-0.0028791557457025253   -0.05   -0.0015735908780953316
-0.005386829520587069   -0.04900910033884648   -0.0016336425111139364
-0.004709790429314207   -0.04924193946880314   -0.0015632847336498293
-0.0048246454987135885   -0.04929496793779346   -0.0016882387006694362
-0.0028791557457025253   -0.05   -0.0015735908780953316
-0.005386829520587069   -0.04900910033884648   -0.0016336425111139364
-0.0048246454987135885   -0.04929496793779346   -0.0016882387006694362
-0.002635208736077337   -0.05   -0.001899400387154673
-0.0028791557457025253   -0.05   -0.0015735908780953316
-0.004709790429314207   -0.04924193946880314   -0.0015632847336498293
-0.002202888881479263   -0.05   -0.001621134902994206
-0.0026718590343374252   -0.05   -0.0013791692860925212
-0.004709790429314207   -0.04924193946880314   -0.0015632847336498293
-0.005386829520587069   -0.04900910033884648   -0.0016336425111139364
-0.002202888881479263   -0.05   -0.001621134902994206
-0.005105243567791062   -0.04900308369765117   -0.0014149931032341574
-0.0026718590343374252   -0.05   -0.0013791692860925212
-0.001858133057024702   -0.05   -0.001354955307484299
-0.005105243567791062   -0.04900308369765117   -0.0014149931032341574
-0.002202888881479263   -0.05   -0.001621134902994206
-0.0026718590343374252   -0.05   -0.0013791692860925212
-0.005105243567791062   -0.04900308369765117   -0.0014149931032341574
-0.004558102813717897   -0.04923005655041349   -0.0014289865297735837
-0.004709790429314207   -0.04924193946880314   -0.0015632847336498293
-0.0026718590343374252   -0.05   -0.0013791692860925212
-0.005105243567791062   -0.04900308369765117   -0.0014149931032341574
-0.004709790429314207   -0.04924193946880314   -0.0015632847336498293
-0.002202888881479263   -0.05   -0.001621134902994206
-0.0026718590343374252   -0.05   -0.0013791692860925212
-0.004558102813717897   -0.04923005655041349   -0.0014289865297735837
-0.001858133057024702   -0.05   -0.001354955307484299
-0.0024694199449321838   -0.05   -0.0011873316343734837
-0.004558102813717897   -0.04923005655041349   -0.0014289865297735837
-0.005105243567791062   -0.04900308369765117   -0.0014149931032341574
-0.001858133057024702   -0.05   -0.001354955307484299
-0.004749575433682821   -0.04906197136966395   -0.0011864362739171
-0.0024694199449321838   -0.05   -0.0011873316343734837
-0.0014323062221937599   -0.05   -0.0010786170416690732
-0.004749575433682821   -0.04906197136966395   -0.0011864362739171
-0.001858133057024702   -0.05   -0.001354955307484299
-0.0024694199449321838   -0.05   -0.0011873316343734837
-0.004749575433682821   -0.04906197136966395   -0.0011864362739171
-0.004415627852192635   -0.04925142934880185   -0.0012895506791789605
-0.004558102813717897   -0.04923005655041349   -0.0014289865297735837
-0.0024694199449321838   -0.05   -0.0011873316343734837
-0.004749575433682821   -0.04906197136966395   -0.0011864362739171
-0.004558102813717897   -0.04923005655041349   -0.0014289865297735837
-0.001858133057024702   -0.05   -0.001354955307484299
-0.0035763942395567153   -0.04899592163578821   -0.0010585903116705664
-0.001480426902164828   -0.04716246216455217   -0.0009140728521891396
-0.0037855492293392625   -0.04918485960666815   -0.001247388745200124
-0.003330813524331633   -0.04891152396058734   -0.0012206226113831414
-0.001480426902164828   -0.04716246216455217   -0.0009140728521891396
-0.0027262512718912286   -0.04730536947124792   -0.0011147092440791477
-0.0037855492293392625   -0.04918485960666815   -0.001247388745200124
-0.0026580099920973533   -0.04722584613603996   -0.0011764863680743278
-0.003330813524331633   -0.04891152396058734   -0.0012206226113831414
-0.003689564925684078   -0.04911916099546926   -0.0013165780318469798
-0.0026580099920973533   -0.04722584613603996   -0.0011764863680743278
-0.0037855492293392625   -0.04918485960666815   -0.001247388745200124
-0.003330813524331633   -0.04891152396058734   -0.0012206226113831414
-0.0026580099920973533   -0.04722584613603996   -0.0011764863680743278
-0.0012842848364112431   -0.04706398690798925   -0.0010543566880770424
-0.001480426902164828   -0.04716246216455217   -0.0009140728521891396
-0.003330813524331633   -0.04891152396058734   -0.0012206226113831414
-0.0026580099920973533   -0.04722584613603996   -0.0011764863680743278
-0.001480426902164828   -0.04716246216455217   -0.0009140728521891396
-0.0037855492293392625   -0.04918485960666815   -0.001247388745200124
-0.003330813524331633   -0.04891152396058734   -0.0012206226113831414
-0.0012842848364112431   -0.04706398690798925   -0.0010543566880770424
-0.003689564925684078   -0.04911916099546926   -0.0013165780318469798
-0.0031264199512129522   -0.04888592911005684   -0.0013760791768592723
-0.0012842848364112431   -0.04706398690798925   -0.0010543566880770424
-0.0026580099920973533   -0.04722584613603996   -0.0011764863680743278
-0.003689564925684078   -0.04911916099546926   -0.0013165780318469798
-0.0025810923721786977   -0.04718212644081359   -0.0012327431079499104
-0.0031264199512129522   -0.04888592911005684   -0.0013760791768592723
-0.0035769028672850297   -0.04909524861303636   -0.0013804658833178188
-0.0025810923721786977   -0.04718212644081359   -0.0012327431079499104
-0.003689564925684078   -0.04911916099546926   -0.0013165780318469798
-0.0031264199512129522   -0.04888592911005684   -0.0013760791768592723
-0.0025810923721786977   -0.04718212644081359   -0.0012327431079499104
-0.0011299351991667693   -0.04701747645711701   -0.0011864607978029742
-0.0012842848364112431   -0.04706398690798925   -0.0010543566880770424
-0.0031264199512129522   -0.04888592911005684   -0.0013760791768592723
-0.0025810923721786977   -0.04718212644081359   -0.0012327431079499104
-0.0012842848364112431   -0.04706398690798925   -0.0010543566880770424
-0.003689564925684078   -0.04911916099546926   -0.0013165780318469798
-0.0031264199512129522   -0.04888592911005684   -0.0013760791768592723
-0.0011299351991667693   -0.04701747645711701   -0.0011864607978029742
-0.0035769028672850297   -0.04909524861303636   -0.0013804658833178188
-0.002894990428739187   -0.0489086614672894   -0.0015242808622786606
-0.0011299351991667693   -0.04701747645711701   -0.0011864607978029742
-0.0025810923721786977   -0.04718212644081359   -0.0012327431079499104
-0.0035769028672850297   -0.04909524861303636   -0.0013804658833178188
-0.0025221462105897152   -0.047172984695209745   -0.0012836589097422236
-0.002894990428739187   -0.0489086614672894   -0.0015242808622786606
-0.003480438408948555   -0.049113483567526886   -0.0014387237804847498
-0.0025221462105897152   -0.047172984695209745   -0.0012836589097422236
-0.0035769028672850297   -0.04909524861303636   -0.0013804658833178188
-0.002894990428739187   -0.0489086614672894   -0.0015242808622786606
-0.0025221462105897152   -0.047172984695209745   -0.0012836589097422236
-0.000961163299993512   -0.04700949284139078   -0.0013100433135200917
-0.0011299351991667693   -0.04701747645711701   -0.0011864607978029742
-0.002894990428739187   -0.0489086614672894   -0.0015242808622786606
-0.0025221462105897152   -0.047172984695209745   -0.0012836589097422236
-0.0011299351991667693   -0.04701747645711701   -0.0011864607978029742
-0.0035769028672850297   -0.04909524861303636   -0.0013804658833178188
-0.0037855492293392625   -0.04918485960666815   -0.001247388745200124
-0.0027262512718912286   -0.04730536947124792   -0.0011147092440791477
-0.004071873632121738   -0.04930111162508016   -0.0013982587806164195
-0.003689564925684078   -0.04911916099546926   -0.0013165780318469798
-0.0027262512718912286   -0.04730536947124792   -0.0011147092440791477
-0.003957567456809936   -0.047355650274416544   -0.0012782135292964444
-0.004071873632121738   -0.04930111162508016   -0.0013982587806164195
-0.0039002482449393278   -0.04728628538490346   -0.0012815333866491511
-0.003689564925684078   -0.04911916099546926   -0.0013165780318469798
-0.003986973412909624   -0.04924242263075663   -0.0013999919475211594
-0.0039002482449393278   -0.04728628538490346   -0.0012815333866491511
-0.004071873632121738   -0.04930111162508016   -0.0013982587806164195
-0.003689564925684078   -0.04911916099546926   -0.0013165780318469798
-0.0039002482449393278   -0.04728628538490346   -0.0012815333866491511
-0.0026580099920973533   -0.04722584613603996   -0.0011764863680743278
-0.0027262512718912286   -0.04730536947124792   -0.0011147092440791477
-0.003689564925684078   -0.04911916099546926   -0.0013165780318469798
-0.0039002482449393278   -0.04728628538490346   -0.0012815333866491511
-0.0027262512718912286   -0.04730536947124792   -0.0011147092440791477
-0.004071873632121738   -0.04930111162508016   -0.0013982587806164195
-0.003689564925684078   -0.04911916099546926   -0.0013165780318469798
-0.0026580099920973533   -0.04722584613603996   -0.0011764863680743278
-0.003986973412909624   -0.04924242263075663   -0.0013999919475211594
-0.0035769028672850297   -0.04909524861303636   -0.0013804658833178188
-0.0026580099920973533   -0.04722584613603996   -0.0011764863680743278
-0.0039002482449393278   -0.04728628538490346   -0.0012815333866491511
-0.003986973412909624   -0.04924242263075663   -0.0013999919475211594
-0.0038409541396060218   -0.0472491914485954   -0.0012797393938519914
-0.0035769028672850297   -0.04909524861303636   -0.0013804658833178188
-0.003892494408383408   -0.049221575994380366   -0.0013948526575387466
-0.0038409541396060218   -0.0472491914485954   -0.0012797393938519914
-0.003986973412909624   -0.04924242263075663   -0.0013999919475211594
-0.0035769028672850297   -0.04909524861303636   -0.0013804658833178188
-0.0038409541396060218   -0.0472491914485954   -0.0012797393938519914
-0.0025810923721786977   -0.04718212644081359   -0.0012327431079499104
-0.0026580099920973533   -0.04722584613603996   -0.0011764863680743278
-0.0035769028672850297   -0.04909524861303636   -0.0013804658833178188
-0.0038409541396060218   -0.0472491914485954   -0.0012797393938519914
-0.0026580099920973533   -0.04722584613603996   -0.0011764863680743278
-0.003986973412909624   -0.04924242263075663   -0.0013999919475211594
-0.0035769028672850297   -0.04909524861303636   -0.0013804658833178188
-0.0025810923721786977   -0.04718212644081359   -0.0012327431079499104
-0.003892494408383408   -0.049221575994380366   -0.0013948526575387466
-0.003480438408948555   -0.049113483567526886   -0.0014387237804847498
-0.0025810923721786977   -0.04718212644081359   -0.0012327431079499104
-0.0038409541396060218   -0.0472491914485954   -0.0012797393938519914
-0.003892494408383408   -0.049221575994380366   -0.0013948526575387466
-0.0037837835778480487   -0.04724283646715994   -0.0012727896987610003
-0.003480438408948555   -0.049113483567526886   -0.0014387237804847498
-0.003796458176193652   -0.04923687129196229   -0.001384319350067428
-0.0037837835778480487   -0.04724283646715994   -0.0012727896987610003
-0.003892494408383408   -0.049221575994380366   -0.0013948526575387466
-0.003480438408948555   -0.049113483567526886   -0.0014387237804847498
-0.0037837835778480487   -0.04724283646715994   -0.0012727896987610003
-0.0025221462105897152   -0.047172984695209745   -0.0012836589097422236
-0.0025810923721786977   -0.04718212644081359   -0.0012327431079499104
-0.003480438408948555   -0.049113483567526886   -0.0014387237804847498
-0.0037837835778480487   -0.04724283646715994   -0.0012727896987610003
-0.0025810923721786977   -0.04718212644081359   -0.0012327431079499104
-0.003892494408383408   -0.049221575994380366   -0.0013948526575387466
-0.004071873632121738   -0.04930111162508016   -0.0013982587806164195
-0.003957567456809936   -0.047355650274416544   -0.0012782135292964444
-0.004379233227917097   -0.049349111951438714   -0.0015468392308827866
-0.003986973412909624   -0.04924242263075663   -0.0013999919475211594
-0.003957567456809936   -0.047355650274416544   -0.0012782135292964444
-0.005180594149883979   -0.04731065211528666   -0.0014312743153445562
-0.004379233227917097   -0.049349111951438714   -0.0015468392308827866
-0.005123728359388794   -0.047249014528867594   -0.001378528285250726
-0.003986973412909624   -0.04924242263075663   -0.0013999919475211594
-0.004291282654611174   -0.049293080273640884   -0.0014837014610712069
-0.005123728359388794   -0.047249014528867594   -0.001378528285250726
-0.004379233227917097   -0.049349111951438714   -0.0015468392308827866
-0.003986973412909624   -0.04924242263075663   -0.0013999919475211594
-0.005123728359388794   -0.047249014528867594   -0.001378528285250726
-0.0039002482449393278   -0.04728628538490346   -0.0012815333866491511
-0.003957567456809936   -0.047355650274416544   -0.0012782135292964444
-0.003986973412909624   -0.04924242263075663   -0.0013999919475211594
-0.005123728359388794   -0.047249014528867594   -0.001378528285250726
-0.003957567456809936   -0.047355650274416544   -0.0012782135292964444
-0.004379233227917097   -0.049349111951438714   -0.0015468392308827866
-0.003986973412909624   -0.04924242263075663   -0.0013999919475211594
-0.0039002482449393278   -0.04728628538490346   -0.0012815333866491511
-0.004291282654611174   -0.049293080273640884   -0.0014837014610712069
-0.003892494408383408   -0.049221575994380366   -0.0013948526575387466
-0.0039002482449393278   -0.04728628538490346   -0.0012815333866491511
-0.005123728359388794   -0.047249014528867594   -0.001378528285250726
-0.004291282654611174   -0.049293080273640884   -0.0014837014610712069
-0.005059914141701911   -0.047219113437731365   -0.0013207468926186808
-0.003892494408383408   -0.049221575994380366   -0.0013948526575387466
-0.004185847278677848   -0.04927550217749917   -0.001412191714719938
-0.005059914141701911   -0.047219113437731365   -0.0013207468926186808
-0.004291282654611174   -0.049293080273640884   -0.0014837014610712069
-0.003892494408383408   -0.049221575994380366   -0.0013948526575387466
-0.005059914141701911   -0.047219113437731365   -0.0013207468926186808
-0.0038409541396060218   -0.0472491914485954   -0.0012797393938519914
-0.0039002482449393278   -0.04728628538490346   -0.0012815333866491511
-0.003892494408383408   -0.049221575994380366   -0.0013948526575387466
-0.005059914141701911   -0.047219113437731365   -0.0013207468926186808
-0.0039002482449393278   -0.04728628538490346   -0.0012815333866491511
-0.004291282654611174   -0.049293080273640884   -0.0014837014610712069
-0.003892494408383408   -0.049221575994380366   -0.0013948526575387466
-0.0038409541396060218   -0.0472491914485954   -0.0012797393938519914
-0.004185847278677848   -0.04927550217749917   -0.001412191714719938
-0.003796458176193652   -0.04923687129196229   -0.001384319350067428
-0.0038409541396060218   -0.0472491914485954   -0.0012797393938519914
-0.005059914141701911   -0.047219113437731365   -0.0013207468926186808
-0.004185847278677848   -0.04927550217749917   -0.001412191714719938
-0.004995865520740072   -0.047217927547926135   -0.001257317153074817
-0.003796458176193652   -0.04923687129196229   -0.001384319350067428
-0.004077455651842876   -0.049290406094786965   -0.0013360604446104388
-0.004995865520740072   -0.047217927547926135   -0.001257317153074817
-0.004185847278677848   -0.04927550217749917   -0.001412191714719938
-0.003796458176193652   -0.04923687129196229   -0.001384319350067428
-0.004995865520740072   -0.047217927547926135   -0.001257317153074817
-0.0037837835778480487   -0.04724283646715994   -0.0012727896987610003
-0.0038409541396060218   -0.0472491914485954   -0.0012797393938519914
-0.003796458176193652   -0.04923687129196229   -0.001384319350067428
-0.004995865520740072   -0.047217927547926135   -0.001257317153074817
-0.0038409541396060218   -0.0472491914485954   -0.0012797393938519914
-0.004185847278677848   -0.04927550217749917   -0.001412191714719938
-0.004379233227917097   -0.049349111951438714   -0.0015468392308827866
-0.005180594149883979   -0.04731065211528666   -0.0014312743153445562
-0.0048246454987135885   -0.04929496793779346   -0.0016882387006694362
-0.004291282654611174   -0.049293080273640884   -0.0014837014610712069
-0.005180594149883979   -0.04731065211528666   -0.0014312743153445562
-0.006523667855548212   -0.04716446902274978   -0.0015719826985564082
-0.0048246454987135885   -0.04929496793779346   -0.0016882387006694362
-0.0064539732928800796   -0.04711055159174911   -0.0014643877791498394
-0.004291282654611174   -0.049293080273640884   -0.0014837014610712069
-0.004709790429314207   -0.04924193946880314   -0.0015632847336498293
-0.0064539732928800796   -0.04711055159174911   -0.0014643877791498394
-0.0048246454987135885   -0.04929496793779346   -0.0016882387006694362
-0.004291282654611174   -0.049293080273640884   -0.0014837014610712069
-0.0064539732928800796   -0.04711055159174911   -0.0014643877791498394
-0.005123728359388794   -0.047249014528867594   -0.001378528285250726
-0.005180594149883979   -0.04731065211528666   -0.0014312743153445562
-0.004291282654611174   -0.049293080273640884   -0.0014837014610712069
-0.0064539732928800796   -0.04711055159174911   -0.0014643877791498394
-0.005180594149883979   -0.04731065211528666   -0.0014312743153445562
-0.0048246454987135885   -0.04929496793779346   -0.0016882387006694362
-0.004291282654611174   -0.049293080273640884   -0.0014837014610712069
-0.005123728359388794   -0.047249014528867594   -0.001378528285250726
-0.004709790429314207   -0.04924193946880314   -0.0015632847336498293
-0.004185847278677848   -0.04927550217749917   -0.001412191714719938
-0.005123728359388794   -0.047249014528867594   -0.001378528285250726
-0.0064539732928800796   -0.04711055159174911   -0.0014643877791498394
-0.004709790429314207   -0.04924193946880314   -0.0015632847336498293
-0.006357668674318233   -0.047087814891473796   -0.0013521354655631178
-0.004185847278677848   -0.04927550217749917   -0.001412191714719938
-0.004558102813717897   -0.04923005655041349   -0.0014289865297735837
-0.006357668674318233   -0.047087814891473796   -0.0013521354655631178
-0.004709790429314207   -0.04924193946880314   -0.0015632847336498293
-0.004185847278677848   -0.04927550217749917   -0.001412191714719938
-0.006357668674318233   -0.047087814891473796   -0.0013521354655631178
-0.005059914141701911   -0.047219113437731365   -0.0013207468926186808
-0.005123728359388794   -0.047249014528867594   -0.001378528285250726
-0.004185847278677848   -0.04927550217749917   -0.001412191714719938
-0.006357668674318233   -0.047087814891473796   -0.0013521354655631178
-0.005123728359388794   -0.047249014528867594   -0.001378528285250726
-0.004709790429314207   -0.04924193946880314   -0.0015632847336498293
-0.004185847278677848   -0.04927550217749917   -0.001412191714719938
-0.005059914141701911   -0.047219113437731365   -0.0013207468926186808
-0.004558102813717897   -0.04923005655041349   -0.0014289865297735837
-0.004077455651842876   -0.049290406094786965   -0.0013360604446104388
-0.005059914141701911   -0.047219113437731365   -0.0013207468926186808
-0.006357668674318233   -0.047087814891473796   -0.0013521354655631178
-0.004558102813717897   -0.04923005655041349   -0.0014289865297735837
-0.006273750159246104   -0.04709628801067132   -0.0012321201832463141
-0.004077455651842876   -0.049290406094786965   -0.0013360604446104388
-0.004415627852192635   -0.04925142934880185   -0.0012895506791789605
-0.006273750159246104   -0.04709628801067132   -0.0012321201832463141
-0.004558102813717897   -0.04923005655041349   -0.0014289865297735837
-0.004077455651842876   -0.049290406094786965   -0.0013360604446104388
-0.006273750159246104   -0.04709628801067132   -0.0012321201832463141
-0.004995865520740072   -0.047217927547926135   -0.001257317153074817
-0.005059914141701911   -0.047219113437731365   -0.0013207468926186808
-0.004077455651842876   -0.049290406094786965   -0.0013360604446104388
-0.006273750159246104   -0.04709628801067132   -0.0012321201832463141
-0.005059914141701911   -0.047219113437731365   -0.0013207468926186808
-0.004558102813717897   -0.04923005655041349   -0.0014289865297735837
-0.0048246454987135885   -0.04929496793779346   -0.0016882387006694362
-0.006523667855548212   -0.04716446902274978   -0.0015719826985564082
-0.005693624888111518   -0.049054016443739856   -0.0018386158188006929
-0.004709790429314207   -0.04924193946880314   -0.0015632847336498293
-0.006523667855548212   -0.04716446902274978   -0.0015719826985564082
-0.008253097548016487   -0.0469267267836385   -0.001707383265621606
-0.005693624888111518   -0.049054016443739856   -0.0018386158188006929
-0.008027435032387713   -0.0468681253228223   -0.0015374722231359466
-0.004709790429314207   -0.04924193946880314   -0.0015632847336498293
-0.005386829520587069   -0.04900910033884648   -0.0016336425111139364
-0.008027435032387713   -0.0468681253228223   -0.0015374722231359466
-0.005693624888111518   -0.049054016443739856   -0.0018386158188006929
-0.004709790429314207   -0.04924193946880314   -0.0015632847336498293
-0.008027435032387713   -0.0468681253228223   -0.0015374722231359466
-0.0064539732928800796   -0.04711055159174911   -0.0014643877791498394
-0.006523667855548212   -0.04716446902274978   -0.0015719826985564082
-0.004709790429314207   -0.04924193946880314   -0.0015632847336498293
-0.008027435032387713   -0.0468681253228223   -0.0015374722231359466
-0.006523667855548212   -0.04716446902274978   -0.0015719826985564082
-0.005693624888111518   -0.049054016443739856   -0.0018386158188006929
-0.004709790429314207   -0.04924193946880314   -0.0015632847336498293
-0.0064539732928800796   -0.04711055159174911   -0.0014643877791498394
-0.005386829520587069   -0.04900910033884648   -0.0016336425111139364
-0.004558102813717897   -0.04923005655041349   -0.0014289865297735837
-0.0064539732928800796   -0.04711055159174911   -0.0014643877791498394
-0.008027435032387713   -0.0468681253228223   -0.0015374722231359466
-0.005386829520587069   -0.04900910033884648   -0.0016336425111139364
-0.007825407433604957   -0.04684709463642738   -0.0013577757589133801
-0.004558102813717897   -0.04923005655041349   -0.0014289865297735837
-0.005105243567791062   -0.04900308369765117   -0.0014149931032341574
-0.007825407433604957   -0.04684709463642738   -0.0013577757589133801
-0.005386829520587069   -0.04900910033884648   -0.0016336425111139364
-0.004558102813717897   -0.04923005655041349   -0.0014289865297735837
-0.007825407433604957   -0.04684709463642738   -0.0013577757589133801
-0.006357668674318233   -0.047087814891473796   -0.0013521354655631178
-0.0064539732928800796   -0.04711055159174911   -0.0014643877791498394
-0.004558102813717897   -0.04923005655041349   -0.0014289865297735837
-0.007825407433604957   -0.04684709463642738   -0.0013577757589133801
-0.0064539732928800796   -0.04711055159174911   -0.0014643877791498394
-0.005386829520587069   -0.04900910033884648   -0.0016336425111139364
-0.004558102813717897   -0.04923005655041349   -0.0014289865297735837
-0.006357668674318233   -0.047087814891473796   -0.0013521354655631178
-0.005105243567791062   -0.04900308369765117   -0.0014149931032341574
-0.004415627852192635   -0.04925142934880185   -0.0012895506791789605
-0.006357668674318233   -0.047087814891473796   -0.0013521354655631178
-0.007825407433604957   -0.04684709463642738   -0.0013577757589133801
-0.005105243567791062   -0.04900308369765117   -0.0014149931032341574
-0.007563601230776141   -0.04687456535464391   -0.0011699916570057842
-0.004415627852192635   -0.04925142934880185   -0.0012895506791789605
-0.004749575433682821   -0.04906197136966395   -0.0011864362739171
-0.007563601230776141   -0.04687456535464391   -0.0011699916570057842
-0.005105243567791062   -0.04900308369765117   -0.0014149931032341574
-0.004415627852192635   -0.04925142934880185   -0.0012895506791789605
-0.007563601230776141   -0.04687456535464391   -0.0011699916570057842
-0.006273750159246104   -0.04709628801067132   -0.0012321201832463141
-0.006357668674318233   -0.047087814891473796   -0.0013521354655631178
-0.004415627852192635   -0.04925142934880185   -0.0012895506791789605
-0.007563601230776141   -0.04687456535464391   -0.0011699916570057842
-0.006357668674318233   -0.047087814891473796   -0.0013521354655631178
-0.005105243567791062   -0.04900308369765117   -0.0014149931032341574
-0.001480426902164828   -0.04716246216455217   -0.0009140728521891396
0.0002234340715382612   -0.043774568930571627   -0.0007555962383308571
-0.0027262512718912286   -0.04730536947124792   -0.0011147092440791477
-0.0012842848364112431   -0.04706398690798925   -0.0010543566880770424
0.0002234340715382612   -0.043774568930571627   -0.0007555962383308571
-0.0018832955461531335   -0.04387966136363049   -0.0009526622375526717
-0.0027262512718912286   -0.04730536947124792   -0.0011147092440791477
-0.0018470233765746223   -0.043796300286119   -0.00100177931162075
-0.0012842848364112431   -0.04706398690798925   -0.0010543566880770424
-0.0026580099920973533   -0.04722584613603996   -0.0011764863680743278
-0.0018470233765746223   -0.043796300286119   -0.00100177931162075
-0.0027262512718912286   -0.04730536947124792   -0.0011147092440791477
-0.0012842848364112431   -0.04706398690798925   -0.0010543566880770424
-0.0018470233765746223   -0.043796300286119   -0.00100177931162075
0.0003608106858601432   -0.043674461950106436   -0.0008675669534162931
0.0002234340715382612   -0.043774568930571627   -0.0007555962383308571
-0.0012842848364112431   -0.04706398690798925   -0.0010543566880770424
-0.0018470233765746223   -0.043796300286119   -0.00100177931162075
0.0002234340715382612   -0.043774568930571627   -0.0007555962383308571
-0.0027262512718912286   -0.04730536947124792   -0.0011147092440791477
-0.0012842848364112431   -0.04706398690798925   -0.0010543566880770424
0.0003608106858601432   -0.043674461950106436   -0.0008675669534162931
-0.0026580099920973533   -0.04722584613603996   -0.0011764863680743278
-0.0011299351991667693   -0.04701747645711701   -0.0011864607978029742
0.0003608106858601432   -0.043674461950106436   -0.0008675669534162931
-0.0018470233765746223   -0.043796300286119   -0.00100177931162075
-0.0026580099920973533   -0.04722584613603996   -0.0011764863680743278
-0.0018056472383188244   -0.0437422020133864   -0.0010452266525484697
-0.0011299351991667693   -0.04701747645711701   -0.0011864607978029742
-0.0025810923721786977   -0.04718212644081359   -0.0012327431079499104
-0.0018056472383188244   -0.0437422020133864   -0.0010452266525484697
-0.0026580099920973533   -0.04722584613603996   -0.0011764863680743278
-0.0011299351991667693   -0.04701747645711701   -0.0011864607978029742
-0.0018056472383188244   -0.0437422020133864   -0.0010452266525484697
0.00046190941180953497   -0.04361701718979845   -0.0009716015220078308
0.0003608106858601432   -0.043674461950106436   -0.0008675669534162931
-0.0011299351991667693   -0.04701747645711701   -0.0011864607978029742
-0.0018056472383188244   -0.0437422020133864   -0.0010452266525484697
0.0003608106858601432   -0.043674461950106436   -0.0008675669534162931
-0.0026580099920973533   -0.04722584613603996   -0.0011764863680743278
-0.0011299351991667693   -0.04701747645711701   -0.0011864607978029742
0.00046190941180953497   -0.04361701718979845   -0.0009716015220078308
-0.0025810923721786977   -0.04718212644081359   -0.0012327431079499104
-0.000961163299993512   -0.04700949284139078   -0.0013100433135200917
0.00046190941180953497   -0.04361701718979845   -0.0009716015220078308
-0.0018056472383188244   -0.0437422020133864   -0.0010452266525484697
-0.0025810923721786977   -0.04718212644081359   -0.0012327431079499104
-0.0017809014062680247   -0.043715753620582054   -0.0010835645462996207
-0.000961163299993512   -0.04700949284139078   -0.0013100433135200917
-0.0025221462105897152   -0.047172984695209745   -0.0012836589097422236
-0.0017809014062680247   -0.043715753620582054   -0.0010835645462996207
-0.0025810923721786977   -0.04718212644081359   -0.0012327431079499104
-0.000961163299993512   -0.04700949284139078   -0.0013100433135200917
-0.0017809014062680247   -0.043715753620582054   -0.0010835645462996207
0.0005703353927279195   -0.043589306243557266   -0.0010676643775329065
0.00046190941180953497   -0.04361701718979845   -0.0009716015220078308
-0.000961163299993512   -0.04700949284139078   -0.0013100433135200917
-0.0017809014062680247   -0.043715753620582054   -0.0010835645462996207
0.00046190941180953497   -0.04361701718979845   -0.0009716015220078308
-0.0025810923721786977   -0.04718212644081359   -0.0012327431079499104
-0.0027262512718912286   -0.04730536947124792   -0.0011147092440791477
-0.0018832955461531335   -0.04387966136363049   -0.0009526622375526717
-0.003957567456809936   -0.047355650274416544   -0.0012782135292964444
-0.0026580099920973533   -0.04722584613603996   -0.0011764863680743278
-0.0018832955461531335   -0.04387966136363049   -0.0009526622375526717
-0.003922731941945051   -0.04389979787509808   -0.0011148271208544006
-0.003957567456809936   -0.047355650274416544   -0.0012782135292964444
-0.0038961208459014855   -0.0438282884996132   -0.001116030354866233
-0.0026580099920973533   -0.04722584613603996   -0.0011764863680743278
-0.0039002482449393278   -0.04728628538490346   -0.0012815333866491511
-0.0038961208459014855   -0.0438282884996132   -0.001116030354866233
-0.003957567456809936   -0.047355650274416544   -0.0012782135292964444
-0.0026580099920973533   -0.04722584613603996   -0.0011764863680743278
-0.0038961208459014855   -0.0438282884996132   -0.001116030354866233
-0.0018470233765746223   -0.043796300286119   -0.00100177931162075
-0.0018832955461531335   -0.04387966136363049   -0.0009526622375526717
-0.0026580099920973533   -0.04722584613603996   -0.0011764863680743278
-0.0038961208459014855   -0.0438282884996132   -0.001116030354866233
-0.0018832955461531335   -0.04387966136363049   -0.0009526622375526717
-0.003957567456809936   -0.047355650274416544   -0.0012782135292964444
-0.0026580099920973533   -0.04722584613603996   -0.0011764863680743278
-0.0018470233765746223   -0.043796300286119   -0.00100177931162075
-0.0039002482449393278   -0.04728628538490346   -0.0012815333866491511
-0.0025810923721786977   -0.04718212644081359   -0.0012327431079499104
-0.0018470233765746223   -0.043796300286119   -0.00100177931162075
-0.0038961208459014855   -0.0438282884996132   -0.001116030354866233
-0.0039002482449393278   -0.04728628538490346   -0.0012815333866491511
-0.0038687472586602678   -0.04378296562029504   -0.0011117986003401745
-0.0025810923721786977   -0.04718212644081359   -0.0012327431079499104
-0.0038409541396060218   -0.0472491914485954   -0.0012797393938519914
-0.0038687472586602678   -0.04378296562029504   -0.0011117986003401745
-0.0039002482449393278   -0.04728628538490346   -0.0012815333866491511
-0.0025810923721786977   -0.04718212644081359   -0.0012327431079499104
-0.0038687472586602678   -0.04378296562029504   -0.0011117986003401745
-0.0018056472383188244   -0.0437422020133864   -0.0010452266525484697
-0.0018470233765746223   -0.043796300286119   -0.00100177931162075
-0.0025810923721786977   -0.04718212644081359   -0.0012327431079499104
-0.0038687472586602678   -0.04378296562029504   -0.0011117986003401745
-0.0018470233765746223   -0.043796300286119   -0.00100177931162075
-0.0039002482449393278   -0.04728628538490346   -0.0012815333866491511
-0.0025810923721786977   -0.04718212644081359   -0.0012327431079499104
-0.0018056472383188244   -0.0437422020133864   -0.0010452266525484697
-0.0038409541396060218   -0.0472491914485954   -0.0012797393938519914
-0.0025221462105897152   -0.047172984695209745   -0.0012836589097422236
-0.0018056472383188244   -0.0437422020133864   -0.0010452266525484697
-0.0038687472586602678   -0.04378296562029504   -0.0011117986003401745
-0.0038409541396060218   -0.0472491914485954   -0.0012797393938519914
-0.0038448087185522953   -0.043763405296663914   -0.0011024981429070431
-0.0025221462105897152   -0.047172984695209745   -0.0012836589097422236
-0.0037837835778480487   -0.04724283646715994   -0.0012727896987610003
-0.0038448087185522953   -0.043763405296663914   -0.0011024981429070431
-0.0038409541396060218   -0.0472491914485954   -0.0012797393938519914
-0.0025221462105897152   -0.047172984695209745   -0.0012836589097422236
-0.0038448087185522953   -0.043763405296663914   -0.0011024981429070431
-0.0017809014062680247   -0.043715753620582054   -0.0010835645462996207
-0.0018056472383188244   -0.0437422020133864   -0.0010452266525484697
-0.0025221462105897152   -0.047172984695209745   -0.0012836589097422236
-0.0038448087185522953   -0.043763405296663914   -0.0011024981429070431
-0.0018056472383188244   -0.0437422020133864   -0.0010452266525484697
-0.0038409541396060218   -0.0472491914485954   -0.0012797393938519914
-0.003957567456809936   -0.047355650274416544   -0.0012782135292964444
-0.003922731941945051   -0.04389979787509808   -0.0011148271208544006
-0.005180594149883979   -0.04731065211528666   -0.0014312743153445562
-0.0039002482449393278   -0.04728628538490346   -0.0012815333866491511
-0.003922731941945051   -0.04389979787509808   -0.0011148271208544006
-0.0059304048403504995   -0.04383471266904716   -0.001261186933060399
-0.005180594149883979   -0.04731065211528666   -0.0014312743153445562
-0.005905635245322714   -0.043773032332100906   -0.0012156280701199063
-0.0039002482449393278   -0.04728628538490346   -0.0012815333866491511
-0.005123728359388794   -0.047249014528867594   -0.001378528285250726
-0.005905635245322714   -0.043773032332100906   -0.0012156280701199063
-0.005180594149883979   -0.04731065211528666   -0.0014312743153445562
-0.0039002482449393278   -0.04728628538490346   -0.0012815333866491511
-0.005905635245322714   -0.043773032332100906   -0.0012156280701199063
-0.0038961208459014855   -0.0438282884996132   -0.001116030354866233
-0.003922731941945051   -0.04389979787509808   -0.0011148271208544006
-0.0039002482449393278   -0.04728628538490346   -0.0012815333866491511
-0.005905635245322714   -0.043773032332100906   -0.0012156280701199063
-0.003922731941945051   -0.04389979787509808   -0.0011148271208544006
-0.005180594149883979   -0.04731065211528666   -0.0014312743153445562
-0.0039002482449393278   -0.04728628538490346   -0.0012815333866491511
-0.0038961208459014855   -0.0438282884996132   -0.001116030354866233
-0.005123728359388794   -0.047249014528867594   -0.001378528285250726
-0.0038409541396060218   -0.0472491914485954   -0.0012797393938519914
-0.0038961208459014855   -0.0438282884996132   -0.001116030354866233
-0.005905635245322714   -0.043773032332100906   -0.0012156280701199063
-0.005123728359388794   -0.047249014528867594   -0.001378528285250726
-0.005875699113002833   -0.043737251945870984   -0.0011647545866213535
-0.0038409541396060218   -0.0472491914485954   -0.0012797393938519914
-0.005059914141701911   -0.047219113437731365   -0.0013207468926186808
-0.005875699113002833   -0.043737251945870984   -0.0011647545866213535
-0.005123728359388794   -0.047249014528867594   -0.001378528285250726
-0.0038409541396060218   -0.0472491914485954   -0.0012797393938519914
-0.005875699113002833   -0.043737251945870984   -0.0011647545866213535
-0.0038687472586602678   -0.04378296562029504   -0.0011117986003401745
-0.0038961208459014855   -0.0438282884996132   -0.001116030354866233
-0.0038409541396060218   -0.0472491914485954   -0.0012797393938519914
-0.005875699113002833   -0.043737251945870984   -0.0011647545866213535
-0.0038961208459014855   -0.0438282884996132   -0.001116030354866233
-0.005123728359388794   -0.047249014528867594   -0.001378528285250726
-0.0038409541396060218   -0.0472491914485954   -0.0012797393938519914
-0.0038687472586602678   -0.04378296562029504   -0.0011117986003401745
-0.005059914141701911   -0.047219113437731365   -0.0013207468926186808
-0.0037837835778480487   -0.04724283646715994   -0.0012727896987610003
-0.0038687472586602678   -0.04378296562029504   -0.0011117986003401745
-0.005875699113002833   -0.043737251945870984   -0.0011647545866213535
-0.005059914141701911   -0.047219113437731365   -0.0013207468926186808
-0.00584660146934302   -0.04372618350265591   -0.0011087295487259873
-0.0037837835778480487   -0.04724283646715994   -0.0012727896987610003
-0.004995865520740072   -0.047217927547926135   -0.001257317153074817
-0.00584660146934302   -0.04372618350265591   -0.0011087295487259873
-0.005059914141701911   -0.047219113437731365   -0.0013207468926186808
-0.0037837835778480487   -0.04724283646715994   -0.0012727896987610003
-0.00584660146934302   -0.04372618350265591   -0.0011087295487259873
-0.0038448087185522953   -0.043763405296663914   -0.0011024981429070431
-0.0038687472586602678   -0.04378296562029504   -0.0011117986003401745
-0.0037837835778480487   -0.04724283646715994   -0.0012727896987610003
-0.00584660146934302   -0.04372618350265591   -0.0011087295487259873
-0.0038687472586602678   -0.04378296562029504   -0.0011117986003401745
-0.005059914141701911   -0.047219113437731365   -0.0013207468926186808
-0.005180594149883979   -0.04731065211528666   -0.0014312743153445562
-0.0059304048403504995   -0.04383471266904716   -0.001261186933060399
-0.006523667855548212   -0.04716446902274978   -0.0015719826985564082
-0.005123728359388794   -0.047249014528867594   -0.001378528285250726
-0.0059304048403504995   -0.04383471266904716   -0.001261186933060399
-0.008033974262257484   -0.043686671469996614   -0.0013912327616517016
-0.006523667855548212   -0.04716446902274978   -0.0015719826985564082
-0.008001534033443978   -0.04363434782384132   -0.001298839368065429
-0.005123728359388794   -0.047249014528867594   -0.001378528285250726
-0.0064539732928800796   -0.04711055159174911   -0.0014643877791498394
-0.008001534033443978   -0.04363434782384132   -0.001298839368065429
-0.006523667855548212   -0.04716446902274978   -0.0015719826985564082
-0.005123728359388794   -0.047249014528867594   -0.001378528285250726
-0.008001534033443978   -0.04363434782384132   -0.001298839368065429
-0.005905635245322714   -0.043773032332100906   -0.0012156280701199063
-0.0059304048403504995   -0.04383471266904716   -0.001261186933060399
-0.005123728359388794   -0.047249014528867594   -0.001378528285250726
-0.008001534033443978   -0.04363434782384132   -0.001298839368065429
-0.0059304048403504995   -0.04383471266904716   -0.001261186933060399
-0.006523667855548212   -0.04716446902274978   -0.0015719826985564082
-0.005123728359388794   -0.047249014528867594   -0.001378528285250726
-0.005905635245322714   -0.043773032332100906   -0.0012156280701199063
-0.0064539732928800796   -0.04711055159174911   -0.0014643877791498394
-0.005059914141701911   -0.047219113437731365   -0.0013207468926186808
-0.005905635245322714   -0.043773032332100906   -0.0012156280701199063
-0.008001534033443978   -0.04363434782384132   -0.001298839368065429
-0.0064539732928800796   -0.04711055159174911   -0.0014643877791498394
-0.007946491742681356   -0.04360721845591405   -0.0012019519738419682
-0.005059914141701911   -0.047219113437731365   -0.0013207468926186808
-0.006357668674318233   -0.047087814891473796   -0.0013521354655631178
-0.007946491742681356   -0.04360721845591405   -0.0012019519738419682
-0.0064539732928800796   -0.04711055159174911   -0.0014643877791498394
-0.005059914141701911   -0.047219113437731365   -0.0013207468926186808
-0.007946491742681356   -0.04360721845591405   -0.0012019519738419682
-0.005875699113002833   -0.043737251945870984   -0.0011647545866213535
-0.005905635245322714   -0.043773032332100906   -0.0012156280701199063
-0.005059914141701911   -0.047219113437731365   -0.0013207468926186808
-0.007946491742681356   -0.04360721845591405   -0.0012019519738419682
-0.005905635245322714   -0.043773032332100906   -0.0012156280701199063
-0.0064539732928800796   -0.04711055159174911   -0.0014643877791498394
-0.005059914141701911   -0.047219113437731365   -0.0013207468926186808
-0.005875699113002833   -0.043737251945870984   -0.0011647545866213535
-0.006357668674318233   -0.047087814891473796   -0.0013521354655631178
-0.004995865520740072   -0.047217927547926135   -0.001257317153074817
-0.005875699113002833   -0.043737251945870984   -0.0011647545866213535
-0.007946491742681356   -0.04360721845591405   -0.0012019519738419682
-0.006357668674318233   -0.047087814891473796   -0.0013521354655631178
-0.007901881743217857   -0.04360673778670409   -0.0010991610581558395
-0.004995865520740072   -0.047217927547926135   -0.001257317153074817
-0.006273750159246104   -0.04709628801067132   -0.0012321201832463141
-0.007901881743217857   -0.04360673778670409   -0.0010991610581558395
-0.006357668674318233   -0.047087814891473796   -0.0013521354655631178
-0.004995865520740072   -0.047217927547926135   -0.001257317153074817
-0.007901881743217857   -0.04360673778670409   -0.0010991610581558395
-0.00584660146934302   -0.04372618350265591   -0.0011087295487259873
-0.005875699113002833   -0.043737251945870984   -0.0011647545866213535
-0.004995865520740072   -0.047217927547926135   -0.001257317153074817
-0.007901881743217857   -0.04360673778670409   -0.0010991610581558395
-0.005875699113002833   -0.043737251945870984   -0.0011647545866213535
-0.006357668674318233   -0.047087814891473796   -0.0013521354655631178
-0.006523667855548212   -0.04716446902274978   -0.0015719826985564082
-0.008033974262257484   -0.043686671469996614   -0.0013912327616517016
-0.008253097548016487   -0.0469267267836385   -0.001707383265621606
-0.0064539732928800796   -0.04711055159174911   -0.0014643877791498394
-0.008033974262257484   -0.043686671469996614   -0.0013912327616517016
-0.010487021554757031   -0.04347324245781117   -0.0015127250947508109
-0.008253097548016487   -0.0469267267836385   -0.001707383265621606
-0.010320037882949044   -0.04341856352551674   -0.0013680502108250813
-0.0064539732928800796   -0.04711055159174911   -0.0014643877791498394
-0.008027435032387713   -0.0468681253228223   -0.0015374722231359466
-0.010320037882949044   -0.04341856352551674   -0.0013680502108250813
-0.008253097548016487   -0.0469267267836385   -0.001707383265621606
-0.0064539732928800796   -0.04711055159174911   -0.0014643877791498394
-0.010320037882949044   -0.04341856352551674   -0.0013680502108250813
-0.008001534033443978   -0.04363434782384132   -0.001298839368065429
-0.008033974262257484   -0.043686671469996614   -0.0013912327616517016
-0.0064539732928800796   -0.04711055159174911   -0.0014643877791498394
-0.010320037882949044   -0.04341856352551674   -0.0013680502108250813
-0.008033974262257484   -0.043686671469996614   -0.0013912327616517016
-0.008253097548016487   -0.0469267267836385   -0.001707383265621606
-0.0064539732928800796   -0.04711055159174911   -0.0014643877791498394
-0.008001534033443978   -0.04363434782384132   -0.001298839368065429
-0.008027435032387713   -0.0468681253228223   -0.0015374722231359466
-0.006357668674318233   -0.047087814891473796   -0.0013521354655631178
-0.008001534033443978   -0.04363434782384132   -0.001298839368065429
-0.010320037882949044   -0.04341856352551674   -0.0013680502108250813
-0.008027435032387713   -0.0468681253228223   -0.0015374722231359466
-0.010175266588117144   -0.04339378346410071   -0.0012159540768951383
-0.006357668674318233   -0.047087814891473796   -0.0013521354655631178
-0.007825407433604957   -0.04684709463642738   -0.0013577757589133801
-0.010175266588117144   -0.04339378346410071   -0.0012159540768951383
-0.008027435032387713   -0.0468681253228223   -0.0015374722231359466
-0.006357668674318233   -0.047087814891473796   -0.0013521354655631178
-0.010175266588117144   -0.04339378346410071   -0.0012159540768951383
-0.007946491742681356   -0.04360721845591405   -0.0012019519738419682
-0.008001534033443978   -0.04363434782384132   -0.001298839368065429
-0.006357668674318233   -0.047087814891473796   -0.0013521354655631178
-0.010175266588117144   -0.04339378346410071   -0.0012159540768951383
-0.008001534033443978   -0.04363434782384132   -0.001298839368065429
-0.008027435032387713   -0.0468681253228223   -0.0015374722231359466
-0.006357668674318233   -0.047087814891473796   -0.0013521354655631178
-0.007946491742681356   -0.04360721845591405   -0.0012019519738419682
-0.007825407433604957   -0.04684709463642738   -0.0013577757589133801
-0.006273750159246104   -0.04709628801067132   -0.0012321201832463141
-0.007946491742681356   -0.04360721845591405   -0.0012019519738419682
-0.010175266588117144   -0.04339378346410071   -0.0012159540768951383
-0.007825407433604957   -0.04684709463642738   -0.0013577757589133801
-0.009980288029543073   -0.04340969512943227   -0.0010574036962720113
-0.006273750159246104   -0.04709628801067132   -0.0012321201832463141
-0.007563601230776141   -0.04687456535464391   -0.0011699916570057842
-0.009980288029543073   -0.04340969512943227   -0.0010574036962720113
-0.007825407433604957   -0.04684709463642738   -0.0013577757589133801
-0.006273750159246104   -0.04709628801067132   -0.0012321201832463141
-0.009980288029543073   -0.04340969512943227   -0.0010574036962720113
-0.007901881743217857   -0.04360673778670409   -0.0010991610581558395
-0.007946491742681356   -0.04360721845591405   -0.0012019519738419682
-0.006273750159246104   -0.04709628801067132   -0.0012321201832463141
-0.009980288029543073   -0.04340969512943227   -0.0010574036962720113
-0.007946491742681356   -0.04360721845591405   -0.0012019519738419682
-0.007825407433604957   -0.04684709463642738   -0.0013577757589133801
0.0002234340715382612   -0.043774568930571627   -0.0007555962383308571
0.0015206170960260215   -0.039165671048716856   -0.0005756121411415161
-0.0018832955461531335   -0.04387966136363049   -0.0009526622375526717
0.0003608106858601432   -0.043674461950106436   -0.0008675669534162931
0.0015206170960260215   -0.039165671048716856   -0.0005756121411415161
-0.001272945411383098   -0.03923539853904283   -0.0007637533308990671
-0.0018832955461531335   -0.04387966136363049   -0.0009526622375526717
-0.0012652571413536108   -0.03915247952256805   -0.0007979215685917816
0.0003608106858601432   -0.043674461950106436   -0.0008675669534162931
-0.0018470233765746223   -0.043796300286119   -0.00100177931162075
-0.0012652571413536108   -0.03915247952256805   -0.0007979215685917816
-0.0018832955461531335   -0.04387966136363049   -0.0009526622375526717
0.0003608106858601432   -0.043674461950106436   -0.0008675669534162931
-0.0012652571413536108   -0.03915247952256805   -0.0007979215685917816
0.0016026645359973066   -0.03906794887392778   -0.0006586867588353113
0.0015206170960260215   -0.039165671048716856   -0.0005756121411415161
0.0003608106858601432   -0.043674461950106436   -0.0008675669534162931
-0.0012652571413536108   -0.03915247952256805   -0.0007979215685917816
0.0015206170960260215   -0.039165671048716856   -0.0005756121411415161
-0.0018832955461531335   -0.04387966136363049   -0.0009526622375526717
0.0003608106858601432   -0.043674461950106436   -0.0008675669534162931
0.0016026645359973066   -0.03906794887392778   -0.0006586867588353113
-0.0018470233765746223   -0.043796300286119   -0.00100177931162075
0.00046190941180953497   -0.04361701718979845   -0.0009716015220078308
0.0016026645359973066   -0.03906794887392778   -0.0006586867588353113
-0.0012652571413536108   -0.03915247952256805   -0.0007979215685917816
-0.0018470233765746223   -0.043796300286119   -0.00100177931162075
-0.0012554549321844271   -0.039092702213544245   -0.0008268959334680869
0.00046190941180953497   -0.04361701718979845   -0.0009716015220078308
-0.0018056472383188244   -0.0437422020133864   -0.0010452266525484697
-0.0012554549321844271   -0.039092702213544245   -0.0008268959334680869
-0.0018470233765746223   -0.043796300286119   -0.00100177931162075
0.00046190941180953497   -0.04361701718979845   -0.0009716015220078308
-0.0012554549321844271   -0.039092702213544245   -0.0008268959334680869
0.0016552422784153712   -0.03900423173099783   -0.0007344187307213833
0.0016026645359973066   -0.03906794887392778   -0.0006586867588353113
0.00046190941180953497   -0.04361701718979845   -0.0009716015220078308
-0.0012554549321844271   -0.039092702213544245   -0.0008268959334680869
0.0016026645359973066   -0.03906794887392778   -0.0006586867588353113
-0.0018470233765746223   -0.043796300286119   -0.00100177931162075
0.00046190941180953497   -0.04361701718979845   -0.0009716015220078308
0.0016552422784153712   -0.03900423173099783   -0.0007344187307213833
-0.0018056472383188244   -0.0437422020133864   -0.0010452266525484697
0.0005703353927279195   -0.043589306243557266   -0.0010676643775329065
0.0016552422784153712   -0.03900423173099783   -0.0007344187307213833
-0.0012554549321844271   -0.039092702213544245   -0.0008268959334680869
-0.0018056472383188244   -0.0437422020133864   -0.0010452266525484697
-0.0012598770610578649   -0.039054135033111476   -0.000851054800309155
0.0005703353927279195   -0.043589306243557266   -0.0010676643775329065
-0.0017809014062680247   -0.043715753620582054   -0.0010835645462996207
-0.0012598770610578649   -0.039054135033111476   -0.000851054800309155
-0.0018056472383188244   -0.0437422020133864   -0.0010452266525484697
0.0005703353927279195   -0.043589306243557266   -0.0010676643775329065
-0.0012598770610578649   -0.039054135033111476   -0.000851054800309155
0.0017094109711531594   -0.03896205127505931   -0.000802964697056337
0.0016552422784153712   -0.03900423173099783   -0.0007344187307213833
0.0005703353927279195   -0.043589306243557266   -0.0010676643775329065
-0.0012598770610578649   -0.039054135033111476   -0.000851054800309155
0.0016552422784153712   -0.03900423173099783   -0.0007344187307213833
-0.0018056472383188244   -0.0437422020133864   -0.0010452266525484697
-0.0018832955461531335   -0.04387966136363049   -0.0009526622375526717
-0.001272945411383098   -0.03923539853904283   -0.0007637533308990671
-0.003922731941945051   -0.04389979787509808   -0.0011148271208544006
-0.0018470233765746223   -0.043796300286119   -0.00100177931162075
-0.001272945411383098   -0.03923539853904283   -0.0007637533308990671
-0.003962293839999222   -0.03923589990453638   -0.0009186538892547085
-0.003922731941945051   -0.04389979787509808   -0.0011148271208544006
-0.003962569165257886   -0.039165831165857215   -0.0009154214226092028
-0.0018470233765746223   -0.043796300286119   -0.00100177931162075
-0.0038961208459014855   -0.0438282884996132   -0.001116030354866233
-0.003962569165257886   -0.039165831165857215   -0.0009154214226092028
-0.003922731941945051   -0.04389979787509808   -0.0011148271208544006
-0.0018470233765746223   -0.043796300286119   -0.00100177931162075
-0.003962569165257886   -0.039165831165857215   -0.0009154214226092028
-0.0012652571413536108   -0.03915247952256805   -0.0007979215685917816
-0.001272945411383098   -0.03923539853904283   -0.0007637533308990671
-0.0018470233765746223   -0.043796300286119   -0.00100177931162075
-0.003962569165257886   -0.039165831165857215   -0.0009154214226092028
-0.001272945411383098   -0.03923539853904283   -0.0007637533308990671
-0.003922731941945051   -0.04389979787509808   -0.0011148271208544006
-0.0018470233765746223   -0.043796300286119   -0.00100177931162075
-0.0012652571413536108   -0.03915247952256805   -0.0007979215685917816
-0.0038961208459014855   -0.0438282884996132   -0.001116030354866233
-0.0018056472383188244   -0.0437422020133864   -0.0010452266525484697
-0.0012652571413536108   -0.03915247952256805   -0.0007979215685917816
-0.003962569165257886   -0.039165831165857215   -0.0009154214226092028
-0.0038961208459014855   -0.0438282884996132   -0.001116030354866233
-0.003962659585024508   -0.039116158575420695   -0.0009070122225034517
-0.0018056472383188244   -0.0437422020133864   -0.0010452266525484697
-0.0038687472586602678   -0.04378296562029504   -0.0011117986003401745
-0.003962659585024508   -0.039116158575420695   -0.0009070122225034517
-0.0038961208459014855   -0.0438282884996132   -0.001116030354866233
-0.0018056472383188244   -0.0437422020133864   -0.0010452266525484697
-0.003962659585024508   -0.039116158575420695   -0.0009070122225034517
-0.0012554549321844271   -0.039092702213544245   -0.0008268959334680869
-0.0012652571413536108   -0.03915247952256805   -0.0007979215685917816
-0.0018056472383188244   -0.0437422020133864   -0.0010452266525484697
-0.003962659585024508   -0.039116158575420695   -0.0009070122225034517
-0.0012652571413536108   -0.03915247952256805   -0.0007979215685917816
-0.0038961208459014855   -0.0438282884996132   -0.001116030354866233
-0.0018056472383188244   -0.0437422020133864   -0.0010452266525484697
-0.0012554549321844271   -0.039092702213544245   -0.0008268959334680869
-0.0038687472586602678   -0.04378296562029504   -0.0011117986003401745
-0.0017809014062680247   -0.043715753620582054   -0.0010835645462996207
-0.0012554549321844271   -0.039092702213544245   -0.0008268959334680869
-0.003962659585024508   -0.039116158575420695   -0.0009070122225034517
-0.0038687472586602678   -0.04378296562029504   -0.0011117986003401745
-0.003966337444488298   -0.03908691947881651   -0.0008936988667252875
-0.0017809014062680247   -0.043715753620582054   -0.0010835645462996207
-0.0038448087185522953   -0.043763405296663914   -0.0011024981429070431
-0.003966337444488298   -0.03908691947881651   -0.0008936988667252875
-0.0038687472586602678   -0.04378296562029504   -0.0011117986003401745
-0.0017809014062680247   -0.043715753620582054   -0.0010835645462996207
-0.003966337444488298   -0.03908691947881651   -0.0008936988667252875
-0.0012598770610578649   -0.039054135033111476   -0.000851054800309155
-0.0012554549321844271   -0.039092702213544245   -0.0008268959334680869
-0.0017809014062680247   -0.043715753620582054   -0.0010835645462996207
-0.003966337444488298   -0.03908691947881651   -0.0008936988667252875
-0.0012554549321844271   -0.039092702213544245   -0.0008268959334680869
-0.0038687472586602678   -0.04378296562029504   -0.0011117986003401745
-0.003922731941945051   -0.04389979787509808   -0.0011148271208544006
-0.003962293839999222   -0.03923589990453638   -0.0009186538892547085
-0.0059304048403504995   -0.04383471266904716   -0.001261186933060399
-0.0038961208459014855   -0.0438282884996132   -0.001116030354866233
-0.003962293839999222   -0.03923589990453638   -0.0009186538892547085
-0.006606237874917557   -0.039168852799725005   -0.0010542591486418283
-0.0059304048403504995   -0.04383471266904716   -0.001261186933060399
-0.006608513147107197   -0.039110047983764405   -0.0010140807624492688
-0.0038961208459014855   -0.0438282884996132   -0.001116030354866233
-0.005905635245322714   -0.043773032332100906   -0.0012156280701199063
-0.006608513147107197   -0.039110047983764405   -0.0010140807624492688
-0.0059304048403504995   -0.04383471266904716   -0.001261186933060399
-0.0038961208459014855   -0.0438282884996132   -0.001116030354866233
-0.006608513147107197   -0.039110047983764405   -0.0010140807624492688
-0.003962569165257886   -0.039165831165857215   -0.0009154214226092028
-0.003962293839999222   -0.03923589990453638   -0.0009186538892547085
-0.0038961208459014855   -0.0438282884996132   -0.001116030354866233
-0.006608513147107197   -0.039110047983764405   -0.0010140807624492688
-0.003962293839999222   -0.03923589990453638   -0.0009186538892547085
-0.0059304048403504995   -0.04383471266904716   -0.001261186933060399
-0.0038961208459014855   -0.0438282884996132   -0.001116030354866233
-0.003962569165257886   -0.039165831165857215   -0.0009154214226092028
-0.005905635245322714   -0.043773032332100906   -0.0012156280701199063
-0.0038687472586602678   -0.04378296562029504   -0.0011117986003401745
-0.003962569165257886   -0.039165831165857215   -0.0009154214226092028
-0.006608513147107197   -0.039110047983764405   -0.0010140807624492688
-0.005905635245322714   -0.043773032332100906   -0.0012156280701199063
-0.006606289787666293   -0.03907145926418498   -0.0009688282386718992
-0.0038687472586602678   -0.04378296562029504   -0.0011117986003401745
-0.005875699113002833   -0.043737251945870984   -0.0011647545866213535
-0.006606289787666293   -0.03907145926418498   -0.0009688282386718992
-0.005905635245322714   -0.043773032332100906   -0.0012156280701199063
-0.0038687472586602678   -0.04378296562029504   -0.0011117986003401745
-0.006606289787666293   -0.03907145926418498   -0.0009688282386718992
-0.003962659585024508   -0.039116158575420695   -0.0009070122225034517
-0.003962569165257886   -0.039165831165857215   -0.0009154214226092028
-0.0038687472586602678   -0.04378296562029504   -0.0011117986003401745
-0.006606289787666293   -0.03907145926418498   -0.0009688282386718992
-0.003962569165257886   -0.039165831165857215   -0.0009154214226092028
-0.005905635245322714   -0.043773032332100906   -0.0012156280701199063
-0.0038687472586602678   -0.04378296562029504   -0.0011117986003401745
-0.003962659585024508   -0.039116158575420695   -0.0009070122225034517
-0.005875699113002833   -0.043737251945870984   -0.0011647545866213535
-0.0038448087185522953   -0.043763405296663914   -0.0011024981429070431
-0.003962659585024508   -0.039116158575420695   -0.0009070122225034517
-0.006606289787666293   -0.03907145926418498   -0.0009688282386718992
-0.005875699113002833   -0.043737251945870984   -0.0011647545866213535
-0.006604887070670519   -0.03905273571951074   -0.0009186484978989331
-0.0038448087185522953   -0.043763405296663914   -0.0011024981429070431
-0.00584660146934302   -0.04372618350265591   -0.0011087295487259873
-0.006604887070670519   -0.03905273571951074   -0.0009186484978989331
-0.005875699113002833   -0.043737251945870984   -0.0011647545866213535
-0.0038448087185522953   -0.043763405296663914   -0.0011024981429070431
-0.006604887070670519   -0.03905273571951074   -0.0009186484978989331
-0.003966337444488298   -0.03908691947881651   -0.0008936988667252875
-0.003962659585024508   -0.039116158575420695   -0.0009070122225034517
-0.0038448087185522953   -0.043763405296663914   -0.0011024981429070431
-0.006604887070670519   -0.03905273571951074   -0.0009186484978989331
-0.003962659585024508   -0.039116158575420695   -0.0009070122225034517
-0.005875699113002833   -0.043737251945870984   -0.0011647545866213535
-0.0059304048403504995   -0.04383471266904716   -0.001261186933060399
-0.006606237874917557   -0.039168852799725005   -0.0010542591486418283
-0.008033974262257484   -0.043686671469996614   -0.0013912327616517016
-0.005905635245322714   -0.043773032332100906   -0.0012156280701199063
-0.006606237874917557   -0.039168852799725005   -0.0010542591486418283
-0.009332412852381572   -0.03903676276052815   -0.001170863186471521
-0.008033974262257484   -0.043686671469996614   -0.0013912327616517016
-0.009329085062996664   -0.03898872180020527   -0.0010932953477235685
-0.005905635245322714   -0.043773032332100906   -0.0012156280701199063
-0.008001534033443978   -0.04363434782384132   -0.001298839368065429
-0.009329085062996664   -0.03898872180020527   -0.0010932953477235685
-0.008033974262257484   -0.043686671469996614   -0.0013912327616517016
-0.005905635245322714   -0.043773032332100906   -0.0012156280701199063
-0.009329085062996664   -0.03898872180020527   -0.0010932953477235685
-0.006608513147107197   -0.039110047983764405   -0.0010140807624492688
-0.006606237874917557   -0.039168852799725005   -0.0010542591486418283
-0.005905635245322714   -0.043773032332100906   -0.0012156280701199063
-0.009329085062996664   -0.03898872180020527   -0.0010932953477235685
-0.006606237874917557   -0.039168852799725005   -0.0010542591486418283
-0.008033974262257484   -0.043686671469996614   -0.0013912327616517016
-0.005905635245322714   -0.043773032332100906   -0.0012156280701199063
-0.006608513147107197   -0.039110047983764405   -0.0010140807624492688
-0.008001534033443978   -0.04363434782384132   -0.001298839368065429
-0.005875699113002833   -0.043737251945870984   -0.0011647545866213535
-0.006608513147107197   -0.039110047983764405   -0.0010140807624492688
-0.009329085062996664   -0.03898872180020527   -0.0010932953477235685
-0.008001534033443978   -0.04363434782384132   -0.001298839368065429
-0.00930607261027466   -0.0389601842792822   -0.0010114196615329544
-0.005875699113002833   -0.043737251945870984   -0.0011647545866213535
-0.007946491742681356   -0.04360721845591405   -0.0012019519738419682
-0.00930607261027466   -0.0389601842792822   -0.0010114196615329544
-0.008001534033443978   -0.04363434782384132   -0.001298839368065429
-0.005875699113002833   -0.043737251945870984   -0.0011647545866213535
-0.00930607261027466   -0.0389601842792822   -0.0010114196615329544
-0.006606289787666293   -0.03907145926418498   -0.0009688282386718992
-0.006608513147107197   -0.039110047983764405   -0.0010140807624492688
-0.005875699113002833   -0.043737251945870984   -0.0011647545866213535
-0.00930607261027466   -0.0389601842792822   -0.0010114196615329544
-0.006608513147107197   -0.039110047983764405   -0.0010140807624492688
-0.008001534033443978   -0.04363434782384132   -0.001298839368065429
-0.005875699113002833   -0.043737251945870984   -0.0011647545866213535
-0.006606289787666293   -0.03907145926418498   -0.0009688282386718992
-0.007946491742681356   -0.04360721845591405   -0.0012019519738419682
-0.00584660146934302   -0.04372618350265591   -0.0011087295487259873
-0.006606289787666293   -0.03907145926418498   -0.0009688282386718992
-0.00930607261027466   -0.0389601842792822   -0.0010114196615329544
-0.007946491742681356   -0.04360721845591405   -0.0012019519738419682
-0.009290727457413455   -0.03895318560279919   -0.0009242185619786838
-0.00584660146934302   -0.04372618350265591   -0.0011087295487259873
-0.007901881743217857   -0.04360673778670409   -0.0010991610581558395
-0.009290727457413455   -0.03895318560279919   -0.0009242185619786838
-0.007946491742681356   -0.04360721845591405   -0.0012019519738419682
-0.00584660146934302   -0.04372618350265591   -0.0011087295487259873
-0.009290727457413455   -0.03895318560279919   -0.0009242185619786838
-0.006604887070670519   -0.03905273571951074   -0.0009186484978989331
-0.006606289787666293   -0.03907145926418498   -0.0009688282386718992
-0.00584660146934302   -0.04372618350265591   -0.0011087295487259873
-0.009290727457413455   -0.03895318560279919   -0.0009242185619786838
-0.006606289787666293   -0.03907145926418498   -0.0009688282386718992
-0.007946491742681356   -0.04360721845591405   -0.0012019519738419682
-0.008033974262257484   -0.043686671469996614   -0.0013912327616517016
-0.009332412852381572   -0.03903676276052815   -0.001170863186471521
-0.010487021554757031   -0.04347324245781117   -0.0015127250947508109
-0.008001534033443978   -0.04363434782384132   -0.001298839368065429
-0.009332412852381572   -0.03903676276052815   -0.001170863186471521
-0.01237757628843814   -0.03885443467383849   -0.0012761412774029528
-0.010487021554757031   -0.04347324245781117   -0.0015127250947508109
-0.012262956357010772   -0.03880722124687469   -0.0011573992659491953
-0.008001534033443978   -0.04363434782384132   -0.001298839368065429
-0.010320037882949044   -0.04341856352551674   -0.0013680502108250813
-0.012262956357010772   -0.03880722124687469   -0.0011573992659491953
-0.010487021554757031   -0.04347324245781117   -0.0015127250947508109
-0.008001534033443978   -0.04363434782384132   -0.001298839368065429
-0.012262956357010772   -0.03880722124687469   -0.0011573992659491953
-0.009329085062996664   -0.03898872180020527   -0.0010932953477235685
-0.009332412852381572   -0.03903676276052815   -0.001170863186471521
-0.008001534033443978   -0.04363434782384132   -0.001298839368065429
-0.012262956357010772   -0.03880722124687469   -0.0011573992659491953
-0.009332412852381572   -0.03903676276052815   -0.001170863186471521
-0.010487021554757031   -0.04347324245781117   -0.0015127250947508109
-0.008001534033443978   -0.04363434782384132   -0.001298839368065429
-0.009329085062996664   -0.03898872180020527   -0.0010932953477235685
-0.010320037882949044   -0.04341856352551674   -0.0013680502108250813
-0.007946491742681356   -0.04360721845591405   -0.0012019519738419682
-0.009329085062996664   -0.03898872180020527   -0.0010932953477235685
-0.012262956357010772   -0.03880722124687469   -0.0011573992659491953
-0.010320037882949044   -0.04341856352551674   -0.0013680502108250813
-0.01216502873473381   -0.03878235439050825   -0.0010314074364757518
-0.007946491742681356   -0.04360721845591405   -0.0012019519738419682
-0.010175266588117144   -0.04339378346410071   -0.0012159540768951383
-0.01216502873473381   -0.03878235439050825   -0.0010314074364757518
-0.010320037882949044   -0.04341856352551674   -0.0013680502108250813
-0.007946491742681356   -0.04360721845591405   -0.0012019519738419682
-0.01216502873473381   -0.03878235439050825   -0.0010314074364757518
-0.00930607261027466   -0.0389601842792822   -0.0010114196615329544
-0.009329085062996664   -0.03898872180020527   -0.0010932953477235685
-0.007946491742681356   -0.04360721845591405   -0.0012019519738419682
-0.01216502873473381   -0.03878235439050825   -0.0010314074364757518
-0.009329085062996664   -0.03898872180020527   -0.0010932953477235685
-0.010320037882949044   -0.04341856352551674   -0.0013680502108250813
-0.007946491742681356   -0.04360721845591405   -0.0012019519738419682
-0.00930607261027466   -0.0389601842792822   -0.0010114196615329544
-0.010175266588117144   -0.04339378346410071   -0.0012159540768951383
-0.007901881743217857   -0.04360673778670409   -0.0010991610581558395
-0.00930607261027466   -0.0389601842792822   -0.0010114196615329544
-0.01216502873473381   -0.03878235439050825   -0.0010314074364757518
-0.010175266588117144   -0.04339378346410071   -0.0012159540768951383
-0.012023837263971916   -0.03879161486628481   -0.0008991638616399173
-0.007901881743217857   -0.04360673778670409   -0.0010991610581558395
-0.009980288029543073   -0.04340969512943227   -0.0010574036962720113
-0.012023837263971916   -0.03879161486628481   -0.0008991638616399173
-0.010175266588117144   -0.04339378346410071   -0.0012159540768951383
-0.007901881743217857   -0.04360673778670409   -0.0010991610581558395
-0.012023837263971916   -0.03879161486628481   -0.0008991638616399173
-0.009290727457413455   -0.03895318560279919   -0.0009242185619786838
-0.00930607261027466   -0.0389601842792822   -0.0010114196615329544
-0.007901881743217857   -0.04360673778670409   -0.0010991610581558395
-0.012023837263971916   -0.03879161486628481   -0.0008991638616399173
-0.00930607261027466   -0.0389601842792822   -0.0010114196615329544
-0.010175266588117144   -0.04339378346410071   -0.0012159540768951383
0.0015206170960260215   -0.039165671048716856   -0.0005756121411415161
0.0024178472580877407   -0.03361374328893897   -0.00038360280164721956
-0.001272945411383098   -0.03923539853904283   -0.0007637533308990671
0.0016026645359973066   -0.03906794887392778   -0.0006586867588353113
0.0024178472580877407   -0.03361374328893897   -0.00038360280164721956
-0.0009004293559208656   -0.0336483211763609   -0.0005605859046983519
-0.001272945411383098   -0.03923539853904283   -0.0007637533308990671
-0.0009157749078381113   -0.03356744142744863   -0.0005791336715273387
0.0016026645359973066   -0.03906794887392778   -0.0006586867588353113
-0.0012652571413536108   -0.03915247952256805   -0.0007979215685917816
-0.0009157749078381113   -0.03356744142744863   -0.0005791336715273387
-0.001272945411383098   -0.03923539853904283   -0.0007637533308990671
0.0016026645359973066   -0.03906794887392778   -0.0006586867588353113
-0.0009157749078381113   -0.03356744142744863   -0.0005791336715273387
0.002450807971598837   -0.0335195903879934   -0.0004382855136001669
0.0024178472580877407   -0.03361374328893897   -0.00038360280164721956
0.0016026645359973066   -0.03906794887392778   -0.0006586867588353113
-0.0009157749078381113   -0.03356744142744863   -0.0005791336715273387
0.0024178472580877407   -0.03361374328893897   -0.00038360280164721956
-0.001272945411383098   -0.03923539853904283   -0.0007637533308990671
0.0016026645359973066   -0.03906794887392778   -0.0006586867588353113
0.002450807971598837   -0.0335195903879934   -0.0004382855136001669
-0.0012652571413536108   -0.03915247952256805   -0.0007979215685917816
0.0016552422784153712   -0.03900423173099783   -0.0007344187307213833
0.002450807971598837   -0.0335195903879934   -0.0004382855136001669
-0.0009157749078381113   -0.03356744142744863   -0.0005791336715273387
-0.0012652571413536108   -0.03915247952256805   -0.0007979215685917816
-0.0009318705375620397   -0.03350376251124208   -0.0005930318777342494
0.0016552422784153712   -0.03900423173099783   -0.0007344187307213833
-0.0012554549321844271   -0.039092702213544245   -0.0008268959334680869
-0.0009318705375620397   -0.03350376251124208   -0.0005930318777342494
-0.0012652571413536108   -0.03915247952256805   -0.0007979215685917816
0.0016552422784153712   -0.03900423173099783   -0.0007344187307213833
-0.0009318705375620397   -0.03350376251124208   -0.0005930318777342494
0.002461219910176441   -0.03345135926727817   -0.00048610555941804804
0.002450807971598837   -0.0335195903879934   -0.0004382855136001669
0.0016552422784153712   -0.03900423173099783   -0.0007344187307213833
-0.0009318705375620397   -0.03350376251124208   -0.0005930318777342494
0.002450807971598837   -0.0335195903879934   -0.0004382855136001669
-0.0012652571413536108   -0.03915247952256805   -0.0007979215685917816
0.0016552422784153712   -0.03900423173099783   -0.0007344187307213833
0.002461219910176441   -0.03345135926727817   -0.00048610555941804804
-0.0012554549321844271   -0.039092702213544245   -0.0008268959334680869
0.0017094109711531594   -0.03896205127505931   -0.000802964697056337
0.002461219910176441   -0.03345135926727817   -0.00048610555941804804
-0.0009318705375620397   -0.03350376251124208   -0.0005930318777342494
-0.0012554549321844271   -0.039092702213544245   -0.0008268959334680869
-0.0009595190287076182   -0.03345526211748544   -0.0006024370189391373
0.0017094109711531594   -0.03896205127505931   -0.000802964697056337
-0.0012598770610578649   -0.039054135033111476   -0.000851054800309155
-0.0009595190287076182   -0.03345526211748544   -0.0006024370189391373
-0.0012554549321844271   -0.039092702213544245   -0.0008268959334680869
0.0017094109711531594   -0.03896205127505931   -0.000802964697056337
-0.0009595190287076182   -0.03345526211748544   -0.0006024370189391373
0.0024675157349274366   -0.033396896053690735   -0.0005273893293996698
0.002461219910176441   -0.03345135926727817   -0.00048610555941804804
0.0017094109711531594   -0.03896205127505931   -0.000802964697056337
-0.0009595190287076182   -0.03345526211748544   -0.0006024370189391373
0.002461219910176441   -0.03345135926727817   -0.00048610555941804804
-0.0012554549321844271   -0.039092702213544245   -0.0008268959334680869
-0.001272945411383098   -0.03923539853904283   -0.0007637533308990671
-0.0009004293559208656   -0.0336483211763609   -0.0005605859046983519
-0.003962293839999222   -0.03923589990453638   -0.0009186538892547085
-0.0012652571413536108   -0.03915247952256805   -0.0007979215685917816
-0.0009004293559208656   -0.0336483211763609   -0.0005605859046983519
-0.004081907979599778   -0.03363093095967779   -0.000706010335214487
-0.003962293839999222   -0.03923589990453638   -0.0009186538892547085
-0.004103360190515719   -0.03356345820808955   -0.0006974433855416292
-0.0012652571413536108   -0.03915247952256805   -0.0007979215685917816
-0.003962569165257886   -0.039165831165857215   -0.0009154214226092028
-0.004103360190515719   -0.03356345820808955   -0.0006974433855416292
-0.003962293839999222   -0.03923589990453638   -0.0009186538892547085
-0.0012652571413536108   -0.03915247952256805   -0.0007979215685917816
-0.004103360190515719   -0.03356345820808955   -0.0006974433855416292
-0.0009157749078381113   -0.03356744142744863   -0.0005791336715273387
-0.0009004293559208656   -0.0336483211763609   -0.0005605859046983519
-0.0012652571413536108   -0.03915247952256805   -0.0007979215685917816
-0.004103360190515719   -0.03356345820808955   -0.0006974433855416292
-0.0009004293559208656   -0.0336483211763609   -0.0005605859046983519
-0.003962293839999222   -0.03923589990453638   -0.0009186538892547085
-0.0012652571413536108   -0.03915247952256805   -0.0007979215685917816
-0.0009157749078381113   -0.03356744142744863   -0.0005791336715273387
-0.003962569165257886   -0.039165831165857215   -0.0009154214226092028
-0.0012554549321844271   -0.039092702213544245   -0.0008268959334680869
-0.0009157749078381113   -0.03356744142744863   -0.0005791336715273387
-0.004103360190515719   -0.03356345820808955   -0.0006974433855416292
-0.003962569165257886   -0.039165831165857215   -0.0009154214226092028
-0.004125108591406357   -0.03351072695748729   -0.0006840868683908368
-0.0012554549321844271   -0.039092702213544245   -0.0008268959334680869
-0.003962659585024508   -0.039116158575420695   -0.0009070122225034517
-0.004125108591406357   -0.03351072695748729   -0.0006840868683908368
-0.003962569165257886   -0.039165831165857215   -0.0009154214226092028
-0.0012554549321844271   -0.039092702213544245   -0.0008268959334680869
-0.004125108591406357   -0.03351072695748729   -0.0006840868683908368
-0.0009318705375620397   -0.03350376251124208   -0.0005930318777342494
-0.0009157749078381113   -0.03356744142744863   -0.0005791336715273387
-0.0012554549321844271   -0.039092702213544245   -0.0008268959334680869
-0.004125108591406357   -0.03351072695748729   -0.0006840868683908368
-0.0009157749078381113   -0.03356744142744863   -0.0005791336715273387
-0.003962569165257886   -0.039165831165857215   -0.0009154214226092028
-0.0012554549321844271   -0.039092702213544245   -0.0008268959334680869
-0.0009318705375620397   -0.03350376251124208   -0.0005930318777342494
-0.003962659585024508   -0.039116158575420695   -0.0009070122225034517
-0.0012598770610578649   -0.039054135033111476   -0.000851054800309155
-0.0009318705375620397   -0.03350376251124208   -0.0005930318777342494
-0.004125108591406357   -0.03351072695748729   -0.0006840868683908368
-0.003962659585024508   -0.039116158575420695   -0.0009070122225034517
-0.00415026715039988   -0.03347298601085477   -0.0006661754316643584
-0.0012598770610578649   -0.039054135033111476   -0.000851054800309155
-0.003966337444488298   -0.03908691947881651   -0.0008936988667252875
-0.00415026715039988   -0.03347298601085477   -0.0006661754316643584
-0.003962659585024508   -0.039116158575420695   -0.0009070122225034517
-0.0012598770610578649   -0.039054135033111476   -0.000851054800309155
-0.00415026715039988   -0.03347298601085477   -0.0006661754316643584
-0.0009595190287076182   -0.03345526211748544   -0.0006024370189391373
-0.0009318705375620397   -0.03350376251124208   -0.0005930318777342494
-0.0012598770610578649   -0.039054135033111476   -0.000851054800309155
-0.00415026715039988   -0.03347298601085477   -0.0006661754316643584
-0.0009318705375620397   -0.03350376251124208   -0.0005930318777342494
-0.003962659585024508   -0.039116158575420695   -0.0009070122225034517
-0.003962293839999222   -0.03923589990453638   -0.0009186538892547085
-0.004081907979599778   -0.03363093095967779   -0.000706010335214487
-0.006606237874917557   -0.039168852799725005   -0.0010542591486418283
-0.003962569165257886   -0.039165831165857215   -0.0009154214226092028
-0.004081907979599778   -0.03363093095967779   -0.000706010335214487
-0.0072097792157180315   -0.033564872988581   -0.0008302973333377476
-0.006606237874917557   -0.039168852799725005   -0.0010542591486418283
-0.00723296061743041   -0.03350955767157577   -0.0007947542628694642
-0.003962569165257886   -0.039165831165857215   -0.0009154214226092028
-0.006608513147107197   -0.039110047983764405   -0.0010140807624492688
-0.00723296061743041   -0.03350955767157577   -0.0007947542628694642
-0.006606237874917557   -0.039168852799725005   -0.0010542591486418283
-0.003962569165257886   -0.039165831165857215   -0.0009154214226092028
-0.00723296061743041   -0.03350955767157577   -0.0007947542628694642
-0.004103360190515719   -0.03356345820808955   -0.0006974433855416292
-0.004081907979599778   -0.03363093095967779   -0.000706010335214487
-0.003962569165257886   -0.039165831165857215   -0.0009154214226092028
-0.00723296061743041   -0.03350955767157577   -0.0007947542628694642
-0.004081907979599778   -0.03363093095967779   -0.000706010335214487
-0.006606237874917557   -0.039168852799725005   -0.0010542591486418283
-0.003962569165257886   -0.039165831165857215   -0.0009154214226092028
-0.004103360190515719   -0.03356345820808955   -0.0006974433855416292
-0.006608513147107197   -0.039110047983764405   -0.0010140807624492688
-0.003962659585024508   -0.039116158575420695   -0.0009070122225034517
-0.004103360190515719   -0.03356345820808955   -0.0006974433855416292
-0.00723296061743041   -0.03350955767157577   -0.0007947542628694642
-0.006608513147107197   -0.039110047983764405   -0.0010140807624492688
-0.0072521408289185855   -0.033468843593708414   -0.000754508109797168
-0.003962659585024508   -0.039116158575420695   -0.0009070122225034517
-0.006606289787666293   -0.03907145926418498   -0.0009688282386718992
-0.0072521408289185855   -0.033468843593708414   -0.000754508109797168
-0.006608513147107197   -0.039110047983764405   -0.0010140807624492688
-0.003962659585024508   -0.039116158575420695   -0.0009070122225034517
-0.0072521408289185855   -0.033468843593708414   -0.000754508109797168
-0.004125108591406357   -0.03351072695748729   -0.0006840868683908368
-0.004103360190515719   -0.03356345820808955   -0.0006974433855416292
-0.003962659585024508   -0.039116158575420695   -0.0009070122225034517
-0.0072521408289185855   -0.033468843593708414   -0.000754508109797168
-0.004103360190515719   -0.03356345820808955   -0.0006974433855416292
-0.006608513147107197   -0.039110047983764405   -0.0010140807624492688
-0.003962659585024508   -0.039116158575420695   -0.0009070122225034517
-0.004125108591406357   -0.03351072695748729   -0.0006840868683908368
-0.006606289787666293   -0.03907145926418498   -0.0009688282386718992
-0.003966337444488298   -0.03908691947881651   -0.0008936988667252875
-0.004125108591406357   -0.03351072695748729   -0.0006840868683908368
-0.0072521408289185855   -0.033468843593708414   -0.000754508109797168
-0.006606289787666293   -0.03907145926418498   -0.0009688282386718992
-0.007271887157736138   -0.03344266829762015   -0.0007096961573966104
-0.003966337444488298   -0.03908691947881651   -0.0008936988667252875
-0.006604887070670519   -0.03905273571951074   -0.0009186484978989331
-0.007271887157736138   -0.03344266829762015   -0.0007096961573966104
-0.006606289787666293   -0.03907145926418498   -0.0009688282386718992
-0.003966337444488298   -0.03908691947881651   -0.0008936988667252875
-0.007271887157736138   -0.03344266829762015   -0.0007096961573966104
-0.00415026715039988   -0.03347298601085477   -0.0006661754316643584
-0.004125108591406357   -0.03351072695748729   -0.0006840868683908368
-0.003966337444488298   -0.03908691947881651   -0.0008936988667252875
-0.007271887157736138   -0.03344266829762015   -0.0007096961573966104
-0.004125108591406357   -0.03351072695748729   -0.0006840868683908368
-0.006606289787666293   -0.03907145926418498   -0.0009688282386718992
-0.006606237874917557   -0.039168852799725005   -0.0010542591486418283
-0.0072097792157180315   -0.033564872988581   -0.0008302973333377476
-0.009332412852381572   -0.03903676276052815   -0.001170863186471521
-0.006608513147107197   -0.039110047983764405   -0.0010140807624492688
-0.0072097792157180315   -0.033564872988581   -0.0008302973333377476
-0.01041202659545369   -0.033451449727239166   -0.0009339519338446392
-0.009332412852381572   -0.03903676276052815   -0.001170863186471521
-0.010431140083697112   -0.03340799335025507   -0.0008710619269505692
-0.006608513147107197   -0.039110047983764405   -0.0010140807624492688
-0.009329085062996664   -0.03898872180020527   -0.0010932953477235685
-0.010431140083697112   -0.03340799335025507   -0.0008710619269505692
-0.009332412852381572   -0.03903676276052815   -0.001170863186471521
-0.006608513147107197   -0.039110047983764405   -0.0010140807624492688
-0.010431140083697112   -0.03340799335025507   -0.0008710619269505692
-0.00723296061743041   -0.03350955767157577   -0.0007947542628694642
-0.0072097792157180315   -0.033564872988581   -0.0008302973333377476
-0.006608513147107197   -0.039110047983764405   -0.0010140807624492688
-0.010431140083697112   -0.03340799335025507   -0.0008710619269505692
-0.0072097792157180315   -0.033564872988581   -0.0008302973333377476
-0.009332412852381572   -0.03903676276052815   -0.001170863186471521
-0.006608513147107197   -0.039110047983764405   -0.0010140807624492688
-0.00723296061743041   -0.03350955767157577   -0.0007947542628694642
-0.009329085062996664   -0.03898872180020527   -0.0010932953477235685
-0.006606289787666293   -0.03907145926418498   -0.0009688282386718992
-0.00723296061743041   -0.03350955767157577   -0.0007947542628694642
-0.010431140083697112   -0.03340799335025507   -0.0008710619269505692
-0.009329085062996664   -0.03898872180020527   -0.0010932953477235685
-0.010433369223554707   -0.0333782708405067   -0.0008041190189467729
-0.006606289787666293   -0.03907145926418498   -0.0009688282386718992
-0.00930607261027466   -0.0389601842792822   -0.0010114196615329544
-0.010433369223554707   -0.0333782708405067   -0.0008041190189467729
-0.009329085062996664   -0.03898872180020527   -0.0010932953477235685
-0.006606289787666293   -0.03907145926418498   -0.0009688282386718992
-0.010433369223554707   -0.0333782708405067   -0.0008041190189467729
-0.0072521408289185855   -0.033468843593708414   -0.000754508109797168
-0.00723296061743041   -0.03350955767157577   -0.0007947542628694642
-0.006606289787666293   -0.03907145926418498   -0.0009688282386718992
-0.010433369223554707   -0.0333782708405067   -0.0008041190189467729
-0.00723296061743041   -0.03350955767157577   -0.0007947542628694642
-0.009329085062996664   -0.03898872180020527   -0.0010932953477235685
-0.006606289787666293   -0.03907145926418498   -0.0009688282386718992
-0.0072521408289185855   -0.033468843593708414   -0.000754508109797168
-0.00930607261027466   -0.0389601842792822   -0.0010114196615329544
-0.006604887070670519   -0.03905273571951074   -0.0009186484978989331
-0.0072521408289185855   -0.033468843593708414   -0.000754508109797168
-0.010433369223554707   -0.0333782708405067   -0.0008041190189467729
-0.00930607261027466   -0.0389601842792822   -0.0010114196615329544
-0.010440443101072894   -0.033364400964371786   -0.0007322629557482185
-0.006604887070670519   -0.03905273571951074   -0.0009186484978989331
-0.009290727457413455   -0.03895318560279919   -0.0009242185619786838
-0.010440443101072894   -0.033364400964371786   -0.0007322629557482185
-0.00930607261027466   -0.0389601842792822   -0.0010114196615329544
-0.006604887070670519   -0.03905273571951074   -0.0009186484978989331
-0.010440443101072894   -0.033364400964371786   -0.0007322629557482185
-0.007271887157736138   -0.03344266829762015   -0.0007096961573966104
-0.0072521408289185855   -0.033468843593708414   -0.000754508109797168
-0.006604887070670519   -0.03905273571951074   -0.0009186484978989331
-0.010440443101072894   -0.033364400964371786   -0.0007322629557482185
-0.0072521408289185855   -0.033468843593708414   -0.000754508109797168
-0.00930607261027466   -0.0389601842792822   -0.0010114196615329544
-0.009332412852381572   -0.03903676276052815   -0.001170863186471521
-0.01041202659545369   -0.033451449727239166   -0.0009339519338446392
-0.01237757628843814   -0.03885443467383849   -0.0012761412774029528
-0.009329085062996664   -0.03898872180020527   -0.0010932953477235685
-0.01041202659545369   -0.033451449727239166   -0.0009339519338446392
-0.013904395696908324   -0.03330240254674252   -0.0010225124768578591
-0.01237757628843814   -0.03885443467383849   -0.0012761412774029528
-0.013836756129528891   -0.033262703743700925   -0.0009306230732822494
-0.009329085062996664   -0.03898872180020527   -0.0010932953477235685
-0.012262956357010772   -0.03880722124687469   -0.0011573992659491953
-0.013836756129528891   -0.033262703743700925   -0.0009306230732822494
-0.01237757628843814   -0.03885443467383849   -0.0012761412774029528
-0.009329085062996664   -0.03898872180020527   -0.0010932953477235685
-0.013836756129528891   -0.033262703743700925   -0.0009306230732822494
-0.010431140083697112   -0.03340799335025507   -0.0008710619269505692
-0.01041202659545369   -0.033451449727239166   -0.0009339519338446392
-0.009329085062996664   -0.03898872180020527   -0.0010932953477235685
-0.013836756129528891   -0.033262703743700925   -0.0009306230732822494
-0.01041202659545369   -0.033451449727239166   -0.0009339519338446392
-0.01237757628843814   -0.03885443467383849   -0.0012761412774029528
-0.009329085062996664   -0.03898872180020527   -0.0010932953477235685
-0.010431140083697112   -0.03340799335025507   -0.0008710619269505692
-0.012262956357010772   -0.03880722124687469   -0.0011573992659491953
-0.00930607261027466   -0.0389601842792822   -0.0010114196615329544
-0.010431140083697112   -0.03340799335025507   -0.0008710619269505692
-0.013836756129528891   -0.033262703743700925   -0.0009306230732822494
-0.012262956357010772   -0.03880722124687469   -0.0011573992659491953
-0.013779778952190902   -0.03323764503600583   -0.0008316521192065192
-0.00930607261027466   -0.0389601842792822   -0.0010114196615329544
-0.01216502873473381   -0.03878235439050825   -0.0010314074364757518
-0.013779778952190902   -0.03323764503600583   -0.0008316521192065192
-0.012262956357010772   -0.03880722124687469   -0.0011573992659491953
-0.00930607261027466   -0.0389601842792822   -0.0010114196615329544
-0.013779778952190902   -0.03323764503600583   -0.0008316521192065192
-0.010433369223554707   -0.0333782708405067   -0.0008041190189467729
-0.010431140083697112   -0.03340799335025507   -0.0008710619269505692
-0.00930607261027466   -0.0389601842792822   -0.0010114196615329544
-0.013779778952190902   -0.03323764503600583   -0.0008316521192065192
-0.010431140083697112   -0.03340799335025507   -0.0008710619269505692
-0.012262956357010772   -0.03880722124687469   -0.0011573992659491953
-0.00930607261027466   -0.0389601842792822   -0.0010114196615329544
-0.010433369223554707   -0.0333782708405067   -0.0008041190189467729
-0.01216502873473381   -0.03878235439050825   -0.0010314074364757518
-0.009290727457413455   -0.03895318560279919   -0.0009242185619786838
-0.010433369223554707   -0.0333782708405067   -0.0008041190189467729
-0.013779778952190902   -0.03323764503600583   -0.0008316521192065192
-0.01216502873473381   -0.03878235439050825   -0.0010314074364757518
-0.013686055808377453   -0.033239480936247436   -0.0007264840534461886
-0.009290727457413455   -0.03895318560279919   -0.0009242185619786838
-0.012023837263971916   -0.03879161486628481   -0.0008991638616399173
-0.013686055808377453   -0.033239480936247436   -0.0007264840534461886
-0.01216502873473381   -0.03878235439050825   -0.0010314074364757518
-0.009290727457413455   -0.03895318560279919   -0.0009242185619786838
-0.013686055808377453   -0.033239480936247436   -0.0007264840534461886
-0.010440443101072894   -0.033364400964371786   -0.0007322629557482185
-0.010433369223554707   -0.0333782708405067   -0.0008041190189467729
-0.009290727457413455   -0.03895318560279919   -0.0009242185619786838
-0.013686055808377453   -0.033239480936247436   -0.0007264840534461886
-0.010433369223554707   -0.0333782708405067   -0.0008041190189467729
-0.01216502873473381   -0.03878235439050825   -0.0010314074364757518
0.0024178472580877407   -0.03361374328893897   -0.00038360280164721956
0.0029198199632942895   -0.027376200615267115   -0.0001958736236558344
-0.0009004293559208656   -0.0336483211763609   -0.0005605859046983519
0.002450807971598837   -0.0335195903879934   -0.0004382855136001669
0.0029198199632942895   -0.027376200615267115   -0.0001958736236558344
-0.0007677362730045557   -0.027375893632095128   -0.0003598866922278235
-0.0009004293559208656   -0.0336483211763609   -0.0005605859046983519
-0.0008003698772637217   -0.027297707120028238   -0.00036256895575279317
0.002450807971598837   -0.0335195903879934   -0.0004382855136001669
-0.0009157749078381113   -0.03356744142744863   -0.0005791336715273387
-0.0008003698772637217   -0.027297707120028238   -0.00036256895575279317
-0.0009004293559208656   -0.0336483211763609   -0.0005605859046983519
0.002450807971598837   -0.0335195903879934   -0.0004382855136001669
-0.0008003698772637217   -0.027297707120028238   -0.00036256895575279317
0.0029100056289795245   -0.027286099005663353   -0.00022240046782959308
0.0029198199632942895   -0.027376200615267115   -0.0001958736236558344
0.002450807971598837   -0.0335195903879934   -0.0004382855136001669
-0.0008003698772637217   -0.027297707120028238   -0.00036256895575279317
0.0029198199632942895   -0.027376200615267115   -0.0001958736236558344
-0.0009004293559208656   -0.0336483211763609   -0.0005605859046983519
0.002450807971598837   -0.0335195903879934   -0.0004382855136001669
0.0029100056289795245   -0.027286099005663353   -0.00022240046782959308
-0.0009157749078381113   -0.03356744142744863   -0.0005791336715273387
0.002461219910176441   -0.03345135926727817   -0.00048610555941804804
0.0029100056289795245   -0.027286099005663353   -0.00022240046782959308
-0.0008003698772637217   -0.027297707120028238   -0.00036256895575279317
-0.0009157749078381113   -0.03356744142744863   -0.0005791336715273387
-0.0008366381931578592   -0.02723066084849826   -0.0003611156587259892
0.002461219910176441   -0.03345135926727817   -0.00048610555941804804
-0.0009318705375620397   -0.03350376251124208   -0.0005930318777342494
-0.0008366381931578592   -0.02723066084849826   -0.0003611156587259892
-0.0009157749078381113   -0.03356744142744863   -0.0005791336715273387
0.002461219910176441   -0.03345135926727817   -0.00048610555941804804
-0.0008366381931578592   -0.02723066084849826   -0.0003611156587259892
0.0028841718461477617   -0.027213939471622865   -0.0002422986479163033
0.0029100056289795245   -0.027286099005663353   -0.00022240046782959308
0.002461219910176441   -0.03345135926727817   -0.00048610555941804804
-0.0008366381931578592   -0.02723066084849826   -0.0003611156587259892
0.0029100056289795245   -0.027286099005663353   -0.00022240046782959308
-0.0009157749078381113   -0.03356744142744863   -0.0005791336715273387
0.002461219910176441   -0.03345135926727817   -0.00048610555941804804
0.0028841718461477617   -0.027213939471622865   -0.0002422986479163033
-0.0009318705375620397   -0.03350376251124208   -0.0005930318777342494
0.0024675157349274366   -0.033396896053690735   -0.0005273893293996698
0.0028841718461477617   -0.027213939471622865   -0.0002422986479163033
-0.0008366381931578592   -0.02723066084849826   -0.0003611156587259892
-0.0009318705375620397   -0.03350376251124208   -0.0005930318777342494
-0.0008817775368594328   -0.027172997747326358   -0.0003553637621391337
0.0024675157349274366   -0.033396896053690735   -0.0005273893293996698
-0.0009595190287076182   -0.03345526211748544   -0.0006024370189391373
-0.0008817775368594328   -0.027172997747326358   -0.0003553637621391337
-0.0009318705375620397   -0.03350376251124208   -0.0005930318777342494
0.0024675157349274366   -0.033396896053690735   -0.0005273893293996698
-0.0008817775368594328   -0.027172997747326358   -0.0003553637621391337
0.0028479829700856656   -0.027147804599245776   -0.000256031207618124
0.0028841718461477617   -0.027213939471622865   -0.0002422986479163033
0.0024675157349274366   -0.033396896053690735   -0.0005273893293996698
-0.0008817775368594328   -0.027172997747326358   -0.0003553637621391337
0.0028841718461477617   -0.027213939471622865   -0.0002422986479163033
-0.0009318705375620397   -0.03350376251124208   -0.0005930318777342494
-0.0009004293559208656   -0.0336483211763609   -0.0005605859046983519
-0.0007677362730045557   -0.027375893632095128   -0.0003598866922278235
-0.004081907979599778   -0.03363093095967779   -0.000706010335214487
-0.0009157749078381113   -0.03356744142744863   -0.0005791336715273387
-0.0007677362730045557   -0.027375893632095128   -0.0003598866922278235
-0.004285402900608559   -0.027342658295051864   -0.0004948908886311711
-0.004081907979599778   -0.03363093095967779   -0.000706010335214487
-0.0043220557243041895   -0.027277903906388328   -0.0004805265119920293
-0.0009157749078381113   -0.03356744142744863   -0.0005791336715273387
-0.004103360190515719   -0.03356345820808955   -0.0006974433855416292
-0.0043220557243041895   -0.027277903906388328   -0.0004805265119920293
-0.004081907979599778   -0.03363093095967779   -0.000706010335214487
-0.0009157749078381113   -0.03356744142744863   -0.0005791336715273387
-0.0043220557243041895   -0.027277903906388328   -0.0004805265119920293
-0.0008003698772637217   -0.027297707120028238   -0.00036256895575279317
-0.0007677362730045557   -0.027375893632095128   -0.0003598866922278235
-0.0009157749078381113   -0.03356744142744863   -0.0005791336715273387
-0.0043220557243041895   -0.027277903906388328   -0.0004805265119920293
-0.0007677362730045557   -0.027375893632095128   -0.0003598866922278235
-0.004081907979599778   -0.03363093095967779   -0.000706010335214487
-0.0009157749078381113   -0.03356744142744863   -0.0005791336715273387
-0.0008003698772637217   -0.027297707120028238   -0.00036256895575279317
-0.004103360190515719   -0.03356345820808955   -0.0006974433855416292
-0.0009318705375620397   -0.03350376251124208   -0.0005930318777342494
-0.0008003698772637217   -0.027297707120028238   -0.00036256895575279317
-0.0043220557243041895   -0.027277903906388328   -0.0004805265119920293
-0.004103360190515719   -0.03356345820808955   -0.0006974433855416292
-0.004359454273571232   -0.027222217562734723   -0.00046185114375958165
-0.0009318705375620397   -0.03350376251124208   -0.0005930318777342494
-0.004125108591406357   -0.03351072695748729   -0.0006840868683908368
-0.004359454273571232   -0.027222217562734723   -0.00046185114375958165
-0.004103360190515719   -0.03356345820808955   -0.0006974433855416292
-0.0009318705375620397   -0.03350376251124208   -0.0005930318777342494
-0.004359454273571232   -0.027222217562734723   -0.00046185114375958165
-0.0008366381931578592   -0.02723066084849826   -0.0003611156587259892
-0.0008003698772637217   -0.027297707120028238   -0.00036256895575279317
-0.0009318705375620397   -0.03350376251124208   -0.0005930318777342494
-0.004359454273571232   -0.027222217562734723   -0.00046185114375958165
-0.0008003698772637217   -0.027297707120028238   -0.00036256895575279317
-0.004103360190515719   -0.03356345820808955   -0.0006974433855416292
-0.0009318705375620397   -0.03350376251124208   -0.0005930318777342494
-0.0008366381931578592   -0.02723066084849826   -0.0003611156587259892
-0.004125108591406357   -0.03351072695748729   -0.0006840868683908368
-0.0009595190287076182   -0.03345526211748544   -0.0006024370189391373
-0.0008366381931578592   -0.02723066084849826   -0.0003611156587259892
-0.004359454273571232   -0.027222217562734723   -0.00046185114375958165
-0.004125108591406357   -0.03351072695748729   -0.0006840868683908368
-0.004400035957150467   -0.027176134336632678   -0.00043907053598003657
-0.0009595190287076182   -0.03345526211748544   -0.0006024370189391373
-0.00415026715039988   -0.03347298601085477   -0.0006661754316643584
-0.004400035957150467   -0.027176134336632678   -0.00043907053598003657
-0.004125108591406357   -0.03351072695748729   -0.0006840868683908368
-0.0009595190287076182   -0.03345526211748544   -0.0006024370189391373
-0.004400035957150467   -0.027176134336632678   -0.00043907053598003657
-0.0008817775368594328   -0.027172997747326358   -0.0003553637621391337
-0.0008366381931578592   -0.02723066084849826   -0.0003611156587259892
-0.0009595190287076182   -0.03345526211748544   -0.0006024370189391373
-0.004400035957150467   -0.027176134336632678   -0.00043907053598003657
-0.0008366381931578592   -0.02723066084849826   -0.0003611156587259892
-0.004125108591406357   -0.03351072695748729   -0.0006840868683908368
-0.004081907979599778   -0.03363093095967779   -0.000706010335214487
-0.004285402900608559   -0.027342658295051864   -0.0004948908886311711
-0.0072097792157180315   -0.033564872988581   -0.0008302973333377476
-0.004103360190515719   -0.03356345820808955   -0.0006974433855416292
-0.004285402900608559   -0.027342658295051864   -0.0004948908886311711
-0.007743610591618183   -0.027280311600728746   -0.000608586134362201
-0.0072097792157180315   -0.033564872988581   -0.0008302973333377476
-0.007781388808398567   -0.027227916405639867   -0.0005772167007067463
-0.004103360190515719   -0.03356345820808955   -0.0006974433855416292
-0.00723296061743041   -0.03350955767157577   -0.0007947542628694642
-0.007781388808398567   -0.027227916405639867   -0.0005772167007067463
-0.0072097792157180315   -0.033564872988581   -0.0008302973333377476
-0.004103360190515719   -0.03356345820808955   -0.0006974433855416292
-0.007781388808398567   -0.027227916405639867   -0.0005772167007067463
-0.0043220557243041895   -0.027277903906388328   -0.0004805265119920293
-0.004285402900608559   -0.027342658295051864   -0.0004948908886311711
-0.004103360190515719   -0.03356345820808955   -0.0006974433855416292
-0.007781388808398567   -0.027227916405639867   -0.0005772167007067463
-0.004285402900608559   -0.027342658295051864   -0.0004948908886311711
-0.0072097792157180315   -0.033564872988581   -0.0008302973333377476
-0.004103360190515719   -0.03356345820808955   -0.0006974433855416292
-0.0043220557243041895   -0.027277903906388328   -0.0004805265119920293
-0.00723296061743041   -0.03350955767157577   -0.0007947542628694642
-0.004125108591406357   -0.03351072695748729   -0.0006840868683908368
-0.0043220557243041895   -0.027277903906388328   -0.0004805265119920293
-0.007781388808398567   -0.027227916405639867   -0.0005772167007067463
-0.00723296061743041   -0.03350955767157577   -0.0007947542628694642
-0.007815639796050634   -0.027184525257278037   -0.0005416379030316905
-0.004125108591406357   -0.03351072695748729   -0.0006840868683908368
-0.0072521408289185855   -0.033468843593708414   -0.000754508109797168
-0.007815639796050634   -0.027184525257278037   -0.0005416379030316905
-0.00723296061743041   -0.03350955767157577   -0.0007947542628694642
-0.004125108591406357   -0.03351072695748729   -0.0006840868683908368
-0.007815639796050634   -0.027184525257278037   -0.0005416379030316905
-0.004359454273571232   -0.027222217562734723   -0.00046185114375958165
-0.0043220557243041895   -0.027277903906388328   -0.0004805265119920293
-0.004125108591406357   -0.03351072695748729   -0.0006840868683908368
-0.007815639796050634   -0.027184525257278037   -0.0005416379030316905
-0.0043220557243041895   -0.027277903906388328   -0.0004805265119920293
-0.00723296061743041   -0.03350955767157577   -0.0007947542628694642
-0.004125108591406357   -0.03351072695748729   -0.0006840868683908368
-0.004359454273571232   -0.027222217562734723   -0.00046185114375958165
-0.0072521408289185855   -0.033468843593708414   -0.000754508109797168
-0.00415026715039988   -0.03347298601085477   -0.0006661754316643584
-0.004359454273571232   -0.027222217562734723   -0.00046185114375958165
-0.007815639796050634   -0.027184525257278037   -0.0005416379030316905
-0.0072521408289185855   -0.033468843593708414   -0.000754508109797168
-0.007850218366995095   -0.027150208724297475   -0.0005020088684923167
-0.00415026715039988   -0.03347298601085477   -0.0006661754316643584
-0.007271887157736138   -0.03344266829762015   -0.0007096961573966104
-0.007850218366995095   -0.027150208724297475   -0.0005020088684923167
-0.0072521408289185855   -0.033468843593708414   -0.000754508109797168
-0.00415026715039988   -0.03347298601085477   -0.0006661754316643584
-0.007850218366995095   -0.027150208724297475   -0.0005020088684923167
-0.004400035957150467   -0.027176134336632678   -0.00043907053598003657
-0.004359454273571232   -0.027222217562734723   -0.00046185114375958165
-0.00415026715039988   -0.03347298601085477   -0.0006661754316643584
-0.007850218366995095   -0.027150208724297475   -0.0005020088684923167
-0.004359454273571232   -0.027222217562734723   -0.00046185114375958165
-0.0072521408289185855   -0.033468843593708414   -0.000754508109797168
-0.0072097792157180315   -0.033564872988581   -0.0008302973333377476
-0.007743610591618183   -0.027280311600728746   -0.000608586134362201
-0.01041202659545369   -0.033451449727239166   -0.0009339519338446392
-0.00723296061743041   -0.03350955767157577   -0.0007947542628694642
-0.007743610591618183   -0.027280311600728746   -0.000608586134362201
-0.011270402109196269   -0.027187534059011174   -0.0007012511098362092
-0.01041202659545369   -0.033451449727239166   -0.0009339519338446392
-0.011305438916104108   -0.027147591983156045   -0.0006527446535599283
-0.00723296061743041   -0.03350955767157577   -0.0007947542628694642
-0.010431140083697112   -0.03340799335025507   -0.0008710619269505692
-0.011305438916104108   -0.027147591983156045   -0.0006527446535599283
-0.01041202659545369   -0.033451449727239166   -0.0009339519338446392
-0.00723296061743041   -0.03350955767157577   -0.0007947542628694642
-0.011305438916104108   -0.027147591983156045   -0.0006527446535599283
-0.007781388808398567   -0.027227916405639867   -0.0005772167007067463
-0.007743610591618183   -0.027280311600728746   -0.000608586134362201
-0.00723296061743041   -0.03350955767157577   -0.0007947542628694642
-0.011305438916104108   -0.027147591983156045   -0.0006527446535599283
-0.007743610591618183   -0.027280311600728746   -0.000608586134362201
-0.01041202659545369   -0.033451449727239166   -0.0009339519338446392
-0.00723296061743041   -0.03350955767157577   -0.0007947542628694642
-0.007781388808398567   -0.027227916405639867   -0.0005772167007067463
-0.010431140083697112   -0.03340799335025507   -0.0008710619269505692
-0.0072521408289185855   -0.033468843593708414   -0.000754508109797168
-0.007781388808398567   -0.027227916405639867   -0.0005772167007067463
-0.011305438916104108   -0.027147591983156045   -0.0006527446535599283
-0.010431140083697112   -0.03340799335025507   -0.0008710619269505692
-0.011326510088587935   -0.027115538065074465   -0.00060059376692615
-0.0072521408289185855   -0.033468843593708414   -0.000754508109797168
-0.010433369223554707   -0.0333782708405067   -0.0008041190189467729
-0.011326510088587935   -0.027115538065074465   -0.00060059376692615
-0.010431140083697112   -0.03340799335025507   -0.0008710619269505692
-0.0072521408289185855   -0.033468843593708414   -0.000754508109797168
-0.011326510088587935   -0.027115538065074465   -0.00060059376692615
-0.007815639796050634   -0.027184525257278037   -0.0005416379030316905
-0.007781388808398567   -0.027227916405639867   -0.0005772167007067463
-0.0072521408289185855   -0.033468843593708414   -0.000754508109797168
-0.011326510088587935   -0.027115538065074465   -0.00060059376692615
-0.007781388808398567   -0.027227916405639867   -0.0005772167007067463
-0.010431140083697112   -0.03340799335025507   -0.0008710619269505692
-0.0072521408289185855   -0.033468843593708414   -0.000754508109797168
-0.007815639796050634   -0.027184525257278037   -0.0005416379030316905
-0.010433369223554707   -0.0333782708405067   -0.0008041190189467729
-0.007271887157736138   -0.03344266829762015   -0.0007096961573966104
-0.007815639796050634   -0.027184525257278037   -0.0005416379030316905
-0.011326510088587935   -0.027115538065074465   -0.00060059376692615
-0.010433369223554707   -0.0333782708405067   -0.0008041190189467729
-0.011349733004297728   -0.027093353318509143   -0.0005440463945296991
-0.007271887157736138   -0.03344266829762015   -0.0007096961573966104
-0.010440443101072894   -0.033364400964371786   -0.0007322629557482185
-0.011349733004297728   -0.027093353318509143   -0.0005440463945296991
-0.010433369223554707   -0.0333782708405067   -0.0008041190189467729
-0.007271887157736138   -0.03344266829762015   -0.0007096961573966104
-0.011349733004297728   -0.027093353318509143   -0.0005440463945296991
-0.007850218366995095   -0.027150208724297475   -0.0005020088684923167
-0.007815639796050634   -0.027184525257278037   -0.0005416379030316905
-0.007271887157736138   -0.03344266829762015   -0.0007096961573966104
-0.011349733004297728   -0.027093353318509143   -0.0005440463945296991
-0.007815639796050634   -0.027184525257278037   -0.0005416379030316905
-0.010433369223554707   -0.0333782708405067   -0.0008041190189467729
-0.01041202659545369   -0.033451449727239166   -0.0009339519338446392
-0.011270402109196269   -0.027187534059011174   -0.0007012511098362092
-0.013904395696908324   -0.03330240254674252   -0.0010225124768578591
-0.010431140083697112   -0.03340799335025507   -0.0008710619269505692
-0.011270402109196269   -0.027187534059011174   -0.0007012511098362092
-0.015056271473255263   -0.02707313912807659   -0.0007747880215164621
-0.013904395696908324   -0.03330240254674252   -0.0010225124768578591
-0.01502948784605218   -0.02703955581436588   -0.0007100085139616818
-0.010431140083697112   -0.03340799335025507   -0.0008710619269505692
-0.013836756129528891   -0.033262703743700925   -0.0009306230732822494
-0.01502948784605218   -0.02703955581436588   -0.0007100085139616818
-0.013904395696908324   -0.03330240254674252   -0.0010225124768578591
-0.010431140083697112   -0.03340799335025507   -0.0008710619269505692
-0.01502948784605218   -0.02703955581436588   -0.0007100085139616818
-0.011305438916104108   -0.027147591983156045   -0.0006527446535599283
-0.011270402109196269   -0.027187534059011174   -0.0007012511098362092
-0.010431140083697112   -0.03340799335025507   -0.0008710619269505692
-0.01502948784605218   -0.02703955581436588   -0.0007100085139616818
-0.011270402109196269   -0.027187534059011174   -0.0007012511098362092
-0.013904395696908324   -0.03330240254674252   -0.0010225124768578591
-0.010431140083697112   -0.03340799335025507   -0.0008710619269505692
-0.011305438916104108   -0.027147591983156045   -0.0006527446535599283
-0.013836756129528891   -0.033262703743700925   -0.0009306230732822494
-0.010433369223554707   -0.0333782708405067   -0.0008041190189467729
-0.011305438916104108   -0.027147591983156045   -0.0006527446535599283
-0.01502948784605218   -0.02703955581436588   -0.0007100085139616818
-0.013836756129528891   -0.033262703743700925   -0.0009306230732822494
-0.015007650962787574   -0.027012845789841183   -0.000638541145828592
-0.010433369223554707   -0.0333782708405067   -0.0008041190189467729
-0.013779778952190902   -0.03323764503600583   -0.0008316521192065192
-0.015007650962787574   -0.027012845789841183   -0.000638541145828592
-0.013836756129528891   -0.033262703743700925   -0.0009306230732822494
-0.010433369223554707   -0.0333782708405067   -0.0008041190189467729
-0.015007650962787574   -0.027012845789841183   -0.000638541145828592
-0.011326510088587935   -0.027115538065074465   -0.00060059376692615
-0.011305438916104108   -0.027147591983156045   -0.0006527446535599283
-0.010433369223554707   -0.0333782708405067   -0.0008041190189467729
-0.015007650962787574   -0.027012845789841183   -0.000638541145828592
-0.011305438916104108   -0.027147591983156045   -0.0006527446535599283
-0.013836756129528891   -0.033262703743700925   -0.0009306230732822494
-0.010433369223554707   -0.0333782708405067   -0.0008041190189467729
-0.011326510088587935   -0.027115538065074465   -0.00060059376692615
-0.013779778952190902   -0.03323764503600583   -0.0008316521192065192
-0.010440443101072894   -0.033364400964371786   -0.0007322629557482185
-0.011326510088587935   -0.027115538065074465   -0.00060059376692615
-0.015007650962787574   -0.027012845789841183   -0.000638541145828592
-0.013779778952190902   -0.03323764503600583   -0.0008316521192065192
-0.014955945039407205   -0.0270052463694965   -0.0005611477669051769
-0.010440443101072894   -0.033364400964371786   -0.0007322629557482185
-0.013686055808377453   -0.033239480936247436   -0.0007264840534461886
-0.014955945039407205   -0.0270052463694965   -0.0005611477669051769
-0.013779778952190902   -0.03323764503600583   -0.0008316521192065192
-0.010440443101072894   -0.033364400964371786   -0.0007322629557482185
-0.014955945039407205   -0.0270052463694965   -0.0005611477669051769
-0.011349733004297728   -0.027093353318509143   -0.0005440463945296991
-0.011326510088587935   -0.027115538065074465   -0.00060059376692615
-0.010440443101072894   -0.033364400964371786   -0.0007322629557482185
-0.014955945039407205   -0.0270052463694965   -0.0005611477669051769
-0.011326510088587935   -0.027115538065074465   -0.00060059376692615
-0.013779778952190902   -0.03323764503600583   -0.0008316521192065192
0.0029198199632942895   -0.027376200615267115   -0.0001958736236558344
0.0030255956535529733   -0.02070075197323881   -3.1559400612573185e-05
-0.0007677362730045557   -0.027375893632095128   -0.0003598866922278235
0.0029100056289795245   -0.027286099005663353   -0.00022240046782959308
0.0030255956535529733   -0.02070075197323881   -3.1559400612573185e-05
-0.0008748219188510349   -0.020666874551251657   -0.00017880332304487742
-0.0007677362730045557   -0.027375893632095128   -0.0003598866922278235
-0.0009197786378318237   -0.020592119728605956   -0.00016557539503428965
0.0029100056289795245   -0.027286099005663353   -0.00022240046782959308
-0.0008003698772637217   -0.027297707120028238   -0.00036256895575279317
-0.0009197786378318237   -0.020592119728605956   -0.00016557539503428965
-0.0007677362730045557   -0.027375893632095128   -0.0003598866922278235
0.0029100056289795245   -0.027286099005663353   -0.00022240046782959308
-0.0009197786378318237   -0.020592119728605956   -0.00016557539503428965
0.002978342199499582   -0.020614878632206825   -2.9368208178102345e-05
0.0030255956535529733   -0.02070075197323881   -3.1559400612573185e-05
0.0029100056289795245   -0.027286099005663353   -0.00022240046782959308
-0.0009197786378318237   -0.020592119728605956   -0.00016557539503428965
0.0030255956535529733   -0.02070075197323881   -3.1559400612573185e-05
-0.0007677362730045557   -0.027375893632095128   -0.0003598866922278235
0.0029100056289795245   -0.027286099005663353   -0.00022240046782959308
0.002978342199499582   -0.020614878632206825   -2.9368208178102345e-05
-0.0008003698772637217   -0.027297707120028238   -0.00036256895575279317
0.0028841718461477617   -0.027213939471622865   -0.0002422986479163033
0.002978342199499582   -0.020614878632206825   -2.9368208178102345e-05
-0.0009197786378318237   -0.020592119728605956   -0.00016557539503428965
-0.0008003698772637217   -0.027297707120028238   -0.00036256895575279317
-0.0009712832232966187   -0.020521743463605337   -0.00014858642289106337
0.0028841718461477617   -0.027213939471622865   -0.0002422986479163033
-0.0008366381931578592   -0.02723066084849826   -0.0003611156587259892
-0.0009712832232966187   -0.020521743463605337   -0.00014858642289106337
-0.0008003698772637217   -0.027297707120028238   -0.00036256895575279317
0.0028841718461477617   -0.027213939471622865   -0.0002422986479163033
-0.0009712832232966187   -0.020521743463605337   -0.00014858642289106337
0.0029199860984661517   -0.020538415995058786   -1.9499685607944228e-05
0.002978342199499582   -0.020614878632206825   -2.9368208178102345e-05
0.0028841718461477617   -0.027213939471622865   -0.0002422986479163033
-0.0009712832232966187   -0.020521743463605337   -0.00014858642289106337
0.002978342199499582   -0.020614878632206825   -2.9368208178102345e-05
-0.0008003698772637217   -0.027297707120028238   -0.00036256895575279317
0.0028841718461477617   -0.027213939471622865   -0.0002422986479163033
0.0029199860984661517   -0.020538415995058786   -1.9499685607944228e-05
-0.0008366381931578592   -0.02723066084849826   -0.0003611156587259892
0.0028479829700856656   -0.027147804599245776   -0.000256031207618124
0.0029199860984661517   -0.020538415995058786   -1.9499685607944228e-05
-0.0009712832232966187   -0.020521743463605337   -0.00014858642289106337
-0.0008366381931578592   -0.02723066084849826   -0.0003611156587259892
-0.001029178906100093   -0.020454773413097923   -0.0001268950785457407
0.0028479829700856656   -0.027147804599245776   -0.000256031207618124
-0.0008817775368594328   -0.027172997747326358   -0.0003553637621391337
-0.001029178906100093   -0.020454773413097923   -0.0001268950785457407
-0.0008366381931578592   -0.02723066084849826   -0.0003611156587259892
0.0028479829700856656   -0.027147804599245776   -0.000256031207618124
-0.001029178906100093   -0.020454773413097923   -0.0001268950785457407
0.0028429684567824005   -0.020458569888053658   -2.2989101641695368e-06
0.0029199860984661517   -0.020538415995058786   -1.9499685607944228e-05
0.0028479829700856656   -0.027147804599245776   -0.000256031207618124
-0.001029178906100093   -0.020454773413097923   -0.0001268950785457407
0.0029199860984661517   -0.020538415995058786   -1.9499685607944228e-05
-0.0008366381931578592   -0.02723066084849826   -0.0003611156587259892
-0.0007677362730045557   -0.027375893632095128   -0.0003598866922278235
-0.0008748219188510349   -0.020666874551251657   -0.00017880332304487742
-0.004285402900608559   -0.027342658295051864   -0.0004948908886311711
-0.0008003698772637217   -0.027297707120028238   -0.00036256895575279317
-0.0008748219188510349   -0.020666874551251657   -0.00017880332304487742
-0.004570544157782175   -0.020626951069252594   -0.00030304118611406176
-0.004285402900608559   -0.027342658295051864   -0.0004948908886311711
-0.004616518386091776   -0.02056459445317804   -0.0002824888051457815
-0.0008003698772637217   -0.027297707120028238   -0.00036256895575279317
-0.0043220557243041895   -0.027277903906388328   -0.0004805265119920293
-0.004616518386091776   -0.02056459445317804   -0.0002824888051457815
-0.004285402900608559   -0.027342658295051864   -0.0004948908886311711
-0.0008003698772637217   -0.027297707120028238   -0.00036256895575279317
-0.004616518386091776   -0.02056459445317804   -0.0002824888051457815
-0.0009197786378318237   -0.020592119728605956   -0.00016557539503428965
-0.0008748219188510349   -0.020666874551251657   -0.00017880332304487742
-0.0008003698772637217   -0.027297707120028238   -0.00036256895575279317
-0.004616518386091776   -0.02056459445317804   -0.0002824888051457815
-0.0008748219188510349   -0.020666874551251657   -0.00017880332304487742
-0.004285402900608559   -0.027342658295051864   -0.0004948908886311711
-0.0008003698772637217   -0.027297707120028238   -0.00036256895575279317
-0.0009197786378318237   -0.020592119728605956   -0.00016557539503428965
-0.0043220557243041895   -0.027277903906388328   -0.0004805265119920293
-0.0008366381931578592   -0.02723066084849826   -0.0003611156587259892
-0.0009197786378318237   -0.020592119728605956   -0.00016557539503428965
-0.004616518386091776   -0.02056459445317804   -0.0002824888051457815
-0.0043220557243041895   -0.027277903906388328   -0.0004805265119920293
-0.004663535432949045   -0.02050563255843604   -0.0002583463613615009
-0.0008366381931578592   -0.02723066084849826   -0.0003611156587259892
-0.004359454273571232   -0.027222217562734723   -0.00046185114375958165
-0.004663535432949045   -0.02050563255843604   -0.0002583463613615009
-0.0043220557243041895   -0.027277903906388328   -0.0004805265119920293
-0.0008366381931578592   -0.02723066084849826   -0.0003611156587259892
-0.004663535432949045   -0.02050563255843604   -0.0002583463613615009
-0.0009712832232966187   -0.020521743463605337   -0.00014858642289106337
-0.0009197786378318237   -0.020592119728605956   -0.00016557539503428965
-0.0008366381931578592   -0.02723066084849826   -0.0003611156587259892
-0.004663535432949045   -0.02050563255843604   -0.0002583463613615009
-0.0009197786378318237   -0.020592119728605956   -0.00016557539503428965
-0.0043220557243041895   -0.027277903906388328   -0.0004805265119920293
-0.0008366381931578592   -0.02723066084849826   -0.0003611156587259892
-0.0009712832232966187   -0.020521743463605337   -0.00014858642289106337
-0.004359454273571232   -0.027222217562734723   -0.00046185114375958165
-0.0008817775368594328   -0.027172997747326358   -0.0003553637621391337
-0.0009712832232966187   -0.020521743463605337   -0.00014858642289106337
-0.004663535432949045   -0.02050563255843604   -0.0002583463613615009
-0.004359454273571232   -0.027222217562734723   -0.00046185114375958165
-0.004713562878230815   -0.020450996438009756   -0.00023057960111923028
-0.0008817775368594328   -0.027172997747326358   -0.0003553637621391337
-0.004400035957150467   -0.027176134336632678   -0.00043907053598003657
-0.004713562878230815   -0.020450996438009756   -0.00023057960111923028
-0.004359454273571232   -0.027222217562734723   -0.00046185114375958165
-0.0008817775368594328   -0.027172997747326358   -0.0003553637621391337
-0.004713562878230815   -0.020450996438009756   -0.00023057960111923028
-0.001029178906100093   -0.020454773413097923   -0.0001268950785457407
-0.0009712832232966187   -0.020521743463605337   -0.00014858642289106337
-0.0008817775368594328   -0.027172997747326358   -0.0003553637621391337
-0.004713562878230815   -0.020450996438009756   -0.00023057960111923028
-0.0009712832232966187   -0.020521743463605337   -0.00014858642289106337
-0.004359454273571232   -0.027222217562734723   -0.00046185114375958165
-0.004285402900608559   -0.027342658295051864   -0.0004948908886311711
-0.004570544157782175   -0.020626951069252594   -0.00030304118611406176
-0.007743610591618183   -0.027280311600728746   -0.000608586134362201
-0.0043220557243041895   -0.027277903906388328   -0.0004805265119920293
-0.004570544157782175   -0.020626951069252594   -0.00030304118611406176
-0.008205914921815972   -0.020578874446530247   -0.0004083274279387911
-0.007743610591618183   -0.027280311600728746   -0.000608586134362201
-0.00825160067430848   -0.020527983181863926   -0.0003804731533531749
-0.0043220557243041895   -0.027277903906388328   -0.0004805265119920293
-0.007781388808398567   -0.027227916405639867   -0.0005772167007067463
-0.00825160067430848   -0.020527983181863926   -0.0003804731533531749
-0.007743610591618183   -0.027280311600728746   -0.000608586134362201
-0.0043220557243041895   -0.027277903906388328   -0.0004805265119920293
-0.00825160067430848   -0.020527983181863926   -0.0003804731533531749
-0.004616518386091776   -0.02056459445317804   -0.0002824888051457815
-0.004570544157782175   -0.020626951069252594   -0.00030304118611406176
-0.0043220557243041895   -0.027277903906388328   -0.0004805265119920293
-0.00825160067430848   -0.020527983181863926   -0.0003804731533531749
-0.004570544157782175   -0.020626951069252594   -0.00030304118611406176
-0.007743610591618183   -0.027280311600728746   -0.000608586134362201
-0.0043220557243041895   -0.027277903906388328   -0.0004805265119920293
-0.004616518386091776   -0.02056459445317804   -0.0002824888051457815
-0.007781388808398567   -0.027227916405639867   -0.0005772167007067463
-0.004359454273571232   -0.027222217562734723   -0.00046185114375958165
-0.004616518386091776   -0.02056459445317804   -0.0002824888051457815
-0.00825160067430848   -0.020527983181863926   -0.0003804731533531749
-0.007781388808398567   -0.027227916405639867   -0.0005772167007067463
-0.008294317986527673   -0.020480671560131235   -0.000349151287594661
-0.004359454273571232   -0.027222217562734723   -0.00046185114375958165
-0.007815639796050634   -0.027184525257278037   -0.0005416379030316905
-0.008294317986527673   -0.020480671560131235   -0.000349151287594661
-0.007781388808398567   -0.027227916405639867   -0.0005772167007067463
-0.004359454273571232   -0.027222217562734723   -0.00046185114375958165
-0.008294317986527673   -0.020480671560131235   -0.000349151287594661
-0.004663535432949045   -0.02050563255843604   -0.0002583463613615009
-0.004616518386091776   -0.02056459445317804   -0.0002824888051457815
-0.004359454273571232   -0.027222217562734723   -0.00046185114375958165
-0.008294317986527673   -0.020480671560131235   -0.000349151287594661
-0.004616518386091776   -0.02056459445317804   -0.0002824888051457815
-0.007781388808398567   -0.027227916405639867   -0.0005772167007067463
-0.004359454273571232   -0.027222217562734723   -0.00046185114375958165
-0.004663535432949045   -0.02050563255843604   -0.0002583463613615009
-0.007815639796050634   -0.027184525257278037   -0.0005416379030316905
-0.004400035957150467   -0.027176134336632678   -0.00043907053598003657
-0.004663535432949045   -0.02050563255843604   -0.0002583463613615009
-0.008294317986527673   -0.020480671560131235   -0.000349151287594661
-0.007815639796050634   -0.027184525257278037   -0.0005416379030316905
-0.00833718851170809   -0.020437067903466336   -0.0003145322311207519
-0.004400035957150467   -0.027176134336632678   -0.00043907053598003657
-0.007850218366995095   -0.027150208724297475   -0.0005020088684923167
-0.00833718851170809   -0.020437067903466336   -0.0003145322311207519
-0.007815639796050634   -0.027184525257278037   -0.0005416379030316905
-0.004400035957150467   -0.027176134336632678   -0.00043907053598003657
-0.00833718851170809   -0.020437067903466336   -0.0003145322311207519
-0.004713562878230815   -0.020450996438009756   -0.00023057960111923028
-0.004663535432949045   -0.02050563255843604   -0.0002583463613615009
-0.004400035957150467   -0.027176134336632678   -0.00043907053598003657
-0.00833718851170809   -0.020437067903466336   -0.0003145322311207519
-0.004663535432949045   -0.02050563255843604   -0.0002583463613615009
-0.007815639796050634   -0.027184525257278037   -0.0005416379030316905
-0.007743610591618183   -0.027280311600728746   -0.000608586134362201
-0.008205914921815972   -0.020578874446530247   -0.0004083274279387911
-0.011270402109196269   -0.027187534059011174   -0.0007012511098362092
-0.007781388808398567   -0.027227916405639867   -0.0005772167007067463
-0.008205914921815972   -0.020578874446530247   -0.0004083274279387911
-0.011907086444521573   -0.020513749533245203   -0.0004937588386022999
-0.011270402109196269   -0.027187534059011174   -0.0007012511098362092
-0.011950818157170192   -0.020474917860535513   -0.0004586904353234791
-0.007781388808398567   -0.027227916405639867   -0.0005772167007067463
-0.011305438916104108   -0.027147591983156045   -0.0006527446535599283
-0.011950818157170192   -0.020474917860535513   -0.0004586904353234791
-0.011270402109196269   -0.027187534059011174   -0.0007012511098362092
-0.007781388808398567   -0.027227916405639867   -0.0005772167007067463
-0.011950818157170192   -0.020474917860535513   -0.0004586904353234791
-0.00825160067430848   -0.020527983181863926   -0.0003804731533531749
-0.008205914921815972   -0.020578874446530247   -0.0004083274279387911
-0.007781388808398567   -0.027227916405639867   -0.0005772167007067463
-0.011950818157170192   -0.020474917860535513   -0.0004586904353234791
-0.008205914921815972   -0.020578874446530247   -0.0004083274279387911
-0.011270402109196269   -0.027187534059011174   -0.0007012511098362092
-0.007781388808398567   -0.027227916405639867   -0.0005772167007067463
-0.00825160067430848   -0.020527983181863926   -0.0003804731533531749
-0.011305438916104108   -0.027147591983156045   -0.0006527446535599283
-0.007815639796050634   -0.027184525257278037   -0.0005416379030316905
-0.00825160067430848   -0.020527983181863926   -0.0003804731533531749
-0.011950818157170192   -0.020474917860535513   -0.0004586904353234791
-0.011305438916104108   -0.027147591983156045   -0.0006527446535599283
-0.011983867291224342   -0.02043834667307446   -0.0004207203347204784
-0.007815639796050634   -0.027184525257278037   -0.0005416379030316905
-0.011326510088587935   -0.027115538065074465   -0.00060059376692615
-0.011983867291224342   -0.02043834667307446   -0.0004207203347204784
-0.011305438916104108   -0.027147591983156045   -0.0006527446535599283
-0.007815639796050634   -0.027184525257278037   -0.0005416379030316905
-0.011983867291224342   -0.02043834667307446   -0.0004207203347204784
-0.008294317986527673   -0.020480671560131235   -0.000349151287594661
-0.00825160067430848   -0.020527983181863926   -0.0003804731533531749
-0.007815639796050634   -0.027184525257278037   -0.0005416379030316905
-0.011983867291224342   -0.02043834667307446   -0.0004207203347204784
-0.00825160067430848   -0.020527983181863926   -0.0003804731533531749
-0.011305438916104108   -0.027147591983156045   -0.0006527446535599283
-0.007815639796050634   -0.027184525257278037   -0.0005416379030316905
-0.008294317986527673   -0.020480671560131235   -0.000349151287594661
-0.011326510088587935   -0.027115538065074465   -0.00060059376692615
-0.007850218366995095   -0.027150208724297475   -0.0005020088684923167
-0.008294317986527673   -0.020480671560131235   -0.000349151287594661
-0.011983867291224342   -0.02043834667307446   -0.0004207203347204784
-0.011326510088587935   -0.027115538065074465   -0.00060059376692615
-0.012016683766820056   -0.02040569697194376   -0.0003790970719607432
-0.007850218366995095   -0.027150208724297475   -0.0005020088684923167
-0.011349733004297728   -0.027093353318509143   -0.0005440463945296991
-0.012016683766820056   -0.02040569697194376   -0.0003790970719607432
-0.011326510088587935   -0.027115538065074465   -0.00060059376692615
-0.007850218366995095   -0.027150208724297475   -0.0005020088684923167
-0.012016683766820056   -0.02040569697194376   -0.0003790970719607432
-0.00833718851170809   -0.020437067903466336   -0.0003145322311207519
-0.008294317986527673   -0.020480671560131235   -0.000349151287594661
-0.007850218366995095   -0.027150208724297475   -0.0005020088684923167
-0.012016683766820056   -0.02040569697194376   -0.0003790970719607432
-0.008294317986527673   -0.020480671560131235   -0.000349151287594661
-0.011326510088587935   -0.027115538065074465   -0.00060059376692615
-0.011270402109196269   -0.027187534059011174   -0.0007012511098362092
-0.011907086444521573   -0.020513749533245203   -0.0004937588386022999
-0.015056271473255263   -0.02707313912807659   -0.0007747880215164621
-0.011305438916104108   -0.027147591983156045   -0.0006527446535599283
-0.011907086444521573   -0.020513749533245203   -0.0004937588386022999
-0.015830832475188857   -0.020436580740633804   -0.0005568360473393069
-0.015056271473255263   -0.02707313912807659   -0.0007747880215164621
-0.01583691634618367   -0.020405770464882213   -0.0005179025202968631
-0.011305438916104108   -0.027147591983156045   -0.0006527446535599283
-0.01502948784605218   -0.02703955581436588   -0.0007100085139616818
-0.01583691634618367   -0.020405770464882213   -0.0005179025202968631
-0.015056271473255263   -0.02707313912807659   -0.0007747880215164621
-0.011305438916104108   -0.027147591983156045   -0.0006527446535599283
-0.01583691634618367   -0.020405770464882213   -0.0005179025202968631
-0.011950818157170192   -0.020474917860535513   -0.0004586904353234791
-0.011907086444521573   -0.020513749533245203   -0.0004937588386022999
-0.011305438916104108   -0.027147591983156045   -0.0006527446535599283
-0.01583691634618367   -0.020405770464882213   -0.0005179025202968631
-0.011907086444521573   -0.020513749533245203   -0.0004937588386022999
-0.015056271473255263   -0.02707313912807659   -0.0007747880215164621
-0.011305438916104108   -0.027147591983156045   -0.0006527446535599283
-0.011950818157170192   -0.020474917860535513   -0.0004586904353234791
-0.01502948784605218   -0.02703955581436588   -0.0007100085139616818
-0.011326510088587935   -0.027115538065074465   -0.00060059376692615
-0.011950818157170192   -0.020474917860535513   -0.0004586904353234791
-0.01583691634618367   -0.020405770464882213   -0.0005179025202968631
-0.01502948784605218   -0.02703955581436588   -0.0007100085139616818
-0.015843268916294194   -0.02037471843920703   -0.000473133774296579
-0.011326510088587935   -0.027115538065074465   -0.00060059376692615
-0.015007650962787574   -0.027012845789841183   -0.000638541145828592
-0.015843268916294194   -0.02037471843920703   -0.000473133774296579
-0.01502948784605218   -0.02703955581436588   -0.0007100085139616818
-0.011326510088587935   -0.027115538065074465   -0.00060059376692615
-0.015843268916294194   -0.02037471843920703   -0.000473133774296579
-0.011983867291224342   -0.02043834667307446   -0.0004207203347204784
-0.011950818157170192   -0.020474917860535513   -0.0004586904353234791
-0.011326510088587935   -0.027115538065074465   -0.00060059376692615
-0.015843268916294194   -0.02037471843920703   -0.000473133774296579
-0.011950818157170192   -0.020474917860535513   -0.0004586904353234791
-0.01502948784605218   -0.02703955581436588   -0.0007100085139616818
-0.011326510088587935   -0.027115538065074465   -0.00060059376692615
-0.011983867291224342   -0.02043834667307446   -0.0004207203347204784
-0.015007650962787574   -0.027012845789841183   -0.000638541145828592
-0.011349733004297728   -0.027093353318509143   -0.0005440463945296991
-0.011983867291224342   -0.02043834667307446   -0.0004207203347204784
-0.015843268916294194   -0.02037471843920703   -0.000473133774296579
-0.015007650962787574   -0.027012845789841183   -0.000638541145828592
-0.015827394229292968   -0.020354793056837118   -0.0004232180016741348
-0.011349733004297728   -0.027093353318509143   -0.0005440463945296991
-0.014955945039407205   -0.0270052463694965   -0.0005611477669051769
-0.015827394229292968   -0.020354793056837118   -0.0004232180016741348
-0.015007650962787574   -0.027012845789841183   -0.000638541145828592
-0.011349733004297728   -0.027093353318509143   -0.0005440463945296991
-0.015827394229292968   -0.020354793056837118   -0.0004232180016741348
-0.012016683766820056   -0.02040569697194376   -0.0003790970719607432
-0.011983867291224342   -0.02043834667307446   -0.0004207203347204784
-0.011349733004297728   -0.027093353318509143   -0.0005440463945296991
-0.015827394229292968   -0.020354793056837118   -0.0004232180016741348
-0.011983867291224342   -0.02043834667307446   -0.0004207203347204784
-0.015007650962787574   -0.027012845789841183   -0.000638541145828592
0.0030255956535529733   -0.02070075197323881   -3.1559400612573185e-05
0.0027170737955229864   -0.013820520962430888   8.191912642482105e-05
-0.0008748219188510349   -0.020666874551251657   -0.00017880332304487742
0.002978342199499582   -0.020614878632206825   -2.9368208178102345e-05
0.0027170737955229864   -0.013820520962430888   8.191912642482105e-05
-0.001215957263099219   -0.013756125661143785   -3.4623209043919934e-05
-0.0008748219188510349   -0.020666874551251657   -0.00017880332304487742
-0.0012698753926925618   -0.013688571087748333   -6.694866326525683e-06
0.002978342199499582   -0.020614878632206825   -2.9368208178102345e-05
-0.0009197786378318237   -0.020592119728605956   -0.00016557539503428965
-0.0012698753926925618   -0.013688571087748333   -6.694866326525683e-06
-0.0008748219188510349   -0.020666874551251657   -0.00017880332304487742
0.002978342199499582   -0.020614878632206825   -2.9368208178102345e-05
-0.0012698753926925618   -0.013688571087748333   -6.694866326525683e-06
0.0026324769979041564   -0.013738799603631844   0.00011640070423309606
0.0027170737955229864   -0.013820520962430888   8.191912642482105e-05
0.002978342199499582   -0.020614878632206825   -2.9368208178102345e-05
-0.0012698753926925618   -0.013688571087748333   -6.694866326525683e-06
0.0027170737955229864   -0.013820520962430888   8.191912642482105e-05
-0.0008748219188510349   -0.020666874551251657   -0.00017880332304487742
0.002978342199499582   -0.020614878632206825   -2.9368208178102345e-05
0.0026324769979041564   -0.013738799603631844   0.00011640070423309606
-0.0009197786378318237   -0.020592119728605956   -0.00016557539503428965
0.0029199860984661517   -0.020538415995058786   -1.9499685607944228e-05
0.0026324769979041564   -0.013738799603631844   0.00011640070423309606
-0.0012698753926925618   -0.013688571087748333   -6.694866326525683e-06
-0.0009197786378318237   -0.020592119728605956   -0.00016557539503428965
-0.0013330037731588767   -0.013617343605522967   2.624485903274046e-05
0.0029199860984661517   -0.020538415995058786   -1.9499685607944228e-05
-0.0009712832232966187   -0.020521743463605337   -0.00014858642289106337
-0.0013330037731588767   -0.013617343605522967   2.624485903274046e-05
-0.0009197786378318237   -0.020592119728605956   -0.00016557539503428965
0.0029199860984661517   -0.020538415995058786   -1.9499685607944228e-05
-0.0013330037731588767   -0.013617343605522967   2.624485903274046e-05
0.0025377576108115392   -0.013657810837663919   0.000166180673901938
0.0026324769979041564   -0.013738799603631844   0.00011640070423309606
0.0029199860984661517   -0.020538415995058786   -1.9499685607944228e-05
-0.0013330037731588767   -0.013617343605522967   2.624485903274046e-05
0.0026324769979041564   -0.013738799603631844   0.00011640070423309606
-0.0009197786378318237   -0.020592119728605956   -0.00016557539503428965
0.0029199860984661517   -0.020538415995058786   -1.9499685607944228e-05
0.0025377576108115392   -0.013657810837663919   0.000166180673901938
-0.0009712832232966187   -0.020521743463605337   -0.00014858642289106337
0.0028429684567824005   -0.020458569888053658   -2.2989101641695368e-06
0.0025377576108115392   -0.013657810837663919   0.000166180673901938
-0.0013330037731588767   -0.013617343605522967   2.624485903274046e-05
-0.0009712832232966187   -0.020521743463605337   -0.00014858642289106337
-0.0013983658128943104   -0.013541778918193739   6.413763550279982e-05
0.0028429684567824005   -0.020458569888053658   -2.2989101641695368e-06
-0.001029178906100093   -0.020454773413097923   -0.0001268950785457407
-0.0013983658128943104   -0.013541778918193739   6.413763550279982e-05
-0.0009712832232966187   -0.020521743463605337   -0.00014858642289106337
0.0028429684567824005   -0.020458569888053658   -2.2989101641695368e-06
-0.0013983658128943104   -0.013541778918193739   6.413763550279982e-05
0.0024219956259728145   -0.013558255187404188   0.00022100090150928905
0.0025377576108115392   -0.013657810837663919   0.000166180673901938
0.0028429684567824005   -0.020458569888053658   -2.2989101641695368e-06
-0.0013983658128943104   -0.013541778918193739   6.413763550279982e-05
0.0025377576108115392   -0.013657810837663919   0.000166180673901938
-0.0009712832232966187   -0.020521743463605337   -0.00014858642289106337
-0.0008748219188510349   -0.020666874551251657   -0.00017880332304487742
-0.001215957263099219   -0.013756125661143785   -3.4623209043919934e-05
-0.004570544157782175   -0.020626951069252594   -0.00030304118611406176
-0.0009197786378318237   -0.020592119728605956   -0.00016557539503428965
-0.001215957263099219   -0.013756125661143785   -3.4623209043919934e-05
-0.004918619262716439   -0.013739436786086058   -0.00014674815462451988
-0.004570544157782175   -0.020626951069252594   -0.00030304118611406176
-0.00496746463891114   -0.01368063476089212   -0.0001206272270877909
-0.0009197786378318237   -0.020592119728605956   -0.00016557539503428965
-0.004616518386091776   -0.02056459445317804   -0.0002824888051457815
-0.00496746463891114   -0.01368063476089212   -0.0001206272270877909
-0.004570544157782175   -0.020626951069252594   -0.00030304118611406176
-0.0009197786378318237   -0.020592119728605956   -0.00016557539503428965
-0.00496746463891114   -0.01368063476089212   -0.0001206272270877909
-0.0012698753926925618   -0.013688571087748333   -6.694866326525683e-06
-0.001215957263099219   -0.013756125661143785   -3.4623209043919934e-05
-0.0009197786378318237   -0.020592119728605956   -0.00016557539503428965
-0.00496746463891114   -0.01368063476089212   -0.0001206272270877909
-0.001215957263099219   -0.013756125661143785   -3.4623209043919934e-05
-0.004570544157782175   -0.020626951069252594   -0.00030304118611406176
-0.0009197786378318237   -0.020592119728605956   -0.00016557539503428965
-0.0012698753926925618   -0.013688571087748333   -6.694866326525683e-06
-0.004616518386091776   -0.02056459445317804   -0.0002824888051457815
-0.0009712832232966187   -0.020521743463605337   -0.00014858642289106337
-0.0012698753926925618   -0.013688571087748333   -6.694866326525683e-06
-0.00496746463891114   -0.01368063476089212   -0.0001206272270877909
-0.004616518386091776   -0.02056459445317804   -0.0002824888051457815
-0.005018019461763608   -0.013619497004523586   -9.188898938022096e-05
-0.0009712832232966187   -0.020521743463605337   -0.00014858642289106337
-0.004663535432949045   -0.02050563255843604   -0.0002583463613615009
-0.005018019461763608   -0.013619497004523586   -9.188898938022096e-05
-0.004616518386091776   -0.02056459445317804   -0.0002824888051457815
-0.0009712832232966187   -0.020521743463605337   -0.00014858642289106337
-0.005018019461763608   -0.013619497004523586   -9.188898938022096e-05
-0.0013330037731588767   -0.013617343605522967   2.624485903274046e-05
-0.0012698753926925618   -0.013688571087748333   -6.694866326525683e-06
-0.0009712832232966187   -0.020521743463605337   -0.00014858642289106337
-0.005018019461763608   -0.013619497004523586   -9.188898938022096e-05
-0.0012698753926925618   -0.013688571087748333   -6.694866326525683e-06
-0.004616518386091776   -0.02056459445317804   -0.0002824888051457815
-0.0009712832232966187   -0.020521743463605337   -0.00014858642289106337
-0.0013330037731588767   -0.013617343605522967   2.624485903274046e-05
-0.004663535432949045   -0.02050563255843604   -0.0002583463613615009
-0.001029178906100093   -0.020454773413097923   -0.0001268950785457407
-0.0013330037731588767   -0.013617343605522967   2.624485903274046e-05
-0.005018019461763608   -0.013619497004523586   -9.188898938022096e-05
-0.004663535432949045   -0.02050563255843604   -0.0002583463613615009
-0.005070677890521998   -0.013557154469847479   -6.0016281326340685e-05
-0.001029178906100093   -0.020454773413097923   -0.0001268950785457407
-0.004713562878230815   -0.020450996438009756   -0.00023057960111923028
-0.005070677890521998   -0.013557154469847479   -6.0016281326340685e-05
-0.004663535432949045   -0.02050563255843604   -0.0002583463613615009
-0.001029178906100093   -0.020454773413097923   -0.0001268950785457407
-0.005070677890521998   -0.013557154469847479   -6.0016281326340685e-05
-0.0013983658128943104   -0.013541778918193739   6.413763550279982e-05
-0.0013330037731588767   -0.013617343605522967   2.624485903274046e-05
-0.001029178906100093   -0.020454773413097923   -0.0001268950785457407
-0.005070677890521998   -0.013557154469847479   -6.0016281326340685e-05
-0.0013330037731588767   -0.013617343605522967   2.624485903274046e-05
-0.004663535432949045   -0.02050563255843604   -0.0002583463613615009
-0.004570544157782175   -0.020626951069252594   -0.00030304118611406176
-0.004918619262716439   -0.013739436786086058   -0.00014674815462451988
-0.008205914921815972   -0.020578874446530247   -0.0004083274279387911
-0.004616518386091776   -0.02056459445317804   -0.0002824888051457815
-0.004918619262716439   -0.013739436786086058   -0.00014674815462451988
-0.008582608646328429   -0.013734763903812515   -0.00024796739626425056
-0.008205914921815972   -0.020578874446530247   -0.0004083274279387911
-0.008629357456021293   -0.013683318382026837   -0.0002229324968063546
-0.004616518386091776   -0.02056459445317804   -0.0002824888051457815
-0.00825160067430848   -0.020527983181863926   -0.0003804731533531749
-0.008629357456021293   -0.013683318382026837   -0.0002229324968063546
-0.008205914921815972   -0.020578874446530247   -0.0004083274279387911
-0.004616518386091776   -0.02056459445317804   -0.0002824888051457815
-0.008629357456021293   -0.013683318382026837   -0.0002229324968063546
-0.00496746463891114   -0.01368063476089212   -0.0001206272270877909
-0.004918619262716439   -0.013739436786086058   -0.00014674815462451988
-0.004616518386091776   -0.02056459445317804   -0.0002824888051457815
-0.008629357456021293   -0.013683318382026837   -0.0002229324968063546
-0.004918619262716439   -0.013739436786086058   -0.00014674815462451988
-0.008205914921815972   -0.020578874446530247   -0.0004083274279387911
-0.004616518386091776   -0.02056459445317804   -0.0002824888051457815
-0.00496746463891114   -0.01368063476089212   -0.0001206272270877909
-0.00825160067430848   -0.020527983181863926   -0.0003804731533531749
-0.004663535432949045   -0.02050563255843604   -0.0002583463613615009
-0.00496746463891114   -0.01368063476089212   -0.0001206272270877909
-0.008629357456021293   -0.013683318382026837   -0.0002229324968063546
-0.00825160067430848   -0.020527983181863926   -0.0003804731533531749
-0.008673893756054213   -0.013630987027540108   -0.00019560461989772765
-0.004663535432949045   -0.02050563255843604   -0.0002583463613615009
-0.008294317986527673   -0.020480671560131235   -0.000349151287594661
-0.008673893756054213   -0.013630987027540108   -0.00019560461989772765
-0.00825160067430848   -0.020527983181863926   -0.0003804731533531749
-0.004663535432949045   -0.02050563255843604   -0.0002583463613615009
-0.008673893756054213   -0.013630987027540108   -0.00019560461989772765
-0.005018019461763608   -0.013619497004523586   -9.188898938022096e-05
-0.00496746463891114   -0.01368063476089212   -0.0001206272270877909
-0.004663535432949045   -0.02050563255843604   -0.0002583463613615009
-0.008673893756054213   -0.013630987027540108   -0.00019560461989772765
-0.00496746463891114   -0.01368063476089212   -0.0001206272270877909
-0.00825160067430848   -0.020527983181863926   -0.0003804731533531749
-0.004663535432949045   -0.02050563255843604   -0.0002583463613615009
-0.005018019461763608   -0.013619497004523586   -9.188898938022096e-05
-0.008294317986527673   -0.020480671560131235   -0.000349151287594661
-0.004713562878230815   -0.020450996438009756   -0.00023057960111923028
-0.005018019461763608   -0.013619497004523586   -9.188898938022096e-05
-0.008673893756054213   -0.013630987027540108   -0.00019560461989772765
-0.008294317986527673   -0.020480671560131235   -0.000349151287594661
-0.00871798494404004   -0.013577464387905537   -0.00016610970296947712
-0.004713562878230815   -0.020450996438009756   -0.00023057960111923028
-0.00833718851170809   -0.020437067903466336   -0.0003145322311207519
-0.00871798494404004   -0.013577464387905537   -0.00016610970296947712
-0.008294317986527673   -0.020480671560131235   -0.000349151287594661
-0.004713562878230815   -0.020450996438009756   -0.00023057960111923028
-0.00871798494404004   -0.013577464387905537   -0.00016610970296947712
-0.005070677890521998   -0.013557154469847479   -6.0016281326340685e-05
-0.005018019461763608   -0.013619497004523586   -9.188898938022096e-05
-0.004713562878230815   -0.020450996438009756   -0.00023057960111923028
-0.00871798494404004   -0.013577464387905537   -0.00016610970296947712
-0.005018019461763608   -0.013619497004523586   -9.188898938022096e-05
-0.008294317986527673   -0.020480671560131235   -0.000349151287594661
-0.008205914921815972   -0.020578874446530247   -0.0004083274279387911
-0.008582608646328429   -0.013734763903812515   -0.00024796739626425056
-0.011907086444521573   -0.020513749533245203   -0.0004937588386022999
-0.00825160067430848   -0.020527983181863926   -0.0003804731533531749
-0.008582608646328429   -0.013734763903812515   -0.00024796739626425056
-0.012324320478147556   -0.013713315093731865   -0.000332729514689289
-0.011907086444521573   -0.020513749533245203   -0.0004937588386022999
-0.012368885242821061   -0.013671574157479268   -0.00030892168277506997
-0.00825160067430848   -0.020527983181863926   -0.0003804731533531749
-0.011950818157170192   -0.020474917860535513   -0.0004586904353234791
-0.012368885242821061   -0.013671574157479268   -0.00030892168277506997
-0.011907086444521573   -0.020513749533245203   -0.0004937588386022999
-0.00825160067430848   -0.020527983181863926   -0.0003804731533531749
-0.012368885242821061   -0.013671574157479268   -0.00030892168277506997
-0.008629357456021293   -0.013683318382026837   -0.0002229324968063546
-0.008582608646328429   -0.013734763903812515   -0.00024796739626425056
-0.00825160067430848   -0.020527983181863926   -0.0003804731533531749
-0.012368885242821061   -0.013671574157479268   -0.00030892168277506997
-0.008582608646328429   -0.013734763903812515   -0.00024796739626425056
-0.011907086444521573   -0.020513749533245203   -0.0004937588386022999
-0.00825160067430848   -0.020527983181863926   -0.0003804731533531749
-0.008629357456021293   -0.013683318382026837   -0.0002229324968063546
-0.011950818157170192   -0.020474917860535513   -0.0004586904353234791
-0.008294317986527673   -0.020480671560131235   -0.000349151287594661
-0.008629357456021293   -0.013683318382026837   -0.0002229324968063546
-0.012368885242821061   -0.013671574157479268   -0.00030892168277506997
-0.011950818157170192   -0.020474917860535513   -0.0004586904353234791
-0.012406587563483066   -0.013627559584029907   -0.00028347294652708474
-0.008294317986527673   -0.020480671560131235   -0.000349151287594661
-0.011983867291224342   -0.02043834667307446   -0.0004207203347204784
-0.012406587563483066   -0.013627559584029907   -0.00028347294652708474
-0.011950818157170192   -0.020474917860535513   -0.0004586904353234791
-0.008294317986527673   -0.020480671560131235   -0.000349151287594661
-0.012406587563483066   -0.013627559584029907   -0.00028347294652708474
-0.008673893756054213   -0.013630987027540108   -0.00019560461989772765
-0.008629357456021293   -0.013683318382026837   -0.0002229324968063546
-0.008294317986527673   -0.020480671560131235   -0.000349151287594661
-0.012406587563483066   -0.013627559584029907   -0.00028347294652708474
-0.008629357456021293   -0.013683318382026837   -0.0002229324968063546
-0.011950818157170192   -0.020474917860535513   -0.0004586904353234791
-0.008294317986527673   -0.020480671560131235   -0.000349151287594661
-0.008673893756054213   -0.013630987027540108   -0.00019560461989772765
-0.011983867291224342   -0.02043834667307446   -0.0004207203347204784
-0.00833718851170809   -0.020437067903466336   -0.0003145322311207519
-0.008673893756054213   -0.013630987027540108   -0.00019560461989772765
-0.012406587563483066   -0.013627559584029907   -0.00028347294652708474
-0.011983867291224342   -0.02043834667307446   -0.0004207203347204784
-0.012442218504537467   -0.013582425333210454   -0.00025568061636424674
-0.00833718851170809   -0.020437067903466336   -0.0003145322311207519
-0.012016683766820056   -0.02040569697194376   -0.0003790970719607432
-0.012442218504537467   -0.013582425333210454   -0.00025568061636424674
-0.011983867291224342   -0.02043834667307446   -0.0004207203347204784
-0.00833718851170809   -0.020437067903466336   -0.0003145322311207519
-0.012442218504537467   -0.013582425333210454   -0.00025568061636424674
-0.00871798494404004   -0.013577464387905537   -0.00016610970296947712
-0.008673893756054213   -0.013630987027540108   -0.00019560461989772765
-0.00833718851170809   -0.020437067903466336   -0.0003145322311207519
-0.012442218504537467   -0.013582425333210454   -0.00025568061636424674
-0.008673893756054213   -0.013630987027540108   -0.00019560461989772765
-0.011983867291224342   -0.02043834667307446   -0.0004207203347204784
-0.011907086444521573   -0.020513749533245203   -0.0004937588386022999
-0.012324320478147556   -0.013713315093731865   -0.000332729514689289
-0.015830832475188857   -0.020436580740633804   -0.0005568360473393069
-0.011950818157170192   -0.020474917860535513   -0.0004586904353234791
-0.012324320478147556   -0.013713315093731865   -0.000332729514689289
-0.016245000665287296   -0.013677813927947754   -0.00039502076895059715
-0.015830832475188857   -0.020436580740633804   -0.0005568360473393069
-0.016272392316776577   -0.013642959858149752   -0.000376979792401834
-0.011950818157170192   -0.020474917860535513   -0.0004586904353234791
-0.01583691634618367   -0.020405770464882213   -0.0005179025202968631
-0.016272392316776577   -0.013642959858149752   -0.000376979792401834
-0.015830832475188857   -0.020436580740633804   -0.0005568360473393069
-0.011950818157170192   -0.020474917860535513   -0.0004586904353234791
-0.016272392316776577   -0.013642959858149752   -0.000376979792401834
-0.012368885242821061   -0.013671574157479268   -0.00030892168277506997
-0.012324320478147556   -0.013713315093731865   -0.000332729514689289
-0.011950818157170192   -0.020474917860535513   -0.0004586904353234791
-0.016272392316776577   -0.013642959858149752   -0.000376979792401834
-0.012324320478147556   -0.013713315093731865   -0.000332729514689289
-0.015830832475188857   -0.020436580740633804   -0.0005568360473393069
-0.011950818157170192   -0.020474917860535513   -0.0004586904353234791
-0.012368885242821061   -0.013671574157479268   -0.00030892168277506997
-0.01583691634618367   -0.020405770464882213   -0.0005179025202968631
-0.011983867291224342   -0.02043834667307446   -0.0004207203347204784
-0.012368885242821061   -0.013671574157479268   -0.00030892168277506997
-0.016272392316776577   -0.013642959858149752   -0.000376979792401834
-0.01583691634618367   -0.020405770464882213   -0.0005179025202968631
-0.0162974390304581   -0.013603443671823954   -0.0003549390847637253
-0.011983867291224342   -0.02043834667307446   -0.0004207203347204784
-0.015843268916294194   -0.02037471843920703   -0.000473133774296579
-0.0162974390304581   -0.013603443671823954   -0.0003549390847637253
-0.01583691634618367   -0.020405770464882213   -0.0005179025202968631
-0.011983867291224342   -0.02043834667307446   -0.0004207203347204784
-0.0162974390304581   -0.013603443671823954   -0.0003549390847637253
-0.012406587563483066   -0.013627559584029907   -0.00028347294652708474
-0.012368885242821061   -0.013671574157479268   -0.00030892168277506997
-0.011983867291224342   -0.02043834667307446   -0.0004207203347204784
-0.0162974390304581   -0.013603443671823954   -0.0003549390847637253
-0.012368885242821061   -0.013671574157479268   -0.00030892168277506997
-0.01583691634618367   -0.020405770464882213   -0.0005179025202968631
-0.011983867291224342   -0.02043834667307446   -0.0004207203347204784
-0.012406587563483066   -0.013627559584029907   -0.00028347294652708474
-0.015843268916294194   -0.02037471843920703   -0.000473133774296579
-0.012016683766820056   -0.02040569697194376   -0.0003790970719607432
-0.012406587563483066   -0.013627559584029907   -0.00028347294652708474
-0.0162974390304581   -0.013603443671823954   -0.0003549390847637253
-0.015843268916294194   -0.02037471843920703   -0.000473133774296579
-0.016309234817587517   -0.01356741222847667   -0.0003298841940601332
-0.012016683766820056   -0.02040569697194376   -0.0003790970719607432
-0.015827394229292968   -0.020354793056837118   -0.0004232180016741348
-0.016309234817587517   -0.01356741222847667   -0.0003298841940601332
-0.015843268916294194   -0.02037471843920703   -0.000473133774296579
-0.012016683766820056   -0.02040569697194376   -0.0003790970719607432
-0.016309234817587517   -0.01356741222847667   -0.0003298841940601332
-0.012442218504537467   -0.013582425333210454   -0.00025568061636424674
-0.012406587563483066   -0.013627559584029907   -0.00028347294652708474
-0.012016683766820056   -0.02040569697194376   -0.0003790970719607432
-0.016309234817587517   -0.01356741222847667   -0.0003298841940601332
-0.012406587563483066   -0.013627559584029907   -0.00028347294652708474
-0.015843268916294194   -0.02037471843920703   -0.000473133774296579
0.0027170737955229864   -0.013820520962430888   8.191912642482105e-05
0.0019068940701642996   -0.006946649301130854   8.839155782799518e-05
-0.001215957263099219   -0.013756125661143785   -3.4623209043919934e-05
0.0026324769979041564   -0.013738799603631844   0.00011640070423309606
0.0019068940701642996   -0.006946649301130854   8.839155782799518e-05
-0.0017645621101031732   -0.006857602912638987   4.6640316431648015e-05
-0.001215957263099219   -0.013756125661143785   -3.4623209043919934e-05
-0.0018183310660927939   -0.006824010705228643   8.565072808589937e-05
0.0026324769979041564   -0.013738799603631844   0.00011640070423309606
-0.0012698753926925618   -0.013688571087748333   -6.694866326525683e-06
-0.0018183310660927939   -0.006824010705228643   8.565072808589937e-05
-0.001215957263099219   -0.013756125661143785   -3.4623209043919934e-05
0.0026324769979041564   -0.013738799603631844   0.00011640070423309606
-0.0018183310660927939   -0.006824010705228643   8.565072808589937e-05
0.0017391509477286897   -0.006859604885226084   0.0001847598555419752
0.0019068940701642996   -0.006946649301130854   8.839155782799518e-05
0.0026324769979041564   -0.013738799603631844   0.00011640070423309606
-0.0018183310660927939   -0.006824010705228643   8.565072808589937e-05
0.0019068940701642996   -0.006946649301130854   8.839155782799518e-05
-0.001215957263099219   -0.013756125661143785   -3.4623209043919934e-05
0.0026324769979041564   -0.013738799603631844   0.00011640070423309606
0.0017391509477286897   -0.006859604885226084   0.0001847598555419752
-0.0012698753926925618   -0.013688571087748333   -6.694866326525683e-06
0.0025377576108115392   -0.013657810837663919   0.000166180673901938
0.0017391509477286897   -0.006859604885226084   0.0001847598555419752
-0.0018183310660927939   -0.006824010705228643   8.565072808589937e-05
-0.0012698753926925618   -0.013688571087748333   -6.694866326525683e-06
-0.0018892279915441598   -0.006763403863656987   0.00013308701683905982
0.0025377576108115392   -0.013657810837663919   0.000166180673901938
-0.0013330037731588767   -0.013617343605522967   2.624485903274046e-05
-0.0018892279915441598   -0.006763403863656987   0.00013308701683905982
-0.0012698753926925618   -0.013688571087748333   -6.694866326525683e-06
0.0025377576108115392   -0.013657810837663919   0.000166180673901938
-0.0018892279915441598   -0.006763403863656987   0.00013308701683905982
0.0016410273799532088   -0.006788775444605569   0.0002565474085573939
0.0017391509477286897   -0.006859604885226084   0.0001847598555419752
0.0025377576108115392   -0.013657810837663919   0.000166180673901938
-0.0018892279915441598   -0.006763403863656987   0.00013308701683905982
0.0017391509477286897   -0.006859604885226084   0.0001847598555419752
-0.0012698753926925618   -0.013688571087748333   -6.694866326525683e-06
0.0025377576108115392   -0.013657810837663919   0.000166180673901938
0.0016410273799532088   -0.006788775444605569   0.0002565474085573939
-0.0013330037731588767   -0.013617343605522967   2.624485903274046e-05
0.0024219956259728145   -0.013558255187404188   0.00022100090150928905
0.0016410273799532088   -0.006788775444605569   0.0002565474085573939
-0.0018892279915441598   -0.006763403863656987   0.00013308701683905982
-0.0013330037731588767   -0.013617343605522967   2.624485903274046e-05
-0.0019489351293895943   -0.006698378465919648   0.00017483067563134788
0.0024219956259728145   -0.013558255187404188   0.00022100090150928905
-0.0013983658128943104   -0.013541778918193739   6.413763550279982e-05
-0.0019489351293895943   -0.006698378465919648   0.00017483067563134788
-0.0013330037731588767   -0.013617343605522967   2.624485903274046e-05
0.0024219956259728145   -0.013558255187404188   0.00022100090150928905
-0.0019489351293895943   -0.006698378465919648   0.00017483067563134788
0.001515111665894331   -0.0066801766665279   0.0003388072987645314
0.0016410273799532088   -0.006788775444605569   0.0002565474085573939
0.0024219956259728145   -0.013558255187404188   0.00022100090150928905
-0.0019489351293895943   -0.006698378465919648   0.00017483067563134788
0.0016410273799532088   -0.006788775444605569   0.0002565474085573939
-0.0013330037731588767   -0.013617343605522967   2.624485903274046e-05
-0.001215957263099219   -0.013756125661143785   -3.4623209043919934e-05
-0.0017645621101031732   -0.006857602912638987   4.6640316431648015e-05
-0.004918619262716439   -0.013739436786086058   -0.00014674815462451988
-0.0012698753926925618   -0.013688571087748333   -6.694866326525683e-06
-0.0017645621101031732   -0.006857602912638987   4.6640316431648015e-05
-0.005256026226148771   -0.006959696410088671   -4.204087693998576e-05
-0.004918619262716439   -0.013739436786086058   -0.00014674815462451988
-0.005305740593655117   -0.0069077767091994405   -1.4324618806646773e-05
-0.0012698753926925618   -0.013688571087748333   -6.694866326525683e-06
-0.00496746463891114   -0.01368063476089212   -0.0001206272270877909
-0.005305740593655117   -0.0069077767091994405   -1.4324618806646773e-05
-0.004918619262716439   -0.013739436786086058   -0.00014674815462451988
-0.0012698753926925618   -0.013688571087748333   -6.694866326525683e-06
-0.005305740593655117   -0.0069077767091994405   -1.4324618806646773e-05
-0.0018183310660927939   -0.006824010705228643   8.565072808589937e-05
-0.0017645621101031732   -0.006857602912638987   4.6640316431648015e-05
-0.0012698753926925618   -0.013688571087748333   -6.694866326525683e-06
-0.005305740593655117   -0.0069077767091994405   -1.4324618806646773e-05
-0.0017645621101031732   -0.006857602912638987   4.6640316431648015e-05
-0.004918619262716439   -0.013739436786086058   -0.00014674815462451988
-0.0012698753926925618   -0.013688571087748333   -6.694866326525683e-06
-0.0018183310660927939   -0.006824010705228643   8.565072808589937e-05
-0.00496746463891114   -0.01368063476089212   -0.0001206272270877909
-0.0013330037731588767   -0.013617343605522967   2.624485903274046e-05
-0.0018183310660927939   -0.006824010705228643   8.565072808589937e-05
-0.005305740593655117   -0.0069077767091994405   -1.4324618806646773e-05
-0.00496746463891114   -0.01368063476089212   -0.0001206272270877909
-0.005357889003137079   -0.006849012707661939   1.506377777130096e-05
-0.0013330037731588767   -0.013617343605522967   2.624485903274046e-05
-0.005018019461763608   -0.013619497004523586   -9.188898938022096e-05
-0.005357889003137079   -0.006849012707661939   1.506377777130096e-05
-0.00496746463891114   -0.01368063476089212   -0.0001206272270877909
-0.0013330037731588767   -0.013617343605522967   2.624485903274046e-05
-0.005357889003137079   -0.006849012707661939   1.506377777130096e-05
-0.0018892279915441598   -0.006763403863656987   0.00013308701683905982
-0.0018183310660927939   -0.006824010705228643   8.565072808589937e-05
-0.0013330037731588767   -0.013617343605522967   2.624485903274046e-05
-0.005357889003137079   -0.006849012707661939   1.506377777130096e-05
-0.0018183310660927939   -0.006824010705228643   8.565072808589937e-05
-0.00496746463891114   -0.01368063476089212   -0.0001206272270877909
-0.0013330037731588767   -0.013617343605522967   2.624485903274046e-05
-0.0018892279915441598   -0.006763403863656987   0.00013308701683905982
-0.005018019461763608   -0.013619497004523586   -9.188898938022096e-05
-0.0013983658128943104   -0.013541778918193739   6.413763550279982e-05
-0.0018892279915441598   -0.006763403863656987   0.00013308701683905982
-0.005357889003137079   -0.006849012707661939   1.506377777130096e-05
-0.005018019461763608   -0.013619497004523586   -9.188898938022096e-05
-0.005407547623886082   -0.0067846057173006685   4.7507805862810074e-05
-0.0013983658128943104   -0.013541778918193739   6.413763550279982e-05
-0.005070677890521998   -0.013557154469847479   -6.0016281326340685e-05
-0.005407547623886082   -0.0067846057173006685   4.7507805862810074e-05
-0.005018019461763608   -0.013619497004523586   -9.188898938022096e-05
-0.0013983658128943104   -0.013541778918193739   6.413763550279982e-05
-0.005407547623886082   -0.0067846057173006685   4.7507805862810074e-05
-0.0019489351293895943   -0.006698378465919648   0.00017483067563134788
-0.0018892279915441598   -0.006763403863656987   0.00013308701683905982
-0.0013983658128943104   -0.013541778918193739   6.413763550279982e-05
-0.005407547623886082   -0.0067846057173006685   4.7507805862810074e-05
-0.0018892279915441598   -0.006763403863656987   0.00013308701683905982
-0.005018019461763608   -0.013619497004523586   -9.188898938022096e-05
-0.004918619262716439   -0.013739436786086058   -0.00014674815462451988
-0.005256026226148771   -0.006959696410088671   -4.204087693998576e-05
-0.008582608646328429   -0.013734763903812515   -0.00024796739626425056
-0.00496746463891114   -0.01368063476089212   -0.0001206272270877909
-0.005256026226148771   -0.006959696410088671   -4.204087693998576e-05
-0.00883185948777543   -0.007039469968083025   -0.00014068413977560778
-0.008582608646328429   -0.013734763903812515   -0.00024796739626425056
-0.008876599977083371   -0.006986124439037497   -0.00011913881882367451
-0.00496746463891114   -0.01368063476089212   -0.0001206272270877909
-0.008629357456021293   -0.013683318382026837   -0.0002229324968063546
-0.008876599977083371   -0.006986124439037497   -0.00011913881882367451
-0.008582608646328429   -0.013734763903812515   -0.00024796739626425056
-0.00496746463891114   -0.01368063476089212   -0.0001206272270877909
-0.008876599977083371   -0.006986124439037497   -0.00011913881882367451
-0.005305740593655117   -0.0069077767091994405   -1.4324618806646773e-05
-0.005256026226148771   -0.006959696410088671   -4.204087693998576e-05
-0.00496746463891114   -0.01368063476089212   -0.0001206272270877909
-0.008876599977083371   -0.006986124439037497   -0.00011913881882367451
-0.005256026226148771   -0.006959696410088671   -4.204087693998576e-05
-0.008582608646328429   -0.013734763903812515   -0.00024796739626425056
-0.00496746463891114   -0.01368063476089212   -0.0001206272270877909
-0.005305740593655117   -0.0069077767091994405   -1.4324618806646773e-05
-0.008629357456021293   -0.013683318382026837   -0.0002229324968063546
-0.005018019461763608   -0.013619497004523586   -9.188898938022096e-05
-0.005305740593655117   -0.0069077767091994405   -1.4324618806646773e-05
-0.008876599977083371   -0.006986124439037497   -0.00011913881882367451
-0.008629357456021293   -0.013683318382026837   -0.0002229324968063546
-0.008919487278055917   -0.0069297198897748016   -9.762387392986543e-05
-0.005018019461763608   -0.013619497004523586   -9.188898938022096e-05
-0.008673893756054213   -0.013630987027540108   -0.00019560461989772765
-0.008919487278055917   -0.0069297198897748016   -9.762387392986543e-05
-0.008629357456021293   -0.013683318382026837   -0.0002229324968063546
-0.005018019461763608   -0.013619497004523586   -9.188898938022096e-05
-0.008919487278055917   -0.0069297198897748016   -9.762387392986543e-05
-0.005357889003137079   -0.006849012707661939   1.506377777130096e-05
-0.005305740593655117   -0.0069077767091994405   -1.4324618806646773e-05
-0.005018019461763608   -0.013619497004523586   -9.188898938022096e-05
-0.008919487278055917   -0.0069297198897748016   -9.762387392986543e-05
-0.005305740593655117   -0.0069077767091994405   -1.4324618806646773e-05
-0.008629357456021293   -0.013683318382026837   -0.0002229324968063546
-0.005018019461763608   -0.013619497004523586   -9.188898938022096e-05
-0.005357889003137079   -0.006849012707661939   1.506377777130096e-05
-0.008673893756054213   -0.013630987027540108   -0.00019560461989772765
-0.005070677890521998   -0.013557154469847479   -6.0016281326340685e-05
-0.005357889003137079   -0.006849012707661939   1.506377777130096e-05
-0.008919487278055917   -0.0069297198897748016   -9.762387392986543e-05
-0.008673893756054213   -0.013630987027540108   -0.00019560461989772765
-0.008959069982572414   -0.006868601721143067   -7.415856297169107e-05
-0.005070677890521998   -0.013557154469847479   -6.0016281326340685e-05
-0.00871798494404004   -0.013577464387905537   -0.00016610970296947712
-0.008959069982572414   -0.006868601721143067   -7.415856297169107e-05
-0.008673893756054213   -0.013630987027540108   -0.00019560461989772765
-0.005070677890521998   -0.013557154469847479   -6.0016281326340685e-05
-0.008959069982572414   -0.006868601721143067   -7.415856297169107e-05
-0.005407547623886082   -0.0067846057173006685   4.7507805862810074e-05
-0.005357889003137079   -0.006849012707661939   1.506377777130096e-05
-0.005070677890521998   -0.013557154469847479   -6.0016281326340685e-05
-0.008959069982572414   -0.006868601721143067   -7.415856297169107e-05
-0.005357889003137079   -0.006849012707661939   1.506377777130096e-05
-0.008673893756054213   -0.013630987027540108   -0.00019560461989772765
-0.008582608646328429   -0.013734763903812515   -0.00024796739626425056
-0.00883185948777543   -0.007039469968083025   -0.00014068413977560778
-0.012324320478147556   -0.013713315093731865   -0.000332729514689289
-0.008629357456021293   -0.013683318382026837   -0.0002229324968063546
-0.00883185948777543   -0.007039469968083025   -0.00014068413977560778
-0.012533334005348798   -0.007072265641830527   -0.00023166660507623554
-0.012324320478147556   -0.013713315093731865   -0.000332729514689289
-0.012573661127586679   -0.007024456974296589   -0.0002159052556386408
-0.008629357456021293   -0.013683318382026837   -0.0002229324968063546
-0.012368885242821061   -0.013671574157479268   -0.00030892168277506997
-0.012573661127586679   -0.007024456974296589   -0.0002159052556386408
-0.012324320478147556   -0.013713315093731865   -0.000332729514689289
-0.008629357456021293   -0.013683318382026837   -0.0002229324968063546
-0.012573661127586679   -0.007024456974296589   -0.0002159052556386408
-0.008876599977083371   -0.006986124439037497   -0.00011913881882367451
-0.00883185948777543   -0.007039469968083025   -0.00014068413977560778
-0.008629357456021293   -0.013683318382026837   -0.0002229324968063546
-0.012573661127586679   -0.007024456974296589   -0.0002159052556386408
-0.00883185948777543   -0.007039469968083025   -0.00014068413977560778
-0.012324320478147556   -0.013713315093731865   -0.000332729514689289
-0.008629357456021293   -0.013683318382026837   -0.0002229324968063546
-0.008876599977083371   -0.006986124439037497   -0.00011913881882367451
-0.012368885242821061   -0.013671574157479268   -0.00030892168277506997
-0.008673893756054213   -0.013630987027540108   -0.00019560461989772765
-0.008876599977083371   -0.006986124439037497   -0.00011913881882367451
-0.012573661127586679   -0.007024456974296589   -0.0002159052556386408
-0.012368885242821061   -0.013671574157479268   -0.00030892168277506997
-0.012609600895204636   -0.006972301515726868   -0.0002005570564437049
-0.008673893756054213   -0.013630987027540108   -0.00019560461989772765
-0.012406587563483066   -0.013627559584029907   -0.00028347294652708474
-0.012609600895204636   -0.006972301515726868   -0.0002005570564437049
-0.012368885242821061   -0.013671574157479268   -0.00030892168277506997
-0.008673893756054213   -0.013630987027540108   -0.00019560461989772765
-0.012609600895204636   -0.006972301515726868   -0.0002005570564437049
-0.008919487278055917   -0.0069297198897748016   -9.762387392986543e-05
-0.008876599977083371   -0.006986124439037497   -0.00011913881882367451
-0.008673893756054213   -0.013630987027540108   -0.00019560461989772765
-0.012609600895204636   -0.006972301515726868   -0.0002005570564437049
-0.008876599977083371   -0.006986124439037497   -0.00011913881882367451
-0.012368885242821061   -0.013671574157479268   -0.00030892168277506997
-0.008673893756054213   -0.013630987027540108   -0.00019560461989772765
-0.008919487278055917   -0.0069297198897748016   -9.762387392986543e-05
-0.012406587563483066   -0.013627559584029907   -0.00028347294652708474
-0.00871798494404004   -0.013577464387905537   -0.00016610970296947712
-0.008919487278055917   -0.0069297198897748016   -9.762387392986543e-05
-0.012609600895204636   -0.006972301515726868   -0.0002005570564437049
-0.012406587563483066   -0.013627559584029907   -0.00028347294652708474
-0.01264216061897058   -0.006916741554832523   -0.00018471084800961125
-0.00871798494404004   -0.013577464387905537   -0.00016610970296947712
-0.012442218504537467   -0.013582425333210454   -0.00025568061636424674
-0.01264216061897058   -0.006916741554832523   -0.00018471084800961125
-0.012406587563483066   -0.013627559584029907   -0.00028347294652708474
-0.00871798494404004   -0.013577464387905537   -0.00016610970296947712
-0.01264216061897058   -0.006916741554832523   -0.00018471084800961125
-0.008959069982572414   -0.006868601721143067   -7.415856297169107e-05
-0.008919487278055917   -0.0069297198897748016   -9.762387392986543e-05
-0.00871798494404004   -0.013577464387905537   -0.00016610970296947712
-0.01264216061897058   -0.006916741554832523   -0.00018471084800961125
-0.008919487278055917   -0.0069297198897748016   -9.762387392986543e-05
-0.012406587563483066   -0.013627559584029907   -0.00028347294652708474
-0.012324320478147556   -0.013713315093731865   -0.000332729514689289
-0.012533334005348798   -0.007072265641830527   -0.00023166660507623554
-0.016245000665287296   -0.013677813927947754   -0.00039502076895059715
-0.012368885242821061   -0.013671574157479268   -0.00030892168277506997
-0.012533334005348798   -0.007072265641830527   -0.00023166660507623554
-0.016367741254816836   -0.007075835806067311   -0.0003069201510792678
-0.016245000665287296   -0.013677813927947754   -0.00039502076895059715
-0.016402302125604874   -0.007029476425583776   -0.00030004716455522986
-0.012368885242821061   -0.013671574157479268   -0.00030892168277506997
-0.016272392316776577   -0.013642959858149752   -0.000376979792401834
-0.016402302125604874   -0.007029476425583776   -0.00030004716455522986
-0.016245000665287296   -0.013677813927947754   -0.00039502076895059715
-0.012368885242821061   -0.013671574157479268   -0.00030892168277506997
-0.016402302125604874   -0.007029476425583776   -0.00030004716455522986
-0.012573661127586679   -0.007024456974296589   -0.0002159052556386408
-0.012533334005348798   -0.007072265641830527   -0.00023166660507623554
-0.012368885242821061   -0.013671574157479268   -0.00030892168277506997
-0.016402302125604874   -0.007029476425583776   -0.00030004716455522986
-0.012533334005348798   -0.007072265641830527   -0.00023166660507623554
-0.016245000665287296   -0.013677813927947754   -0.00039502076895059715
-0.012368885242821061   -0.013671574157479268   -0.00030892168277506997
-0.012573661127586679   -0.007024456974296589   -0.0002159052556386408
-0.016272392316776577   -0.013642959858149752   -0.000376979792401834
-0.012406587563483066   -0.013627559584029907   -0.00028347294652708474
-0.012573661127586679   -0.007024456974296589   -0.0002159052556386408
-0.016402302125604874   -0.007029476425583776   -0.00030004716455522986
-0.016272392316776577   -0.013642959858149752   -0.000376979792401834
-0.016433265749711157   -0.006979269050412569   -0.00029198912719587757
-0.012406587563483066   -0.013627559584029907   -0.00028347294652708474
-0.0162974390304581   -0.013603443671823954   -0.0003549390847637253
-0.016433265749711157   -0.006979269050412569   -0.00029198912719587757
-0.016272392316776577   -0.013642959858149752   -0.000376979792401834
-0.012406587563483066   -0.013627559584029907   -0.00028347294652708474
-0.016433265749711157   -0.006979269050412569   -0.00029198912719587757
-0.012609600895204636   -0.006972301515726868   -0.0002005570564437049
-0.012573661127586679   -0.007024456974296589   -0.0002159052556386408
-0.012406587563483066   -0.013627559584029907   -0.00028347294652708474
-0.016433265749711157   -0.006979269050412569   -0.00029198912719587757
-0.012573661127586679   -0.007024456974296589   -0.0002159052556386408
-0.016272392316776577   -0.013642959858149752   -0.000376979792401834
-0.012406587563483066   -0.013627559584029907   -0.00028347294652708474
-0.012609600895204636   -0.006972301515726868   -0.0002005570564437049
-0.0162974390304581   -0.013603443671823954   -0.0003549390847637253
-0.012442218504537467   -0.013582425333210454   -0.00025568061636424674
-0.012609600895204636   -0.006972301515726868   -0.0002005570564437049
-0.016433265749711157   -0.006979269050412569   -0.00029198912719587757
-0.0162974390304581   -0.013603443671823954   -0.0003549390847637253
-0.016459190086472425   -0.006926120121151979   -0.00028442715133942544
-0.012442218504537467   -0.013582425333210454   -0.00025568061636424674
-0.016309234817587517   -0.01356741222847667   -0.0003298841940601332
-0.016459190086472425   -0.006926120121151979   -0.00028442715133942544
-0.0162974390304581   -0.013603443671823954   -0.0003549390847637253
-0.012442218504537467   -0.013582425333210454   -0.00025568061636424674
-0.016459190086472425   -0.006926120121151979   -0.00028442715133942544
-0.01264216061897058   -0.006916741554832523   -0.00018471084800961125
-0.012609600895204636   -0.006972301515726868   -0.0002005570564437049
-0.012442218504537467   -0.013582425333210454   -0.00025568061636424674
-0.016459190086472425   -0.006926120121151979   -0.00028442715133942544
-0.012609600895204636   -0.006972301515726868   -0.0002005570564437049
-0.0162974390304581   -0.013603443671823954   -0.0003549390847637253
0.0019068940701642996   -0.006946649301130854   8.839155782799518e-05
0.0   0.0   0.0
-0.0017645621101031732   -0.006857602912638987   4.6640316431648015e-05
0.0017391509477286897   -0.006859604885226084   0.0001847598555419752
0.0   0.0   0.0
-0.002211654650555646   -0.0005667329328633828   -1.722051142021407e-05
-0.0017645621101031732   -0.006857602912638987   4.6640316431648015e-05
-0.002343923081724456   -0.00044164782638604486   5.957225893569024e-05
0.0017391509477286897   -0.006859604885226084   0.0001847598555419752
-0.0018183310660927939   -0.006824010705228643   8.565072808589937e-05
-0.002343923081724456   -0.00044164782638604486   5.957225893569024e-05
-0.0017645621101031732   -0.006857602912638987   4.6640316431648015e-05
0.0017391509477286897   -0.006859604885226084   0.0001847598555419752
-0.002343923081724456   -0.00044164782638604486   5.957225893569024e-05
0.0   0.0   0.0
0.0   0.0   0.0
0.0017391509477286897   -0.006859604885226084   0.0001847598555419752
-0.002343923081724456   -0.00044164782638604486   5.957225893569024e-05
0.0   0.0   0.0
-0.0017645621101031732   -0.006857602912638987   4.6640316431648015e-05
0.0017391509477286897   -0.006859604885226084   0.0001847598555419752
0.0   0.0   0.0
-0.0018183310660927939   -0.006824010705228643   8.565072808589937e-05
0.0016410273799532088   -0.006788775444605569   0.0002565474085573939
0.0   0.0   0.0
-0.002343923081724456   -0.00044164782638604486   5.957225893569024e-05
-0.0018183310660927939   -0.006824010705228643   8.565072808589937e-05
-0.0024271143261512637   -0.00038152897932302085   0.0001041015413509098
0.0016410273799532088   -0.006788775444605569   0.0002565474085573939
-0.0018892279915441598   -0.006763403863656987   0.00013308701683905982
-0.0024271143261512637   -0.00038152897932302085   0.0001041015413509098
-0.0018183310660927939   -0.006824010705228643   8.565072808589937e-05
0.0016410273799532088   -0.006788775444605569   0.0002565474085573939
-0.0024271143261512637   -0.00038152897932302085   0.0001041015413509098
0.0   0.0   0.0
0.0   0.0   0.0
0.0016410273799532088   -0.006788775444605569   0.0002565474085573939
-0.0024271143261512637   -0.00038152897932302085   0.0001041015413509098
0.0   0.0   0.0
-0.0018183310660927939   -0.006824010705228643   8.565072808589937e-05
0.0016410273799532088   -0.006788775444605569   0.0002565474085573939
0.0   0.0   0.0
-0.0018892279915441598   -0.006763403863656987   0.00013308701683905982
0.001515111665894331   -0.0066801766665279   0.0003388072987645314
0.0   0.0   0.0
-0.0024271143261512637   -0.00038152897932302085   0.0001041015413509098
-0.0018892279915441598   -0.006763403863656987   0.00013308701683905982
-0.0025389656991479707   -0.00030159273233652724   0.00015525213934941486
0.001515111665894331   -0.0066801766665279   0.0003388072987645314
-0.0019489351293895943   -0.006698378465919648   0.00017483067563134788
-0.0025389656991479707   -0.00030159273233652724   0.00015525213934941486
-0.0018892279915441598   -0.006763403863656987   0.00013308701683905982
0.001515111665894331   -0.0066801766665279   0.0003388072987645314
-0.0025389656991479707   -0.00030159273233652724   0.00015525213934941486
0.0   0.0   0.0
0.0   0.0   0.0
0.001515111665894331   -0.0066801766665279   0.0003388072987645314
-0.0025389656991479707   -0.00030159273233652724   0.00015525213934941486
0.0   0.0   0.0
-0.0018892279915441598   -0.006763403863656987   0.00013308701683905982
-0.0017645621101031732   -0.006857602912638987   4.6640316431648015e-05
-0.002211654650555646   -0.0005667329328633828   -1.722051142021407e-05
-0.005256026226148771   -0.006959696410088671   -4.204087693998576e-05
-0.0018183310660927939   -0.006824010705228643   8.565072808589937e-05
-0.002211654650555646   -0.0005667329328633828   -1.722051142021407e-05
-0.005411416599321384   -0.0007445315185087625   -1.4194482834332024e-05
-0.005256026226148771   -0.006959696410088671   -4.204087693998576e-05
-0.005479809400269571   -0.0006764953784561295   5.755553022491434e-06
-0.0018183310660927939   -0.006824010705228643   8.565072808589937e-05
-0.005305740593655117   -0.0069077767091994405   -1.4324618806646773e-05
-0.005479809400269571   -0.0006764953784561295   5.755553022491434e-06
-0.005256026226148771   -0.006959696410088671   -4.204087693998576e-05
-0.0018183310660927939   -0.006824010705228643   8.565072808589937e-05
-0.005479809400269571   -0.0006764953784561295   5.755553022491434e-06
-0.002343923081724456   -0.00044164782638604486   5.957225893569024e-05
-0.002211654650555646   -0.0005667329328633828   -1.722051142021407e-05
-0.0018183310660927939   -0.006824010705228643   8.565072808589937e-05
-0.005479809400269571   -0.0006764953784561295   5.755553022491434e-06
-0.002211654650555646   -0.0005667329328633828   -1.722051142021407e-05
-0.005256026226148771   -0.006959696410088671   -4.204087693998576e-05
-0.0018183310660927939   -0.006824010705228643   8.565072808589937e-05
-0.002343923081724456   -0.00044164782638604486   5.957225893569024e-05
-0.005305740593655117   -0.0069077767091994405   -1.4324618806646773e-05
-0.0018892279915441598   -0.006763403863656987   0.00013308701683905982
-0.002343923081724456   -0.00044164782638604486   5.957225893569024e-05
-0.005479809400269571   -0.0006764953784561295   5.755553022491434e-06
-0.005305740593655117   -0.0069077767091994405   -1.4324618806646773e-05
-0.005547997574888947   -0.0005968034918861887   4.129050643764783e-05
-0.0018892279915441598   -0.006763403863656987   0.00013308701683905982
-0.005357889003137079   -0.006849012707661939   1.506377777130096e-05
-0.005547997574888947   -0.0005968034918861887   4.129050643764783e-05
-0.005305740593655117   -0.0069077767091994405   -1.4324618806646773e-05
-0.0018892279915441598   -0.006763403863656987   0.00013308701683905982
-0.005547997574888947   -0.0005968034918861887   4.129050643764783e-05
-0.0024271143261512637   -0.00038152897932302085   0.0001041015413509098
-0.002343923081724456   -0.00044164782638604486   5.957225893569024e-05
-0.0018892279915441598   -0.006763403863656987   0.00013308701683905982
-0.005547997574888947   -0.0005968034918861887   4.129050643764783e-05
-0.002343923081724456   -0.00044164782638604486   5.957225893569024e-05
-0.005305740593655117   -0.0069077767091994405   -1.4324618806646773e-05
-0.0018892279915441598   -0.006763403863656987   0.00013308701683905982
-0.0024271143261512637   -0.00038152897932302085   0.0001041015413509098
-0.005357889003137079   -0.006849012707661939   1.506377777130096e-05
-0.0019489351293895943   -0.006698378465919648   0.00017483067563134788
-0.0024271143261512637   -0.00038152897932302085   0.0001041015413509098
-0.005547997574888947   -0.0005968034918861887   4.129050643764783e-05
-0.005357889003137079   -0.006849012707661939   1.506377777130096e-05
-0.00562382821851458   -0.0005044699479693576   7.544044515985343e-05
-0.0019489351293895943   -0.006698378465919648   0.00017483067563134788
-0.005407547623886082   -0.0067846057173006685   4.7507805862810074e-05
-0.00562382821851458   -0.0005044699479693576   7.544044515985343e-05
-0.005357889003137079   -0.006849012707661939   1.506377777130096e-05
-0.0019489351293895943   -0.006698378465919648   0.00017483067563134788
-0.00562382821851458   -0.0005044699479693576   7.544044515985343e-05
-0.0025389656991479707   -0.00030159273233652724   0.00015525213934941486
-0.0024271143261512637   -0.00038152897932302085   0.0001041015413509098
-0.0019489351293895943   -0.006698378465919648   0.00017483067563134788
-0.00562382821851458   -0.0005044699479693576   7.544044515985343e-05
-0.0024271143261512637   -0.00038152897932302085   0.0001041015413509098
-0.005357889003137079   -0.006849012707661939   1.506377777130096e-05
-0.005256026226148771   -0.006959696410088671   -4.204087693998576e-05
-0.005411416599321384   -0.0007445315185087625   -1.4194482834332024e-05
-0.00883185948777543   -0.007039469968083025   -0.00014068413977560778
-0.005305740593655117   -0.0069077767091994405   -1.4324618806646773e-05
-0.005411416599321384   -0.0007445315185087625   -1.4194482834332024e-05
-0.008918772489795631   -0.0007953998451474307   -7.588928990401622e-05
-0.00883185948777543   -0.007039469968083025   -0.00014068413977560778
-0.008960392143440911   -0.0007426875915650186   -7.025972139139647e-05
-0.005305740593655117   -0.0069077767091994405   -1.4324618806646773e-05
-0.008876599977083371   -0.006986124439037497   -0.00011913881882367451
-0.008960392143440911   -0.0007426875915650186   -7.025972139139647e-05
-0.00883185948777543   -0.007039469968083025   -0.00014068413977560778
-0.005305740593655117   -0.0069077767091994405   -1.4324618806646773e-05
-0.008960392143440911   -0.0007426875915650186   -7.025972139139647e-05
-0.005479809400269571   -0.0006764953784561295   5.755553022491434e-06
-0.005411416599321384   -0.0007445315185087625   -1.4194482834332024e-05
-0.005305740593655117   -0.0069077767091994405   -1.4324618806646773e-05
-0.008960392143440911   -0.0007426875915650186   -7.025972139139647e-05
-0.005411416599321384   -0.0007445315185087625   -1.4194482834332024e-05
-0.00883185948777543   -0.007039469968083025   -0.00014068413977560778
-0.005305740593655117   -0.0069077767091994405   -1.4324618806646773e-05
-0.005479809400269571   -0.0006764953784561295   5.755553022491434e-06
-0.008876599977083371   -0.006986124439037497   -0.00011913881882367451
-0.005357889003137079   -0.006849012707661939   1.506377777130096e-05
-0.005479809400269571   -0.0006764953784561295   5.755553022491434e-06
-0.008960392143440911   -0.0007426875915650186   -7.025972139139647e-05
-0.008876599977083371   -0.006986124439037497   -0.00011913881882367451
-0.009003690677299354   -0.0006813371487000232   -6.0439366781469104e-05
-0.005357889003137079   -0.006849012707661939   1.506377777130096e-05
-0.008919487278055917   -0.0069297198897748016   -9.762387392986543e-05
-0.009003690677299354   -0.0006813371487000232   -6.0439366781469104e-05
-0.008876599977083371   -0.006986124439037497   -0.00011913881882367451
-0.005357889003137079   -0.006849012707661939   1.506377777130096e-05
-0.009003690677299354   -0.0006813371487000232   -6.0439366781469104e-05
-0.005547997574888947   -0.0005968034918861887   4.129050643764783e-05
-0.005479809400269571   -0.0006764953784561295   5.755553022491434e-06
-0.005357889003137079   -0.006849012707661939   1.506377777130096e-05
-0.009003690677299354   -0.0006813371487000232   -6.0439366781469104e-05
-0.005479809400269571   -0.0006764953784561295   5.755553022491434e-06
-0.008876599977083371   -0.006986124439037497   -0.00011913881882367451
-0.005357889003137079   -0.006849012707661939   1.506377777130096e-05
-0.005547997574888947   -0.0005968034918861887   4.129050643764783e-05
-0.008919487278055917   -0.0069297198897748016   -9.762387392986543e-05
-0.005407547623886082   -0.0067846057173006685   4.7507805862810074e-05
-0.005547997574888947   -0.0005968034918861887   4.129050643764783e-05
-0.009003690677299354   -0.0006813371487000232   -6.0439366781469104e-05
-0.008919487278055917   -0.0069297198897748016   -9.762387392986543e-05
-0.009045040910317971   -0.0006064103199927796   -4.7445005638621864e-05
-0.005407547623886082   -0.0067846057173006685   4.7507805862810074e-05
-0.008959069982572414   -0.006868601721143067   -7.415856297169107e-05
-0.009045040910317971   -0.0006064103199927796   -4.7445005638621864e-05
-0.008919487278055917   -0.0069297198897748016   -9.762387392986543e-05
-0.005407547623886082   -0.0067846057173006685   4.7507805862810074e-05
-0.009045040910317971   -0.0006064103199927796   -4.7445005638621864e-05
-0.00562382821851458   -0.0005044699479693576   7.544044515985343e-05
-0.005547997574888947   -0.0005968034918861887   4.129050643764783e-05
-0.005407547623886082   -0.0067846057173006685   4.7507805862810074e-05
-0.009045040910317971   -0.0006064103199927796   -4.7445005638621864e-05
-0.005547997574888947   -0.0005968034918861887   4.129050643764783e-05
-0.008919487278055917   -0.0069297198897748016   -9.762387392986543e-05
-0.00883185948777543   -0.007039469968083025   -0.00014068413977560778
-0.008918772489795631   -0.0007953998451474307   -7.588928990401622e-05
-0.012533334005348798   -0.007072265641830527   -0.00023166660507623554
-0.008876599977083371   -0.006986124439037497   -0.00011913881882367451
-0.008918772489795631   -0.0007953998451474307   -7.588928990401622e-05
-0.012598386157125168   -0.0007880107703562121   -0.0001655012026396003
-0.012533334005348798   -0.007072265641830527   -0.00023166660507623554
-0.012626528681122476   -0.0007408980127171397   -0.00016307536547836675
-0.008876599977083371   -0.006986124439037497   -0.00011913881882367451
-0.012573661127586679   -0.007024456974296589   -0.0002159052556386408
-0.012626528681122476   -0.0007408980127171397   -0.00016307536547836675
-0.012533334005348798   -0.007072265641830527   -0.00023166660507623554
-0.008876599977083371   -0.006986124439037497   -0.00011913881882367451
-0.012626528681122476   -0.0007408980127171397   -0.00016307536547836675
-0.008960392143440911   -0.0007426875915650186   -7.025972139139647e-05
-0.008918772489795631   -0.0007953998451474307   -7.588928990401622e-05
-0.008876599977083371   -0.006986124439037497   -0.00011913881882367451
-0.012626528681122476   -0.0007408980127171397   -0.00016307536547836675
-0.008918772489795631   -0.0007953998451474307   -7.588928990401622e-05
-0.012533334005348798   -0.007072265641830527   -0.00023166660507623554
-0.008876599977083371   -0.006986124439037497   -0.00011913881882367451
-0.008960392143440911   -0.0007426875915650186   -7.025972139139647e-05
-0.012573661127586679   -0.007024456974296589   -0.0002159052556386408
-0.008919487278055917   -0.0069297198897748016   -9.762387392986543e-05
-0.008960392143440911   -0.0007426875915650186   -7.025972139139647e-05
-0.012626528681122476   -0.0007408980127171397   -0.00016307536547836675
-0.012573661127586679   -0.007024456974296589   -0.0002159052556386408
-0.012655882045599927   -0.0006882951960623283   -0.0001613005654750484
-0.008919487278055917   -0.0069297198897748016   -9.762387392986543e-05
-0.012609600895204636   -0.006972301515726868   -0.0002005570564437049
-0.012655882045599927   -0.0006882951960623283   -0.0001613005654750484
-0.012573661127586679   -0.007024456974296589   -0.0002159052556386408
-0.008919487278055917   -0.0069297198897748016   -9.762387392986543e-05
-0.012655882045599927   -0.0006882951960623283   -0.0001613005654750484
-0.009003690677299354   -0.0006813371487000232   -6.0439366781469104e-05
-0.008960392143440911   -0.0007426875915650186   -7.025972139139647e-05
-0.008919487278055917   -0.0069297198897748016   -9.762387392986543e-05
-0.012655882045599927   -0.0006882951960623283   -0.0001613005654750484
-0.008960392143440911   -0.0007426875915650186   -7.025972139139647e-05
-0.012573661127586679   -0.007024456974296589   -0.0002159052556386408
-0.008919487278055917   -0.0069297198897748016   -9.762387392986543e-05
-0.009003690677299354   -0.0006813371487000232   -6.0439366781469104e-05
-0.012609600895204636   -0.006972301515726868   -0.0002005570564437049
-0.008959069982572414   -0.006868601721143067   -7.415856297169107e-05
-0.009003690677299354   -0.0006813371487000232   -6.0439366781469104e-05
-0.012655882045599927   -0.0006882951960623283   -0.0001613005654750484
-0.012609600895204636   -0.006972301515726868   -0.0002005570564437049
-0.012678353382790313   -0.0006311733449005691   -0.00016029349054425194
-0.008959069982572414   -0.006868601721143067   -7.415856297169107e-05
-0.01264216061897058   -0.006916741554832523   -0.00018471084800961125
-0.012678353382790313   -0.0006311733449005691   -0.00016029349054425194
-0.012609600895204636   -0.006972301515726868   -0.0002005570564437049
-0.008959069982572414   -0.006868601721143067   -7.415856297169107e-05
-0.012678353382790313   -0.0006311733449005691   -0.00016029349054425194
-0.009045040910317971   -0.0006064103199927796   -4.7445005638621864e-05
-0.009003690677299354   -0.0006813371487000232   -6.0439366781469104e-05
-0.008959069982572414   -0.006868601721143067   -7.415856297169107e-05
-0.012678353382790313   -0.0006311733449005691   -0.00016029349054425194
-0.009003690677299354   -0.0006813371487000232   -6.0439366781469104e-05
-0.012609600895204636   -0.006972301515726868   -0.0002005570564437049
-0.012533334005348798   -0.007072265641830527   -0.00023166660507623554
-0.012598386157125168   -0.0007880107703562121   -0.0001655012026396003
-0.016367741254816836   -0.007075835806067311   -0.0003069201510792678
-0.012573661127586679   -0.007024456974296589   -0.0002159052556386408
-0.012598386157125168   -0.0007880107703562121   -0.0001655012026396003
-0.01638038140566714   -0.0007825521977999486   -0.0002538014756350933
-0.016367741254816836   -0.007075835806067311   -0.0003069201510792678
-0.01640299717606192   -0.0007315059568949271   -0.00025370526344622855
-0.012573661127586679   -0.007024456974296589   -0.0002159052556386408
-0.016402302125604874   -0.007029476425583776   -0.00030004716455522986
-0.01640299717606192   -0.0007315059568949271   -0.00025370526344622855
-0.016367741254816836   -0.007075835806067311   -0.0003069201510792678
-0.012573661127586679   -0.007024456974296589   -0.0002159052556386408
-0.01640299717606192   -0.0007315059568949271   -0.00025370526344622855
-0.012626528681122476   -0.0007408980127171397   -0.00016307536547836675
-0.012598386157125168   -0.0007880107703562121   -0.0001655012026396003
-0.012573661127586679   -0.007024456974296589   -0.0002159052556386408
-0.01640299717606192   -0.0007315059568949271   -0.00025370526344622855
-0.012598386157125168   -0.0007880107703562121   -0.0001655012026396003
-0.016367741254816836   -0.007075835806067311   -0.0003069201510792678
-0.012573661127586679   -0.007024456974296589   -0.0002159052556386408
-0.012626528681122476   -0.0007408980127171397   -0.00016307536547836675
-0.016402302125604874   -0.007029476425583776   -0.00030004716455522986
-0.012609600895204636   -0.006972301515726868   -0.0002005570564437049
-0.012626528681122476   -0.0007408980127171397   -0.00016307536547836675
-0.01640299717606192   -0.0007315059568949271   -0.00025370526344622855
-0.016402302125604874   -0.007029476425583776   -0.00030004716455522986
-0.016427808144595348   -0.0006803990763817423   -0.0002575980251467276
-0.012609600895204636   -0.006972301515726868   -0.0002005570564437049
-0.016433265749711157   -0.006979269050412569   -0.00029198912719587757
-0.016427808144595348   -0.0006803990763817423   -0.0002575980251467276
-0.016402302125604874   -0.007029476425583776   -0.00030004716455522986
-0.012609600895204636   -0.006972301515726868   -0.0002005570564437049
-0.016427808144595348   -0.0006803990763817423   -0.0002575980251467276
-0.012655882045599927   -0.0006882951960623283   -0.0001613005654750484
-0.012626528681122476   -0.0007408980127171397   -0.00016307536547836675
-0.012609600895204636   -0.006972301515726868   -0.0002005570564437049
-0.016427808144595348   -0.0006803990763817423   -0.0002575980251467276
-0.012626528681122476   -0.0007408980127171397   -0.00016307536547836675
-0.016402302125604874   -0.007029476425583776   -0.00030004716455522986
-0.012609600895204636   -0.006972301515726868   -0.0002005570564437049
-0.012655882045599927   -0.0006882951960623283   -0.0001613005654750484
-0.016433265749711157   -0.006979269050412569   -0.00029198912719587757
-0.01264216061897058   -0.006916741554832523   -0.00018471084800961125
-0.012655882045599927   -0.0006882951960623283   -0.0001613005654750484
-0.016427808144595348   -0.0006803990763817423   -0.0002575980251467276
-0.016433265749711157   -0.006979269050412569   -0.00029198912719587757
-0.0164461451245901   -0.0006246804644788835   -0.00026171083208449496
-0.01264216061897058   -0.006916741554832523   -0.00018471084800961125
-0.016459190086472425   -0.006926120121151979   -0.00028442715133942544
-0.0164461451245901   -0.0006246804644788835   -0.00026171083208449496
-0.016433265749711157   -0.006979269050412569   -0.00029198912719587757
-0.01264216061897058   -0.006916741554832523   -0.00018471084800961125
-0.0164461451245901   -0.0006246804644788835   -0.00026171083208449496
-0.012678353382790313   -0.0006311733449005691   -0.00016029349054425194
-0.012655882045599927   -0.0006882951960623283   -0.0001613005654750484
-0.01264216061897058   -0.006916741554832523   -0.00018471084800961125
-0.0164461451245901   -0.0006246804644788835   -0.00026171083208449496
-0.012655882045599927   -0.0006882951960623283   -0.0001613005654750484
-0.016433265749711157   -0.006979269050412569   -0.00029198912719587757
              </DataArray>   
          </PointData>  
       </Piece>  
   </UnstructuredGrid> 
</VTKFile> 
