<?xml version="1.0"?> 
<VTKFile type="UnstructuredGrid"> 
   <UnstructuredGrid> 
      <Piece NumberOfPoints="6000"  NumberOfCells="1500">  
          <Points>  
             <DataArray type="Float64" NumberOfComponents="3" format="ascii">   
-500.0   0.0   0.0
-450.0   0.0   0.0
-500.0   30.0   0.0
-500.0   0.0   16.666666666666668
-450.0   0.0   0.0
-450.0   30.0   0.0
-500.0   30.0   0.0
-450.0   30.0   16.666666666666668
-500.0   0.0   16.666666666666668
-500.0   30.0   16.666666666666668
-450.0   30.0   16.666666666666668
-500.0   30.0   0.0
-500.0   0.0   16.666666666666668
-450.0   30.0   16.666666666666668
-450.0   0.0   16.666666666666668
-450.0   0.0   0.0
-500.0   0.0   16.666666666666668
-450.0   30.0   16.666666666666668
-450.0   0.0   0.0
-500.0   30.0   0.0
-500.0   0.0   16.666666666666668
-450.0   0.0   16.666666666666668
-500.0   30.0   16.666666666666668
-500.0   0.0   33.333333333333336
-450.0   0.0   16.666666666666668
-450.0   30.0   16.666666666666668
-500.0   30.0   16.666666666666668
-450.0   30.0   33.333333333333336
-500.0   0.0   33.333333333333336
-500.0   30.0   33.333333333333336
-450.0   30.0   33.333333333333336
-500.0   30.0   16.666666666666668
-500.0   0.0   33.333333333333336
-450.0   30.0   33.333333333333336
-450.0   0.0   33.333333333333336
-450.0   0.0   16.666666666666668
-500.0   0.0   33.333333333333336
-450.0   30.0   33.333333333333336
-450.0   0.0   16.666666666666668
-500.0   30.0   16.666666666666668
-500.0   0.0   33.333333333333336
-450.0   0.0   33.333333333333336
-500.0   30.0   33.333333333333336
-500.0   0.0   50.0
-450.0   0.0   33.333333333333336
-450.0   30.0   33.333333333333336
-500.0   30.0   33.333333333333336
-450.0   30.0   50.0
-500.0   0.0   50.0
-500.0   30.0   50.0
-450.0   30.0   50.0
-500.0   30.0   33.333333333333336
-500.0   0.0   50.0
-450.0   30.0   50.0
-450.0   0.0   50.0
-450.0   0.0   33.333333333333336
-500.0   0.0   50.0
-450.0   30.0   50.0
-450.0   0.0   33.333333333333336
-500.0   30.0   33.333333333333336
-500.0   30.0   0.0
-450.0   30.0   0.0
-500.0   60.0   0.0
-500.0   30.0   16.666666666666668
-450.0   30.0   0.0
-450.0   60.0   0.0
-500.0   60.0   0.0
-450.0   60.0   16.666666666666668
-500.0   30.0   16.666666666666668
-500.0   60.0   16.666666666666668
-450.0   60.0   16.666666666666668
-500.0   60.0   0.0
-500.0   30.0   16.666666666666668
-450.0   60.0   16.666666666666668
-450.0   30.0   16.666666666666668
-450.0   30.0   0.0
-500.0   30.0   16.666666666666668
-450.0   60.0   16.666666666666668
-450.0   30.0   0.0
-500.0   60.0   0.0
-500.0   30.0   16.666666666666668
-450.0   30.0   16.666666666666668
-500.0   60.0   16.666666666666668
-500.0   30.0   33.333333333333336
-450.0   30.0   16.666666666666668
-450.0   60.0   16.666666666666668
-500.0   60.0   16.666666666666668
-450.0   60.0   33.333333333333336
-500.0   30.0   33.333333333333336
-500.0   60.0   33.333333333333336
-450.0   60.0   33.333333333333336
-500.0   60.0   16.666666666666668
-500.0   30.0   33.333333333333336
-450.0   60.0   33.333333333333336
-450.0   30.0   33.333333333333336
-450.0   30.0   16.666666666666668
-500.0   30.0   33.333333333333336
-450.0   60.0   33.333333333333336
-450.0   30.0   16.666666666666668
-500.0   60.0   16.666666666666668
-500.0   30.0   33.333333333333336
-450.0   30.0   33.333333333333336
-500.0   60.0   33.333333333333336
-500.0   30.0   50.0
-450.0   30.0   33.333333333333336
-450.0   60.0   33.333333333333336
-500.0   60.0   33.333333333333336
-450.0   60.0   50.0
-500.0   30.0   50.0
-500.0   60.0   50.0
-450.0   60.0   50.0
-500.0   60.0   33.333333333333336
-500.0   30.0   50.0
-450.0   60.0   50.0
-450.0   30.0   50.0
-450.0   30.0   33.333333333333336
-500.0   30.0   50.0
-450.0   60.0   50.0
-450.0   30.0   33.333333333333336
-500.0   60.0   33.333333333333336
-500.0   60.0   0.0
-450.0   60.0   0.0
-500.0   90.0   0.0
-500.0   60.0   16.666666666666668
-450.0   60.0   0.0
-450.0   90.0   0.0
-500.0   90.0   0.0
-450.0   90.0   16.666666666666668
-500.0   60.0   16.666666666666668
-500.0   90.0   16.666666666666668
-450.0   90.0   16.666666666666668
-500.0   90.0   0.0
-500.0   60.0   16.666666666666668
-450.0   90.0   16.666666666666668
-450.0   60.0   16.666666666666668
-450.0   60.0   0.0
-500.0   60.0   16.666666666666668
-450.0   90.0   16.666666666666668
-450.0   60.0   0.0
-500.0   90.0   0.0
-500.0   60.0   16.666666666666668
-450.0   60.0   16.666666666666668
-500.0   90.0   16.666666666666668
-500.0   60.0   33.333333333333336
-450.0   60.0   16.666666666666668
-450.0   90.0   16.666666666666668
-500.0   90.0   16.666666666666668
-450.0   90.0   33.333333333333336
-500.0   60.0   33.333333333333336
-500.0   90.0   33.333333333333336
-450.0   90.0   33.333333333333336
-500.0   90.0   16.666666666666668
-500.0   60.0   33.333333333333336
-450.0   90.0   33.333333333333336
-450.0   60.0   33.333333333333336
-450.0   60.0   16.666666666666668
-500.0   60.0   33.333333333333336
-450.0   90.0   33.333333333333336
-450.0   60.0   16.666666666666668
-500.0   90.0   16.666666666666668
-500.0   60.0   33.333333333333336
-450.0   60.0   33.333333333333336
-500.0   90.0   33.333333333333336
-500.0   60.0   50.0
-450.0   60.0   33.333333333333336
-450.0   90.0   33.333333333333336
-500.0   90.0   33.333333333333336
-450.0   90.0   50.0
-500.0   60.0   50.0
-500.0   90.0   50.0
-450.0   90.0   50.0
-500.0   90.0   33.333333333333336
-500.0   60.0   50.0
-450.0   90.0   50.0
-450.0   60.0   50.0
-450.0   60.0   33.333333333333336
-500.0   60.0   50.0
-450.0   90.0   50.0
-450.0   60.0   33.333333333333336
-500.0   90.0   33.333333333333336
-500.0   90.0   0.0
-450.0   90.0   0.0
-500.0   120.0   0.0
-500.0   90.0   16.666666666666668
-450.0   90.0   0.0
-450.0   120.0   0.0
-500.0   120.0   0.0
-450.0   120.0   16.666666666666668
-500.0   90.0   16.666666666666668
-500.0   120.0   16.666666666666668
-450.0   120.0   16.666666666666668
-500.0   120.0   0.0
-500.0   90.0   16.666666666666668
-450.0   120.0   16.666666666666668
-450.0   90.0   16.666666666666668
-450.0   90.0   0.0
-500.0   90.0   16.666666666666668
-450.0   120.0   16.666666666666668
-450.0   90.0   0.0
-500.0   120.0   0.0
-500.0   90.0   16.666666666666668
-450.0   90.0   16.666666666666668
-500.0   120.0   16.666666666666668
-500.0   90.0   33.333333333333336
-450.0   90.0   16.666666666666668
-450.0   120.0   16.666666666666668
-500.0   120.0   16.666666666666668
-450.0   120.0   33.333333333333336
-500.0   90.0   33.333333333333336
-500.0   120.0   33.333333333333336
-450.0   120.0   33.333333333333336
-500.0   120.0   16.666666666666668
-500.0   90.0   33.333333333333336
-450.0   120.0   33.333333333333336
-450.0   90.0   33.333333333333336
-450.0   90.0   16.666666666666668
-500.0   90.0   33.333333333333336
-450.0   120.0   33.333333333333336
-450.0   90.0   16.666666666666668
-500.0   120.0   16.666666666666668
-500.0   90.0   33.333333333333336
-450.0   90.0   33.333333333333336
-500.0   120.0   33.333333333333336
-500.0   90.0   50.0
-450.0   90.0   33.333333333333336
-450.0   120.0   33.333333333333336
-500.0   120.0   33.333333333333336
-450.0   120.0   50.0
-500.0   90.0   50.0
-500.0   120.0   50.0
-450.0   120.0   50.0
-500.0   120.0   33.333333333333336
-500.0   90.0   50.0
-450.0   120.0   50.0
-450.0   90.0   50.0
-450.0   90.0   33.333333333333336
-500.0   90.0   50.0
-450.0   120.0   50.0
-450.0   90.0   33.333333333333336
-500.0   120.0   33.333333333333336
-500.0   120.0   0.0
-450.0   120.0   0.0
-500.0   150.0   0.0
-500.0   120.0   16.666666666666668
-450.0   120.0   0.0
-450.0   150.0   0.0
-500.0   150.0   0.0
-450.0   150.0   16.666666666666668
-500.0   120.0   16.666666666666668
-500.0   150.0   16.666666666666668
-450.0   150.0   16.666666666666668
-500.0   150.0   0.0
-500.0   120.0   16.666666666666668
-450.0   150.0   16.666666666666668
-450.0   120.0   16.666666666666668
-450.0   120.0   0.0
-500.0   120.0   16.666666666666668
-450.0   150.0   16.666666666666668
-450.0   120.0   0.0
-500.0   150.0   0.0
-500.0   120.0   16.666666666666668
-450.0   120.0   16.666666666666668
-500.0   150.0   16.666666666666668
-500.0   120.0   33.333333333333336
-450.0   120.0   16.666666666666668
-450.0   150.0   16.666666666666668
-500.0   150.0   16.666666666666668
-450.0   150.0   33.333333333333336
-500.0   120.0   33.333333333333336
-500.0   150.0   33.333333333333336
-450.0   150.0   33.333333333333336
-500.0   150.0   16.666666666666668
-500.0   120.0   33.333333333333336
-450.0   150.0   33.333333333333336
-450.0   120.0   33.333333333333336
-450.0   120.0   16.666666666666668
-500.0   120.0   33.333333333333336
-450.0   150.0   33.333333333333336
-450.0   120.0   16.666666666666668
-500.0   150.0   16.666666666666668
-500.0   120.0   33.333333333333336
-450.0   120.0   33.333333333333336
-500.0   150.0   33.333333333333336
-500.0   120.0   50.0
-450.0   120.0   33.333333333333336
-450.0   150.0   33.333333333333336
-500.0   150.0   33.333333333333336
-450.0   150.0   50.0
-500.0   120.0   50.0
-500.0   150.0   50.0
-450.0   150.0   50.0
-500.0   150.0   33.333333333333336
-500.0   120.0   50.0
-450.0   150.0   50.0
-450.0   120.0   50.0
-450.0   120.0   33.333333333333336
-500.0   120.0   50.0
-450.0   150.0   50.0
-450.0   120.0   33.333333333333336
-500.0   150.0   33.333333333333336
-450.0   0.0   0.0
-400.0   0.0   0.0
-450.0   30.0   0.0
-450.0   0.0   16.666666666666668
-400.0   0.0   0.0
-400.0   30.0   0.0
-450.0   30.0   0.0
-400.0   30.0   16.666666666666668
-450.0   0.0   16.666666666666668
-450.0   30.0   16.666666666666668
-400.0   30.0   16.666666666666668
-450.0   30.0   0.0
-450.0   0.0   16.666666666666668
-400.0   30.0   16.666666666666668
-400.0   0.0   16.666666666666668
-400.0   0.0   0.0
-450.0   0.0   16.666666666666668
-400.0   30.0   16.666666666666668
-400.0   0.0   0.0
-450.0   30.0   0.0
-450.0   0.0   16.666666666666668
-400.0   0.0   16.666666666666668
-450.0   30.0   16.666666666666668
-450.0   0.0   33.333333333333336
-400.0   0.0   16.666666666666668
-400.0   30.0   16.666666666666668
-450.0   30.0   16.666666666666668
-400.0   30.0   33.333333333333336
-450.0   0.0   33.333333333333336
-450.0   30.0   33.333333333333336
-400.0   30.0   33.333333333333336
-450.0   30.0   16.666666666666668
-450.0   0.0   33.333333333333336
-400.0   30.0   33.333333333333336
-400.0   0.0   33.333333333333336
-400.0   0.0   16.666666666666668
-450.0   0.0   33.333333333333336
-400.0   30.0   33.333333333333336
-400.0   0.0   16.666666666666668
-450.0   30.0   16.666666666666668
-450.0   0.0   33.333333333333336
-400.0   0.0   33.333333333333336
-450.0   30.0   33.333333333333336
-450.0   0.0   50.0
-400.0   0.0   33.333333333333336
-400.0   30.0   33.333333333333336
-450.0   30.0   33.333333333333336
-400.0   30.0   50.0
-450.0   0.0   50.0
-450.0   30.0   50.0
-400.0   30.0   50.0
-450.0   30.0   33.333333333333336
-450.0   0.0   50.0
-400.0   30.0   50.0
-400.0   0.0   50.0
-400.0   0.0   33.333333333333336
-450.0   0.0   50.0
-400.0   30.0   50.0
-400.0   0.0   33.333333333333336
-450.0   30.0   33.333333333333336
-450.0   30.0   0.0
-400.0   30.0   0.0
-450.0   60.0   0.0
-450.0   30.0   16.666666666666668
-400.0   30.0   0.0
-400.0   60.0   0.0
-450.0   60.0   0.0
-400.0   60.0   16.666666666666668
-450.0   30.0   16.666666666666668
-450.0   60.0   16.666666666666668
-400.0   60.0   16.666666666666668
-450.0   60.0   0.0
-450.0   30.0   16.666666666666668
-400.0   60.0   16.666666666666668
-400.0   30.0   16.666666666666668
-400.0   30.0   0.0
-450.0   30.0   16.666666666666668
-400.0   60.0   16.666666666666668
-400.0   30.0   0.0
-450.0   60.0   0.0
-450.0   30.0   16.666666666666668
-400.0   30.0   16.666666666666668
-450.0   60.0   16.666666666666668
-450.0   30.0   33.333333333333336
-400.0   30.0   16.666666666666668
-400.0   60.0   16.666666666666668
-450.0   60.0   16.666666666666668
-400.0   60.0   33.333333333333336
-450.0   30.0   33.333333333333336
-450.0   60.0   33.333333333333336
-400.0   60.0   33.333333333333336
-450.0   60.0   16.666666666666668
-450.0   30.0   33.333333333333336
-400.0   60.0   33.333333333333336
-400.0   30.0   33.333333333333336
-400.0   30.0   16.666666666666668
-450.0   30.0   33.333333333333336
-400.0   60.0   33.333333333333336
-400.0   30.0   16.666666666666668
-450.0   60.0   16.666666666666668
-450.0   30.0   33.333333333333336
-400.0   30.0   33.333333333333336
-450.0   60.0   33.333333333333336
-450.0   30.0   50.0
-400.0   30.0   33.333333333333336
-400.0   60.0   33.333333333333336
-450.0   60.0   33.333333333333336
-400.0   60.0   50.0
-450.0   30.0   50.0
-450.0   60.0   50.0
-400.0   60.0   50.0
-450.0   60.0   33.333333333333336
-450.0   30.0   50.0
-400.0   60.0   50.0
-400.0   30.0   50.0
-400.0   30.0   33.333333333333336
-450.0   30.0   50.0
-400.0   60.0   50.0
-400.0   30.0   33.333333333333336
-450.0   60.0   33.333333333333336
-450.0   60.0   0.0
-400.0   60.0   0.0
-450.0   90.0   0.0
-450.0   60.0   16.666666666666668
-400.0   60.0   0.0
-400.0   90.0   0.0
-450.0   90.0   0.0
-400.0   90.0   16.666666666666668
-450.0   60.0   16.666666666666668
-450.0   90.0   16.666666666666668
-400.0   90.0   16.666666666666668
-450.0   90.0   0.0
-450.0   60.0   16.666666666666668
-400.0   90.0   16.666666666666668
-400.0   60.0   16.666666666666668
-400.0   60.0   0.0
-450.0   60.0   16.666666666666668
-400.0   90.0   16.666666666666668
-400.0   60.0   0.0
-450.0   90.0   0.0
-450.0   60.0   16.666666666666668
-400.0   60.0   16.666666666666668
-450.0   90.0   16.666666666666668
-450.0   60.0   33.333333333333336
-400.0   60.0   16.666666666666668
-400.0   90.0   16.666666666666668
-450.0   90.0   16.666666666666668
-400.0   90.0   33.333333333333336
-450.0   60.0   33.333333333333336
-450.0   90.0   33.333333333333336
-400.0   90.0   33.333333333333336
-450.0   90.0   16.666666666666668
-450.0   60.0   33.333333333333336
-400.0   90.0   33.333333333333336
-400.0   60.0   33.333333333333336
-400.0   60.0   16.666666666666668
-450.0   60.0   33.333333333333336
-400.0   90.0   33.333333333333336
-400.0   60.0   16.666666666666668
-450.0   90.0   16.666666666666668
-450.0   60.0   33.333333333333336
-400.0   60.0   33.333333333333336
-450.0   90.0   33.333333333333336
-450.0   60.0   50.0
-400.0   60.0   33.333333333333336
-400.0   90.0   33.333333333333336
-450.0   90.0   33.333333333333336
-400.0   90.0   50.0
-450.0   60.0   50.0
-450.0   90.0   50.0
-400.0   90.0   50.0
-450.0   90.0   33.333333333333336
-450.0   60.0   50.0
-400.0   90.0   50.0
-400.0   60.0   50.0
-400.0   60.0   33.333333333333336
-450.0   60.0   50.0
-400.0   90.0   50.0
-400.0   60.0   33.333333333333336
-450.0   90.0   33.333333333333336
-450.0   90.0   0.0
-400.0   90.0   0.0
-450.0   120.0   0.0
-450.0   90.0   16.666666666666668
-400.0   90.0   0.0
-400.0   120.0   0.0
-450.0   120.0   0.0
-400.0   120.0   16.666666666666668
-450.0   90.0   16.666666666666668
-450.0   120.0   16.666666666666668
-400.0   120.0   16.666666666666668
-450.0   120.0   0.0
-450.0   90.0   16.666666666666668
-400.0   120.0   16.666666666666668
-400.0   90.0   16.666666666666668
-400.0   90.0   0.0
-450.0   90.0   16.666666666666668
-400.0   120.0   16.666666666666668
-400.0   90.0   0.0
-450.0   120.0   0.0
-450.0   90.0   16.666666666666668
-400.0   90.0   16.666666666666668
-450.0   120.0   16.666666666666668
-450.0   90.0   33.333333333333336
-400.0   90.0   16.666666666666668
-400.0   120.0   16.666666666666668
-450.0   120.0   16.666666666666668
-400.0   120.0   33.333333333333336
-450.0   90.0   33.333333333333336
-450.0   120.0   33.333333333333336
-400.0   120.0   33.333333333333336
-450.0   120.0   16.666666666666668
-450.0   90.0   33.333333333333336
-400.0   120.0   33.333333333333336
-400.0   90.0   33.333333333333336
-400.0   90.0   16.666666666666668
-450.0   90.0   33.333333333333336
-400.0   120.0   33.333333333333336
-400.0   90.0   16.666666666666668
-450.0   120.0   16.666666666666668
-450.0   90.0   33.333333333333336
-400.0   90.0   33.333333333333336
-450.0   120.0   33.333333333333336
-450.0   90.0   50.0
-400.0   90.0   33.333333333333336
-400.0   120.0   33.333333333333336
-450.0   120.0   33.333333333333336
-400.0   120.0   50.0
-450.0   90.0   50.0
-450.0   120.0   50.0
-400.0   120.0   50.0
-450.0   120.0   33.333333333333336
-450.0   90.0   50.0
-400.0   120.0   50.0
-400.0   90.0   50.0
-400.0   90.0   33.333333333333336
-450.0   90.0   50.0
-400.0   120.0   50.0
-400.0   90.0   33.333333333333336
-450.0   120.0   33.333333333333336
-450.0   120.0   0.0
-400.0   120.0   0.0
-450.0   150.0   0.0
-450.0   120.0   16.666666666666668
-400.0   120.0   0.0
-400.0   150.0   0.0
-450.0   150.0   0.0
-400.0   150.0   16.666666666666668
-450.0   120.0   16.666666666666668
-450.0   150.0   16.666666666666668
-400.0   150.0   16.666666666666668
-450.0   150.0   0.0
-450.0   120.0   16.666666666666668
-400.0   150.0   16.666666666666668
-400.0   120.0   16.666666666666668
-400.0   120.0   0.0
-450.0   120.0   16.666666666666668
-400.0   150.0   16.666666666666668
-400.0   120.0   0.0
-450.0   150.0   0.0
-450.0   120.0   16.666666666666668
-400.0   120.0   16.666666666666668
-450.0   150.0   16.666666666666668
-450.0   120.0   33.333333333333336
-400.0   120.0   16.666666666666668
-400.0   150.0   16.666666666666668
-450.0   150.0   16.666666666666668
-400.0   150.0   33.333333333333336
-450.0   120.0   33.333333333333336
-450.0   150.0   33.333333333333336
-400.0   150.0   33.333333333333336
-450.0   150.0   16.666666666666668
-450.0   120.0   33.333333333333336
-400.0   150.0   33.333333333333336
-400.0   120.0   33.333333333333336
-400.0   120.0   16.666666666666668
-450.0   120.0   33.333333333333336
-400.0   150.0   33.333333333333336
-400.0   120.0   16.666666666666668
-450.0   150.0   16.666666666666668
-450.0   120.0   33.333333333333336
-400.0   120.0   33.333333333333336
-450.0   150.0   33.333333333333336
-450.0   120.0   50.0
-400.0   120.0   33.333333333333336
-400.0   150.0   33.333333333333336
-450.0   150.0   33.333333333333336
-400.0   150.0   50.0
-450.0   120.0   50.0
-450.0   150.0   50.0
-400.0   150.0   50.0
-450.0   150.0   33.333333333333336
-450.0   120.0   50.0
-400.0   150.0   50.0
-400.0   120.0   50.0
-400.0   120.0   33.333333333333336
-450.0   120.0   50.0
-400.0   150.0   50.0
-400.0   120.0   33.333333333333336
-450.0   150.0   33.333333333333336
-400.0   0.0   0.0
-350.0   0.0   0.0
-400.0   30.0   0.0
-400.0   0.0   16.666666666666668
-350.0   0.0   0.0
-350.0   30.0   0.0
-400.0   30.0   0.0
-350.0   30.0   16.666666666666668
-400.0   0.0   16.666666666666668
-400.0   30.0   16.666666666666668
-350.0   30.0   16.666666666666668
-400.0   30.0   0.0
-400.0   0.0   16.666666666666668
-350.0   30.0   16.666666666666668
-350.0   0.0   16.666666666666668
-350.0   0.0   0.0
-400.0   0.0   16.666666666666668
-350.0   30.0   16.666666666666668
-350.0   0.0   0.0
-400.0   30.0   0.0
-400.0   0.0   16.666666666666668
-350.0   0.0   16.666666666666668
-400.0   30.0   16.666666666666668
-400.0   0.0   33.333333333333336
-350.0   0.0   16.666666666666668
-350.0   30.0   16.666666666666668
-400.0   30.0   16.666666666666668
-350.0   30.0   33.333333333333336
-400.0   0.0   33.333333333333336
-400.0   30.0   33.333333333333336
-350.0   30.0   33.333333333333336
-400.0   30.0   16.666666666666668
-400.0   0.0   33.333333333333336
-350.0   30.0   33.333333333333336
-350.0   0.0   33.333333333333336
-350.0   0.0   16.666666666666668
-400.0   0.0   33.333333333333336
-350.0   30.0   33.333333333333336
-350.0   0.0   16.666666666666668
-400.0   30.0   16.666666666666668
-400.0   0.0   33.333333333333336
-350.0   0.0   33.333333333333336
-400.0   30.0   33.333333333333336
-400.0   0.0   50.0
-350.0   0.0   33.333333333333336
-350.0   30.0   33.333333333333336
-400.0   30.0   33.333333333333336
-350.0   30.0   50.0
-400.0   0.0   50.0
-400.0   30.0   50.0
-350.0   30.0   50.0
-400.0   30.0   33.333333333333336
-400.0   0.0   50.0
-350.0   30.0   50.0
-350.0   0.0   50.0
-350.0   0.0   33.333333333333336
-400.0   0.0   50.0
-350.0   30.0   50.0
-350.0   0.0   33.333333333333336
-400.0   30.0   33.333333333333336
-400.0   30.0   0.0
-350.0   30.0   0.0
-400.0   60.0   0.0
-400.0   30.0   16.666666666666668
-350.0   30.0   0.0
-350.0   60.0   0.0
-400.0   60.0   0.0
-350.0   60.0   16.666666666666668
-400.0   30.0   16.666666666666668
-400.0   60.0   16.666666666666668
-350.0   60.0   16.666666666666668
-400.0   60.0   0.0
-400.0   30.0   16.666666666666668
-350.0   60.0   16.666666666666668
-350.0   30.0   16.666666666666668
-350.0   30.0   0.0
-400.0   30.0   16.666666666666668
-350.0   60.0   16.666666666666668
-350.0   30.0   0.0
-400.0   60.0   0.0
-400.0   30.0   16.666666666666668
-350.0   30.0   16.666666666666668
-400.0   60.0   16.666666666666668
-400.0   30.0   33.333333333333336
-350.0   30.0   16.666666666666668
-350.0   60.0   16.666666666666668
-400.0   60.0   16.666666666666668
-350.0   60.0   33.333333333333336
-400.0   30.0   33.333333333333336
-400.0   60.0   33.333333333333336
-350.0   60.0   33.333333333333336
-400.0   60.0   16.666666666666668
-400.0   30.0   33.333333333333336
-350.0   60.0   33.333333333333336
-350.0   30.0   33.333333333333336
-350.0   30.0   16.666666666666668
-400.0   30.0   33.333333333333336
-350.0   60.0   33.333333333333336
-350.0   30.0   16.666666666666668
-400.0   60.0   16.666666666666668
-400.0   30.0   33.333333333333336
-350.0   30.0   33.333333333333336
-400.0   60.0   33.333333333333336
-400.0   30.0   50.0
-350.0   30.0   33.333333333333336
-350.0   60.0   33.333333333333336
-400.0   60.0   33.333333333333336
-350.0   60.0   50.0
-400.0   30.0   50.0
-400.0   60.0   50.0
-350.0   60.0   50.0
-400.0   60.0   33.333333333333336
-400.0   30.0   50.0
-350.0   60.0   50.0
-350.0   30.0   50.0
-350.0   30.0   33.333333333333336
-400.0   30.0   50.0
-350.0   60.0   50.0
-350.0   30.0   33.333333333333336
-400.0   60.0   33.333333333333336
-400.0   60.0   0.0
-350.0   60.0   0.0
-400.0   90.0   0.0
-400.0   60.0   16.666666666666668
-350.0   60.0   0.0
-350.0   90.0   0.0
-400.0   90.0   0.0
-350.0   90.0   16.666666666666668
-400.0   60.0   16.666666666666668
-400.0   90.0   16.666666666666668
-350.0   90.0   16.666666666666668
-400.0   90.0   0.0
-400.0   60.0   16.666666666666668
-350.0   90.0   16.666666666666668
-350.0   60.0   16.666666666666668
-350.0   60.0   0.0
-400.0   60.0   16.666666666666668
-350.0   90.0   16.666666666666668
-350.0   60.0   0.0
-400.0   90.0   0.0
-400.0   60.0   16.666666666666668
-350.0   60.0   16.666666666666668
-400.0   90.0   16.666666666666668
-400.0   60.0   33.333333333333336
-350.0   60.0   16.666666666666668
-350.0   90.0   16.666666666666668
-400.0   90.0   16.666666666666668
-350.0   90.0   33.333333333333336
-400.0   60.0   33.333333333333336
-400.0   90.0   33.333333333333336
-350.0   90.0   33.333333333333336
-400.0   90.0   16.666666666666668
-400.0   60.0   33.333333333333336
-350.0   90.0   33.333333333333336
-350.0   60.0   33.333333333333336
-350.0   60.0   16.666666666666668
-400.0   60.0   33.333333333333336
-350.0   90.0   33.333333333333336
-350.0   60.0   16.666666666666668
-400.0   90.0   16.666666666666668
-400.0   60.0   33.333333333333336
-350.0   60.0   33.333333333333336
-400.0   90.0   33.333333333333336
-400.0   60.0   50.0
-350.0   60.0   33.333333333333336
-350.0   90.0   33.333333333333336
-400.0   90.0   33.333333333333336
-350.0   90.0   50.0
-400.0   60.0   50.0
-400.0   90.0   50.0
-350.0   90.0   50.0
-400.0   90.0   33.333333333333336
-400.0   60.0   50.0
-350.0   90.0   50.0
-350.0   60.0   50.0
-350.0   60.0   33.333333333333336
-400.0   60.0   50.0
-350.0   90.0   50.0
-350.0   60.0   33.333333333333336
-400.0   90.0   33.333333333333336
-400.0   90.0   0.0
-350.0   90.0   0.0
-400.0   120.0   0.0
-400.0   90.0   16.666666666666668
-350.0   90.0   0.0
-350.0   120.0   0.0
-400.0   120.0   0.0
-350.0   120.0   16.666666666666668
-400.0   90.0   16.666666666666668
-400.0   120.0   16.666666666666668
-350.0   120.0   16.666666666666668
-400.0   120.0   0.0
-400.0   90.0   16.666666666666668
-350.0   120.0   16.666666666666668
-350.0   90.0   16.666666666666668
-350.0   90.0   0.0
-400.0   90.0   16.666666666666668
-350.0   120.0   16.666666666666668
-350.0   90.0   0.0
-400.0   120.0   0.0
-400.0   90.0   16.666666666666668
-350.0   90.0   16.666666666666668
-400.0   120.0   16.666666666666668
-400.0   90.0   33.333333333333336
-350.0   90.0   16.666666666666668
-350.0   120.0   16.666666666666668
-400.0   120.0   16.666666666666668
-350.0   120.0   33.333333333333336
-400.0   90.0   33.333333333333336
-400.0   120.0   33.333333333333336
-350.0   120.0   33.333333333333336
-400.0   120.0   16.666666666666668
-400.0   90.0   33.333333333333336
-350.0   120.0   33.333333333333336
-350.0   90.0   33.333333333333336
-350.0   90.0   16.666666666666668
-400.0   90.0   33.333333333333336
-350.0   120.0   33.333333333333336
-350.0   90.0   16.666666666666668
-400.0   120.0   16.666666666666668
-400.0   90.0   33.333333333333336
-350.0   90.0   33.333333333333336
-400.0   120.0   33.333333333333336
-400.0   90.0   50.0
-350.0   90.0   33.333333333333336
-350.0   120.0   33.333333333333336
-400.0   120.0   33.333333333333336
-350.0   120.0   50.0
-400.0   90.0   50.0
-400.0   120.0   50.0
-350.0   120.0   50.0
-400.0   120.0   33.333333333333336
-400.0   90.0   50.0
-350.0   120.0   50.0
-350.0   90.0   50.0
-350.0   90.0   33.333333333333336
-400.0   90.0   50.0
-350.0   120.0   50.0
-350.0   90.0   33.333333333333336
-400.0   120.0   33.333333333333336
-400.0   120.0   0.0
-350.0   120.0   0.0
-400.0   150.0   0.0
-400.0   120.0   16.666666666666668
-350.0   120.0   0.0
-350.0   150.0   0.0
-400.0   150.0   0.0
-350.0   150.0   16.666666666666668
-400.0   120.0   16.666666666666668
-400.0   150.0   16.666666666666668
-350.0   150.0   16.666666666666668
-400.0   150.0   0.0
-400.0   120.0   16.666666666666668
-350.0   150.0   16.666666666666668
-350.0   120.0   16.666666666666668
-350.0   120.0   0.0
-400.0   120.0   16.666666666666668
-350.0   150.0   16.666666666666668
-350.0   120.0   0.0
-400.0   150.0   0.0
-400.0   120.0   16.666666666666668
-350.0   120.0   16.666666666666668
-400.0   150.0   16.666666666666668
-400.0   120.0   33.333333333333336
-350.0   120.0   16.666666666666668
-350.0   150.0   16.666666666666668
-400.0   150.0   16.666666666666668
-350.0   150.0   33.333333333333336
-400.0   120.0   33.333333333333336
-400.0   150.0   33.333333333333336
-350.0   150.0   33.333333333333336
-400.0   150.0   16.666666666666668
-400.0   120.0   33.333333333333336
-350.0   150.0   33.333333333333336
-350.0   120.0   33.333333333333336
-350.0   120.0   16.666666666666668
-400.0   120.0   33.333333333333336
-350.0   150.0   33.333333333333336
-350.0   120.0   16.666666666666668
-400.0   150.0   16.666666666666668
-400.0   120.0   33.333333333333336
-350.0   120.0   33.333333333333336
-400.0   150.0   33.333333333333336
-400.0   120.0   50.0
-350.0   120.0   33.333333333333336
-350.0   150.0   33.333333333333336
-400.0   150.0   33.333333333333336
-350.0   150.0   50.0
-400.0   120.0   50.0
-400.0   150.0   50.0
-350.0   150.0   50.0
-400.0   150.0   33.333333333333336
-400.0   120.0   50.0
-350.0   150.0   50.0
-350.0   120.0   50.0
-350.0   120.0   33.333333333333336
-400.0   120.0   50.0
-350.0   150.0   50.0
-350.0   120.0   33.333333333333336
-400.0   150.0   33.333333333333336
-350.0   0.0   0.0
-300.0   0.0   0.0
-350.0   30.0   0.0
-350.0   0.0   16.666666666666668
-300.0   0.0   0.0
-300.0   30.0   0.0
-350.0   30.0   0.0
-300.0   30.0   16.666666666666668
-350.0   0.0   16.666666666666668
-350.0   30.0   16.666666666666668
-300.0   30.0   16.666666666666668
-350.0   30.0   0.0
-350.0   0.0   16.666666666666668
-300.0   30.0   16.666666666666668
-300.0   0.0   16.666666666666668
-300.0   0.0   0.0
-350.0   0.0   16.666666666666668
-300.0   30.0   16.666666666666668
-300.0   0.0   0.0
-350.0   30.0   0.0
-350.0   0.0   16.666666666666668
-300.0   0.0   16.666666666666668
-350.0   30.0   16.666666666666668
-350.0   0.0   33.333333333333336
-300.0   0.0   16.666666666666668
-300.0   30.0   16.666666666666668
-350.0   30.0   16.666666666666668
-300.0   30.0   33.333333333333336
-350.0   0.0   33.333333333333336
-350.0   30.0   33.333333333333336
-300.0   30.0   33.333333333333336
-350.0   30.0   16.666666666666668
-350.0   0.0   33.333333333333336
-300.0   30.0   33.333333333333336
-300.0   0.0   33.333333333333336
-300.0   0.0   16.666666666666668
-350.0   0.0   33.333333333333336
-300.0   30.0   33.333333333333336
-300.0   0.0   16.666666666666668
-350.0   30.0   16.666666666666668
-350.0   0.0   33.333333333333336
-300.0   0.0   33.333333333333336
-350.0   30.0   33.333333333333336
-350.0   0.0   50.0
-300.0   0.0   33.333333333333336
-300.0   30.0   33.333333333333336
-350.0   30.0   33.333333333333336
-300.0   30.0   50.0
-350.0   0.0   50.0
-350.0   30.0   50.0
-300.0   30.0   50.0
-350.0   30.0   33.333333333333336
-350.0   0.0   50.0
-300.0   30.0   50.0
-300.0   0.0   50.0
-300.0   0.0   33.333333333333336
-350.0   0.0   50.0
-300.0   30.0   50.0
-300.0   0.0   33.333333333333336
-350.0   30.0   33.333333333333336
-350.0   30.0   0.0
-300.0   30.0   0.0
-350.0   60.0   0.0
-350.0   30.0   16.666666666666668
-300.0   30.0   0.0
-300.0   60.0   0.0
-350.0   60.0   0.0
-300.0   60.0   16.666666666666668
-350.0   30.0   16.666666666666668
-350.0   60.0   16.666666666666668
-300.0   60.0   16.666666666666668
-350.0   60.0   0.0
-350.0   30.0   16.666666666666668
-300.0   60.0   16.666666666666668
-300.0   30.0   16.666666666666668
-300.0   30.0   0.0
-350.0   30.0   16.666666666666668
-300.0   60.0   16.666666666666668
-300.0   30.0   0.0
-350.0   60.0   0.0
-350.0   30.0   16.666666666666668
-300.0   30.0   16.666666666666668
-350.0   60.0   16.666666666666668
-350.0   30.0   33.333333333333336
-300.0   30.0   16.666666666666668
-300.0   60.0   16.666666666666668
-350.0   60.0   16.666666666666668
-300.0   60.0   33.333333333333336
-350.0   30.0   33.333333333333336
-350.0   60.0   33.333333333333336
-300.0   60.0   33.333333333333336
-350.0   60.0   16.666666666666668
-350.0   30.0   33.333333333333336
-300.0   60.0   33.333333333333336
-300.0   30.0   33.333333333333336
-300.0   30.0   16.666666666666668
-350.0   30.0   33.333333333333336
-300.0   60.0   33.333333333333336
-300.0   30.0   16.666666666666668
-350.0   60.0   16.666666666666668
-350.0   30.0   33.333333333333336
-300.0   30.0   33.333333333333336
-350.0   60.0   33.333333333333336
-350.0   30.0   50.0
-300.0   30.0   33.333333333333336
-300.0   60.0   33.333333333333336
-350.0   60.0   33.333333333333336
-300.0   60.0   50.0
-350.0   30.0   50.0
-350.0   60.0   50.0
-300.0   60.0   50.0
-350.0   60.0   33.333333333333336
-350.0   30.0   50.0
-300.0   60.0   50.0
-300.0   30.0   50.0
-300.0   30.0   33.333333333333336
-350.0   30.0   50.0
-300.0   60.0   50.0
-300.0   30.0   33.333333333333336
-350.0   60.0   33.333333333333336
-350.0   60.0   0.0
-300.0   60.0   0.0
-350.0   90.0   0.0
-350.0   60.0   16.666666666666668
-300.0   60.0   0.0
-300.0   90.0   0.0
-350.0   90.0   0.0
-300.0   90.0   16.666666666666668
-350.0   60.0   16.666666666666668
-350.0   90.0   16.666666666666668
-300.0   90.0   16.666666666666668
-350.0   90.0   0.0
-350.0   60.0   16.666666666666668
-300.0   90.0   16.666666666666668
-300.0   60.0   16.666666666666668
-300.0   60.0   0.0
-350.0   60.0   16.666666666666668
-300.0   90.0   16.666666666666668
-300.0   60.0   0.0
-350.0   90.0   0.0
-350.0   60.0   16.666666666666668
-300.0   60.0   16.666666666666668
-350.0   90.0   16.666666666666668
-350.0   60.0   33.333333333333336
-300.0   60.0   16.666666666666668
-300.0   90.0   16.666666666666668
-350.0   90.0   16.666666666666668
-300.0   90.0   33.333333333333336
-350.0   60.0   33.333333333333336
-350.0   90.0   33.333333333333336
-300.0   90.0   33.333333333333336
-350.0   90.0   16.666666666666668
-350.0   60.0   33.333333333333336
-300.0   90.0   33.333333333333336
-300.0   60.0   33.333333333333336
-300.0   60.0   16.666666666666668
-350.0   60.0   33.333333333333336
-300.0   90.0   33.333333333333336
-300.0   60.0   16.666666666666668
-350.0   90.0   16.666666666666668
-350.0   60.0   33.333333333333336
-300.0   60.0   33.333333333333336
-350.0   90.0   33.333333333333336
-350.0   60.0   50.0
-300.0   60.0   33.333333333333336
-300.0   90.0   33.333333333333336
-350.0   90.0   33.333333333333336
-300.0   90.0   50.0
-350.0   60.0   50.0
-350.0   90.0   50.0
-300.0   90.0   50.0
-350.0   90.0   33.333333333333336
-350.0   60.0   50.0
-300.0   90.0   50.0
-300.0   60.0   50.0
-300.0   60.0   33.333333333333336
-350.0   60.0   50.0
-300.0   90.0   50.0
-300.0   60.0   33.333333333333336
-350.0   90.0   33.333333333333336
-350.0   90.0   0.0
-300.0   90.0   0.0
-350.0   120.0   0.0
-350.0   90.0   16.666666666666668
-300.0   90.0   0.0
-300.0   120.0   0.0
-350.0   120.0   0.0
-300.0   120.0   16.666666666666668
-350.0   90.0   16.666666666666668
-350.0   120.0   16.666666666666668
-300.0   120.0   16.666666666666668
-350.0   120.0   0.0
-350.0   90.0   16.666666666666668
-300.0   120.0   16.666666666666668
-300.0   90.0   16.666666666666668
-300.0   90.0   0.0
-350.0   90.0   16.666666666666668
-300.0   120.0   16.666666666666668
-300.0   90.0   0.0
-350.0   120.0   0.0
-350.0   90.0   16.666666666666668
-300.0   90.0   16.666666666666668
-350.0   120.0   16.666666666666668
-350.0   90.0   33.333333333333336
-300.0   90.0   16.666666666666668
-300.0   120.0   16.666666666666668
-350.0   120.0   16.666666666666668
-300.0   120.0   33.333333333333336
-350.0   90.0   33.333333333333336
-350.0   120.0   33.333333333333336
-300.0   120.0   33.333333333333336
-350.0   120.0   16.666666666666668
-350.0   90.0   33.333333333333336
-300.0   120.0   33.333333333333336
-300.0   90.0   33.333333333333336
-300.0   90.0   16.666666666666668
-350.0   90.0   33.333333333333336
-300.0   120.0   33.333333333333336
-300.0   90.0   16.666666666666668
-350.0   120.0   16.666666666666668
-350.0   90.0   33.333333333333336
-300.0   90.0   33.333333333333336
-350.0   120.0   33.333333333333336
-350.0   90.0   50.0
-300.0   90.0   33.333333333333336
-300.0   120.0   33.333333333333336
-350.0   120.0   33.333333333333336
-300.0   120.0   50.0
-350.0   90.0   50.0
-350.0   120.0   50.0
-300.0   120.0   50.0
-350.0   120.0   33.333333333333336
-350.0   90.0   50.0
-300.0   120.0   50.0
-300.0   90.0   50.0
-300.0   90.0   33.333333333333336
-350.0   90.0   50.0
-300.0   120.0   50.0
-300.0   90.0   33.333333333333336
-350.0   120.0   33.333333333333336
-350.0   120.0   0.0
-300.0   120.0   0.0
-350.0   150.0   0.0
-350.0   120.0   16.666666666666668
-300.0   120.0   0.0
-300.0   150.0   0.0
-350.0   150.0   0.0
-300.0   150.0   16.666666666666668
-350.0   120.0   16.666666666666668
-350.0   150.0   16.666666666666668
-300.0   150.0   16.666666666666668
-350.0   150.0   0.0
-350.0   120.0   16.666666666666668
-300.0   150.0   16.666666666666668
-300.0   120.0   16.666666666666668
-300.0   120.0   0.0
-350.0   120.0   16.666666666666668
-300.0   150.0   16.666666666666668
-300.0   120.0   0.0
-350.0   150.0   0.0
-350.0   120.0   16.666666666666668
-300.0   120.0   16.666666666666668
-350.0   150.0   16.666666666666668
-350.0   120.0   33.333333333333336
-300.0   120.0   16.666666666666668
-300.0   150.0   16.666666666666668
-350.0   150.0   16.666666666666668
-300.0   150.0   33.333333333333336
-350.0   120.0   33.333333333333336
-350.0   150.0   33.333333333333336
-300.0   150.0   33.333333333333336
-350.0   150.0   16.666666666666668
-350.0   120.0   33.333333333333336
-300.0   150.0   33.333333333333336
-300.0   120.0   33.333333333333336
-300.0   120.0   16.666666666666668
-350.0   120.0   33.333333333333336
-300.0   150.0   33.333333333333336
-300.0   120.0   16.666666666666668
-350.0   150.0   16.666666666666668
-350.0   120.0   33.333333333333336
-300.0   120.0   33.333333333333336
-350.0   150.0   33.333333333333336
-350.0   120.0   50.0
-300.0   120.0   33.333333333333336
-300.0   150.0   33.333333333333336
-350.0   150.0   33.333333333333336
-300.0   150.0   50.0
-350.0   120.0   50.0
-350.0   150.0   50.0
-300.0   150.0   50.0
-350.0   150.0   33.333333333333336
-350.0   120.0   50.0
-300.0   150.0   50.0
-300.0   120.0   50.0
-300.0   120.0   33.333333333333336
-350.0   120.0   50.0
-300.0   150.0   50.0
-300.0   120.0   33.333333333333336
-350.0   150.0   33.333333333333336
-300.0   0.0   0.0
-250.0   0.0   0.0
-300.0   30.0   0.0
-300.0   0.0   16.666666666666668
-250.0   0.0   0.0
-250.0   30.0   0.0
-300.0   30.0   0.0
-250.0   30.0   16.666666666666668
-300.0   0.0   16.666666666666668
-300.0   30.0   16.666666666666668
-250.0   30.0   16.666666666666668
-300.0   30.0   0.0
-300.0   0.0   16.666666666666668
-250.0   30.0   16.666666666666668
-250.0   0.0   16.666666666666668
-250.0   0.0   0.0
-300.0   0.0   16.666666666666668
-250.0   30.0   16.666666666666668
-250.0   0.0   0.0
-300.0   30.0   0.0
-300.0   0.0   16.666666666666668
-250.0   0.0   16.666666666666668
-300.0   30.0   16.666666666666668
-300.0   0.0   33.333333333333336
-250.0   0.0   16.666666666666668
-250.0   30.0   16.666666666666668
-300.0   30.0   16.666666666666668
-250.0   30.0   33.333333333333336
-300.0   0.0   33.333333333333336
-300.0   30.0   33.333333333333336
-250.0   30.0   33.333333333333336
-300.0   30.0   16.666666666666668
-300.0   0.0   33.333333333333336
-250.0   30.0   33.333333333333336
-250.0   0.0   33.333333333333336
-250.0   0.0   16.666666666666668
-300.0   0.0   33.333333333333336
-250.0   30.0   33.333333333333336
-250.0   0.0   16.666666666666668
-300.0   30.0   16.666666666666668
-300.0   0.0   33.333333333333336
-250.0   0.0   33.333333333333336
-300.0   30.0   33.333333333333336
-300.0   0.0   50.0
-250.0   0.0   33.333333333333336
-250.0   30.0   33.333333333333336
-300.0   30.0   33.333333333333336
-250.0   30.0   50.0
-300.0   0.0   50.0
-300.0   30.0   50.0
-250.0   30.0   50.0
-300.0   30.0   33.333333333333336
-300.0   0.0   50.0
-250.0   30.0   50.0
-250.0   0.0   50.0
-250.0   0.0   33.333333333333336
-300.0   0.0   50.0
-250.0   30.0   50.0
-250.0   0.0   33.333333333333336
-300.0   30.0   33.333333333333336
-300.0   30.0   0.0
-250.0   30.0   0.0
-300.0   60.0   0.0
-300.0   30.0   16.666666666666668
-250.0   30.0   0.0
-250.0   60.0   0.0
-300.0   60.0   0.0
-250.0   60.0   16.666666666666668
-300.0   30.0   16.666666666666668
-300.0   60.0   16.666666666666668
-250.0   60.0   16.666666666666668
-300.0   60.0   0.0
-300.0   30.0   16.666666666666668
-250.0   60.0   16.666666666666668
-250.0   30.0   16.666666666666668
-250.0   30.0   0.0
-300.0   30.0   16.666666666666668
-250.0   60.0   16.666666666666668
-250.0   30.0   0.0
-300.0   60.0   0.0
-300.0   30.0   16.666666666666668
-250.0   30.0   16.666666666666668
-300.0   60.0   16.666666666666668
-300.0   30.0   33.333333333333336
-250.0   30.0   16.666666666666668
-250.0   60.0   16.666666666666668
-300.0   60.0   16.666666666666668
-250.0   60.0   33.333333333333336
-300.0   30.0   33.333333333333336
-300.0   60.0   33.333333333333336
-250.0   60.0   33.333333333333336
-300.0   60.0   16.666666666666668
-300.0   30.0   33.333333333333336
-250.0   60.0   33.333333333333336
-250.0   30.0   33.333333333333336
-250.0   30.0   16.666666666666668
-300.0   30.0   33.333333333333336
-250.0   60.0   33.333333333333336
-250.0   30.0   16.666666666666668
-300.0   60.0   16.666666666666668
-300.0   30.0   33.333333333333336
-250.0   30.0   33.333333333333336
-300.0   60.0   33.333333333333336
-300.0   30.0   50.0
-250.0   30.0   33.333333333333336
-250.0   60.0   33.333333333333336
-300.0   60.0   33.333333333333336
-250.0   60.0   50.0
-300.0   30.0   50.0
-300.0   60.0   50.0
-250.0   60.0   50.0
-300.0   60.0   33.333333333333336
-300.0   30.0   50.0
-250.0   60.0   50.0
-250.0   30.0   50.0
-250.0   30.0   33.333333333333336
-300.0   30.0   50.0
-250.0   60.0   50.0
-250.0   30.0   33.333333333333336
-300.0   60.0   33.333333333333336
-300.0   60.0   0.0
-250.0   60.0   0.0
-300.0   90.0   0.0
-300.0   60.0   16.666666666666668
-250.0   60.0   0.0
-250.0   90.0   0.0
-300.0   90.0   0.0
-250.0   90.0   16.666666666666668
-300.0   60.0   16.666666666666668
-300.0   90.0   16.666666666666668
-250.0   90.0   16.666666666666668
-300.0   90.0   0.0
-300.0   60.0   16.666666666666668
-250.0   90.0   16.666666666666668
-250.0   60.0   16.666666666666668
-250.0   60.0   0.0
-300.0   60.0   16.666666666666668
-250.0   90.0   16.666666666666668
-250.0   60.0   0.0
-300.0   90.0   0.0
-300.0   60.0   16.666666666666668
-250.0   60.0   16.666666666666668
-300.0   90.0   16.666666666666668
-300.0   60.0   33.333333333333336
-250.0   60.0   16.666666666666668
-250.0   90.0   16.666666666666668
-300.0   90.0   16.666666666666668
-250.0   90.0   33.333333333333336
-300.0   60.0   33.333333333333336
-300.0   90.0   33.333333333333336
-250.0   90.0   33.333333333333336
-300.0   90.0   16.666666666666668
-300.0   60.0   33.333333333333336
-250.0   90.0   33.333333333333336
-250.0   60.0   33.333333333333336
-250.0   60.0   16.666666666666668
-300.0   60.0   33.333333333333336
-250.0   90.0   33.333333333333336
-250.0   60.0   16.666666666666668
-300.0   90.0   16.666666666666668
-300.0   60.0   33.333333333333336
-250.0   60.0   33.333333333333336
-300.0   90.0   33.333333333333336
-300.0   60.0   50.0
-250.0   60.0   33.333333333333336
-250.0   90.0   33.333333333333336
-300.0   90.0   33.333333333333336
-250.0   90.0   50.0
-300.0   60.0   50.0
-300.0   90.0   50.0
-250.0   90.0   50.0
-300.0   90.0   33.333333333333336
-300.0   60.0   50.0
-250.0   90.0   50.0
-250.0   60.0   50.0
-250.0   60.0   33.333333333333336
-300.0   60.0   50.0
-250.0   90.0   50.0
-250.0   60.0   33.333333333333336
-300.0   90.0   33.333333333333336
-300.0   90.0   0.0
-250.0   90.0   0.0
-300.0   120.0   0.0
-300.0   90.0   16.666666666666668
-250.0   90.0   0.0
-250.0   120.0   0.0
-300.0   120.0   0.0
-250.0   120.0   16.666666666666668
-300.0   90.0   16.666666666666668
-300.0   120.0   16.666666666666668
-250.0   120.0   16.666666666666668
-300.0   120.0   0.0
-300.0   90.0   16.666666666666668
-250.0   120.0   16.666666666666668
-250.0   90.0   16.666666666666668
-250.0   90.0   0.0
-300.0   90.0   16.666666666666668
-250.0   120.0   16.666666666666668
-250.0   90.0   0.0
-300.0   120.0   0.0
-300.0   90.0   16.666666666666668
-250.0   90.0   16.666666666666668
-300.0   120.0   16.666666666666668
-300.0   90.0   33.333333333333336
-250.0   90.0   16.666666666666668
-250.0   120.0   16.666666666666668
-300.0   120.0   16.666666666666668
-250.0   120.0   33.333333333333336
-300.0   90.0   33.333333333333336
-300.0   120.0   33.333333333333336
-250.0   120.0   33.333333333333336
-300.0   120.0   16.666666666666668
-300.0   90.0   33.333333333333336
-250.0   120.0   33.333333333333336
-250.0   90.0   33.333333333333336
-250.0   90.0   16.666666666666668
-300.0   90.0   33.333333333333336
-250.0   120.0   33.333333333333336
-250.0   90.0   16.666666666666668
-300.0   120.0   16.666666666666668
-300.0   90.0   33.333333333333336
-250.0   90.0   33.333333333333336
-300.0   120.0   33.333333333333336
-300.0   90.0   50.0
-250.0   90.0   33.333333333333336
-250.0   120.0   33.333333333333336
-300.0   120.0   33.333333333333336
-250.0   120.0   50.0
-300.0   90.0   50.0
-300.0   120.0   50.0
-250.0   120.0   50.0
-300.0   120.0   33.333333333333336
-300.0   90.0   50.0
-250.0   120.0   50.0
-250.0   90.0   50.0
-250.0   90.0   33.333333333333336
-300.0   90.0   50.0
-250.0   120.0   50.0
-250.0   90.0   33.333333333333336
-300.0   120.0   33.333333333333336
-300.0   120.0   0.0
-250.0   120.0   0.0
-300.0   150.0   0.0
-300.0   120.0   16.666666666666668
-250.0   120.0   0.0
-250.0   150.0   0.0
-300.0   150.0   0.0
-250.0   150.0   16.666666666666668
-300.0   120.0   16.666666666666668
-300.0   150.0   16.666666666666668
-250.0   150.0   16.666666666666668
-300.0   150.0   0.0
-300.0   120.0   16.666666666666668
-250.0   150.0   16.666666666666668
-250.0   120.0   16.666666666666668
-250.0   120.0   0.0
-300.0   120.0   16.666666666666668
-250.0   150.0   16.666666666666668
-250.0   120.0   0.0
-300.0   150.0   0.0
-300.0   120.0   16.666666666666668
-250.0   120.0   16.666666666666668
-300.0   150.0   16.666666666666668
-300.0   120.0   33.333333333333336
-250.0   120.0   16.666666666666668
-250.0   150.0   16.666666666666668
-300.0   150.0   16.666666666666668
-250.0   150.0   33.333333333333336
-300.0   120.0   33.333333333333336
-300.0   150.0   33.333333333333336
-250.0   150.0   33.333333333333336
-300.0   150.0   16.666666666666668
-300.0   120.0   33.333333333333336
-250.0   150.0   33.333333333333336
-250.0   120.0   33.333333333333336
-250.0   120.0   16.666666666666668
-300.0   120.0   33.333333333333336
-250.0   150.0   33.333333333333336
-250.0   120.0   16.666666666666668
-300.0   150.0   16.666666666666668
-300.0   120.0   33.333333333333336
-250.0   120.0   33.333333333333336
-300.0   150.0   33.333333333333336
-300.0   120.0   50.0
-250.0   120.0   33.333333333333336
-250.0   150.0   33.333333333333336
-300.0   150.0   33.333333333333336
-250.0   150.0   50.0
-300.0   120.0   50.0
-300.0   150.0   50.0
-250.0   150.0   50.0
-300.0   150.0   33.333333333333336
-300.0   120.0   50.0
-250.0   150.0   50.0
-250.0   120.0   50.0
-250.0   120.0   33.333333333333336
-300.0   120.0   50.0
-250.0   150.0   50.0
-250.0   120.0   33.333333333333336
-300.0   150.0   33.333333333333336
-250.0   0.0   0.0
-200.0   0.0   0.0
-250.0   30.0   0.0
-250.0   0.0   16.666666666666668
-200.0   0.0   0.0
-200.0   30.0   0.0
-250.0   30.0   0.0
-200.0   30.0   16.666666666666668
-250.0   0.0   16.666666666666668
-250.0   30.0   16.666666666666668
-200.0   30.0   16.666666666666668
-250.0   30.0   0.0
-250.0   0.0   16.666666666666668
-200.0   30.0   16.666666666666668
-200.0   0.0   16.666666666666668
-200.0   0.0   0.0
-250.0   0.0   16.666666666666668
-200.0   30.0   16.666666666666668
-200.0   0.0   0.0
-250.0   30.0   0.0
-250.0   0.0   16.666666666666668
-200.0   0.0   16.666666666666668
-250.0   30.0   16.666666666666668
-250.0   0.0   33.333333333333336
-200.0   0.0   16.666666666666668
-200.0   30.0   16.666666666666668
-250.0   30.0   16.666666666666668
-200.0   30.0   33.333333333333336
-250.0   0.0   33.333333333333336
-250.0   30.0   33.333333333333336
-200.0   30.0   33.333333333333336
-250.0   30.0   16.666666666666668
-250.0   0.0   33.333333333333336
-200.0   30.0   33.333333333333336
-200.0   0.0   33.333333333333336
-200.0   0.0   16.666666666666668
-250.0   0.0   33.333333333333336
-200.0   30.0   33.333333333333336
-200.0   0.0   16.666666666666668
-250.0   30.0   16.666666666666668
-250.0   0.0   33.333333333333336
-200.0   0.0   33.333333333333336
-250.0   30.0   33.333333333333336
-250.0   0.0   50.0
-200.0   0.0   33.333333333333336
-200.0   30.0   33.333333333333336
-250.0   30.0   33.333333333333336
-200.0   30.0   50.0
-250.0   0.0   50.0
-250.0   30.0   50.0
-200.0   30.0   50.0
-250.0   30.0   33.333333333333336
-250.0   0.0   50.0
-200.0   30.0   50.0
-200.0   0.0   50.0
-200.0   0.0   33.333333333333336
-250.0   0.0   50.0
-200.0   30.0   50.0
-200.0   0.0   33.333333333333336
-250.0   30.0   33.333333333333336
-250.0   30.0   0.0
-200.0   30.0   0.0
-250.0   60.0   0.0
-250.0   30.0   16.666666666666668
-200.0   30.0   0.0
-200.0   60.0   0.0
-250.0   60.0   0.0
-200.0   60.0   16.666666666666668
-250.0   30.0   16.666666666666668
-250.0   60.0   16.666666666666668
-200.0   60.0   16.666666666666668
-250.0   60.0   0.0
-250.0   30.0   16.666666666666668
-200.0   60.0   16.666666666666668
-200.0   30.0   16.666666666666668
-200.0   30.0   0.0
-250.0   30.0   16.666666666666668
-200.0   60.0   16.666666666666668
-200.0   30.0   0.0
-250.0   60.0   0.0
-250.0   30.0   16.666666666666668
-200.0   30.0   16.666666666666668
-250.0   60.0   16.666666666666668
-250.0   30.0   33.333333333333336
-200.0   30.0   16.666666666666668
-200.0   60.0   16.666666666666668
-250.0   60.0   16.666666666666668
-200.0   60.0   33.333333333333336
-250.0   30.0   33.333333333333336
-250.0   60.0   33.333333333333336
-200.0   60.0   33.333333333333336
-250.0   60.0   16.666666666666668
-250.0   30.0   33.333333333333336
-200.0   60.0   33.333333333333336
-200.0   30.0   33.333333333333336
-200.0   30.0   16.666666666666668
-250.0   30.0   33.333333333333336
-200.0   60.0   33.333333333333336
-200.0   30.0   16.666666666666668
-250.0   60.0   16.666666666666668
-250.0   30.0   33.333333333333336
-200.0   30.0   33.333333333333336
-250.0   60.0   33.333333333333336
-250.0   30.0   50.0
-200.0   30.0   33.333333333333336
-200.0   60.0   33.333333333333336
-250.0   60.0   33.333333333333336
-200.0   60.0   50.0
-250.0   30.0   50.0
-250.0   60.0   50.0
-200.0   60.0   50.0
-250.0   60.0   33.333333333333336
-250.0   30.0   50.0
-200.0   60.0   50.0
-200.0   30.0   50.0
-200.0   30.0   33.333333333333336
-250.0   30.0   50.0
-200.0   60.0   50.0
-200.0   30.0   33.333333333333336
-250.0   60.0   33.333333333333336
-250.0   60.0   0.0
-200.0   60.0   0.0
-250.0   90.0   0.0
-250.0   60.0   16.666666666666668
-200.0   60.0   0.0
-200.0   90.0   0.0
-250.0   90.0   0.0
-200.0   90.0   16.666666666666668
-250.0   60.0   16.666666666666668
-250.0   90.0   16.666666666666668
-200.0   90.0   16.666666666666668
-250.0   90.0   0.0
-250.0   60.0   16.666666666666668
-200.0   90.0   16.666666666666668
-200.0   60.0   16.666666666666668
-200.0   60.0   0.0
-250.0   60.0   16.666666666666668
-200.0   90.0   16.666666666666668
-200.0   60.0   0.0
-250.0   90.0   0.0
-250.0   60.0   16.666666666666668
-200.0   60.0   16.666666666666668
-250.0   90.0   16.666666666666668
-250.0   60.0   33.333333333333336
-200.0   60.0   16.666666666666668
-200.0   90.0   16.666666666666668
-250.0   90.0   16.666666666666668
-200.0   90.0   33.333333333333336
-250.0   60.0   33.333333333333336
-250.0   90.0   33.333333333333336
-200.0   90.0   33.333333333333336
-250.0   90.0   16.666666666666668
-250.0   60.0   33.333333333333336
-200.0   90.0   33.333333333333336
-200.0   60.0   33.333333333333336
-200.0   60.0   16.666666666666668
-250.0   60.0   33.333333333333336
-200.0   90.0   33.333333333333336
-200.0   60.0   16.666666666666668
-250.0   90.0   16.666666666666668
-250.0   60.0   33.333333333333336
-200.0   60.0   33.333333333333336
-250.0   90.0   33.333333333333336
-250.0   60.0   50.0
-200.0   60.0   33.333333333333336
-200.0   90.0   33.333333333333336
-250.0   90.0   33.333333333333336
-200.0   90.0   50.0
-250.0   60.0   50.0
-250.0   90.0   50.0
-200.0   90.0   50.0
-250.0   90.0   33.333333333333336
-250.0   60.0   50.0
-200.0   90.0   50.0
-200.0   60.0   50.0
-200.0   60.0   33.333333333333336
-250.0   60.0   50.0
-200.0   90.0   50.0
-200.0   60.0   33.333333333333336
-250.0   90.0   33.333333333333336
-250.0   90.0   0.0
-200.0   90.0   0.0
-250.0   120.0   0.0
-250.0   90.0   16.666666666666668
-200.0   90.0   0.0
-200.0   120.0   0.0
-250.0   120.0   0.0
-200.0   120.0   16.666666666666668
-250.0   90.0   16.666666666666668
-250.0   120.0   16.666666666666668
-200.0   120.0   16.666666666666668
-250.0   120.0   0.0
-250.0   90.0   16.666666666666668
-200.0   120.0   16.666666666666668
-200.0   90.0   16.666666666666668
-200.0   90.0   0.0
-250.0   90.0   16.666666666666668
-200.0   120.0   16.666666666666668
-200.0   90.0   0.0
-250.0   120.0   0.0
-250.0   90.0   16.666666666666668
-200.0   90.0   16.666666666666668
-250.0   120.0   16.666666666666668
-250.0   90.0   33.333333333333336
-200.0   90.0   16.666666666666668
-200.0   120.0   16.666666666666668
-250.0   120.0   16.666666666666668
-200.0   120.0   33.333333333333336
-250.0   90.0   33.333333333333336
-250.0   120.0   33.333333333333336
-200.0   120.0   33.333333333333336
-250.0   120.0   16.666666666666668
-250.0   90.0   33.333333333333336
-200.0   120.0   33.333333333333336
-200.0   90.0   33.333333333333336
-200.0   90.0   16.666666666666668
-250.0   90.0   33.333333333333336
-200.0   120.0   33.333333333333336
-200.0   90.0   16.666666666666668
-250.0   120.0   16.666666666666668
-250.0   90.0   33.333333333333336
-200.0   90.0   33.333333333333336
-250.0   120.0   33.333333333333336
-250.0   90.0   50.0
-200.0   90.0   33.333333333333336
-200.0   120.0   33.333333333333336
-250.0   120.0   33.333333333333336
-200.0   120.0   50.0
-250.0   90.0   50.0
-250.0   120.0   50.0
-200.0   120.0   50.0
-250.0   120.0   33.333333333333336
-250.0   90.0   50.0
-200.0   120.0   50.0
-200.0   90.0   50.0
-200.0   90.0   33.333333333333336
-250.0   90.0   50.0
-200.0   120.0   50.0
-200.0   90.0   33.333333333333336
-250.0   120.0   33.333333333333336
-250.0   120.0   0.0
-200.0   120.0   0.0
-250.0   150.0   0.0
-250.0   120.0   16.666666666666668
-200.0   120.0   0.0
-200.0   150.0   0.0
-250.0   150.0   0.0
-200.0   150.0   16.666666666666668
-250.0   120.0   16.666666666666668
-250.0   150.0   16.666666666666668
-200.0   150.0   16.666666666666668
-250.0   150.0   0.0
-250.0   120.0   16.666666666666668
-200.0   150.0   16.666666666666668
-200.0   120.0   16.666666666666668
-200.0   120.0   0.0
-250.0   120.0   16.666666666666668
-200.0   150.0   16.666666666666668
-200.0   120.0   0.0
-250.0   150.0   0.0
-250.0   120.0   16.666666666666668
-200.0   120.0   16.666666666666668
-250.0   150.0   16.666666666666668
-250.0   120.0   33.333333333333336
-200.0   120.0   16.666666666666668
-200.0   150.0   16.666666666666668
-250.0   150.0   16.666666666666668
-200.0   150.0   33.333333333333336
-250.0   120.0   33.333333333333336
-250.0   150.0   33.333333333333336
-200.0   150.0   33.333333333333336
-250.0   150.0   16.666666666666668
-250.0   120.0   33.333333333333336
-200.0   150.0   33.333333333333336
-200.0   120.0   33.333333333333336
-200.0   120.0   16.666666666666668
-250.0   120.0   33.333333333333336
-200.0   150.0   33.333333333333336
-200.0   120.0   16.666666666666668
-250.0   150.0   16.666666666666668
-250.0   120.0   33.333333333333336
-200.0   120.0   33.333333333333336
-250.0   150.0   33.333333333333336
-250.0   120.0   50.0
-200.0   120.0   33.333333333333336
-200.0   150.0   33.333333333333336
-250.0   150.0   33.333333333333336
-200.0   150.0   50.0
-250.0   120.0   50.0
-250.0   150.0   50.0
-200.0   150.0   50.0
-250.0   150.0   33.333333333333336
-250.0   120.0   50.0
-200.0   150.0   50.0
-200.0   120.0   50.0
-200.0   120.0   33.333333333333336
-250.0   120.0   50.0
-200.0   150.0   50.0
-200.0   120.0   33.333333333333336
-250.0   150.0   33.333333333333336
-200.0   0.0   0.0
-150.0   0.0   0.0
-200.0   30.0   0.0
-200.0   0.0   16.666666666666668
-150.0   0.0   0.0
-150.0   30.0   0.0
-200.0   30.0   0.0
-150.0   30.0   16.666666666666668
-200.0   0.0   16.666666666666668
-200.0   30.0   16.666666666666668
-150.0   30.0   16.666666666666668
-200.0   30.0   0.0
-200.0   0.0   16.666666666666668
-150.0   30.0   16.666666666666668
-150.0   0.0   16.666666666666668
-150.0   0.0   0.0
-200.0   0.0   16.666666666666668
-150.0   30.0   16.666666666666668
-150.0   0.0   0.0
-200.0   30.0   0.0
-200.0   0.0   16.666666666666668
-150.0   0.0   16.666666666666668
-200.0   30.0   16.666666666666668
-200.0   0.0   33.333333333333336
-150.0   0.0   16.666666666666668
-150.0   30.0   16.666666666666668
-200.0   30.0   16.666666666666668
-150.0   30.0   33.333333333333336
-200.0   0.0   33.333333333333336
-200.0   30.0   33.333333333333336
-150.0   30.0   33.333333333333336
-200.0   30.0   16.666666666666668
-200.0   0.0   33.333333333333336
-150.0   30.0   33.333333333333336
-150.0   0.0   33.333333333333336
-150.0   0.0   16.666666666666668
-200.0   0.0   33.333333333333336
-150.0   30.0   33.333333333333336
-150.0   0.0   16.666666666666668
-200.0   30.0   16.666666666666668
-200.0   0.0   33.333333333333336
-150.0   0.0   33.333333333333336
-200.0   30.0   33.333333333333336
-200.0   0.0   50.0
-150.0   0.0   33.333333333333336
-150.0   30.0   33.333333333333336
-200.0   30.0   33.333333333333336
-150.0   30.0   50.0
-200.0   0.0   50.0
-200.0   30.0   50.0
-150.0   30.0   50.0
-200.0   30.0   33.333333333333336
-200.0   0.0   50.0
-150.0   30.0   50.0
-150.0   0.0   50.0
-150.0   0.0   33.333333333333336
-200.0   0.0   50.0
-150.0   30.0   50.0
-150.0   0.0   33.333333333333336
-200.0   30.0   33.333333333333336
-200.0   30.0   0.0
-150.0   30.0   0.0
-200.0   60.0   0.0
-200.0   30.0   16.666666666666668
-150.0   30.0   0.0
-150.0   60.0   0.0
-200.0   60.0   0.0
-150.0   60.0   16.666666666666668
-200.0   30.0   16.666666666666668
-200.0   60.0   16.666666666666668
-150.0   60.0   16.666666666666668
-200.0   60.0   0.0
-200.0   30.0   16.666666666666668
-150.0   60.0   16.666666666666668
-150.0   30.0   16.666666666666668
-150.0   30.0   0.0
-200.0   30.0   16.666666666666668
-150.0   60.0   16.666666666666668
-150.0   30.0   0.0
-200.0   60.0   0.0
-200.0   30.0   16.666666666666668
-150.0   30.0   16.666666666666668
-200.0   60.0   16.666666666666668
-200.0   30.0   33.333333333333336
-150.0   30.0   16.666666666666668
-150.0   60.0   16.666666666666668
-200.0   60.0   16.666666666666668
-150.0   60.0   33.333333333333336
-200.0   30.0   33.333333333333336
-200.0   60.0   33.333333333333336
-150.0   60.0   33.333333333333336
-200.0   60.0   16.666666666666668
-200.0   30.0   33.333333333333336
-150.0   60.0   33.333333333333336
-150.0   30.0   33.333333333333336
-150.0   30.0   16.666666666666668
-200.0   30.0   33.333333333333336
-150.0   60.0   33.333333333333336
-150.0   30.0   16.666666666666668
-200.0   60.0   16.666666666666668
-200.0   30.0   33.333333333333336
-150.0   30.0   33.333333333333336
-200.0   60.0   33.333333333333336
-200.0   30.0   50.0
-150.0   30.0   33.333333333333336
-150.0   60.0   33.333333333333336
-200.0   60.0   33.333333333333336
-150.0   60.0   50.0
-200.0   30.0   50.0
-200.0   60.0   50.0
-150.0   60.0   50.0
-200.0   60.0   33.333333333333336
-200.0   30.0   50.0
-150.0   60.0   50.0
-150.0   30.0   50.0
-150.0   30.0   33.333333333333336
-200.0   30.0   50.0
-150.0   60.0   50.0
-150.0   30.0   33.333333333333336
-200.0   60.0   33.333333333333336
-200.0   60.0   0.0
-150.0   60.0   0.0
-200.0   90.0   0.0
-200.0   60.0   16.666666666666668
-150.0   60.0   0.0
-150.0   90.0   0.0
-200.0   90.0   0.0
-150.0   90.0   16.666666666666668
-200.0   60.0   16.666666666666668
-200.0   90.0   16.666666666666668
-150.0   90.0   16.666666666666668
-200.0   90.0   0.0
-200.0   60.0   16.666666666666668
-150.0   90.0   16.666666666666668
-150.0   60.0   16.666666666666668
-150.0   60.0   0.0
-200.0   60.0   16.666666666666668
-150.0   90.0   16.666666666666668
-150.0   60.0   0.0
-200.0   90.0   0.0
-200.0   60.0   16.666666666666668
-150.0   60.0   16.666666666666668
-200.0   90.0   16.666666666666668
-200.0   60.0   33.333333333333336
-150.0   60.0   16.666666666666668
-150.0   90.0   16.666666666666668
-200.0   90.0   16.666666666666668
-150.0   90.0   33.333333333333336
-200.0   60.0   33.333333333333336
-200.0   90.0   33.333333333333336
-150.0   90.0   33.333333333333336
-200.0   90.0   16.666666666666668
-200.0   60.0   33.333333333333336
-150.0   90.0   33.333333333333336
-150.0   60.0   33.333333333333336
-150.0   60.0   16.666666666666668
-200.0   60.0   33.333333333333336
-150.0   90.0   33.333333333333336
-150.0   60.0   16.666666666666668
-200.0   90.0   16.666666666666668
-200.0   60.0   33.333333333333336
-150.0   60.0   33.333333333333336
-200.0   90.0   33.333333333333336
-200.0   60.0   50.0
-150.0   60.0   33.333333333333336
-150.0   90.0   33.333333333333336
-200.0   90.0   33.333333333333336
-150.0   90.0   50.0
-200.0   60.0   50.0
-200.0   90.0   50.0
-150.0   90.0   50.0
-200.0   90.0   33.333333333333336
-200.0   60.0   50.0
-150.0   90.0   50.0
-150.0   60.0   50.0
-150.0   60.0   33.333333333333336
-200.0   60.0   50.0
-150.0   90.0   50.0
-150.0   60.0   33.333333333333336
-200.0   90.0   33.333333333333336
-200.0   90.0   0.0
-150.0   90.0   0.0
-200.0   120.0   0.0
-200.0   90.0   16.666666666666668
-150.0   90.0   0.0
-150.0   120.0   0.0
-200.0   120.0   0.0
-150.0   120.0   16.666666666666668
-200.0   90.0   16.666666666666668
-200.0   120.0   16.666666666666668
-150.0   120.0   16.666666666666668
-200.0   120.0   0.0
-200.0   90.0   16.666666666666668
-150.0   120.0   16.666666666666668
-150.0   90.0   16.666666666666668
-150.0   90.0   0.0
-200.0   90.0   16.666666666666668
-150.0   120.0   16.666666666666668
-150.0   90.0   0.0
-200.0   120.0   0.0
-200.0   90.0   16.666666666666668
-150.0   90.0   16.666666666666668
-200.0   120.0   16.666666666666668
-200.0   90.0   33.333333333333336
-150.0   90.0   16.666666666666668
-150.0   120.0   16.666666666666668
-200.0   120.0   16.666666666666668
-150.0   120.0   33.333333333333336
-200.0   90.0   33.333333333333336
-200.0   120.0   33.333333333333336
-150.0   120.0   33.333333333333336
-200.0   120.0   16.666666666666668
-200.0   90.0   33.333333333333336
-150.0   120.0   33.333333333333336
-150.0   90.0   33.333333333333336
-150.0   90.0   16.666666666666668
-200.0   90.0   33.333333333333336
-150.0   120.0   33.333333333333336
-150.0   90.0   16.666666666666668
-200.0   120.0   16.666666666666668
-200.0   90.0   33.333333333333336
-150.0   90.0   33.333333333333336
-200.0   120.0   33.333333333333336
-200.0   90.0   50.0
-150.0   90.0   33.333333333333336
-150.0   120.0   33.333333333333336
-200.0   120.0   33.333333333333336
-150.0   120.0   50.0
-200.0   90.0   50.0
-200.0   120.0   50.0
-150.0   120.0   50.0
-200.0   120.0   33.333333333333336
-200.0   90.0   50.0
-150.0   120.0   50.0
-150.0   90.0   50.0
-150.0   90.0   33.333333333333336
-200.0   90.0   50.0
-150.0   120.0   50.0
-150.0   90.0   33.333333333333336
-200.0   120.0   33.333333333333336
-200.0   120.0   0.0
-150.0   120.0   0.0
-200.0   150.0   0.0
-200.0   120.0   16.666666666666668
-150.0   120.0   0.0
-150.0   150.0   0.0
-200.0   150.0   0.0
-150.0   150.0   16.666666666666668
-200.0   120.0   16.666666666666668
-200.0   150.0   16.666666666666668
-150.0   150.0   16.666666666666668
-200.0   150.0   0.0
-200.0   120.0   16.666666666666668
-150.0   150.0   16.666666666666668
-150.0   120.0   16.666666666666668
-150.0   120.0   0.0
-200.0   120.0   16.666666666666668
-150.0   150.0   16.666666666666668
-150.0   120.0   0.0
-200.0   150.0   0.0
-200.0   120.0   16.666666666666668
-150.0   120.0   16.666666666666668
-200.0   150.0   16.666666666666668
-200.0   120.0   33.333333333333336
-150.0   120.0   16.666666666666668
-150.0   150.0   16.666666666666668
-200.0   150.0   16.666666666666668
-150.0   150.0   33.333333333333336
-200.0   120.0   33.333333333333336
-200.0   150.0   33.333333333333336
-150.0   150.0   33.333333333333336
-200.0   150.0   16.666666666666668
-200.0   120.0   33.333333333333336
-150.0   150.0   33.333333333333336
-150.0   120.0   33.333333333333336
-150.0   120.0   16.666666666666668
-200.0   120.0   33.333333333333336
-150.0   150.0   33.333333333333336
-150.0   120.0   16.666666666666668
-200.0   150.0   16.666666666666668
-200.0   120.0   33.333333333333336
-150.0   120.0   33.333333333333336
-200.0   150.0   33.333333333333336
-200.0   120.0   50.0
-150.0   120.0   33.333333333333336
-150.0   150.0   33.333333333333336
-200.0   150.0   33.333333333333336
-150.0   150.0   50.0
-200.0   120.0   50.0
-200.0   150.0   50.0
-150.0   150.0   50.0
-200.0   150.0   33.333333333333336
-200.0   120.0   50.0
-150.0   150.0   50.0
-150.0   120.0   50.0
-150.0   120.0   33.333333333333336
-200.0   120.0   50.0
-150.0   150.0   50.0
-150.0   120.0   33.333333333333336
-200.0   150.0   33.333333333333336
-150.0   0.0   0.0
-100.0   0.0   0.0
-150.0   30.0   0.0
-150.0   0.0   16.666666666666668
-100.0   0.0   0.0
-100.0   30.0   0.0
-150.0   30.0   0.0
-100.0   30.0   16.666666666666668
-150.0   0.0   16.666666666666668
-150.0   30.0   16.666666666666668
-100.0   30.0   16.666666666666668
-150.0   30.0   0.0
-150.0   0.0   16.666666666666668
-100.0   30.0   16.666666666666668
-100.0   0.0   16.666666666666668
-100.0   0.0   0.0
-150.0   0.0   16.666666666666668
-100.0   30.0   16.666666666666668
-100.0   0.0   0.0
-150.0   30.0   0.0
-150.0   0.0   16.666666666666668
-100.0   0.0   16.666666666666668
-150.0   30.0   16.666666666666668
-150.0   0.0   33.333333333333336
-100.0   0.0   16.666666666666668
-100.0   30.0   16.666666666666668
-150.0   30.0   16.666666666666668
-100.0   30.0   33.333333333333336
-150.0   0.0   33.333333333333336
-150.0   30.0   33.333333333333336
-100.0   30.0   33.333333333333336
-150.0   30.0   16.666666666666668
-150.0   0.0   33.333333333333336
-100.0   30.0   33.333333333333336
-100.0   0.0   33.333333333333336
-100.0   0.0   16.666666666666668
-150.0   0.0   33.333333333333336
-100.0   30.0   33.333333333333336
-100.0   0.0   16.666666666666668
-150.0   30.0   16.666666666666668
-150.0   0.0   33.333333333333336
-100.0   0.0   33.333333333333336
-150.0   30.0   33.333333333333336
-150.0   0.0   50.0
-100.0   0.0   33.333333333333336
-100.0   30.0   33.333333333333336
-150.0   30.0   33.333333333333336
-100.0   30.0   50.0
-150.0   0.0   50.0
-150.0   30.0   50.0
-100.0   30.0   50.0
-150.0   30.0   33.333333333333336
-150.0   0.0   50.0
-100.0   30.0   50.0
-100.0   0.0   50.0
-100.0   0.0   33.333333333333336
-150.0   0.0   50.0
-100.0   30.0   50.0
-100.0   0.0   33.333333333333336
-150.0   30.0   33.333333333333336
-150.0   30.0   0.0
-100.0   30.0   0.0
-150.0   60.0   0.0
-150.0   30.0   16.666666666666668
-100.0   30.0   0.0
-100.0   60.0   0.0
-150.0   60.0   0.0
-100.0   60.0   16.666666666666668
-150.0   30.0   16.666666666666668
-150.0   60.0   16.666666666666668
-100.0   60.0   16.666666666666668
-150.0   60.0   0.0
-150.0   30.0   16.666666666666668
-100.0   60.0   16.666666666666668
-100.0   30.0   16.666666666666668
-100.0   30.0   0.0
-150.0   30.0   16.666666666666668
-100.0   60.0   16.666666666666668
-100.0   30.0   0.0
-150.0   60.0   0.0
-150.0   30.0   16.666666666666668
-100.0   30.0   16.666666666666668
-150.0   60.0   16.666666666666668
-150.0   30.0   33.333333333333336
-100.0   30.0   16.666666666666668
-100.0   60.0   16.666666666666668
-150.0   60.0   16.666666666666668
-100.0   60.0   33.333333333333336
-150.0   30.0   33.333333333333336
-150.0   60.0   33.333333333333336
-100.0   60.0   33.333333333333336
-150.0   60.0   16.666666666666668
-150.0   30.0   33.333333333333336
-100.0   60.0   33.333333333333336
-100.0   30.0   33.333333333333336
-100.0   30.0   16.666666666666668
-150.0   30.0   33.333333333333336
-100.0   60.0   33.333333333333336
-100.0   30.0   16.666666666666668
-150.0   60.0   16.666666666666668
-150.0   30.0   33.333333333333336
-100.0   30.0   33.333333333333336
-150.0   60.0   33.333333333333336
-150.0   30.0   50.0
-100.0   30.0   33.333333333333336
-100.0   60.0   33.333333333333336
-150.0   60.0   33.333333333333336
-100.0   60.0   50.0
-150.0   30.0   50.0
-150.0   60.0   50.0
-100.0   60.0   50.0
-150.0   60.0   33.333333333333336
-150.0   30.0   50.0
-100.0   60.0   50.0
-100.0   30.0   50.0
-100.0   30.0   33.333333333333336
-150.0   30.0   50.0
-100.0   60.0   50.0
-100.0   30.0   33.333333333333336
-150.0   60.0   33.333333333333336
-150.0   60.0   0.0
-100.0   60.0   0.0
-150.0   90.0   0.0
-150.0   60.0   16.666666666666668
-100.0   60.0   0.0
-100.0   90.0   0.0
-150.0   90.0   0.0
-100.0   90.0   16.666666666666668
-150.0   60.0   16.666666666666668
-150.0   90.0   16.666666666666668
-100.0   90.0   16.666666666666668
-150.0   90.0   0.0
-150.0   60.0   16.666666666666668
-100.0   90.0   16.666666666666668
-100.0   60.0   16.666666666666668
-100.0   60.0   0.0
-150.0   60.0   16.666666666666668
-100.0   90.0   16.666666666666668
-100.0   60.0   0.0
-150.0   90.0   0.0
-150.0   60.0   16.666666666666668
-100.0   60.0   16.666666666666668
-150.0   90.0   16.666666666666668
-150.0   60.0   33.333333333333336
-100.0   60.0   16.666666666666668
-100.0   90.0   16.666666666666668
-150.0   90.0   16.666666666666668
-100.0   90.0   33.333333333333336
-150.0   60.0   33.333333333333336
-150.0   90.0   33.333333333333336
-100.0   90.0   33.333333333333336
-150.0   90.0   16.666666666666668
-150.0   60.0   33.333333333333336
-100.0   90.0   33.333333333333336
-100.0   60.0   33.333333333333336
-100.0   60.0   16.666666666666668
-150.0   60.0   33.333333333333336
-100.0   90.0   33.333333333333336
-100.0   60.0   16.666666666666668
-150.0   90.0   16.666666666666668
-150.0   60.0   33.333333333333336
-100.0   60.0   33.333333333333336
-150.0   90.0   33.333333333333336
-150.0   60.0   50.0
-100.0   60.0   33.333333333333336
-100.0   90.0   33.333333333333336
-150.0   90.0   33.333333333333336
-100.0   90.0   50.0
-150.0   60.0   50.0
-150.0   90.0   50.0
-100.0   90.0   50.0
-150.0   90.0   33.333333333333336
-150.0   60.0   50.0
-100.0   90.0   50.0
-100.0   60.0   50.0
-100.0   60.0   33.333333333333336
-150.0   60.0   50.0
-100.0   90.0   50.0
-100.0   60.0   33.333333333333336
-150.0   90.0   33.333333333333336
-150.0   90.0   0.0
-100.0   90.0   0.0
-150.0   120.0   0.0
-150.0   90.0   16.666666666666668
-100.0   90.0   0.0
-100.0   120.0   0.0
-150.0   120.0   0.0
-100.0   120.0   16.666666666666668
-150.0   90.0   16.666666666666668
-150.0   120.0   16.666666666666668
-100.0   120.0   16.666666666666668
-150.0   120.0   0.0
-150.0   90.0   16.666666666666668
-100.0   120.0   16.666666666666668
-100.0   90.0   16.666666666666668
-100.0   90.0   0.0
-150.0   90.0   16.666666666666668
-100.0   120.0   16.666666666666668
-100.0   90.0   0.0
-150.0   120.0   0.0
-150.0   90.0   16.666666666666668
-100.0   90.0   16.666666666666668
-150.0   120.0   16.666666666666668
-150.0   90.0   33.333333333333336
-100.0   90.0   16.666666666666668
-100.0   120.0   16.666666666666668
-150.0   120.0   16.666666666666668
-100.0   120.0   33.333333333333336
-150.0   90.0   33.333333333333336
-150.0   120.0   33.333333333333336
-100.0   120.0   33.333333333333336
-150.0   120.0   16.666666666666668
-150.0   90.0   33.333333333333336
-100.0   120.0   33.333333333333336
-100.0   90.0   33.333333333333336
-100.0   90.0   16.666666666666668
-150.0   90.0   33.333333333333336
-100.0   120.0   33.333333333333336
-100.0   90.0   16.666666666666668
-150.0   120.0   16.666666666666668
-150.0   90.0   33.333333333333336
-100.0   90.0   33.333333333333336
-150.0   120.0   33.333333333333336
-150.0   90.0   50.0
-100.0   90.0   33.333333333333336
-100.0   120.0   33.333333333333336
-150.0   120.0   33.333333333333336
-100.0   120.0   50.0
-150.0   90.0   50.0
-150.0   120.0   50.0
-100.0   120.0   50.0
-150.0   120.0   33.333333333333336
-150.0   90.0   50.0
-100.0   120.0   50.0
-100.0   90.0   50.0
-100.0   90.0   33.333333333333336
-150.0   90.0   50.0
-100.0   120.0   50.0
-100.0   90.0   33.333333333333336
-150.0   120.0   33.333333333333336
-150.0   120.0   0.0
-100.0   120.0   0.0
-150.0   150.0   0.0
-150.0   120.0   16.666666666666668
-100.0   120.0   0.0
-100.0   150.0   0.0
-150.0   150.0   0.0
-100.0   150.0   16.666666666666668
-150.0   120.0   16.666666666666668
-150.0   150.0   16.666666666666668
-100.0   150.0   16.666666666666668
-150.0   150.0   0.0
-150.0   120.0   16.666666666666668
-100.0   150.0   16.666666666666668
-100.0   120.0   16.666666666666668
-100.0   120.0   0.0
-150.0   120.0   16.666666666666668
-100.0   150.0   16.666666666666668
-100.0   120.0   0.0
-150.0   150.0   0.0
-150.0   120.0   16.666666666666668
-100.0   120.0   16.666666666666668
-150.0   150.0   16.666666666666668
-150.0   120.0   33.333333333333336
-100.0   120.0   16.666666666666668
-100.0   150.0   16.666666666666668
-150.0   150.0   16.666666666666668
-100.0   150.0   33.333333333333336
-150.0   120.0   33.333333333333336
-150.0   150.0   33.333333333333336
-100.0   150.0   33.333333333333336
-150.0   150.0   16.666666666666668
-150.0   120.0   33.333333333333336
-100.0   150.0   33.333333333333336
-100.0   120.0   33.333333333333336
-100.0   120.0   16.666666666666668
-150.0   120.0   33.333333333333336
-100.0   150.0   33.333333333333336
-100.0   120.0   16.666666666666668
-150.0   150.0   16.666666666666668
-150.0   120.0   33.333333333333336
-100.0   120.0   33.333333333333336
-150.0   150.0   33.333333333333336
-150.0   120.0   50.0
-100.0   120.0   33.333333333333336
-100.0   150.0   33.333333333333336
-150.0   150.0   33.333333333333336
-100.0   150.0   50.0
-150.0   120.0   50.0
-150.0   150.0   50.0
-100.0   150.0   50.0
-150.0   150.0   33.333333333333336
-150.0   120.0   50.0
-100.0   150.0   50.0
-100.0   120.0   50.0
-100.0   120.0   33.333333333333336
-150.0   120.0   50.0
-100.0   150.0   50.0
-100.0   120.0   33.333333333333336
-150.0   150.0   33.333333333333336
-100.0   0.0   0.0
-50.0   0.0   0.0
-100.0   30.0   0.0
-100.0   0.0   16.666666666666668
-50.0   0.0   0.0
-50.0   30.0   0.0
-100.0   30.0   0.0
-50.0   30.0   16.666666666666668
-100.0   0.0   16.666666666666668
-100.0   30.0   16.666666666666668
-50.0   30.0   16.666666666666668
-100.0   30.0   0.0
-100.0   0.0   16.666666666666668
-50.0   30.0   16.666666666666668
-50.0   0.0   16.666666666666668
-50.0   0.0   0.0
-100.0   0.0   16.666666666666668
-50.0   30.0   16.666666666666668
-50.0   0.0   0.0
-100.0   30.0   0.0
-100.0   0.0   16.666666666666668
-50.0   0.0   16.666666666666668
-100.0   30.0   16.666666666666668
-100.0   0.0   33.333333333333336
-50.0   0.0   16.666666666666668
-50.0   30.0   16.666666666666668
-100.0   30.0   16.666666666666668
-50.0   30.0   33.333333333333336
-100.0   0.0   33.333333333333336
-100.0   30.0   33.333333333333336
-50.0   30.0   33.333333333333336
-100.0   30.0   16.666666666666668
-100.0   0.0   33.333333333333336
-50.0   30.0   33.333333333333336
-50.0   0.0   33.333333333333336
-50.0   0.0   16.666666666666668
-100.0   0.0   33.333333333333336
-50.0   30.0   33.333333333333336
-50.0   0.0   16.666666666666668
-100.0   30.0   16.666666666666668
-100.0   0.0   33.333333333333336
-50.0   0.0   33.333333333333336
-100.0   30.0   33.333333333333336
-100.0   0.0   50.0
-50.0   0.0   33.333333333333336
-50.0   30.0   33.333333333333336
-100.0   30.0   33.333333333333336
-50.0   30.0   50.0
-100.0   0.0   50.0
-100.0   30.0   50.0
-50.0   30.0   50.0
-100.0   30.0   33.333333333333336
-100.0   0.0   50.0
-50.0   30.0   50.0
-50.0   0.0   50.0
-50.0   0.0   33.333333333333336
-100.0   0.0   50.0
-50.0   30.0   50.0
-50.0   0.0   33.333333333333336
-100.0   30.0   33.333333333333336
-100.0   30.0   0.0
-50.0   30.0   0.0
-100.0   60.0   0.0
-100.0   30.0   16.666666666666668
-50.0   30.0   0.0
-50.0   60.0   0.0
-100.0   60.0   0.0
-50.0   60.0   16.666666666666668
-100.0   30.0   16.666666666666668
-100.0   60.0   16.666666666666668
-50.0   60.0   16.666666666666668
-100.0   60.0   0.0
-100.0   30.0   16.666666666666668
-50.0   60.0   16.666666666666668
-50.0   30.0   16.666666666666668
-50.0   30.0   0.0
-100.0   30.0   16.666666666666668
-50.0   60.0   16.666666666666668
-50.0   30.0   0.0
-100.0   60.0   0.0
-100.0   30.0   16.666666666666668
-50.0   30.0   16.666666666666668
-100.0   60.0   16.666666666666668
-100.0   30.0   33.333333333333336
-50.0   30.0   16.666666666666668
-50.0   60.0   16.666666666666668
-100.0   60.0   16.666666666666668
-50.0   60.0   33.333333333333336
-100.0   30.0   33.333333333333336
-100.0   60.0   33.333333333333336
-50.0   60.0   33.333333333333336
-100.0   60.0   16.666666666666668
-100.0   30.0   33.333333333333336
-50.0   60.0   33.333333333333336
-50.0   30.0   33.333333333333336
-50.0   30.0   16.666666666666668
-100.0   30.0   33.333333333333336
-50.0   60.0   33.333333333333336
-50.0   30.0   16.666666666666668
-100.0   60.0   16.666666666666668
-100.0   30.0   33.333333333333336
-50.0   30.0   33.333333333333336
-100.0   60.0   33.333333333333336
-100.0   30.0   50.0
-50.0   30.0   33.333333333333336
-50.0   60.0   33.333333333333336
-100.0   60.0   33.333333333333336
-50.0   60.0   50.0
-100.0   30.0   50.0
-100.0   60.0   50.0
-50.0   60.0   50.0
-100.0   60.0   33.333333333333336
-100.0   30.0   50.0
-50.0   60.0   50.0
-50.0   30.0   50.0
-50.0   30.0   33.333333333333336
-100.0   30.0   50.0
-50.0   60.0   50.0
-50.0   30.0   33.333333333333336
-100.0   60.0   33.333333333333336
-100.0   60.0   0.0
-50.0   60.0   0.0
-100.0   90.0   0.0
-100.0   60.0   16.666666666666668
-50.0   60.0   0.0
-50.0   90.0   0.0
-100.0   90.0   0.0
-50.0   90.0   16.666666666666668
-100.0   60.0   16.666666666666668
-100.0   90.0   16.666666666666668
-50.0   90.0   16.666666666666668
-100.0   90.0   0.0
-100.0   60.0   16.666666666666668
-50.0   90.0   16.666666666666668
-50.0   60.0   16.666666666666668
-50.0   60.0   0.0
-100.0   60.0   16.666666666666668
-50.0   90.0   16.666666666666668
-50.0   60.0   0.0
-100.0   90.0   0.0
-100.0   60.0   16.666666666666668
-50.0   60.0   16.666666666666668
-100.0   90.0   16.666666666666668
-100.0   60.0   33.333333333333336
-50.0   60.0   16.666666666666668
-50.0   90.0   16.666666666666668
-100.0   90.0   16.666666666666668
-50.0   90.0   33.333333333333336
-100.0   60.0   33.333333333333336
-100.0   90.0   33.333333333333336
-50.0   90.0   33.333333333333336
-100.0   90.0   16.666666666666668
-100.0   60.0   33.333333333333336
-50.0   90.0   33.333333333333336
-50.0   60.0   33.333333333333336
-50.0   60.0   16.666666666666668
-100.0   60.0   33.333333333333336
-50.0   90.0   33.333333333333336
-50.0   60.0   16.666666666666668
-100.0   90.0   16.666666666666668
-100.0   60.0   33.333333333333336
-50.0   60.0   33.333333333333336
-100.0   90.0   33.333333333333336
-100.0   60.0   50.0
-50.0   60.0   33.333333333333336
-50.0   90.0   33.333333333333336
-100.0   90.0   33.333333333333336
-50.0   90.0   50.0
-100.0   60.0   50.0
-100.0   90.0   50.0
-50.0   90.0   50.0
-100.0   90.0   33.333333333333336
-100.0   60.0   50.0
-50.0   90.0   50.0
-50.0   60.0   50.0
-50.0   60.0   33.333333333333336
-100.0   60.0   50.0
-50.0   90.0   50.0
-50.0   60.0   33.333333333333336
-100.0   90.0   33.333333333333336
-100.0   90.0   0.0
-50.0   90.0   0.0
-100.0   120.0   0.0
-100.0   90.0   16.666666666666668
-50.0   90.0   0.0
-50.0   120.0   0.0
-100.0   120.0   0.0
-50.0   120.0   16.666666666666668
-100.0   90.0   16.666666666666668
-100.0   120.0   16.666666666666668
-50.0   120.0   16.666666666666668
-100.0   120.0   0.0
-100.0   90.0   16.666666666666668
-50.0   120.0   16.666666666666668
-50.0   90.0   16.666666666666668
-50.0   90.0   0.0
-100.0   90.0   16.666666666666668
-50.0   120.0   16.666666666666668
-50.0   90.0   0.0
-100.0   120.0   0.0
-100.0   90.0   16.666666666666668
-50.0   90.0   16.666666666666668
-100.0   120.0   16.666666666666668
-100.0   90.0   33.333333333333336
-50.0   90.0   16.666666666666668
-50.0   120.0   16.666666666666668
-100.0   120.0   16.666666666666668
-50.0   120.0   33.333333333333336
-100.0   90.0   33.333333333333336
-100.0   120.0   33.333333333333336
-50.0   120.0   33.333333333333336
-100.0   120.0   16.666666666666668
-100.0   90.0   33.333333333333336
-50.0   120.0   33.333333333333336
-50.0   90.0   33.333333333333336
-50.0   90.0   16.666666666666668
-100.0   90.0   33.333333333333336
-50.0   120.0   33.333333333333336
-50.0   90.0   16.666666666666668
-100.0   120.0   16.666666666666668
-100.0   90.0   33.333333333333336
-50.0   90.0   33.333333333333336
-100.0   120.0   33.333333333333336
-100.0   90.0   50.0
-50.0   90.0   33.333333333333336
-50.0   120.0   33.333333333333336
-100.0   120.0   33.333333333333336
-50.0   120.0   50.0
-100.0   90.0   50.0
-100.0   120.0   50.0
-50.0   120.0   50.0
-100.0   120.0   33.333333333333336
-100.0   90.0   50.0
-50.0   120.0   50.0
-50.0   90.0   50.0
-50.0   90.0   33.333333333333336
-100.0   90.0   50.0
-50.0   120.0   50.0
-50.0   90.0   33.333333333333336
-100.0   120.0   33.333333333333336
-100.0   120.0   0.0
-50.0   120.0   0.0
-100.0   150.0   0.0
-100.0   120.0   16.666666666666668
-50.0   120.0   0.0
-50.0   150.0   0.0
-100.0   150.0   0.0
-50.0   150.0   16.666666666666668
-100.0   120.0   16.666666666666668
-100.0   150.0   16.666666666666668
-50.0   150.0   16.666666666666668
-100.0   150.0   0.0
-100.0   120.0   16.666666666666668
-50.0   150.0   16.666666666666668
-50.0   120.0   16.666666666666668
-50.0   120.0   0.0
-100.0   120.0   16.666666666666668
-50.0   150.0   16.666666666666668
-50.0   120.0   0.0
-100.0   150.0   0.0
-100.0   120.0   16.666666666666668
-50.0   120.0   16.666666666666668
-100.0   150.0   16.666666666666668
-100.0   120.0   33.333333333333336
-50.0   120.0   16.666666666666668
-50.0   150.0   16.666666666666668
-100.0   150.0   16.666666666666668
-50.0   150.0   33.333333333333336
-100.0   120.0   33.333333333333336
-100.0   150.0   33.333333333333336
-50.0   150.0   33.333333333333336
-100.0   150.0   16.666666666666668
-100.0   120.0   33.333333333333336
-50.0   150.0   33.333333333333336
-50.0   120.0   33.333333333333336
-50.0   120.0   16.666666666666668
-100.0   120.0   33.333333333333336
-50.0   150.0   33.333333333333336
-50.0   120.0   16.666666666666668
-100.0   150.0   16.666666666666668
-100.0   120.0   33.333333333333336
-50.0   120.0   33.333333333333336
-100.0   150.0   33.333333333333336
-100.0   120.0   50.0
-50.0   120.0   33.333333333333336
-50.0   150.0   33.333333333333336
-100.0   150.0   33.333333333333336
-50.0   150.0   50.0
-100.0   120.0   50.0
-100.0   150.0   50.0
-50.0   150.0   50.0
-100.0   150.0   33.333333333333336
-100.0   120.0   50.0
-50.0   150.0   50.0
-50.0   120.0   50.0
-50.0   120.0   33.333333333333336
-100.0   120.0   50.0
-50.0   150.0   50.0
-50.0   120.0   33.333333333333336
-100.0   150.0   33.333333333333336
-50.0   0.0   0.0
0.0   0.0   0.0
-50.0   30.0   0.0
-50.0   0.0   16.666666666666668
0.0   0.0   0.0
0.0   30.0   0.0
-50.0   30.0   0.0
0.0   30.0   16.666666666666668
-50.0   0.0   16.666666666666668
-50.0   30.0   16.666666666666668
0.0   30.0   16.666666666666668
-50.0   30.0   0.0
-50.0   0.0   16.666666666666668
0.0   30.0   16.666666666666668
0.0   0.0   16.666666666666668
0.0   0.0   0.0
-50.0   0.0   16.666666666666668
0.0   30.0   16.666666666666668
0.0   0.0   0.0
-50.0   30.0   0.0
-50.0   0.0   16.666666666666668
0.0   0.0   16.666666666666668
-50.0   30.0   16.666666666666668
-50.0   0.0   33.333333333333336
0.0   0.0   16.666666666666668
0.0   30.0   16.666666666666668
-50.0   30.0   16.666666666666668
0.0   30.0   33.333333333333336
-50.0   0.0   33.333333333333336
-50.0   30.0   33.333333333333336
0.0   30.0   33.333333333333336
-50.0   30.0   16.666666666666668
-50.0   0.0   33.333333333333336
0.0   30.0   33.333333333333336
0.0   0.0   33.333333333333336
0.0   0.0   16.666666666666668
-50.0   0.0   33.333333333333336
0.0   30.0   33.333333333333336
0.0   0.0   16.666666666666668
-50.0   30.0   16.666666666666668
-50.0   0.0   33.333333333333336
0.0   0.0   33.333333333333336
-50.0   30.0   33.333333333333336
-50.0   0.0   50.0
0.0   0.0   33.333333333333336
0.0   30.0   33.333333333333336
-50.0   30.0   33.333333333333336
0.0   30.0   50.0
-50.0   0.0   50.0
-50.0   30.0   50.0
0.0   30.0   50.0
-50.0   30.0   33.333333333333336
-50.0   0.0   50.0
0.0   30.0   50.0
0.0   0.0   50.0
0.0   0.0   33.333333333333336
-50.0   0.0   50.0
0.0   30.0   50.0
0.0   0.0   33.333333333333336
-50.0   30.0   33.333333333333336
-50.0   30.0   0.0
0.0   30.0   0.0
-50.0   60.0   0.0
-50.0   30.0   16.666666666666668
0.0   30.0   0.0
0.0   60.0   0.0
-50.0   60.0   0.0
0.0   60.0   16.666666666666668
-50.0   30.0   16.666666666666668
-50.0   60.0   16.666666666666668
0.0   60.0   16.666666666666668
-50.0   60.0   0.0
-50.0   30.0   16.666666666666668
0.0   60.0   16.666666666666668
0.0   30.0   16.666666666666668
0.0   30.0   0.0
-50.0   30.0   16.666666666666668
0.0   60.0   16.666666666666668
0.0   30.0   0.0
-50.0   60.0   0.0
-50.0   30.0   16.666666666666668
0.0   30.0   16.666666666666668
-50.0   60.0   16.666666666666668
-50.0   30.0   33.333333333333336
0.0   30.0   16.666666666666668
0.0   60.0   16.666666666666668
-50.0   60.0   16.666666666666668
0.0   60.0   33.333333333333336
-50.0   30.0   33.333333333333336
-50.0   60.0   33.333333333333336
0.0   60.0   33.333333333333336
-50.0   60.0   16.666666666666668
-50.0   30.0   33.333333333333336
0.0   60.0   33.333333333333336
0.0   30.0   33.333333333333336
0.0   30.0   16.666666666666668
-50.0   30.0   33.333333333333336
0.0   60.0   33.333333333333336
0.0   30.0   16.666666666666668
-50.0   60.0   16.666666666666668
-50.0   30.0   33.333333333333336
0.0   30.0   33.333333333333336
-50.0   60.0   33.333333333333336
-50.0   30.0   50.0
0.0   30.0   33.333333333333336
0.0   60.0   33.333333333333336
-50.0   60.0   33.333333333333336
0.0   60.0   50.0
-50.0   30.0   50.0
-50.0   60.0   50.0
0.0   60.0   50.0
-50.0   60.0   33.333333333333336
-50.0   30.0   50.0
0.0   60.0   50.0
0.0   30.0   50.0
0.0   30.0   33.333333333333336
-50.0   30.0   50.0
0.0   60.0   50.0
0.0   30.0   33.333333333333336
-50.0   60.0   33.333333333333336
-50.0   60.0   0.0
0.0   60.0   0.0
-50.0   90.0   0.0
-50.0   60.0   16.666666666666668
0.0   60.0   0.0
0.0   90.0   0.0
-50.0   90.0   0.0
0.0   90.0   16.666666666666668
-50.0   60.0   16.666666666666668
-50.0   90.0   16.666666666666668
0.0   90.0   16.666666666666668
-50.0   90.0   0.0
-50.0   60.0   16.666666666666668
0.0   90.0   16.666666666666668
0.0   60.0   16.666666666666668
0.0   60.0   0.0
-50.0   60.0   16.666666666666668
0.0   90.0   16.666666666666668
0.0   60.0   0.0
-50.0   90.0   0.0
-50.0   60.0   16.666666666666668
0.0   60.0   16.666666666666668
-50.0   90.0   16.666666666666668
-50.0   60.0   33.333333333333336
0.0   60.0   16.666666666666668
0.0   90.0   16.666666666666668
-50.0   90.0   16.666666666666668
0.0   90.0   33.333333333333336
-50.0   60.0   33.333333333333336
-50.0   90.0   33.333333333333336
0.0   90.0   33.333333333333336
-50.0   90.0   16.666666666666668
-50.0   60.0   33.333333333333336
0.0   90.0   33.333333333333336
0.0   60.0   33.333333333333336
0.0   60.0   16.666666666666668
-50.0   60.0   33.333333333333336
0.0   90.0   33.333333333333336
0.0   60.0   16.666666666666668
-50.0   90.0   16.666666666666668
-50.0   60.0   33.333333333333336
0.0   60.0   33.333333333333336
-50.0   90.0   33.333333333333336
-50.0   60.0   50.0
0.0   60.0   33.333333333333336
0.0   90.0   33.333333333333336
-50.0   90.0   33.333333333333336
0.0   90.0   50.0
-50.0   60.0   50.0
-50.0   90.0   50.0
0.0   90.0   50.0
-50.0   90.0   33.333333333333336
-50.0   60.0   50.0
0.0   90.0   50.0
0.0   60.0   50.0
0.0   60.0   33.333333333333336
-50.0   60.0   50.0
0.0   90.0   50.0
0.0   60.0   33.333333333333336
-50.0   90.0   33.333333333333336
-50.0   90.0   0.0
0.0   90.0   0.0
-50.0   120.0   0.0
-50.0   90.0   16.666666666666668
0.0   90.0   0.0
0.0   120.0   0.0
-50.0   120.0   0.0
0.0   120.0   16.666666666666668
-50.0   90.0   16.666666666666668
-50.0   120.0   16.666666666666668
0.0   120.0   16.666666666666668
-50.0   120.0   0.0
-50.0   90.0   16.666666666666668
0.0   120.0   16.666666666666668
0.0   90.0   16.666666666666668
0.0   90.0   0.0
-50.0   90.0   16.666666666666668
0.0   120.0   16.666666666666668
0.0   90.0   0.0
-50.0   120.0   0.0
-50.0   90.0   16.666666666666668
0.0   90.0   16.666666666666668
-50.0   120.0   16.666666666666668
-50.0   90.0   33.333333333333336
0.0   90.0   16.666666666666668
0.0   120.0   16.666666666666668
-50.0   120.0   16.666666666666668
0.0   120.0   33.333333333333336
-50.0   90.0   33.333333333333336
-50.0   120.0   33.333333333333336
0.0   120.0   33.333333333333336
-50.0   120.0   16.666666666666668
-50.0   90.0   33.333333333333336
0.0   120.0   33.333333333333336
0.0   90.0   33.333333333333336
0.0   90.0   16.666666666666668
-50.0   90.0   33.333333333333336
0.0   120.0   33.333333333333336
0.0   90.0   16.666666666666668
-50.0   120.0   16.666666666666668
-50.0   90.0   33.333333333333336
0.0   90.0   33.333333333333336
-50.0   120.0   33.333333333333336
-50.0   90.0   50.0
0.0   90.0   33.333333333333336
0.0   120.0   33.333333333333336
-50.0   120.0   33.333333333333336
0.0   120.0   50.0
-50.0   90.0   50.0
-50.0   120.0   50.0
0.0   120.0   50.0
-50.0   120.0   33.333333333333336
-50.0   90.0   50.0
0.0   120.0   50.0
0.0   90.0   50.0
0.0   90.0   33.333333333333336
-50.0   90.0   50.0
0.0   120.0   50.0
0.0   90.0   33.333333333333336
-50.0   120.0   33.333333333333336
-50.0   120.0   0.0
0.0   120.0   0.0
-50.0   150.0   0.0
-50.0   120.0   16.666666666666668
0.0   120.0   0.0
0.0   150.0   0.0
-50.0   150.0   0.0
0.0   150.0   16.666666666666668
-50.0   120.0   16.666666666666668
-50.0   150.0   16.666666666666668
0.0   150.0   16.666666666666668
-50.0   150.0   0.0
-50.0   120.0   16.666666666666668
0.0   150.0   16.666666666666668
0.0   120.0   16.666666666666668
0.0   120.0   0.0
-50.0   120.0   16.666666666666668
0.0   150.0   16.666666666666668
0.0   120.0   0.0
-50.0   150.0   0.0
-50.0   120.0   16.666666666666668
0.0   120.0   16.666666666666668
-50.0   150.0   16.666666666666668
-50.0   120.0   33.333333333333336
0.0   120.0   16.666666666666668
0.0   150.0   16.666666666666668
-50.0   150.0   16.666666666666668
0.0   150.0   33.333333333333336
-50.0   120.0   33.333333333333336
-50.0   150.0   33.333333333333336
0.0   150.0   33.333333333333336
-50.0   150.0   16.666666666666668
-50.0   120.0   33.333333333333336
0.0   150.0   33.333333333333336
0.0   120.0   33.333333333333336
0.0   120.0   16.666666666666668
-50.0   120.0   33.333333333333336
0.0   150.0   33.333333333333336
0.0   120.0   16.666666666666668
-50.0   150.0   16.666666666666668
-50.0   120.0   33.333333333333336
0.0   120.0   33.333333333333336
-50.0   150.0   33.333333333333336
-50.0   120.0   50.0
0.0   120.0   33.333333333333336
0.0   150.0   33.333333333333336
-50.0   150.0   33.333333333333336
0.0   150.0   50.0
-50.0   120.0   50.0
-50.0   150.0   50.0
0.0   150.0   50.0
-50.0   150.0   33.333333333333336
-50.0   120.0   50.0
0.0   150.0   50.0
0.0   120.0   50.0
0.0   120.0   33.333333333333336
-50.0   120.0   50.0
0.0   150.0   50.0
0.0   120.0   33.333333333333336
-50.0   150.0   33.333333333333336
0.0   0.0   0.0
50.0   0.0   0.0
0.0   30.0   0.0
0.0   0.0   16.666666666666668
50.0   0.0   0.0
50.0   30.0   0.0
0.0   30.0   0.0
50.0   30.0   16.666666666666668
0.0   0.0   16.666666666666668
0.0   30.0   16.666666666666668
50.0   30.0   16.666666666666668
0.0   30.0   0.0
0.0   0.0   16.666666666666668
50.0   30.0   16.666666666666668
50.0   0.0   16.666666666666668
50.0   0.0   0.0
0.0   0.0   16.666666666666668
50.0   30.0   16.666666666666668
50.0   0.0   0.0
0.0   30.0   0.0
0.0   0.0   16.666666666666668
50.0   0.0   16.666666666666668
0.0   30.0   16.666666666666668
0.0   0.0   33.333333333333336
50.0   0.0   16.666666666666668
50.0   30.0   16.666666666666668
0.0   30.0   16.666666666666668
50.0   30.0   33.333333333333336
0.0   0.0   33.333333333333336
0.0   30.0   33.333333333333336
50.0   30.0   33.333333333333336
0.0   30.0   16.666666666666668
0.0   0.0   33.333333333333336
50.0   30.0   33.333333333333336
50.0   0.0   33.333333333333336
50.0   0.0   16.666666666666668
0.0   0.0   33.333333333333336
50.0   30.0   33.333333333333336
50.0   0.0   16.666666666666668
0.0   30.0   16.666666666666668
0.0   0.0   33.333333333333336
50.0   0.0   33.333333333333336
0.0   30.0   33.333333333333336
0.0   0.0   50.0
50.0   0.0   33.333333333333336
50.0   30.0   33.333333333333336
0.0   30.0   33.333333333333336
50.0   30.0   50.0
0.0   0.0   50.0
0.0   30.0   50.0
50.0   30.0   50.0
0.0   30.0   33.333333333333336
0.0   0.0   50.0
50.0   30.0   50.0
50.0   0.0   50.0
50.0   0.0   33.333333333333336
0.0   0.0   50.0
50.0   30.0   50.0
50.0   0.0   33.333333333333336
0.0   30.0   33.333333333333336
0.0   30.0   0.0
50.0   30.0   0.0
0.0   60.0   0.0
0.0   30.0   16.666666666666668
50.0   30.0   0.0
50.0   60.0   0.0
0.0   60.0   0.0
50.0   60.0   16.666666666666668
0.0   30.0   16.666666666666668
0.0   60.0   16.666666666666668
50.0   60.0   16.666666666666668
0.0   60.0   0.0
0.0   30.0   16.666666666666668
50.0   60.0   16.666666666666668
50.0   30.0   16.666666666666668
50.0   30.0   0.0
0.0   30.0   16.666666666666668
50.0   60.0   16.666666666666668
50.0   30.0   0.0
0.0   60.0   0.0
0.0   30.0   16.666666666666668
50.0   30.0   16.666666666666668
0.0   60.0   16.666666666666668
0.0   30.0   33.333333333333336
50.0   30.0   16.666666666666668
50.0   60.0   16.666666666666668
0.0   60.0   16.666666666666668
50.0   60.0   33.333333333333336
0.0   30.0   33.333333333333336
0.0   60.0   33.333333333333336
50.0   60.0   33.333333333333336
0.0   60.0   16.666666666666668
0.0   30.0   33.333333333333336
50.0   60.0   33.333333333333336
50.0   30.0   33.333333333333336
50.0   30.0   16.666666666666668
0.0   30.0   33.333333333333336
50.0   60.0   33.333333333333336
50.0   30.0   16.666666666666668
0.0   60.0   16.666666666666668
0.0   30.0   33.333333333333336
50.0   30.0   33.333333333333336
0.0   60.0   33.333333333333336
0.0   30.0   50.0
50.0   30.0   33.333333333333336
50.0   60.0   33.333333333333336
0.0   60.0   33.333333333333336
50.0   60.0   50.0
0.0   30.0   50.0
0.0   60.0   50.0
50.0   60.0   50.0
0.0   60.0   33.333333333333336
0.0   30.0   50.0
50.0   60.0   50.0
50.0   30.0   50.0
50.0   30.0   33.333333333333336
0.0   30.0   50.0
50.0   60.0   50.0
50.0   30.0   33.333333333333336
0.0   60.0   33.333333333333336
0.0   60.0   0.0
50.0   60.0   0.0
0.0   90.0   0.0
0.0   60.0   16.666666666666668
50.0   60.0   0.0
50.0   90.0   0.0
0.0   90.0   0.0
50.0   90.0   16.666666666666668
0.0   60.0   16.666666666666668
0.0   90.0   16.666666666666668
50.0   90.0   16.666666666666668
0.0   90.0   0.0
0.0   60.0   16.666666666666668
50.0   90.0   16.666666666666668
50.0   60.0   16.666666666666668
50.0   60.0   0.0
0.0   60.0   16.666666666666668
50.0   90.0   16.666666666666668
50.0   60.0   0.0
0.0   90.0   0.0
0.0   60.0   16.666666666666668
50.0   60.0   16.666666666666668
0.0   90.0   16.666666666666668
0.0   60.0   33.333333333333336
50.0   60.0   16.666666666666668
50.0   90.0   16.666666666666668
0.0   90.0   16.666666666666668
50.0   90.0   33.333333333333336
0.0   60.0   33.333333333333336
0.0   90.0   33.333333333333336
50.0   90.0   33.333333333333336
0.0   90.0   16.666666666666668
0.0   60.0   33.333333333333336
50.0   90.0   33.333333333333336
50.0   60.0   33.333333333333336
50.0   60.0   16.666666666666668
0.0   60.0   33.333333333333336
50.0   90.0   33.333333333333336
50.0   60.0   16.666666666666668
0.0   90.0   16.666666666666668
0.0   60.0   33.333333333333336
50.0   60.0   33.333333333333336
0.0   90.0   33.333333333333336
0.0   60.0   50.0
50.0   60.0   33.333333333333336
50.0   90.0   33.333333333333336
0.0   90.0   33.333333333333336
50.0   90.0   50.0
0.0   60.0   50.0
0.0   90.0   50.0
50.0   90.0   50.0
0.0   90.0   33.333333333333336
0.0   60.0   50.0
50.0   90.0   50.0
50.0   60.0   50.0
50.0   60.0   33.333333333333336
0.0   60.0   50.0
50.0   90.0   50.0
50.0   60.0   33.333333333333336
0.0   90.0   33.333333333333336
0.0   90.0   0.0
50.0   90.0   0.0
0.0   120.0   0.0
0.0   90.0   16.666666666666668
50.0   90.0   0.0
50.0   120.0   0.0
0.0   120.0   0.0
50.0   120.0   16.666666666666668
0.0   90.0   16.666666666666668
0.0   120.0   16.666666666666668
50.0   120.0   16.666666666666668
0.0   120.0   0.0
0.0   90.0   16.666666666666668
50.0   120.0   16.666666666666668
50.0   90.0   16.666666666666668
50.0   90.0   0.0
0.0   90.0   16.666666666666668
50.0   120.0   16.666666666666668
50.0   90.0   0.0
0.0   120.0   0.0
0.0   90.0   16.666666666666668
50.0   90.0   16.666666666666668
0.0   120.0   16.666666666666668
0.0   90.0   33.333333333333336
50.0   90.0   16.666666666666668
50.0   120.0   16.666666666666668
0.0   120.0   16.666666666666668
50.0   120.0   33.333333333333336
0.0   90.0   33.333333333333336
0.0   120.0   33.333333333333336
50.0   120.0   33.333333333333336
0.0   120.0   16.666666666666668
0.0   90.0   33.333333333333336
50.0   120.0   33.333333333333336
50.0   90.0   33.333333333333336
50.0   90.0   16.666666666666668
0.0   90.0   33.333333333333336
50.0   120.0   33.333333333333336
50.0   90.0   16.666666666666668
0.0   120.0   16.666666666666668
0.0   90.0   33.333333333333336
50.0   90.0   33.333333333333336
0.0   120.0   33.333333333333336
0.0   90.0   50.0
50.0   90.0   33.333333333333336
50.0   120.0   33.333333333333336
0.0   120.0   33.333333333333336
50.0   120.0   50.0
0.0   90.0   50.0
0.0   120.0   50.0
50.0   120.0   50.0
0.0   120.0   33.333333333333336
0.0   90.0   50.0
50.0   120.0   50.0
50.0   90.0   50.0
50.0   90.0   33.333333333333336
0.0   90.0   50.0
50.0   120.0   50.0
50.0   90.0   33.333333333333336
0.0   120.0   33.333333333333336
0.0   120.0   0.0
50.0   120.0   0.0
0.0   150.0   0.0
0.0   120.0   16.666666666666668
50.0   120.0   0.0
50.0   150.0   0.0
0.0   150.0   0.0
50.0   150.0   16.666666666666668
0.0   120.0   16.666666666666668
0.0   150.0   16.666666666666668
50.0   150.0   16.666666666666668
0.0   150.0   0.0
0.0   120.0   16.666666666666668
50.0   150.0   16.666666666666668
50.0   120.0   16.666666666666668
50.0   120.0   0.0
0.0   120.0   16.666666666666668
50.0   150.0   16.666666666666668
50.0   120.0   0.0
0.0   150.0   0.0
0.0   120.0   16.666666666666668
50.0   120.0   16.666666666666668
0.0   150.0   16.666666666666668
0.0   120.0   33.333333333333336
50.0   120.0   16.666666666666668
50.0   150.0   16.666666666666668
0.0   150.0   16.666666666666668
50.0   150.0   33.333333333333336
0.0   120.0   33.333333333333336
0.0   150.0   33.333333333333336
50.0   150.0   33.333333333333336
0.0   150.0   16.666666666666668
0.0   120.0   33.333333333333336
50.0   150.0   33.333333333333336
50.0   120.0   33.333333333333336
50.0   120.0   16.666666666666668
0.0   120.0   33.333333333333336
50.0   150.0   33.333333333333336
50.0   120.0   16.666666666666668
0.0   150.0   16.666666666666668
0.0   120.0   33.333333333333336
50.0   120.0   33.333333333333336
0.0   150.0   33.333333333333336
0.0   120.0   50.0
50.0   120.0   33.333333333333336
50.0   150.0   33.333333333333336
0.0   150.0   33.333333333333336
50.0   150.0   50.0
0.0   120.0   50.0
0.0   150.0   50.0
50.0   150.0   50.0
0.0   150.0   33.333333333333336
0.0   120.0   50.0
50.0   150.0   50.0
50.0   120.0   50.0
50.0   120.0   33.333333333333336
0.0   120.0   50.0
50.0   150.0   50.0
50.0   120.0   33.333333333333336
0.0   150.0   33.333333333333336
50.0   0.0   0.0
100.0   0.0   0.0
50.0   30.0   0.0
50.0   0.0   16.666666666666668
100.0   0.0   0.0
100.0   30.0   0.0
50.0   30.0   0.0
100.0   30.0   16.666666666666668
50.0   0.0   16.666666666666668
50.0   30.0   16.666666666666668
100.0   30.0   16.666666666666668
50.0   30.0   0.0
50.0   0.0   16.666666666666668
100.0   30.0   16.666666666666668
100.0   0.0   16.666666666666668
100.0   0.0   0.0
50.0   0.0   16.666666666666668
100.0   30.0   16.666666666666668
100.0   0.0   0.0
50.0   30.0   0.0
50.0   0.0   16.666666666666668
100.0   0.0   16.666666666666668
50.0   30.0   16.666666666666668
50.0   0.0   33.333333333333336
100.0   0.0   16.666666666666668
100.0   30.0   16.666666666666668
50.0   30.0   16.666666666666668
100.0   30.0   33.333333333333336
50.0   0.0   33.333333333333336
50.0   30.0   33.333333333333336
100.0   30.0   33.333333333333336
50.0   30.0   16.666666666666668
50.0   0.0   33.333333333333336
100.0   30.0   33.333333333333336
100.0   0.0   33.333333333333336
100.0   0.0   16.666666666666668
50.0   0.0   33.333333333333336
100.0   30.0   33.333333333333336
100.0   0.0   16.666666666666668
50.0   30.0   16.666666666666668
50.0   0.0   33.333333333333336
100.0   0.0   33.333333333333336
50.0   30.0   33.333333333333336
50.0   0.0   50.0
100.0   0.0   33.333333333333336
100.0   30.0   33.333333333333336
50.0   30.0   33.333333333333336
100.0   30.0   50.0
50.0   0.0   50.0
50.0   30.0   50.0
100.0   30.0   50.0
50.0   30.0   33.333333333333336
50.0   0.0   50.0
100.0   30.0   50.0
100.0   0.0   50.0
100.0   0.0   33.333333333333336
50.0   0.0   50.0
100.0   30.0   50.0
100.0   0.0   33.333333333333336
50.0   30.0   33.333333333333336
50.0   30.0   0.0
100.0   30.0   0.0
50.0   60.0   0.0
50.0   30.0   16.666666666666668
100.0   30.0   0.0
100.0   60.0   0.0
50.0   60.0   0.0
100.0   60.0   16.666666666666668
50.0   30.0   16.666666666666668
50.0   60.0   16.666666666666668
100.0   60.0   16.666666666666668
50.0   60.0   0.0
50.0   30.0   16.666666666666668
100.0   60.0   16.666666666666668
100.0   30.0   16.666666666666668
100.0   30.0   0.0
50.0   30.0   16.666666666666668
100.0   60.0   16.666666666666668
100.0   30.0   0.0
50.0   60.0   0.0
50.0   30.0   16.666666666666668
100.0   30.0   16.666666666666668
50.0   60.0   16.666666666666668
50.0   30.0   33.333333333333336
100.0   30.0   16.666666666666668
100.0   60.0   16.666666666666668
50.0   60.0   16.666666666666668
100.0   60.0   33.333333333333336
50.0   30.0   33.333333333333336
50.0   60.0   33.333333333333336
100.0   60.0   33.333333333333336
50.0   60.0   16.666666666666668
50.0   30.0   33.333333333333336
100.0   60.0   33.333333333333336
100.0   30.0   33.333333333333336
100.0   30.0   16.666666666666668
50.0   30.0   33.333333333333336
100.0   60.0   33.333333333333336
100.0   30.0   16.666666666666668
50.0   60.0   16.666666666666668
50.0   30.0   33.333333333333336
100.0   30.0   33.333333333333336
50.0   60.0   33.333333333333336
50.0   30.0   50.0
100.0   30.0   33.333333333333336
100.0   60.0   33.333333333333336
50.0   60.0   33.333333333333336
100.0   60.0   50.0
50.0   30.0   50.0
50.0   60.0   50.0
100.0   60.0   50.0
50.0   60.0   33.333333333333336
50.0   30.0   50.0
100.0   60.0   50.0
100.0   30.0   50.0
100.0   30.0   33.333333333333336
50.0   30.0   50.0
100.0   60.0   50.0
100.0   30.0   33.333333333333336
50.0   60.0   33.333333333333336
50.0   60.0   0.0
100.0   60.0   0.0
50.0   90.0   0.0
50.0   60.0   16.666666666666668
100.0   60.0   0.0
100.0   90.0   0.0
50.0   90.0   0.0
100.0   90.0   16.666666666666668
50.0   60.0   16.666666666666668
50.0   90.0   16.666666666666668
100.0   90.0   16.666666666666668
50.0   90.0   0.0
50.0   60.0   16.666666666666668
100.0   90.0   16.666666666666668
100.0   60.0   16.666666666666668
100.0   60.0   0.0
50.0   60.0   16.666666666666668
100.0   90.0   16.666666666666668
100.0   60.0   0.0
50.0   90.0   0.0
50.0   60.0   16.666666666666668
100.0   60.0   16.666666666666668
50.0   90.0   16.666666666666668
50.0   60.0   33.333333333333336
100.0   60.0   16.666666666666668
100.0   90.0   16.666666666666668
50.0   90.0   16.666666666666668
100.0   90.0   33.333333333333336
50.0   60.0   33.333333333333336
50.0   90.0   33.333333333333336
100.0   90.0   33.333333333333336
50.0   90.0   16.666666666666668
50.0   60.0   33.333333333333336
100.0   90.0   33.333333333333336
100.0   60.0   33.333333333333336
100.0   60.0   16.666666666666668
50.0   60.0   33.333333333333336
100.0   90.0   33.333333333333336
100.0   60.0   16.666666666666668
50.0   90.0   16.666666666666668
50.0   60.0   33.333333333333336
100.0   60.0   33.333333333333336
50.0   90.0   33.333333333333336
50.0   60.0   50.0
100.0   60.0   33.333333333333336
100.0   90.0   33.333333333333336
50.0   90.0   33.333333333333336
100.0   90.0   50.0
50.0   60.0   50.0
50.0   90.0   50.0
100.0   90.0   50.0
50.0   90.0   33.333333333333336
50.0   60.0   50.0
100.0   90.0   50.0
100.0   60.0   50.0
100.0   60.0   33.333333333333336
50.0   60.0   50.0
100.0   90.0   50.0
100.0   60.0   33.333333333333336
50.0   90.0   33.333333333333336
50.0   90.0   0.0
100.0   90.0   0.0
50.0   120.0   0.0
50.0   90.0   16.666666666666668
100.0   90.0   0.0
100.0   120.0   0.0
50.0   120.0   0.0
100.0   120.0   16.666666666666668
50.0   90.0   16.666666666666668
50.0   120.0   16.666666666666668
100.0   120.0   16.666666666666668
50.0   120.0   0.0
50.0   90.0   16.666666666666668
100.0   120.0   16.666666666666668
100.0   90.0   16.666666666666668
100.0   90.0   0.0
50.0   90.0   16.666666666666668
100.0   120.0   16.666666666666668
100.0   90.0   0.0
50.0   120.0   0.0
50.0   90.0   16.666666666666668
100.0   90.0   16.666666666666668
50.0   120.0   16.666666666666668
50.0   90.0   33.333333333333336
100.0   90.0   16.666666666666668
100.0   120.0   16.666666666666668
50.0   120.0   16.666666666666668
100.0   120.0   33.333333333333336
50.0   90.0   33.333333333333336
50.0   120.0   33.333333333333336
100.0   120.0   33.333333333333336
50.0   120.0   16.666666666666668
50.0   90.0   33.333333333333336
100.0   120.0   33.333333333333336
100.0   90.0   33.333333333333336
100.0   90.0   16.666666666666668
50.0   90.0   33.333333333333336
100.0   120.0   33.333333333333336
100.0   90.0   16.666666666666668
50.0   120.0   16.666666666666668
50.0   90.0   33.333333333333336
100.0   90.0   33.333333333333336
50.0   120.0   33.333333333333336
50.0   90.0   50.0
100.0   90.0   33.333333333333336
100.0   120.0   33.333333333333336
50.0   120.0   33.333333333333336
100.0   120.0   50.0
50.0   90.0   50.0
50.0   120.0   50.0
100.0   120.0   50.0
50.0   120.0   33.333333333333336
50.0   90.0   50.0
100.0   120.0   50.0
100.0   90.0   50.0
100.0   90.0   33.333333333333336
50.0   90.0   50.0
100.0   120.0   50.0
100.0   90.0   33.333333333333336
50.0   120.0   33.333333333333336
50.0   120.0   0.0
100.0   120.0   0.0
50.0   150.0   0.0
50.0   120.0   16.666666666666668
100.0   120.0   0.0
100.0   150.0   0.0
50.0   150.0   0.0
100.0   150.0   16.666666666666668
50.0   120.0   16.666666666666668
50.0   150.0   16.666666666666668
100.0   150.0   16.666666666666668
50.0   150.0   0.0
50.0   120.0   16.666666666666668
100.0   150.0   16.666666666666668
100.0   120.0   16.666666666666668
100.0   120.0   0.0
50.0   120.0   16.666666666666668
100.0   150.0   16.666666666666668
100.0   120.0   0.0
50.0   150.0   0.0
50.0   120.0   16.666666666666668
100.0   120.0   16.666666666666668
50.0   150.0   16.666666666666668
50.0   120.0   33.333333333333336
100.0   120.0   16.666666666666668
100.0   150.0   16.666666666666668
50.0   150.0   16.666666666666668
100.0   150.0   33.333333333333336
50.0   120.0   33.333333333333336
50.0   150.0   33.333333333333336
100.0   150.0   33.333333333333336
50.0   150.0   16.666666666666668
50.0   120.0   33.333333333333336
100.0   150.0   33.333333333333336
100.0   120.0   33.333333333333336
100.0   120.0   16.666666666666668
50.0   120.0   33.333333333333336
100.0   150.0   33.333333333333336
100.0   120.0   16.666666666666668
50.0   150.0   16.666666666666668
50.0   120.0   33.333333333333336
100.0   120.0   33.333333333333336
50.0   150.0   33.333333333333336
50.0   120.0   50.0
100.0   120.0   33.333333333333336
100.0   150.0   33.333333333333336
50.0   150.0   33.333333333333336
100.0   150.0   50.0
50.0   120.0   50.0
50.0   150.0   50.0
100.0   150.0   50.0
50.0   150.0   33.333333333333336
50.0   120.0   50.0
100.0   150.0   50.0
100.0   120.0   50.0
100.0   120.0   33.333333333333336
50.0   120.0   50.0
100.0   150.0   50.0
100.0   120.0   33.333333333333336
50.0   150.0   33.333333333333336
100.0   0.0   0.0
150.0   0.0   0.0
100.0   30.0   0.0
100.0   0.0   16.666666666666668
150.0   0.0   0.0
150.0   30.0   0.0
100.0   30.0   0.0
150.0   30.0   16.666666666666668
100.0   0.0   16.666666666666668
100.0   30.0   16.666666666666668
150.0   30.0   16.666666666666668
100.0   30.0   0.0
100.0   0.0   16.666666666666668
150.0   30.0   16.666666666666668
150.0   0.0   16.666666666666668
150.0   0.0   0.0
100.0   0.0   16.666666666666668
150.0   30.0   16.666666666666668
150.0   0.0   0.0
100.0   30.0   0.0
100.0   0.0   16.666666666666668
150.0   0.0   16.666666666666668
100.0   30.0   16.666666666666668
100.0   0.0   33.333333333333336
150.0   0.0   16.666666666666668
150.0   30.0   16.666666666666668
100.0   30.0   16.666666666666668
150.0   30.0   33.333333333333336
100.0   0.0   33.333333333333336
100.0   30.0   33.333333333333336
150.0   30.0   33.333333333333336
100.0   30.0   16.666666666666668
100.0   0.0   33.333333333333336
150.0   30.0   33.333333333333336
150.0   0.0   33.333333333333336
150.0   0.0   16.666666666666668
100.0   0.0   33.333333333333336
150.0   30.0   33.333333333333336
150.0   0.0   16.666666666666668
100.0   30.0   16.666666666666668
100.0   0.0   33.333333333333336
150.0   0.0   33.333333333333336
100.0   30.0   33.333333333333336
100.0   0.0   50.0
150.0   0.0   33.333333333333336
150.0   30.0   33.333333333333336
100.0   30.0   33.333333333333336
150.0   30.0   50.0
100.0   0.0   50.0
100.0   30.0   50.0
150.0   30.0   50.0
100.0   30.0   33.333333333333336
100.0   0.0   50.0
150.0   30.0   50.0
150.0   0.0   50.0
150.0   0.0   33.333333333333336
100.0   0.0   50.0
150.0   30.0   50.0
150.0   0.0   33.333333333333336
100.0   30.0   33.333333333333336
100.0   30.0   0.0
150.0   30.0   0.0
100.0   60.0   0.0
100.0   30.0   16.666666666666668
150.0   30.0   0.0
150.0   60.0   0.0
100.0   60.0   0.0
150.0   60.0   16.666666666666668
100.0   30.0   16.666666666666668
100.0   60.0   16.666666666666668
150.0   60.0   16.666666666666668
100.0   60.0   0.0
100.0   30.0   16.666666666666668
150.0   60.0   16.666666666666668
150.0   30.0   16.666666666666668
150.0   30.0   0.0
100.0   30.0   16.666666666666668
150.0   60.0   16.666666666666668
150.0   30.0   0.0
100.0   60.0   0.0
100.0   30.0   16.666666666666668
150.0   30.0   16.666666666666668
100.0   60.0   16.666666666666668
100.0   30.0   33.333333333333336
150.0   30.0   16.666666666666668
150.0   60.0   16.666666666666668
100.0   60.0   16.666666666666668
150.0   60.0   33.333333333333336
100.0   30.0   33.333333333333336
100.0   60.0   33.333333333333336
150.0   60.0   33.333333333333336
100.0   60.0   16.666666666666668
100.0   30.0   33.333333333333336
150.0   60.0   33.333333333333336
150.0   30.0   33.333333333333336
150.0   30.0   16.666666666666668
100.0   30.0   33.333333333333336
150.0   60.0   33.333333333333336
150.0   30.0   16.666666666666668
100.0   60.0   16.666666666666668
100.0   30.0   33.333333333333336
150.0   30.0   33.333333333333336
100.0   60.0   33.333333333333336
100.0   30.0   50.0
150.0   30.0   33.333333333333336
150.0   60.0   33.333333333333336
100.0   60.0   33.333333333333336
150.0   60.0   50.0
100.0   30.0   50.0
100.0   60.0   50.0
150.0   60.0   50.0
100.0   60.0   33.333333333333336
100.0   30.0   50.0
150.0   60.0   50.0
150.0   30.0   50.0
150.0   30.0   33.333333333333336
100.0   30.0   50.0
150.0   60.0   50.0
150.0   30.0   33.333333333333336
100.0   60.0   33.333333333333336
100.0   60.0   0.0
150.0   60.0   0.0
100.0   90.0   0.0
100.0   60.0   16.666666666666668
150.0   60.0   0.0
150.0   90.0   0.0
100.0   90.0   0.0
150.0   90.0   16.666666666666668
100.0   60.0   16.666666666666668
100.0   90.0   16.666666666666668
150.0   90.0   16.666666666666668
100.0   90.0   0.0
100.0   60.0   16.666666666666668
150.0   90.0   16.666666666666668
150.0   60.0   16.666666666666668
150.0   60.0   0.0
100.0   60.0   16.666666666666668
150.0   90.0   16.666666666666668
150.0   60.0   0.0
100.0   90.0   0.0
100.0   60.0   16.666666666666668
150.0   60.0   16.666666666666668
100.0   90.0   16.666666666666668
100.0   60.0   33.333333333333336
150.0   60.0   16.666666666666668
150.0   90.0   16.666666666666668
100.0   90.0   16.666666666666668
150.0   90.0   33.333333333333336
100.0   60.0   33.333333333333336
100.0   90.0   33.333333333333336
150.0   90.0   33.333333333333336
100.0   90.0   16.666666666666668
100.0   60.0   33.333333333333336
150.0   90.0   33.333333333333336
150.0   60.0   33.333333333333336
150.0   60.0   16.666666666666668
100.0   60.0   33.333333333333336
150.0   90.0   33.333333333333336
150.0   60.0   16.666666666666668
100.0   90.0   16.666666666666668
100.0   60.0   33.333333333333336
150.0   60.0   33.333333333333336
100.0   90.0   33.333333333333336
100.0   60.0   50.0
150.0   60.0   33.333333333333336
150.0   90.0   33.333333333333336
100.0   90.0   33.333333333333336
150.0   90.0   50.0
100.0   60.0   50.0
100.0   90.0   50.0
150.0   90.0   50.0
100.0   90.0   33.333333333333336
100.0   60.0   50.0
150.0   90.0   50.0
150.0   60.0   50.0
150.0   60.0   33.333333333333336
100.0   60.0   50.0
150.0   90.0   50.0
150.0   60.0   33.333333333333336
100.0   90.0   33.333333333333336
100.0   90.0   0.0
150.0   90.0   0.0
100.0   120.0   0.0
100.0   90.0   16.666666666666668
150.0   90.0   0.0
150.0   120.0   0.0
100.0   120.0   0.0
150.0   120.0   16.666666666666668
100.0   90.0   16.666666666666668
100.0   120.0   16.666666666666668
150.0   120.0   16.666666666666668
100.0   120.0   0.0
100.0   90.0   16.666666666666668
150.0   120.0   16.666666666666668
150.0   90.0   16.666666666666668
150.0   90.0   0.0
100.0   90.0   16.666666666666668
150.0   120.0   16.666666666666668
150.0   90.0   0.0
100.0   120.0   0.0
100.0   90.0   16.666666666666668
150.0   90.0   16.666666666666668
100.0   120.0   16.666666666666668
100.0   90.0   33.333333333333336
150.0   90.0   16.666666666666668
150.0   120.0   16.666666666666668
100.0   120.0   16.666666666666668
150.0   120.0   33.333333333333336
100.0   90.0   33.333333333333336
100.0   120.0   33.333333333333336
150.0   120.0   33.333333333333336
100.0   120.0   16.666666666666668
100.0   90.0   33.333333333333336
150.0   120.0   33.333333333333336
150.0   90.0   33.333333333333336
150.0   90.0   16.666666666666668
100.0   90.0   33.333333333333336
150.0   120.0   33.333333333333336
150.0   90.0   16.666666666666668
100.0   120.0   16.666666666666668
100.0   90.0   33.333333333333336
150.0   90.0   33.333333333333336
100.0   120.0   33.333333333333336
100.0   90.0   50.0
150.0   90.0   33.333333333333336
150.0   120.0   33.333333333333336
100.0   120.0   33.333333333333336
150.0   120.0   50.0
100.0   90.0   50.0
100.0   120.0   50.0
150.0   120.0   50.0
100.0   120.0   33.333333333333336
100.0   90.0   50.0
150.0   120.0   50.0
150.0   90.0   50.0
150.0   90.0   33.333333333333336
100.0   90.0   50.0
150.0   120.0   50.0
150.0   90.0   33.333333333333336
100.0   120.0   33.333333333333336
100.0   120.0   0.0
150.0   120.0   0.0
100.0   150.0   0.0
100.0   120.0   16.666666666666668
150.0   120.0   0.0
150.0   150.0   0.0
100.0   150.0   0.0
150.0   150.0   16.666666666666668
100.0   120.0   16.666666666666668
100.0   150.0   16.666666666666668
150.0   150.0   16.666666666666668
100.0   150.0   0.0
100.0   120.0   16.666666666666668
150.0   150.0   16.666666666666668
150.0   120.0   16.666666666666668
150.0   120.0   0.0
100.0   120.0   16.666666666666668
150.0   150.0   16.666666666666668
150.0   120.0   0.0
100.0   150.0   0.0
100.0   120.0   16.666666666666668
150.0   120.0   16.666666666666668
100.0   150.0   16.666666666666668
100.0   120.0   33.333333333333336
150.0   120.0   16.666666666666668
150.0   150.0   16.666666666666668
100.0   150.0   16.666666666666668
150.0   150.0   33.333333333333336
100.0   120.0   33.333333333333336
100.0   150.0   33.333333333333336
150.0   150.0   33.333333333333336
100.0   150.0   16.666666666666668
100.0   120.0   33.333333333333336
150.0   150.0   33.333333333333336
150.0   120.0   33.333333333333336
150.0   120.0   16.666666666666668
100.0   120.0   33.333333333333336
150.0   150.0   33.333333333333336
150.0   120.0   16.666666666666668
100.0   150.0   16.666666666666668
100.0   120.0   33.333333333333336
150.0   120.0   33.333333333333336
100.0   150.0   33.333333333333336
100.0   120.0   50.0
150.0   120.0   33.333333333333336
150.0   150.0   33.333333333333336
100.0   150.0   33.333333333333336
150.0   150.0   50.0
100.0   120.0   50.0
100.0   150.0   50.0
150.0   150.0   50.0
100.0   150.0   33.333333333333336
100.0   120.0   50.0
150.0   150.0   50.0
150.0   120.0   50.0
150.0   120.0   33.333333333333336
100.0   120.0   50.0
150.0   150.0   50.0
150.0   120.0   33.333333333333336
100.0   150.0   33.333333333333336
150.0   0.0   0.0
200.0   0.0   0.0
150.0   30.0   0.0
150.0   0.0   16.666666666666668
200.0   0.0   0.0
200.0   30.0   0.0
150.0   30.0   0.0
200.0   30.0   16.666666666666668
150.0   0.0   16.666666666666668
150.0   30.0   16.666666666666668
200.0   30.0   16.666666666666668
150.0   30.0   0.0
150.0   0.0   16.666666666666668
200.0   30.0   16.666666666666668
200.0   0.0   16.666666666666668
200.0   0.0   0.0
150.0   0.0   16.666666666666668
200.0   30.0   16.666666666666668
200.0   0.0   0.0
150.0   30.0   0.0
150.0   0.0   16.666666666666668
200.0   0.0   16.666666666666668
150.0   30.0   16.666666666666668
150.0   0.0   33.333333333333336
200.0   0.0   16.666666666666668
200.0   30.0   16.666666666666668
150.0   30.0   16.666666666666668
200.0   30.0   33.333333333333336
150.0   0.0   33.333333333333336
150.0   30.0   33.333333333333336
200.0   30.0   33.333333333333336
150.0   30.0   16.666666666666668
150.0   0.0   33.333333333333336
200.0   30.0   33.333333333333336
200.0   0.0   33.333333333333336
200.0   0.0   16.666666666666668
150.0   0.0   33.333333333333336
200.0   30.0   33.333333333333336
200.0   0.0   16.666666666666668
150.0   30.0   16.666666666666668
150.0   0.0   33.333333333333336
200.0   0.0   33.333333333333336
150.0   30.0   33.333333333333336
150.0   0.0   50.0
200.0   0.0   33.333333333333336
200.0   30.0   33.333333333333336
150.0   30.0   33.333333333333336
200.0   30.0   50.0
150.0   0.0   50.0
150.0   30.0   50.0
200.0   30.0   50.0
150.0   30.0   33.333333333333336
150.0   0.0   50.0
200.0   30.0   50.0
200.0   0.0   50.0
200.0   0.0   33.333333333333336
150.0   0.0   50.0
200.0   30.0   50.0
200.0   0.0   33.333333333333336
150.0   30.0   33.333333333333336
150.0   30.0   0.0
200.0   30.0   0.0
150.0   60.0   0.0
150.0   30.0   16.666666666666668
200.0   30.0   0.0
200.0   60.0   0.0
150.0   60.0   0.0
200.0   60.0   16.666666666666668
150.0   30.0   16.666666666666668
150.0   60.0   16.666666666666668
200.0   60.0   16.666666666666668
150.0   60.0   0.0
150.0   30.0   16.666666666666668
200.0   60.0   16.666666666666668
200.0   30.0   16.666666666666668
200.0   30.0   0.0
150.0   30.0   16.666666666666668
200.0   60.0   16.666666666666668
200.0   30.0   0.0
150.0   60.0   0.0
150.0   30.0   16.666666666666668
200.0   30.0   16.666666666666668
150.0   60.0   16.666666666666668
150.0   30.0   33.333333333333336
200.0   30.0   16.666666666666668
200.0   60.0   16.666666666666668
150.0   60.0   16.666666666666668
200.0   60.0   33.333333333333336
150.0   30.0   33.333333333333336
150.0   60.0   33.333333333333336
200.0   60.0   33.333333333333336
150.0   60.0   16.666666666666668
150.0   30.0   33.333333333333336
200.0   60.0   33.333333333333336
200.0   30.0   33.333333333333336
200.0   30.0   16.666666666666668
150.0   30.0   33.333333333333336
200.0   60.0   33.333333333333336
200.0   30.0   16.666666666666668
150.0   60.0   16.666666666666668
150.0   30.0   33.333333333333336
200.0   30.0   33.333333333333336
150.0   60.0   33.333333333333336
150.0   30.0   50.0
200.0   30.0   33.333333333333336
200.0   60.0   33.333333333333336
150.0   60.0   33.333333333333336
200.0   60.0   50.0
150.0   30.0   50.0
150.0   60.0   50.0
200.0   60.0   50.0
150.0   60.0   33.333333333333336
150.0   30.0   50.0
200.0   60.0   50.0
200.0   30.0   50.0
200.0   30.0   33.333333333333336
150.0   30.0   50.0
200.0   60.0   50.0
200.0   30.0   33.333333333333336
150.0   60.0   33.333333333333336
150.0   60.0   0.0
200.0   60.0   0.0
150.0   90.0   0.0
150.0   60.0   16.666666666666668
200.0   60.0   0.0
200.0   90.0   0.0
150.0   90.0   0.0
200.0   90.0   16.666666666666668
150.0   60.0   16.666666666666668
150.0   90.0   16.666666666666668
200.0   90.0   16.666666666666668
150.0   90.0   0.0
150.0   60.0   16.666666666666668
200.0   90.0   16.666666666666668
200.0   60.0   16.666666666666668
200.0   60.0   0.0
150.0   60.0   16.666666666666668
200.0   90.0   16.666666666666668
200.0   60.0   0.0
150.0   90.0   0.0
150.0   60.0   16.666666666666668
200.0   60.0   16.666666666666668
150.0   90.0   16.666666666666668
150.0   60.0   33.333333333333336
200.0   60.0   16.666666666666668
200.0   90.0   16.666666666666668
150.0   90.0   16.666666666666668
200.0   90.0   33.333333333333336
150.0   60.0   33.333333333333336
150.0   90.0   33.333333333333336
200.0   90.0   33.333333333333336
150.0   90.0   16.666666666666668
150.0   60.0   33.333333333333336
200.0   90.0   33.333333333333336
200.0   60.0   33.333333333333336
200.0   60.0   16.666666666666668
150.0   60.0   33.333333333333336
200.0   90.0   33.333333333333336
200.0   60.0   16.666666666666668
150.0   90.0   16.666666666666668
150.0   60.0   33.333333333333336
200.0   60.0   33.333333333333336
150.0   90.0   33.333333333333336
150.0   60.0   50.0
200.0   60.0   33.333333333333336
200.0   90.0   33.333333333333336
150.0   90.0   33.333333333333336
200.0   90.0   50.0
150.0   60.0   50.0
150.0   90.0   50.0
200.0   90.0   50.0
150.0   90.0   33.333333333333336
150.0   60.0   50.0
200.0   90.0   50.0
200.0   60.0   50.0
200.0   60.0   33.333333333333336
150.0   60.0   50.0
200.0   90.0   50.0
200.0   60.0   33.333333333333336
150.0   90.0   33.333333333333336
150.0   90.0   0.0
200.0   90.0   0.0
150.0   120.0   0.0
150.0   90.0   16.666666666666668
200.0   90.0   0.0
200.0   120.0   0.0
150.0   120.0   0.0
200.0   120.0   16.666666666666668
150.0   90.0   16.666666666666668
150.0   120.0   16.666666666666668
200.0   120.0   16.666666666666668
150.0   120.0   0.0
150.0   90.0   16.666666666666668
200.0   120.0   16.666666666666668
200.0   90.0   16.666666666666668
200.0   90.0   0.0
150.0   90.0   16.666666666666668
200.0   120.0   16.666666666666668
200.0   90.0   0.0
150.0   120.0   0.0
150.0   90.0   16.666666666666668
200.0   90.0   16.666666666666668
150.0   120.0   16.666666666666668
150.0   90.0   33.333333333333336
200.0   90.0   16.666666666666668
200.0   120.0   16.666666666666668
150.0   120.0   16.666666666666668
200.0   120.0   33.333333333333336
150.0   90.0   33.333333333333336
150.0   120.0   33.333333333333336
200.0   120.0   33.333333333333336
150.0   120.0   16.666666666666668
150.0   90.0   33.333333333333336
200.0   120.0   33.333333333333336
200.0   90.0   33.333333333333336
200.0   90.0   16.666666666666668
150.0   90.0   33.333333333333336
200.0   120.0   33.333333333333336
200.0   90.0   16.666666666666668
150.0   120.0   16.666666666666668
150.0   90.0   33.333333333333336
200.0   90.0   33.333333333333336
150.0   120.0   33.333333333333336
150.0   90.0   50.0
200.0   90.0   33.333333333333336
200.0   120.0   33.333333333333336
150.0   120.0   33.333333333333336
200.0   120.0   50.0
150.0   90.0   50.0
150.0   120.0   50.0
200.0   120.0   50.0
150.0   120.0   33.333333333333336
150.0   90.0   50.0
200.0   120.0   50.0
200.0   90.0   50.0
200.0   90.0   33.333333333333336
150.0   90.0   50.0
200.0   120.0   50.0
200.0   90.0   33.333333333333336
150.0   120.0   33.333333333333336
150.0   120.0   0.0
200.0   120.0   0.0
150.0   150.0   0.0
150.0   120.0   16.666666666666668
200.0   120.0   0.0
200.0   150.0   0.0
150.0   150.0   0.0
200.0   150.0   16.666666666666668
150.0   120.0   16.666666666666668
150.0   150.0   16.666666666666668
200.0   150.0   16.666666666666668
150.0   150.0   0.0
150.0   120.0   16.666666666666668
200.0   150.0   16.666666666666668
200.0   120.0   16.666666666666668
200.0   120.0   0.0
150.0   120.0   16.666666666666668
200.0   150.0   16.666666666666668
200.0   120.0   0.0
150.0   150.0   0.0
150.0   120.0   16.666666666666668
200.0   120.0   16.666666666666668
150.0   150.0   16.666666666666668
150.0   120.0   33.333333333333336
200.0   120.0   16.666666666666668
200.0   150.0   16.666666666666668
150.0   150.0   16.666666666666668
200.0   150.0   33.333333333333336
150.0   120.0   33.333333333333336
150.0   150.0   33.333333333333336
200.0   150.0   33.333333333333336
150.0   150.0   16.666666666666668
150.0   120.0   33.333333333333336
200.0   150.0   33.333333333333336
200.0   120.0   33.333333333333336
200.0   120.0   16.666666666666668
150.0   120.0   33.333333333333336
200.0   150.0   33.333333333333336
200.0   120.0   16.666666666666668
150.0   150.0   16.666666666666668
150.0   120.0   33.333333333333336
200.0   120.0   33.333333333333336
150.0   150.0   33.333333333333336
150.0   120.0   50.0
200.0   120.0   33.333333333333336
200.0   150.0   33.333333333333336
150.0   150.0   33.333333333333336
200.0   150.0   50.0
150.0   120.0   50.0
150.0   150.0   50.0
200.0   150.0   50.0
150.0   150.0   33.333333333333336
150.0   120.0   50.0
200.0   150.0   50.0
200.0   120.0   50.0
200.0   120.0   33.333333333333336
150.0   120.0   50.0
200.0   150.0   50.0
200.0   120.0   33.333333333333336
150.0   150.0   33.333333333333336
200.0   0.0   0.0
250.0   0.0   0.0
200.0   30.0   0.0
200.0   0.0   16.666666666666668
250.0   0.0   0.0
250.0   30.0   0.0
200.0   30.0   0.0
250.0   30.0   16.666666666666668
200.0   0.0   16.666666666666668
200.0   30.0   16.666666666666668
250.0   30.0   16.666666666666668
200.0   30.0   0.0
200.0   0.0   16.666666666666668
250.0   30.0   16.666666666666668
250.0   0.0   16.666666666666668
250.0   0.0   0.0
200.0   0.0   16.666666666666668
250.0   30.0   16.666666666666668
250.0   0.0   0.0
200.0   30.0   0.0
200.0   0.0   16.666666666666668
250.0   0.0   16.666666666666668
200.0   30.0   16.666666666666668
200.0   0.0   33.333333333333336
250.0   0.0   16.666666666666668
250.0   30.0   16.666666666666668
200.0   30.0   16.666666666666668
250.0   30.0   33.333333333333336
200.0   0.0   33.333333333333336
200.0   30.0   33.333333333333336
250.0   30.0   33.333333333333336
200.0   30.0   16.666666666666668
200.0   0.0   33.333333333333336
250.0   30.0   33.333333333333336
250.0   0.0   33.333333333333336
250.0   0.0   16.666666666666668
200.0   0.0   33.333333333333336
250.0   30.0   33.333333333333336
250.0   0.0   16.666666666666668
200.0   30.0   16.666666666666668
200.0   0.0   33.333333333333336
250.0   0.0   33.333333333333336
200.0   30.0   33.333333333333336
200.0   0.0   50.0
250.0   0.0   33.333333333333336
250.0   30.0   33.333333333333336
200.0   30.0   33.333333333333336
250.0   30.0   50.0
200.0   0.0   50.0
200.0   30.0   50.0
250.0   30.0   50.0
200.0   30.0   33.333333333333336
200.0   0.0   50.0
250.0   30.0   50.0
250.0   0.0   50.0
250.0   0.0   33.333333333333336
200.0   0.0   50.0
250.0   30.0   50.0
250.0   0.0   33.333333333333336
200.0   30.0   33.333333333333336
200.0   30.0   0.0
250.0   30.0   0.0
200.0   60.0   0.0
200.0   30.0   16.666666666666668
250.0   30.0   0.0
250.0   60.0   0.0
200.0   60.0   0.0
250.0   60.0   16.666666666666668
200.0   30.0   16.666666666666668
200.0   60.0   16.666666666666668
250.0   60.0   16.666666666666668
200.0   60.0   0.0
200.0   30.0   16.666666666666668
250.0   60.0   16.666666666666668
250.0   30.0   16.666666666666668
250.0   30.0   0.0
200.0   30.0   16.666666666666668
250.0   60.0   16.666666666666668
250.0   30.0   0.0
200.0   60.0   0.0
200.0   30.0   16.666666666666668
250.0   30.0   16.666666666666668
200.0   60.0   16.666666666666668
200.0   30.0   33.333333333333336
250.0   30.0   16.666666666666668
250.0   60.0   16.666666666666668
200.0   60.0   16.666666666666668
250.0   60.0   33.333333333333336
200.0   30.0   33.333333333333336
200.0   60.0   33.333333333333336
250.0   60.0   33.333333333333336
200.0   60.0   16.666666666666668
200.0   30.0   33.333333333333336
250.0   60.0   33.333333333333336
250.0   30.0   33.333333333333336
250.0   30.0   16.666666666666668
200.0   30.0   33.333333333333336
250.0   60.0   33.333333333333336
250.0   30.0   16.666666666666668
200.0   60.0   16.666666666666668
200.0   30.0   33.333333333333336
250.0   30.0   33.333333333333336
200.0   60.0   33.333333333333336
200.0   30.0   50.0
250.0   30.0   33.333333333333336
250.0   60.0   33.333333333333336
200.0   60.0   33.333333333333336
250.0   60.0   50.0
200.0   30.0   50.0
200.0   60.0   50.0
250.0   60.0   50.0
200.0   60.0   33.333333333333336
200.0   30.0   50.0
250.0   60.0   50.0
250.0   30.0   50.0
250.0   30.0   33.333333333333336
200.0   30.0   50.0
250.0   60.0   50.0
250.0   30.0   33.333333333333336
200.0   60.0   33.333333333333336
200.0   60.0   0.0
250.0   60.0   0.0
200.0   90.0   0.0
200.0   60.0   16.666666666666668
250.0   60.0   0.0
250.0   90.0   0.0
200.0   90.0   0.0
250.0   90.0   16.666666666666668
200.0   60.0   16.666666666666668
200.0   90.0   16.666666666666668
250.0   90.0   16.666666666666668
200.0   90.0   0.0
200.0   60.0   16.666666666666668
250.0   90.0   16.666666666666668
250.0   60.0   16.666666666666668
250.0   60.0   0.0
200.0   60.0   16.666666666666668
250.0   90.0   16.666666666666668
250.0   60.0   0.0
200.0   90.0   0.0
200.0   60.0   16.666666666666668
250.0   60.0   16.666666666666668
200.0   90.0   16.666666666666668
200.0   60.0   33.333333333333336
250.0   60.0   16.666666666666668
250.0   90.0   16.666666666666668
200.0   90.0   16.666666666666668
250.0   90.0   33.333333333333336
200.0   60.0   33.333333333333336
200.0   90.0   33.333333333333336
250.0   90.0   33.333333333333336
200.0   90.0   16.666666666666668
200.0   60.0   33.333333333333336
250.0   90.0   33.333333333333336
250.0   60.0   33.333333333333336
250.0   60.0   16.666666666666668
200.0   60.0   33.333333333333336
250.0   90.0   33.333333333333336
250.0   60.0   16.666666666666668
200.0   90.0   16.666666666666668
200.0   60.0   33.333333333333336
250.0   60.0   33.333333333333336
200.0   90.0   33.333333333333336
200.0   60.0   50.0
250.0   60.0   33.333333333333336
250.0   90.0   33.333333333333336
200.0   90.0   33.333333333333336
250.0   90.0   50.0
200.0   60.0   50.0
200.0   90.0   50.0
250.0   90.0   50.0
200.0   90.0   33.333333333333336
200.0   60.0   50.0
250.0   90.0   50.0
250.0   60.0   50.0
250.0   60.0   33.333333333333336
200.0   60.0   50.0
250.0   90.0   50.0
250.0   60.0   33.333333333333336
200.0   90.0   33.333333333333336
200.0   90.0   0.0
250.0   90.0   0.0
200.0   120.0   0.0
200.0   90.0   16.666666666666668
250.0   90.0   0.0
250.0   120.0   0.0
200.0   120.0   0.0
250.0   120.0   16.666666666666668
200.0   90.0   16.666666666666668
200.0   120.0   16.666666666666668
250.0   120.0   16.666666666666668
200.0   120.0   0.0
200.0   90.0   16.666666666666668
250.0   120.0   16.666666666666668
250.0   90.0   16.666666666666668
250.0   90.0   0.0
200.0   90.0   16.666666666666668
250.0   120.0   16.666666666666668
250.0   90.0   0.0
200.0   120.0   0.0
200.0   90.0   16.666666666666668
250.0   90.0   16.666666666666668
200.0   120.0   16.666666666666668
200.0   90.0   33.333333333333336
250.0   90.0   16.666666666666668
250.0   120.0   16.666666666666668
200.0   120.0   16.666666666666668
250.0   120.0   33.333333333333336
200.0   90.0   33.333333333333336
200.0   120.0   33.333333333333336
250.0   120.0   33.333333333333336
200.0   120.0   16.666666666666668
200.0   90.0   33.333333333333336
250.0   120.0   33.333333333333336
250.0   90.0   33.333333333333336
250.0   90.0   16.666666666666668
200.0   90.0   33.333333333333336
250.0   120.0   33.333333333333336
250.0   90.0   16.666666666666668
200.0   120.0   16.666666666666668
200.0   90.0   33.333333333333336
250.0   90.0   33.333333333333336
200.0   120.0   33.333333333333336
200.0   90.0   50.0
250.0   90.0   33.333333333333336
250.0   120.0   33.333333333333336
200.0   120.0   33.333333333333336
250.0   120.0   50.0
200.0   90.0   50.0
200.0   120.0   50.0
250.0   120.0   50.0
200.0   120.0   33.333333333333336
200.0   90.0   50.0
250.0   120.0   50.0
250.0   90.0   50.0
250.0   90.0   33.333333333333336
200.0   90.0   50.0
250.0   120.0   50.0
250.0   90.0   33.333333333333336
200.0   120.0   33.333333333333336
200.0   120.0   0.0
250.0   120.0   0.0
200.0   150.0   0.0
200.0   120.0   16.666666666666668
250.0   120.0   0.0
250.0   150.0   0.0
200.0   150.0   0.0
250.0   150.0   16.666666666666668
200.0   120.0   16.666666666666668
200.0   150.0   16.666666666666668
250.0   150.0   16.666666666666668
200.0   150.0   0.0
200.0   120.0   16.666666666666668
250.0   150.0   16.666666666666668
250.0   120.0   16.666666666666668
250.0   120.0   0.0
200.0   120.0   16.666666666666668
250.0   150.0   16.666666666666668
250.0   120.0   0.0
200.0   150.0   0.0
200.0   120.0   16.666666666666668
250.0   120.0   16.666666666666668
200.0   150.0   16.666666666666668
200.0   120.0   33.333333333333336
250.0   120.0   16.666666666666668
250.0   150.0   16.666666666666668
200.0   150.0   16.666666666666668
250.0   150.0   33.333333333333336
200.0   120.0   33.333333333333336
200.0   150.0   33.333333333333336
250.0   150.0   33.333333333333336
200.0   150.0   16.666666666666668
200.0   120.0   33.333333333333336
250.0   150.0   33.333333333333336
250.0   120.0   33.333333333333336
250.0   120.0   16.666666666666668
200.0   120.0   33.333333333333336
250.0   150.0   33.333333333333336
250.0   120.0   16.666666666666668
200.0   150.0   16.666666666666668
200.0   120.0   33.333333333333336
250.0   120.0   33.333333333333336
200.0   150.0   33.333333333333336
200.0   120.0   50.0
250.0   120.0   33.333333333333336
250.0   150.0   33.333333333333336
200.0   150.0   33.333333333333336
250.0   150.0   50.0
200.0   120.0   50.0
200.0   150.0   50.0
250.0   150.0   50.0
200.0   150.0   33.333333333333336
200.0   120.0   50.0
250.0   150.0   50.0
250.0   120.0   50.0
250.0   120.0   33.333333333333336
200.0   120.0   50.0
250.0   150.0   50.0
250.0   120.0   33.333333333333336
200.0   150.0   33.333333333333336
250.0   0.0   0.0
300.0   0.0   0.0
250.0   30.0   0.0
250.0   0.0   16.666666666666668
300.0   0.0   0.0
300.0   30.0   0.0
250.0   30.0   0.0
300.0   30.0   16.666666666666668
250.0   0.0   16.666666666666668
250.0   30.0   16.666666666666668
300.0   30.0   16.666666666666668
250.0   30.0   0.0
250.0   0.0   16.666666666666668
300.0   30.0   16.666666666666668
300.0   0.0   16.666666666666668
300.0   0.0   0.0
250.0   0.0   16.666666666666668
300.0   30.0   16.666666666666668
300.0   0.0   0.0
250.0   30.0   0.0
250.0   0.0   16.666666666666668
300.0   0.0   16.666666666666668
250.0   30.0   16.666666666666668
250.0   0.0   33.333333333333336
300.0   0.0   16.666666666666668
300.0   30.0   16.666666666666668
250.0   30.0   16.666666666666668
300.0   30.0   33.333333333333336
250.0   0.0   33.333333333333336
250.0   30.0   33.333333333333336
300.0   30.0   33.333333333333336
250.0   30.0   16.666666666666668
250.0   0.0   33.333333333333336
300.0   30.0   33.333333333333336
300.0   0.0   33.333333333333336
300.0   0.0   16.666666666666668
250.0   0.0   33.333333333333336
300.0   30.0   33.333333333333336
300.0   0.0   16.666666666666668
250.0   30.0   16.666666666666668
250.0   0.0   33.333333333333336
300.0   0.0   33.333333333333336
250.0   30.0   33.333333333333336
250.0   0.0   50.0
300.0   0.0   33.333333333333336
300.0   30.0   33.333333333333336
250.0   30.0   33.333333333333336
300.0   30.0   50.0
250.0   0.0   50.0
250.0   30.0   50.0
300.0   30.0   50.0
250.0   30.0   33.333333333333336
250.0   0.0   50.0
300.0   30.0   50.0
300.0   0.0   50.0
300.0   0.0   33.333333333333336
250.0   0.0   50.0
300.0   30.0   50.0
300.0   0.0   33.333333333333336
250.0   30.0   33.333333333333336
250.0   30.0   0.0
300.0   30.0   0.0
250.0   60.0   0.0
250.0   30.0   16.666666666666668
300.0   30.0   0.0
300.0   60.0   0.0
250.0   60.0   0.0
300.0   60.0   16.666666666666668
250.0   30.0   16.666666666666668
250.0   60.0   16.666666666666668
300.0   60.0   16.666666666666668
250.0   60.0   0.0
250.0   30.0   16.666666666666668
300.0   60.0   16.666666666666668
300.0   30.0   16.666666666666668
300.0   30.0   0.0
250.0   30.0   16.666666666666668
300.0   60.0   16.666666666666668
300.0   30.0   0.0
250.0   60.0   0.0
250.0   30.0   16.666666666666668
300.0   30.0   16.666666666666668
250.0   60.0   16.666666666666668
250.0   30.0   33.333333333333336
300.0   30.0   16.666666666666668
300.0   60.0   16.666666666666668
250.0   60.0   16.666666666666668
300.0   60.0   33.333333333333336
250.0   30.0   33.333333333333336
250.0   60.0   33.333333333333336
300.0   60.0   33.333333333333336
250.0   60.0   16.666666666666668
250.0   30.0   33.333333333333336
300.0   60.0   33.333333333333336
300.0   30.0   33.333333333333336
300.0   30.0   16.666666666666668
250.0   30.0   33.333333333333336
300.0   60.0   33.333333333333336
300.0   30.0   16.666666666666668
250.0   60.0   16.666666666666668
250.0   30.0   33.333333333333336
300.0   30.0   33.333333333333336
250.0   60.0   33.333333333333336
250.0   30.0   50.0
300.0   30.0   33.333333333333336
300.0   60.0   33.333333333333336
250.0   60.0   33.333333333333336
300.0   60.0   50.0
250.0   30.0   50.0
250.0   60.0   50.0
300.0   60.0   50.0
250.0   60.0   33.333333333333336
250.0   30.0   50.0
300.0   60.0   50.0
300.0   30.0   50.0
300.0   30.0   33.333333333333336
250.0   30.0   50.0
300.0   60.0   50.0
300.0   30.0   33.333333333333336
250.0   60.0   33.333333333333336
250.0   60.0   0.0
300.0   60.0   0.0
250.0   90.0   0.0
250.0   60.0   16.666666666666668
300.0   60.0   0.0
300.0   90.0   0.0
250.0   90.0   0.0
300.0   90.0   16.666666666666668
250.0   60.0   16.666666666666668
250.0   90.0   16.666666666666668
300.0   90.0   16.666666666666668
250.0   90.0   0.0
250.0   60.0   16.666666666666668
300.0   90.0   16.666666666666668
300.0   60.0   16.666666666666668
300.0   60.0   0.0
250.0   60.0   16.666666666666668
300.0   90.0   16.666666666666668
300.0   60.0   0.0
250.0   90.0   0.0
250.0   60.0   16.666666666666668
300.0   60.0   16.666666666666668
250.0   90.0   16.666666666666668
250.0   60.0   33.333333333333336
300.0   60.0   16.666666666666668
300.0   90.0   16.666666666666668
250.0   90.0   16.666666666666668
300.0   90.0   33.333333333333336
250.0   60.0   33.333333333333336
250.0   90.0   33.333333333333336
300.0   90.0   33.333333333333336
250.0   90.0   16.666666666666668
250.0   60.0   33.333333333333336
300.0   90.0   33.333333333333336
300.0   60.0   33.333333333333336
300.0   60.0   16.666666666666668
250.0   60.0   33.333333333333336
300.0   90.0   33.333333333333336
300.0   60.0   16.666666666666668
250.0   90.0   16.666666666666668
250.0   60.0   33.333333333333336
300.0   60.0   33.333333333333336
250.0   90.0   33.333333333333336
250.0   60.0   50.0
300.0   60.0   33.333333333333336
300.0   90.0   33.333333333333336
250.0   90.0   33.333333333333336
300.0   90.0   50.0
250.0   60.0   50.0
250.0   90.0   50.0
300.0   90.0   50.0
250.0   90.0   33.333333333333336
250.0   60.0   50.0
300.0   90.0   50.0
300.0   60.0   50.0
300.0   60.0   33.333333333333336
250.0   60.0   50.0
300.0   90.0   50.0
300.0   60.0   33.333333333333336
250.0   90.0   33.333333333333336
250.0   90.0   0.0
300.0   90.0   0.0
250.0   120.0   0.0
250.0   90.0   16.666666666666668
300.0   90.0   0.0
300.0   120.0   0.0
250.0   120.0   0.0
300.0   120.0   16.666666666666668
250.0   90.0   16.666666666666668
250.0   120.0   16.666666666666668
300.0   120.0   16.666666666666668
250.0   120.0   0.0
250.0   90.0   16.666666666666668
300.0   120.0   16.666666666666668
300.0   90.0   16.666666666666668
300.0   90.0   0.0
250.0   90.0   16.666666666666668
300.0   120.0   16.666666666666668
300.0   90.0   0.0
250.0   120.0   0.0
250.0   90.0   16.666666666666668
300.0   90.0   16.666666666666668
250.0   120.0   16.666666666666668
250.0   90.0   33.333333333333336
300.0   90.0   16.666666666666668
300.0   120.0   16.666666666666668
250.0   120.0   16.666666666666668
300.0   120.0   33.333333333333336
250.0   90.0   33.333333333333336
250.0   120.0   33.333333333333336
300.0   120.0   33.333333333333336
250.0   120.0   16.666666666666668
250.0   90.0   33.333333333333336
300.0   120.0   33.333333333333336
300.0   90.0   33.333333333333336
300.0   90.0   16.666666666666668
250.0   90.0   33.333333333333336
300.0   120.0   33.333333333333336
300.0   90.0   16.666666666666668
250.0   120.0   16.666666666666668
250.0   90.0   33.333333333333336
300.0   90.0   33.333333333333336
250.0   120.0   33.333333333333336
250.0   90.0   50.0
300.0   90.0   33.333333333333336
300.0   120.0   33.333333333333336
250.0   120.0   33.333333333333336
300.0   120.0   50.0
250.0   90.0   50.0
250.0   120.0   50.0
300.0   120.0   50.0
250.0   120.0   33.333333333333336
250.0   90.0   50.0
300.0   120.0   50.0
300.0   90.0   50.0
300.0   90.0   33.333333333333336
250.0   90.0   50.0
300.0   120.0   50.0
300.0   90.0   33.333333333333336
250.0   120.0   33.333333333333336
250.0   120.0   0.0
300.0   120.0   0.0
250.0   150.0   0.0
250.0   120.0   16.666666666666668
300.0   120.0   0.0
300.0   150.0   0.0
250.0   150.0   0.0
300.0   150.0   16.666666666666668
250.0   120.0   16.666666666666668
250.0   150.0   16.666666666666668
300.0   150.0   16.666666666666668
250.0   150.0   0.0
250.0   120.0   16.666666666666668
300.0   150.0   16.666666666666668
300.0   120.0   16.666666666666668
300.0   120.0   0.0
250.0   120.0   16.666666666666668
300.0   150.0   16.666666666666668
300.0   120.0   0.0
250.0   150.0   0.0
250.0   120.0   16.666666666666668
300.0   120.0   16.666666666666668
250.0   150.0   16.666666666666668
250.0   120.0   33.333333333333336
300.0   120.0   16.666666666666668
300.0   150.0   16.666666666666668
250.0   150.0   16.666666666666668
300.0   150.0   33.333333333333336
250.0   120.0   33.333333333333336
250.0   150.0   33.333333333333336
300.0   150.0   33.333333333333336
250.0   150.0   16.666666666666668
250.0   120.0   33.333333333333336
300.0   150.0   33.333333333333336
300.0   120.0   33.333333333333336
300.0   120.0   16.666666666666668
250.0   120.0   33.333333333333336
300.0   150.0   33.333333333333336
300.0   120.0   16.666666666666668
250.0   150.0   16.666666666666668
250.0   120.0   33.333333333333336
300.0   120.0   33.333333333333336
250.0   150.0   33.333333333333336
250.0   120.0   50.0
300.0   120.0   33.333333333333336
300.0   150.0   33.333333333333336
250.0   150.0   33.333333333333336
300.0   150.0   50.0
250.0   120.0   50.0
250.0   150.0   50.0
300.0   150.0   50.0
250.0   150.0   33.333333333333336
250.0   120.0   50.0
300.0   150.0   50.0
300.0   120.0   50.0
300.0   120.0   33.333333333333336
250.0   120.0   50.0
300.0   150.0   50.0
300.0   120.0   33.333333333333336
250.0   150.0   33.333333333333336
300.0   0.0   0.0
350.0   0.0   0.0
300.0   30.0   0.0
300.0   0.0   16.666666666666668
350.0   0.0   0.0
350.0   30.0   0.0
300.0   30.0   0.0
350.0   30.0   16.666666666666668
300.0   0.0   16.666666666666668
300.0   30.0   16.666666666666668
350.0   30.0   16.666666666666668
300.0   30.0   0.0
300.0   0.0   16.666666666666668
350.0   30.0   16.666666666666668
350.0   0.0   16.666666666666668
350.0   0.0   0.0
300.0   0.0   16.666666666666668
350.0   30.0   16.666666666666668
350.0   0.0   0.0
300.0   30.0   0.0
300.0   0.0   16.666666666666668
350.0   0.0   16.666666666666668
300.0   30.0   16.666666666666668
300.0   0.0   33.333333333333336
350.0   0.0   16.666666666666668
350.0   30.0   16.666666666666668
300.0   30.0   16.666666666666668
350.0   30.0   33.333333333333336
300.0   0.0   33.333333333333336
300.0   30.0   33.333333333333336
350.0   30.0   33.333333333333336
300.0   30.0   16.666666666666668
300.0   0.0   33.333333333333336
350.0   30.0   33.333333333333336
350.0   0.0   33.333333333333336
350.0   0.0   16.666666666666668
300.0   0.0   33.333333333333336
350.0   30.0   33.333333333333336
350.0   0.0   16.666666666666668
300.0   30.0   16.666666666666668
300.0   0.0   33.333333333333336
350.0   0.0   33.333333333333336
300.0   30.0   33.333333333333336
300.0   0.0   50.0
350.0   0.0   33.333333333333336
350.0   30.0   33.333333333333336
300.0   30.0   33.333333333333336
350.0   30.0   50.0
300.0   0.0   50.0
300.0   30.0   50.0
350.0   30.0   50.0
300.0   30.0   33.333333333333336
300.0   0.0   50.0
350.0   30.0   50.0
350.0   0.0   50.0
350.0   0.0   33.333333333333336
300.0   0.0   50.0
350.0   30.0   50.0
350.0   0.0   33.333333333333336
300.0   30.0   33.333333333333336
300.0   30.0   0.0
350.0   30.0   0.0
300.0   60.0   0.0
300.0   30.0   16.666666666666668
350.0   30.0   0.0
350.0   60.0   0.0
300.0   60.0   0.0
350.0   60.0   16.666666666666668
300.0   30.0   16.666666666666668
300.0   60.0   16.666666666666668
350.0   60.0   16.666666666666668
300.0   60.0   0.0
300.0   30.0   16.666666666666668
350.0   60.0   16.666666666666668
350.0   30.0   16.666666666666668
350.0   30.0   0.0
300.0   30.0   16.666666666666668
350.0   60.0   16.666666666666668
350.0   30.0   0.0
300.0   60.0   0.0
300.0   30.0   16.666666666666668
350.0   30.0   16.666666666666668
300.0   60.0   16.666666666666668
300.0   30.0   33.333333333333336
350.0   30.0   16.666666666666668
350.0   60.0   16.666666666666668
300.0   60.0   16.666666666666668
350.0   60.0   33.333333333333336
300.0   30.0   33.333333333333336
300.0   60.0   33.333333333333336
350.0   60.0   33.333333333333336
300.0   60.0   16.666666666666668
300.0   30.0   33.333333333333336
350.0   60.0   33.333333333333336
350.0   30.0   33.333333333333336
350.0   30.0   16.666666666666668
300.0   30.0   33.333333333333336
350.0   60.0   33.333333333333336
350.0   30.0   16.666666666666668
300.0   60.0   16.666666666666668
300.0   30.0   33.333333333333336
350.0   30.0   33.333333333333336
300.0   60.0   33.333333333333336
300.0   30.0   50.0
350.0   30.0   33.333333333333336
350.0   60.0   33.333333333333336
300.0   60.0   33.333333333333336
350.0   60.0   50.0
300.0   30.0   50.0
300.0   60.0   50.0
350.0   60.0   50.0
300.0   60.0   33.333333333333336
300.0   30.0   50.0
350.0   60.0   50.0
350.0   30.0   50.0
350.0   30.0   33.333333333333336
300.0   30.0   50.0
350.0   60.0   50.0
350.0   30.0   33.333333333333336
300.0   60.0   33.333333333333336
300.0   60.0   0.0
350.0   60.0   0.0
300.0   90.0   0.0
300.0   60.0   16.666666666666668
350.0   60.0   0.0
350.0   90.0   0.0
300.0   90.0   0.0
350.0   90.0   16.666666666666668
300.0   60.0   16.666666666666668
300.0   90.0   16.666666666666668
350.0   90.0   16.666666666666668
300.0   90.0   0.0
300.0   60.0   16.666666666666668
350.0   90.0   16.666666666666668
350.0   60.0   16.666666666666668
350.0   60.0   0.0
300.0   60.0   16.666666666666668
350.0   90.0   16.666666666666668
350.0   60.0   0.0
300.0   90.0   0.0
300.0   60.0   16.666666666666668
350.0   60.0   16.666666666666668
300.0   90.0   16.666666666666668
300.0   60.0   33.333333333333336
350.0   60.0   16.666666666666668
350.0   90.0   16.666666666666668
300.0   90.0   16.666666666666668
350.0   90.0   33.333333333333336
300.0   60.0   33.333333333333336
300.0   90.0   33.333333333333336
350.0   90.0   33.333333333333336
300.0   90.0   16.666666666666668
300.0   60.0   33.333333333333336
350.0   90.0   33.333333333333336
350.0   60.0   33.333333333333336
350.0   60.0   16.666666666666668
300.0   60.0   33.333333333333336
350.0   90.0   33.333333333333336
350.0   60.0   16.666666666666668
300.0   90.0   16.666666666666668
300.0   60.0   33.333333333333336
350.0   60.0   33.333333333333336
300.0   90.0   33.333333333333336
300.0   60.0   50.0
350.0   60.0   33.333333333333336
350.0   90.0   33.333333333333336
300.0   90.0   33.333333333333336
350.0   90.0   50.0
300.0   60.0   50.0
300.0   90.0   50.0
350.0   90.0   50.0
300.0   90.0   33.333333333333336
300.0   60.0   50.0
350.0   90.0   50.0
350.0   60.0   50.0
350.0   60.0   33.333333333333336
300.0   60.0   50.0
350.0   90.0   50.0
350.0   60.0   33.333333333333336
300.0   90.0   33.333333333333336
300.0   90.0   0.0
350.0   90.0   0.0
300.0   120.0   0.0
300.0   90.0   16.666666666666668
350.0   90.0   0.0
350.0   120.0   0.0
300.0   120.0   0.0
350.0   120.0   16.666666666666668
300.0   90.0   16.666666666666668
300.0   120.0   16.666666666666668
350.0   120.0   16.666666666666668
300.0   120.0   0.0
300.0   90.0   16.666666666666668
350.0   120.0   16.666666666666668
350.0   90.0   16.666666666666668
350.0   90.0   0.0
300.0   90.0   16.666666666666668
350.0   120.0   16.666666666666668
350.0   90.0   0.0
300.0   120.0   0.0
300.0   90.0   16.666666666666668
350.0   90.0   16.666666666666668
300.0   120.0   16.666666666666668
300.0   90.0   33.333333333333336
350.0   90.0   16.666666666666668
350.0   120.0   16.666666666666668
300.0   120.0   16.666666666666668
350.0   120.0   33.333333333333336
300.0   90.0   33.333333333333336
300.0   120.0   33.333333333333336
350.0   120.0   33.333333333333336
300.0   120.0   16.666666666666668
300.0   90.0   33.333333333333336
350.0   120.0   33.333333333333336
350.0   90.0   33.333333333333336
350.0   90.0   16.666666666666668
300.0   90.0   33.333333333333336
350.0   120.0   33.333333333333336
350.0   90.0   16.666666666666668
300.0   120.0   16.666666666666668
300.0   90.0   33.333333333333336
350.0   90.0   33.333333333333336
300.0   120.0   33.333333333333336
300.0   90.0   50.0
350.0   90.0   33.333333333333336
350.0   120.0   33.333333333333336
300.0   120.0   33.333333333333336
350.0   120.0   50.0
300.0   90.0   50.0
300.0   120.0   50.0
350.0   120.0   50.0
300.0   120.0   33.333333333333336
300.0   90.0   50.0
350.0   120.0   50.0
350.0   90.0   50.0
350.0   90.0   33.333333333333336
300.0   90.0   50.0
350.0   120.0   50.0
350.0   90.0   33.333333333333336
300.0   120.0   33.333333333333336
300.0   120.0   0.0
350.0   120.0   0.0
300.0   150.0   0.0
300.0   120.0   16.666666666666668
350.0   120.0   0.0
350.0   150.0   0.0
300.0   150.0   0.0
350.0   150.0   16.666666666666668
300.0   120.0   16.666666666666668
300.0   150.0   16.666666666666668
350.0   150.0   16.666666666666668
300.0   150.0   0.0
300.0   120.0   16.666666666666668
350.0   150.0   16.666666666666668
350.0   120.0   16.666666666666668
350.0   120.0   0.0
300.0   120.0   16.666666666666668
350.0   150.0   16.666666666666668
350.0   120.0   0.0
300.0   150.0   0.0
300.0   120.0   16.666666666666668
350.0   120.0   16.666666666666668
300.0   150.0   16.666666666666668
300.0   120.0   33.333333333333336
350.0   120.0   16.666666666666668
350.0   150.0   16.666666666666668
300.0   150.0   16.666666666666668
350.0   150.0   33.333333333333336
300.0   120.0   33.333333333333336
300.0   150.0   33.333333333333336
350.0   150.0   33.333333333333336
300.0   150.0   16.666666666666668
300.0   120.0   33.333333333333336
350.0   150.0   33.333333333333336
350.0   120.0   33.333333333333336
350.0   120.0   16.666666666666668
300.0   120.0   33.333333333333336
350.0   150.0   33.333333333333336
350.0   120.0   16.666666666666668
300.0   150.0   16.666666666666668
300.0   120.0   33.333333333333336
350.0   120.0   33.333333333333336
300.0   150.0   33.333333333333336
300.0   120.0   50.0
350.0   120.0   33.333333333333336
350.0   150.0   33.333333333333336
300.0   150.0   33.333333333333336
350.0   150.0   50.0
300.0   120.0   50.0
300.0   150.0   50.0
350.0   150.0   50.0
300.0   150.0   33.333333333333336
300.0   120.0   50.0
350.0   150.0   50.0
350.0   120.0   50.0
350.0   120.0   33.333333333333336
300.0   120.0   50.0
350.0   150.0   50.0
350.0   120.0   33.333333333333336
300.0   150.0   33.333333333333336
350.0   0.0   0.0
400.0   0.0   0.0
350.0   30.0   0.0
350.0   0.0   16.666666666666668
400.0   0.0   0.0
400.0   30.0   0.0
350.0   30.0   0.0
400.0   30.0   16.666666666666668
350.0   0.0   16.666666666666668
350.0   30.0   16.666666666666668
400.0   30.0   16.666666666666668
350.0   30.0   0.0
350.0   0.0   16.666666666666668
400.0   30.0   16.666666666666668
400.0   0.0   16.666666666666668
400.0   0.0   0.0
350.0   0.0   16.666666666666668
400.0   30.0   16.666666666666668
400.0   0.0   0.0
350.0   30.0   0.0
350.0   0.0   16.666666666666668
400.0   0.0   16.666666666666668
350.0   30.0   16.666666666666668
350.0   0.0   33.333333333333336
400.0   0.0   16.666666666666668
400.0   30.0   16.666666666666668
350.0   30.0   16.666666666666668
400.0   30.0   33.333333333333336
350.0   0.0   33.333333333333336
350.0   30.0   33.333333333333336
400.0   30.0   33.333333333333336
350.0   30.0   16.666666666666668
350.0   0.0   33.333333333333336
400.0   30.0   33.333333333333336
400.0   0.0   33.333333333333336
400.0   0.0   16.666666666666668
350.0   0.0   33.333333333333336
400.0   30.0   33.333333333333336
400.0   0.0   16.666666666666668
350.0   30.0   16.666666666666668
350.0   0.0   33.333333333333336
400.0   0.0   33.333333333333336
350.0   30.0   33.333333333333336
350.0   0.0   50.0
400.0   0.0   33.333333333333336
400.0   30.0   33.333333333333336
350.0   30.0   33.333333333333336
400.0   30.0   50.0
350.0   0.0   50.0
350.0   30.0   50.0
400.0   30.0   50.0
350.0   30.0   33.333333333333336
350.0   0.0   50.0
400.0   30.0   50.0
400.0   0.0   50.0
400.0   0.0   33.333333333333336
350.0   0.0   50.0
400.0   30.0   50.0
400.0   0.0   33.333333333333336
350.0   30.0   33.333333333333336
350.0   30.0   0.0
400.0   30.0   0.0
350.0   60.0   0.0
350.0   30.0   16.666666666666668
400.0   30.0   0.0
400.0   60.0   0.0
350.0   60.0   0.0
400.0   60.0   16.666666666666668
350.0   30.0   16.666666666666668
350.0   60.0   16.666666666666668
400.0   60.0   16.666666666666668
350.0   60.0   0.0
350.0   30.0   16.666666666666668
400.0   60.0   16.666666666666668
400.0   30.0   16.666666666666668
400.0   30.0   0.0
350.0   30.0   16.666666666666668
400.0   60.0   16.666666666666668
400.0   30.0   0.0
350.0   60.0   0.0
350.0   30.0   16.666666666666668
400.0   30.0   16.666666666666668
350.0   60.0   16.666666666666668
350.0   30.0   33.333333333333336
400.0   30.0   16.666666666666668
400.0   60.0   16.666666666666668
350.0   60.0   16.666666666666668
400.0   60.0   33.333333333333336
350.0   30.0   33.333333333333336
350.0   60.0   33.333333333333336
400.0   60.0   33.333333333333336
350.0   60.0   16.666666666666668
350.0   30.0   33.333333333333336
400.0   60.0   33.333333333333336
400.0   30.0   33.333333333333336
400.0   30.0   16.666666666666668
350.0   30.0   33.333333333333336
400.0   60.0   33.333333333333336
400.0   30.0   16.666666666666668
350.0   60.0   16.666666666666668
350.0   30.0   33.333333333333336
400.0   30.0   33.333333333333336
350.0   60.0   33.333333333333336
350.0   30.0   50.0
400.0   30.0   33.333333333333336
400.0   60.0   33.333333333333336
350.0   60.0   33.333333333333336
400.0   60.0   50.0
350.0   30.0   50.0
350.0   60.0   50.0
400.0   60.0   50.0
350.0   60.0   33.333333333333336
350.0   30.0   50.0
400.0   60.0   50.0
400.0   30.0   50.0
400.0   30.0   33.333333333333336
350.0   30.0   50.0
400.0   60.0   50.0
400.0   30.0   33.333333333333336
350.0   60.0   33.333333333333336
350.0   60.0   0.0
400.0   60.0   0.0
350.0   90.0   0.0
350.0   60.0   16.666666666666668
400.0   60.0   0.0
400.0   90.0   0.0
350.0   90.0   0.0
400.0   90.0   16.666666666666668
350.0   60.0   16.666666666666668
350.0   90.0   16.666666666666668
400.0   90.0   16.666666666666668
350.0   90.0   0.0
350.0   60.0   16.666666666666668
400.0   90.0   16.666666666666668
400.0   60.0   16.666666666666668
400.0   60.0   0.0
350.0   60.0   16.666666666666668
400.0   90.0   16.666666666666668
400.0   60.0   0.0
350.0   90.0   0.0
350.0   60.0   16.666666666666668
400.0   60.0   16.666666666666668
350.0   90.0   16.666666666666668
350.0   60.0   33.333333333333336
400.0   60.0   16.666666666666668
400.0   90.0   16.666666666666668
350.0   90.0   16.666666666666668
400.0   90.0   33.333333333333336
350.0   60.0   33.333333333333336
350.0   90.0   33.333333333333336
400.0   90.0   33.333333333333336
350.0   90.0   16.666666666666668
350.0   60.0   33.333333333333336
400.0   90.0   33.333333333333336
400.0   60.0   33.333333333333336
400.0   60.0   16.666666666666668
350.0   60.0   33.333333333333336
400.0   90.0   33.333333333333336
400.0   60.0   16.666666666666668
350.0   90.0   16.666666666666668
350.0   60.0   33.333333333333336
400.0   60.0   33.333333333333336
350.0   90.0   33.333333333333336
350.0   60.0   50.0
400.0   60.0   33.333333333333336
400.0   90.0   33.333333333333336
350.0   90.0   33.333333333333336
400.0   90.0   50.0
350.0   60.0   50.0
350.0   90.0   50.0
400.0   90.0   50.0
350.0   90.0   33.333333333333336
350.0   60.0   50.0
400.0   90.0   50.0
400.0   60.0   50.0
400.0   60.0   33.333333333333336
350.0   60.0   50.0
400.0   90.0   50.0
400.0   60.0   33.333333333333336
350.0   90.0   33.333333333333336
350.0   90.0   0.0
400.0   90.0   0.0
350.0   120.0   0.0
350.0   90.0   16.666666666666668
400.0   90.0   0.0
400.0   120.0   0.0
350.0   120.0   0.0
400.0   120.0   16.666666666666668
350.0   90.0   16.666666666666668
350.0   120.0   16.666666666666668
400.0   120.0   16.666666666666668
350.0   120.0   0.0
350.0   90.0   16.666666666666668
400.0   120.0   16.666666666666668
400.0   90.0   16.666666666666668
400.0   90.0   0.0
350.0   90.0   16.666666666666668
400.0   120.0   16.666666666666668
400.0   90.0   0.0
350.0   120.0   0.0
350.0   90.0   16.666666666666668
400.0   90.0   16.666666666666668
350.0   120.0   16.666666666666668
350.0   90.0   33.333333333333336
400.0   90.0   16.666666666666668
400.0   120.0   16.666666666666668
350.0   120.0   16.666666666666668
400.0   120.0   33.333333333333336
350.0   90.0   33.333333333333336
350.0   120.0   33.333333333333336
400.0   120.0   33.333333333333336
350.0   120.0   16.666666666666668
350.0   90.0   33.333333333333336
400.0   120.0   33.333333333333336
400.0   90.0   33.333333333333336
400.0   90.0   16.666666666666668
350.0   90.0   33.333333333333336
400.0   120.0   33.333333333333336
400.0   90.0   16.666666666666668
350.0   120.0   16.666666666666668
350.0   90.0   33.333333333333336
400.0   90.0   33.333333333333336
350.0   120.0   33.333333333333336
350.0   90.0   50.0
400.0   90.0   33.333333333333336
400.0   120.0   33.333333333333336
350.0   120.0   33.333333333333336
400.0   120.0   50.0
350.0   90.0   50.0
350.0   120.0   50.0
400.0   120.0   50.0
350.0   120.0   33.333333333333336
350.0   90.0   50.0
400.0   120.0   50.0
400.0   90.0   50.0
400.0   90.0   33.333333333333336
350.0   90.0   50.0
400.0   120.0   50.0
400.0   90.0   33.333333333333336
350.0   120.0   33.333333333333336
350.0   120.0   0.0
400.0   120.0   0.0
350.0   150.0   0.0
350.0   120.0   16.666666666666668
400.0   120.0   0.0
400.0   150.0   0.0
350.0   150.0   0.0
400.0   150.0   16.666666666666668
350.0   120.0   16.666666666666668
350.0   150.0   16.666666666666668
400.0   150.0   16.666666666666668
350.0   150.0   0.0
350.0   120.0   16.666666666666668
400.0   150.0   16.666666666666668
400.0   120.0   16.666666666666668
400.0   120.0   0.0
350.0   120.0   16.666666666666668
400.0   150.0   16.666666666666668
400.0   120.0   0.0
350.0   150.0   0.0
350.0   120.0   16.666666666666668
400.0   120.0   16.666666666666668
350.0   150.0   16.666666666666668
350.0   120.0   33.333333333333336
400.0   120.0   16.666666666666668
400.0   150.0   16.666666666666668
350.0   150.0   16.666666666666668
400.0   150.0   33.333333333333336
350.0   120.0   33.333333333333336
350.0   150.0   33.333333333333336
400.0   150.0   33.333333333333336
350.0   150.0   16.666666666666668
350.0   120.0   33.333333333333336
400.0   150.0   33.333333333333336
400.0   120.0   33.333333333333336
400.0   120.0   16.666666666666668
350.0   120.0   33.333333333333336
400.0   150.0   33.333333333333336
400.0   120.0   16.666666666666668
350.0   150.0   16.666666666666668
350.0   120.0   33.333333333333336
400.0   120.0   33.333333333333336
350.0   150.0   33.333333333333336
350.0   120.0   50.0
400.0   120.0   33.333333333333336
400.0   150.0   33.333333333333336
350.0   150.0   33.333333333333336
400.0   150.0   50.0
350.0   120.0   50.0
350.0   150.0   50.0
400.0   150.0   50.0
350.0   150.0   33.333333333333336
350.0   120.0   50.0
400.0   150.0   50.0
400.0   120.0   50.0
400.0   120.0   33.333333333333336
350.0   120.0   50.0
400.0   150.0   50.0
400.0   120.0   33.333333333333336
350.0   150.0   33.333333333333336
400.0   0.0   0.0
450.0   0.0   0.0
400.0   30.0   0.0
400.0   0.0   16.666666666666668
450.0   0.0   0.0
450.0   30.0   0.0
400.0   30.0   0.0
450.0   30.0   16.666666666666668
400.0   0.0   16.666666666666668
400.0   30.0   16.666666666666668
450.0   30.0   16.666666666666668
400.0   30.0   0.0
400.0   0.0   16.666666666666668
450.0   30.0   16.666666666666668
450.0   0.0   16.666666666666668
450.0   0.0   0.0
400.0   0.0   16.666666666666668
450.0   30.0   16.666666666666668
450.0   0.0   0.0
400.0   30.0   0.0
400.0   0.0   16.666666666666668
450.0   0.0   16.666666666666668
400.0   30.0   16.666666666666668
400.0   0.0   33.333333333333336
450.0   0.0   16.666666666666668
450.0   30.0   16.666666666666668
400.0   30.0   16.666666666666668
450.0   30.0   33.333333333333336
400.0   0.0   33.333333333333336
400.0   30.0   33.333333333333336
450.0   30.0   33.333333333333336
400.0   30.0   16.666666666666668
400.0   0.0   33.333333333333336
450.0   30.0   33.333333333333336
450.0   0.0   33.333333333333336
450.0   0.0   16.666666666666668
400.0   0.0   33.333333333333336
450.0   30.0   33.333333333333336
450.0   0.0   16.666666666666668
400.0   30.0   16.666666666666668
400.0   0.0   33.333333333333336
450.0   0.0   33.333333333333336
400.0   30.0   33.333333333333336
400.0   0.0   50.0
450.0   0.0   33.333333333333336
450.0   30.0   33.333333333333336
400.0   30.0   33.333333333333336
450.0   30.0   50.0
400.0   0.0   50.0
400.0   30.0   50.0
450.0   30.0   50.0
400.0   30.0   33.333333333333336
400.0   0.0   50.0
450.0   30.0   50.0
450.0   0.0   50.0
450.0   0.0   33.333333333333336
400.0   0.0   50.0
450.0   30.0   50.0
450.0   0.0   33.333333333333336
400.0   30.0   33.333333333333336
400.0   30.0   0.0
450.0   30.0   0.0
400.0   60.0   0.0
400.0   30.0   16.666666666666668
450.0   30.0   0.0
450.0   60.0   0.0
400.0   60.0   0.0
450.0   60.0   16.666666666666668
400.0   30.0   16.666666666666668
400.0   60.0   16.666666666666668
450.0   60.0   16.666666666666668
400.0   60.0   0.0
400.0   30.0   16.666666666666668
450.0   60.0   16.666666666666668
450.0   30.0   16.666666666666668
450.0   30.0   0.0
400.0   30.0   16.666666666666668
450.0   60.0   16.666666666666668
450.0   30.0   0.0
400.0   60.0   0.0
400.0   30.0   16.666666666666668
450.0   30.0   16.666666666666668
400.0   60.0   16.666666666666668
400.0   30.0   33.333333333333336
450.0   30.0   16.666666666666668
450.0   60.0   16.666666666666668
400.0   60.0   16.666666666666668
450.0   60.0   33.333333333333336
400.0   30.0   33.333333333333336
400.0   60.0   33.333333333333336
450.0   60.0   33.333333333333336
400.0   60.0   16.666666666666668
400.0   30.0   33.333333333333336
450.0   60.0   33.333333333333336
450.0   30.0   33.333333333333336
450.0   30.0   16.666666666666668
400.0   30.0   33.333333333333336
450.0   60.0   33.333333333333336
450.0   30.0   16.666666666666668
400.0   60.0   16.666666666666668
400.0   30.0   33.333333333333336
450.0   30.0   33.333333333333336
400.0   60.0   33.333333333333336
400.0   30.0   50.0
450.0   30.0   33.333333333333336
450.0   60.0   33.333333333333336
400.0   60.0   33.333333333333336
450.0   60.0   50.0
400.0   30.0   50.0
400.0   60.0   50.0
450.0   60.0   50.0
400.0   60.0   33.333333333333336
400.0   30.0   50.0
450.0   60.0   50.0
450.0   30.0   50.0
450.0   30.0   33.333333333333336
400.0   30.0   50.0
450.0   60.0   50.0
450.0   30.0   33.333333333333336
400.0   60.0   33.333333333333336
400.0   60.0   0.0
450.0   60.0   0.0
400.0   90.0   0.0
400.0   60.0   16.666666666666668
450.0   60.0   0.0
450.0   90.0   0.0
400.0   90.0   0.0
450.0   90.0   16.666666666666668
400.0   60.0   16.666666666666668
400.0   90.0   16.666666666666668
450.0   90.0   16.666666666666668
400.0   90.0   0.0
400.0   60.0   16.666666666666668
450.0   90.0   16.666666666666668
450.0   60.0   16.666666666666668
450.0   60.0   0.0
400.0   60.0   16.666666666666668
450.0   90.0   16.666666666666668
450.0   60.0   0.0
400.0   90.0   0.0
400.0   60.0   16.666666666666668
450.0   60.0   16.666666666666668
400.0   90.0   16.666666666666668
400.0   60.0   33.333333333333336
450.0   60.0   16.666666666666668
450.0   90.0   16.666666666666668
400.0   90.0   16.666666666666668
450.0   90.0   33.333333333333336
400.0   60.0   33.333333333333336
400.0   90.0   33.333333333333336
450.0   90.0   33.333333333333336
400.0   90.0   16.666666666666668
400.0   60.0   33.333333333333336
450.0   90.0   33.333333333333336
450.0   60.0   33.333333333333336
450.0   60.0   16.666666666666668
400.0   60.0   33.333333333333336
450.0   90.0   33.333333333333336
450.0   60.0   16.666666666666668
400.0   90.0   16.666666666666668
400.0   60.0   33.333333333333336
450.0   60.0   33.333333333333336
400.0   90.0   33.333333333333336
400.0   60.0   50.0
450.0   60.0   33.333333333333336
450.0   90.0   33.333333333333336
400.0   90.0   33.333333333333336
450.0   90.0   50.0
400.0   60.0   50.0
400.0   90.0   50.0
450.0   90.0   50.0
400.0   90.0   33.333333333333336
400.0   60.0   50.0
450.0   90.0   50.0
450.0   60.0   50.0
450.0   60.0   33.333333333333336
400.0   60.0   50.0
450.0   90.0   50.0
450.0   60.0   33.333333333333336
400.0   90.0   33.333333333333336
400.0   90.0   0.0
450.0   90.0   0.0
400.0   120.0   0.0
400.0   90.0   16.666666666666668
450.0   90.0   0.0
450.0   120.0   0.0
400.0   120.0   0.0
450.0   120.0   16.666666666666668
400.0   90.0   16.666666666666668
400.0   120.0   16.666666666666668
450.0   120.0   16.666666666666668
400.0   120.0   0.0
400.0   90.0   16.666666666666668
450.0   120.0   16.666666666666668
450.0   90.0   16.666666666666668
450.0   90.0   0.0
400.0   90.0   16.666666666666668
450.0   120.0   16.666666666666668
450.0   90.0   0.0
400.0   120.0   0.0
400.0   90.0   16.666666666666668
450.0   90.0   16.666666666666668
400.0   120.0   16.666666666666668
400.0   90.0   33.333333333333336
450.0   90.0   16.666666666666668
450.0   120.0   16.666666666666668
400.0   120.0   16.666666666666668
450.0   120.0   33.333333333333336
400.0   90.0   33.333333333333336
400.0   120.0   33.333333333333336
450.0   120.0   33.333333333333336
400.0   120.0   16.666666666666668
400.0   90.0   33.333333333333336
450.0   120.0   33.333333333333336
450.0   90.0   33.333333333333336
450.0   90.0   16.666666666666668
400.0   90.0   33.333333333333336
450.0   120.0   33.333333333333336
450.0   90.0   16.666666666666668
400.0   120.0   16.666666666666668
400.0   90.0   33.333333333333336
450.0   90.0   33.333333333333336
400.0   120.0   33.333333333333336
400.0   90.0   50.0
450.0   90.0   33.333333333333336
450.0   120.0   33.333333333333336
400.0   120.0   33.333333333333336
450.0   120.0   50.0
400.0   90.0   50.0
400.0   120.0   50.0
450.0   120.0   50.0
400.0   120.0   33.333333333333336
400.0   90.0   50.0
450.0   120.0   50.0
450.0   90.0   50.0
450.0   90.0   33.333333333333336
400.0   90.0   50.0
450.0   120.0   50.0
450.0   90.0   33.333333333333336
400.0   120.0   33.333333333333336
400.0   120.0   0.0
450.0   120.0   0.0
400.0   150.0   0.0
400.0   120.0   16.666666666666668
450.0   120.0   0.0
450.0   150.0   0.0
400.0   150.0   0.0
450.0   150.0   16.666666666666668
400.0   120.0   16.666666666666668
400.0   150.0   16.666666666666668
450.0   150.0   16.666666666666668
400.0   150.0   0.0
400.0   120.0   16.666666666666668
450.0   150.0   16.666666666666668
450.0   120.0   16.666666666666668
450.0   120.0   0.0
400.0   120.0   16.666666666666668
450.0   150.0   16.666666666666668
450.0   120.0   0.0
400.0   150.0   0.0
400.0   120.0   16.666666666666668
450.0   120.0   16.666666666666668
400.0   150.0   16.666666666666668
400.0   120.0   33.333333333333336
450.0   120.0   16.666666666666668
450.0   150.0   16.666666666666668
400.0   150.0   16.666666666666668
450.0   150.0   33.333333333333336
400.0   120.0   33.333333333333336
400.0   150.0   33.333333333333336
450.0   150.0   33.333333333333336
400.0   150.0   16.666666666666668
400.0   120.0   33.333333333333336
450.0   150.0   33.333333333333336
450.0   120.0   33.333333333333336
450.0   120.0   16.666666666666668
400.0   120.0   33.333333333333336
450.0   150.0   33.333333333333336
450.0   120.0   16.666666666666668
400.0   150.0   16.666666666666668
400.0   120.0   33.333333333333336
450.0   120.0   33.333333333333336
400.0   150.0   33.333333333333336
400.0   120.0   50.0
450.0   120.0   33.333333333333336
450.0   150.0   33.333333333333336
400.0   150.0   33.333333333333336
450.0   150.0   50.0
400.0   120.0   50.0
400.0   150.0   50.0
450.0   150.0   50.0
400.0   150.0   33.333333333333336
400.0   120.0   50.0
450.0   150.0   50.0
450.0   120.0   50.0
450.0   120.0   33.333333333333336
400.0   120.0   50.0
450.0   150.0   50.0
450.0   120.0   33.333333333333336
400.0   150.0   33.333333333333336
450.0   0.0   0.0
500.0   0.0   0.0
450.0   30.0   0.0
450.0   0.0   16.666666666666668
500.0   0.0   0.0
500.0   30.0   0.0
450.0   30.0   0.0
500.0   30.0   16.666666666666668
450.0   0.0   16.666666666666668
450.0   30.0   16.666666666666668
500.0   30.0   16.666666666666668
450.0   30.0   0.0
450.0   0.0   16.666666666666668
500.0   30.0   16.666666666666668
500.0   0.0   16.666666666666668
500.0   0.0   0.0
450.0   0.0   16.666666666666668
500.0   30.0   16.666666666666668
500.0   0.0   0.0
450.0   30.0   0.0
450.0   0.0   16.666666666666668
500.0   0.0   16.666666666666668
450.0   30.0   16.666666666666668
450.0   0.0   33.333333333333336
500.0   0.0   16.666666666666668
500.0   30.0   16.666666666666668
450.0   30.0   16.666666666666668
500.0   30.0   33.333333333333336
450.0   0.0   33.333333333333336
450.0   30.0   33.333333333333336
500.0   30.0   33.333333333333336
450.0   30.0   16.666666666666668
450.0   0.0   33.333333333333336
500.0   30.0   33.333333333333336
500.0   0.0   33.333333333333336
500.0   0.0   16.666666666666668
450.0   0.0   33.333333333333336
500.0   30.0   33.333333333333336
500.0   0.0   16.666666666666668
450.0   30.0   16.666666666666668
450.0   0.0   33.333333333333336
500.0   0.0   33.333333333333336
450.0   30.0   33.333333333333336
450.0   0.0   50.0
500.0   0.0   33.333333333333336
500.0   30.0   33.333333333333336
450.0   30.0   33.333333333333336
500.0   30.0   50.0
450.0   0.0   50.0
450.0   30.0   50.0
500.0   30.0   50.0
450.0   30.0   33.333333333333336
450.0   0.0   50.0
500.0   30.0   50.0
500.0   0.0   50.0
500.0   0.0   33.333333333333336
450.0   0.0   50.0
500.0   30.0   50.0
500.0   0.0   33.333333333333336
450.0   30.0   33.333333333333336
450.0   30.0   0.0
500.0   30.0   0.0
450.0   60.0   0.0
450.0   30.0   16.666666666666668
500.0   30.0   0.0
500.0   60.0   0.0
450.0   60.0   0.0
500.0   60.0   16.666666666666668
450.0   30.0   16.666666666666668
450.0   60.0   16.666666666666668
500.0   60.0   16.666666666666668
450.0   60.0   0.0
450.0   30.0   16.666666666666668
500.0   60.0   16.666666666666668
500.0   30.0   16.666666666666668
500.0   30.0   0.0
450.0   30.0   16.666666666666668
500.0   60.0   16.666666666666668
500.0   30.0   0.0
450.0   60.0   0.0
450.0   30.0   16.666666666666668
500.0   30.0   16.666666666666668
450.0   60.0   16.666666666666668
450.0   30.0   33.333333333333336
500.0   30.0   16.666666666666668
500.0   60.0   16.666666666666668
450.0   60.0   16.666666666666668
500.0   60.0   33.333333333333336
450.0   30.0   33.333333333333336
450.0   60.0   33.333333333333336
500.0   60.0   33.333333333333336
450.0   60.0   16.666666666666668
450.0   30.0   33.333333333333336
500.0   60.0   33.333333333333336
500.0   30.0   33.333333333333336
500.0   30.0   16.666666666666668
450.0   30.0   33.333333333333336
500.0   60.0   33.333333333333336
500.0   30.0   16.666666666666668
450.0   60.0   16.666666666666668
450.0   30.0   33.333333333333336
500.0   30.0   33.333333333333336
450.0   60.0   33.333333333333336
450.0   30.0   50.0
500.0   30.0   33.333333333333336
500.0   60.0   33.333333333333336
450.0   60.0   33.333333333333336
500.0   60.0   50.0
450.0   30.0   50.0
450.0   60.0   50.0
500.0   60.0   50.0
450.0   60.0   33.333333333333336
450.0   30.0   50.0
500.0   60.0   50.0
500.0   30.0   50.0
500.0   30.0   33.333333333333336
450.0   30.0   50.0
500.0   60.0   50.0
500.0   30.0   33.333333333333336
450.0   60.0   33.333333333333336
450.0   60.0   0.0
500.0   60.0   0.0
450.0   90.0   0.0
450.0   60.0   16.666666666666668
500.0   60.0   0.0
500.0   90.0   0.0
450.0   90.0   0.0
500.0   90.0   16.666666666666668
450.0   60.0   16.666666666666668
450.0   90.0   16.666666666666668
500.0   90.0   16.666666666666668
450.0   90.0   0.0
450.0   60.0   16.666666666666668
500.0   90.0   16.666666666666668
500.0   60.0   16.666666666666668
500.0   60.0   0.0
450.0   60.0   16.666666666666668
500.0   90.0   16.666666666666668
500.0   60.0   0.0
450.0   90.0   0.0
450.0   60.0   16.666666666666668
500.0   60.0   16.666666666666668
450.0   90.0   16.666666666666668
450.0   60.0   33.333333333333336
500.0   60.0   16.666666666666668
500.0   90.0   16.666666666666668
450.0   90.0   16.666666666666668
500.0   90.0   33.333333333333336
450.0   60.0   33.333333333333336
450.0   90.0   33.333333333333336
500.0   90.0   33.333333333333336
450.0   90.0   16.666666666666668
450.0   60.0   33.333333333333336
500.0   90.0   33.333333333333336
500.0   60.0   33.333333333333336
500.0   60.0   16.666666666666668
450.0   60.0   33.333333333333336
500.0   90.0   33.333333333333336
500.0   60.0   16.666666666666668
450.0   90.0   16.666666666666668
450.0   60.0   33.333333333333336
500.0   60.0   33.333333333333336
450.0   90.0   33.333333333333336
450.0   60.0   50.0
500.0   60.0   33.333333333333336
500.0   90.0   33.333333333333336
450.0   90.0   33.333333333333336
500.0   90.0   50.0
450.0   60.0   50.0
450.0   90.0   50.0
500.0   90.0   50.0
450.0   90.0   33.333333333333336
450.0   60.0   50.0
500.0   90.0   50.0
500.0   60.0   50.0
500.0   60.0   33.333333333333336
450.0   60.0   50.0
500.0   90.0   50.0
500.0   60.0   33.333333333333336
450.0   90.0   33.333333333333336
450.0   90.0   0.0
500.0   90.0   0.0
450.0   120.0   0.0
450.0   90.0   16.666666666666668
500.0   90.0   0.0
500.0   120.0   0.0
450.0   120.0   0.0
500.0   120.0   16.666666666666668
450.0   90.0   16.666666666666668
450.0   120.0   16.666666666666668
500.0   120.0   16.666666666666668
450.0   120.0   0.0
450.0   90.0   16.666666666666668
500.0   120.0   16.666666666666668
500.0   90.0   16.666666666666668
500.0   90.0   0.0
450.0   90.0   16.666666666666668
500.0   120.0   16.666666666666668
500.0   90.0   0.0
450.0   120.0   0.0
450.0   90.0   16.666666666666668
500.0   90.0   16.666666666666668
450.0   120.0   16.666666666666668
450.0   90.0   33.333333333333336
500.0   90.0   16.666666666666668
500.0   120.0   16.666666666666668
450.0   120.0   16.666666666666668
500.0   120.0   33.333333333333336
450.0   90.0   33.333333333333336
450.0   120.0   33.333333333333336
500.0   120.0   33.333333333333336
450.0   120.0   16.666666666666668
450.0   90.0   33.333333333333336
500.0   120.0   33.333333333333336
500.0   90.0   33.333333333333336
500.0   90.0   16.666666666666668
450.0   90.0   33.333333333333336
500.0   120.0   33.333333333333336
500.0   90.0   16.666666666666668
450.0   120.0   16.666666666666668
450.0   90.0   33.333333333333336
500.0   90.0   33.333333333333336
450.0   120.0   33.333333333333336
450.0   90.0   50.0
500.0   90.0   33.333333333333336
500.0   120.0   33.333333333333336
450.0   120.0   33.333333333333336
500.0   120.0   50.0
450.0   90.0   50.0
450.0   120.0   50.0
500.0   120.0   50.0
450.0   120.0   33.333333333333336
450.0   90.0   50.0
500.0   120.0   50.0
500.0   90.0   50.0
500.0   90.0   33.333333333333336
450.0   90.0   50.0
500.0   120.0   50.0
500.0   90.0   33.333333333333336
450.0   120.0   33.333333333333336
450.0   120.0   0.0
500.0   120.0   0.0
450.0   150.0   0.0
450.0   120.0   16.666666666666668
500.0   120.0   0.0
500.0   150.0   0.0
450.0   150.0   0.0
500.0   150.0   16.666666666666668
450.0   120.0   16.666666666666668
450.0   150.0   16.666666666666668
500.0   150.0   16.666666666666668
450.0   150.0   0.0
450.0   120.0   16.666666666666668
500.0   150.0   16.666666666666668
500.0   120.0   16.666666666666668
500.0   120.0   0.0
450.0   120.0   16.666666666666668
500.0   150.0   16.666666666666668
500.0   120.0   0.0
450.0   150.0   0.0
450.0   120.0   16.666666666666668
500.0   120.0   16.666666666666668
450.0   150.0   16.666666666666668
450.0   120.0   33.333333333333336
500.0   120.0   16.666666666666668
500.0   150.0   16.666666666666668
450.0   150.0   16.666666666666668
500.0   150.0   33.333333333333336
450.0   120.0   33.333333333333336
450.0   150.0   33.333333333333336
500.0   150.0   33.333333333333336
450.0   150.0   16.666666666666668
450.0   120.0   33.333333333333336
500.0   150.0   33.333333333333336
500.0   120.0   33.333333333333336
500.0   120.0   16.666666666666668
450.0   120.0   33.333333333333336
500.0   150.0   33.333333333333336
500.0   120.0   16.666666666666668
450.0   150.0   16.666666666666668
450.0   120.0   33.333333333333336
500.0   120.0   33.333333333333336
450.0   150.0   33.333333333333336
450.0   120.0   50.0
500.0   120.0   33.333333333333336
500.0   150.0   33.333333333333336
450.0   150.0   33.333333333333336
500.0   150.0   50.0
450.0   120.0   50.0
450.0   150.0   50.0
500.0   150.0   50.0
450.0   150.0   33.333333333333336
450.0   120.0   50.0
500.0   150.0   50.0
500.0   120.0   50.0
500.0   120.0   33.333333333333336
450.0   120.0   50.0
500.0   150.0   50.0
500.0   120.0   33.333333333333336
450.0   150.0   33.333333333333336
             </DataArray>   
          </Points>  
          <Cells>  
             <DataArray type="Int32" Name="connectivity" format="ascii">   
0   1   2   3
4   5   6   7
8   9   10   11
12   13   14   15
16   17   18   19
20   21   22   23
24   25   26   27
28   29   30   31
32   33   34   35
36   37   38   39
40   41   42   43
44   45   46   47
48   49   50   51
52   53   54   55
56   57   58   59
60   61   62   63
64   65   66   67
68   69   70   71
72   73   74   75
76   77   78   79
80   81   82   83
84   85   86   87
88   89   90   91
92   93   94   95
96   97   98   99
100   101   102   103
104   105   106   107
108   109   110   111
112   113   114   115
116   117   118   119
120   121   122   123
124   125   126   127
128   129   130   131
132   133   134   135
136   137   138   139
140   141   142   143
144   145   146   147
148   149   150   151
152   153   154   155
156   157   158   159
160   161   162   163
164   165   166   167
168   169   170   171
172   173   174   175
176   177   178   179
180   181   182   183
184   185   186   187
188   189   190   191
192   193   194   195
196   197   198   199
200   201   202   203
204   205   206   207
208   209   210   211
212   213   214   215
216   217   218   219
220   221   222   223
224   225   226   227
228   229   230   231
232   233   234   235
236   237   238   239
240   241   242   243
244   245   246   247
248   249   250   251
252   253   254   255
256   257   258   259
260   261   262   263
264   265   266   267
268   269   270   271
272   273   274   275
276   277   278   279
280   281   282   283
284   285   286   287
288   289   290   291
292   293   294   295
296   297   298   299
300   301   302   303
304   305   306   307
308   309   310   311
312   313   314   315
316   317   318   319
320   321   322   323
324   325   326   327
328   329   330   331
332   333   334   335
336   337   338   339
340   341   342   343
344   345   346   347
348   349   350   351
352   353   354   355
356   357   358   359
360   361   362   363
364   365   366   367
368   369   370   371
372   373   374   375
376   377   378   379
380   381   382   383
384   385   386   387
388   389   390   391
392   393   394   395
396   397   398   399
400   401   402   403
404   405   406   407
408   409   410   411
412   413   414   415
416   417   418   419
420   421   422   423
424   425   426   427
428   429   430   431
432   433   434   435
436   437   438   439
440   441   442   443
444   445   446   447
448   449   450   451
452   453   454   455
456   457   458   459
460   461   462   463
464   465   466   467
468   469   470   471
472   473   474   475
476   477   478   479
480   481   482   483
484   485   486   487
488   489   490   491
492   493   494   495
496   497   498   499
500   501   502   503
504   505   506   507
508   509   510   511
512   513   514   515
516   517   518   519
520   521   522   523
524   525   526   527
528   529   530   531
532   533   534   535
536   537   538   539
540   541   542   543
544   545   546   547
548   549   550   551
552   553   554   555
556   557   558   559
560   561   562   563
564   565   566   567
568   569   570   571
572   573   574   575
576   577   578   579
580   581   582   583
584   585   586   587
588   589   590   591
592   593   594   595
596   597   598   599
600   601   602   603
604   605   606   607
608   609   610   611
612   613   614   615
616   617   618   619
620   621   622   623
624   625   626   627
628   629   630   631
632   633   634   635
636   637   638   639
640   641   642   643
644   645   646   647
648   649   650   651
652   653   654   655
656   657   658   659
660   661   662   663
664   665   666   667
668   669   670   671
672   673   674   675
676   677   678   679
680   681   682   683
684   685   686   687
688   689   690   691
692   693   694   695
696   697   698   699
700   701   702   703
704   705   706   707
708   709   710   711
712   713   714   715
716   717   718   719
720   721   722   723
724   725   726   727
728   729   730   731
732   733   734   735
736   737   738   739
740   741   742   743
744   745   746   747
748   749   750   751
752   753   754   755
756   757   758   759
760   761   762   763
764   765   766   767
768   769   770   771
772   773   774   775
776   777   778   779
780   781   782   783
784   785   786   787
788   789   790   791
792   793   794   795
796   797   798   799
800   801   802   803
804   805   806   807
808   809   810   811
812   813   814   815
816   817   818   819
820   821   822   823
824   825   826   827
828   829   830   831
832   833   834   835
836   837   838   839
840   841   842   843
844   845   846   847
848   849   850   851
852   853   854   855
856   857   858   859
860   861   862   863
864   865   866   867
868   869   870   871
872   873   874   875
876   877   878   879
880   881   882   883
884   885   886   887
888   889   890   891
892   893   894   895
896   897   898   899
900   901   902   903
904   905   906   907
908   909   910   911
912   913   914   915
916   917   918   919
920   921   922   923
924   925   926   927
928   929   930   931
932   933   934   935
936   937   938   939
940   941   942   943
944   945   946   947
948   949   950   951
952   953   954   955
956   957   958   959
960   961   962   963
964   965   966   967
968   969   970   971
972   973   974   975
976   977   978   979
980   981   982   983
984   985   986   987
988   989   990   991
992   993   994   995
996   997   998   999
1000   1001   1002   1003
1004   1005   1006   1007
1008   1009   1010   1011
1012   1013   1014   1015
1016   1017   1018   1019
1020   1021   1022   1023
1024   1025   1026   1027
1028   1029   1030   1031
1032   1033   1034   1035
1036   1037   1038   1039
1040   1041   1042   1043
1044   1045   1046   1047
1048   1049   1050   1051
1052   1053   1054   1055
1056   1057   1058   1059
1060   1061   1062   1063
1064   1065   1066   1067
1068   1069   1070   1071
1072   1073   1074   1075
1076   1077   1078   1079
1080   1081   1082   1083
1084   1085   1086   1087
1088   1089   1090   1091
1092   1093   1094   1095
1096   1097   1098   1099
1100   1101   1102   1103
1104   1105   1106   1107
1108   1109   1110   1111
1112   1113   1114   1115
1116   1117   1118   1119
1120   1121   1122   1123
1124   1125   1126   1127
1128   1129   1130   1131
1132   1133   1134   1135
1136   1137   1138   1139
1140   1141   1142   1143
1144   1145   1146   1147
1148   1149   1150   1151
1152   1153   1154   1155
1156   1157   1158   1159
1160   1161   1162   1163
1164   1165   1166   1167
1168   1169   1170   1171
1172   1173   1174   1175
1176   1177   1178   1179
1180   1181   1182   1183
1184   1185   1186   1187
1188   1189   1190   1191
1192   1193   1194   1195
1196   1197   1198   1199
1200   1201   1202   1203
1204   1205   1206   1207
1208   1209   1210   1211
1212   1213   1214   1215
1216   1217   1218   1219
1220   1221   1222   1223
1224   1225   1226   1227
1228   1229   1230   1231
1232   1233   1234   1235
1236   1237   1238   1239
1240   1241   1242   1243
1244   1245   1246   1247
1248   1249   1250   1251
1252   1253   1254   1255
1256   1257   1258   1259
1260   1261   1262   1263
1264   1265   1266   1267
1268   1269   1270   1271
1272   1273   1274   1275
1276   1277   1278   1279
1280   1281   1282   1283
1284   1285   1286   1287
1288   1289   1290   1291
1292   1293   1294   1295
1296   1297   1298   1299
1300   1301   1302   1303
1304   1305   1306   1307
1308   1309   1310   1311
1312   1313   1314   1315
1316   1317   1318   1319
1320   1321   1322   1323
1324   1325   1326   1327
1328   1329   1330   1331
1332   1333   1334   1335
1336   1337   1338   1339
1340   1341   1342   1343
1344   1345   1346   1347
1348   1349   1350   1351
1352   1353   1354   1355
1356   1357   1358   1359
1360   1361   1362   1363
1364   1365   1366   1367
1368   1369   1370   1371
1372   1373   1374   1375
1376   1377   1378   1379
1380   1381   1382   1383
1384   1385   1386   1387
1388   1389   1390   1391
1392   1393   1394   1395
1396   1397   1398   1399
1400   1401   1402   1403
1404   1405   1406   1407
1408   1409   1410   1411
1412   1413   1414   1415
1416   1417   1418   1419
1420   1421   1422   1423
1424   1425   1426   1427
1428   1429   1430   1431
1432   1433   1434   1435
1436   1437   1438   1439
1440   1441   1442   1443
1444   1445   1446   1447
1448   1449   1450   1451
1452   1453   1454   1455
1456   1457   1458   1459
1460   1461   1462   1463
1464   1465   1466   1467
1468   1469   1470   1471
1472   1473   1474   1475
1476   1477   1478   1479
1480   1481   1482   1483
1484   1485   1486   1487
1488   1489   1490   1491
1492   1493   1494   1495
1496   1497   1498   1499
1500   1501   1502   1503
1504   1505   1506   1507
1508   1509   1510   1511
1512   1513   1514   1515
1516   1517   1518   1519
1520   1521   1522   1523
1524   1525   1526   1527
1528   1529   1530   1531
1532   1533   1534   1535
1536   1537   1538   1539
1540   1541   1542   1543
1544   1545   1546   1547
1548   1549   1550   1551
1552   1553   1554   1555
1556   1557   1558   1559
1560   1561   1562   1563
1564   1565   1566   1567
1568   1569   1570   1571
1572   1573   1574   1575
1576   1577   1578   1579
1580   1581   1582   1583
1584   1585   1586   1587
1588   1589   1590   1591
1592   1593   1594   1595
1596   1597   1598   1599
1600   1601   1602   1603
1604   1605   1606   1607
1608   1609   1610   1611
1612   1613   1614   1615
1616   1617   1618   1619
1620   1621   1622   1623
1624   1625   1626   1627
1628   1629   1630   1631
1632   1633   1634   1635
1636   1637   1638   1639
1640   1641   1642   1643
1644   1645   1646   1647
1648   1649   1650   1651
1652   1653   1654   1655
1656   1657   1658   1659
1660   1661   1662   1663
1664   1665   1666   1667
1668   1669   1670   1671
1672   1673   1674   1675
1676   1677   1678   1679
1680   1681   1682   1683
1684   1685   1686   1687
1688   1689   1690   1691
1692   1693   1694   1695
1696   1697   1698   1699
1700   1701   1702   1703
1704   1705   1706   1707
1708   1709   1710   1711
1712   1713   1714   1715
1716   1717   1718   1719
1720   1721   1722   1723
1724   1725   1726   1727
1728   1729   1730   1731
1732   1733   1734   1735
1736   1737   1738   1739
1740   1741   1742   1743
1744   1745   1746   1747
1748   1749   1750   1751
1752   1753   1754   1755
1756   1757   1758   1759
1760   1761   1762   1763
1764   1765   1766   1767
1768   1769   1770   1771
1772   1773   1774   1775
1776   1777   1778   1779
1780   1781   1782   1783
1784   1785   1786   1787
1788   1789   1790   1791
1792   1793   1794   1795
1796   1797   1798   1799
1800   1801   1802   1803
1804   1805   1806   1807
1808   1809   1810   1811
1812   1813   1814   1815
1816   1817   1818   1819
1820   1821   1822   1823
1824   1825   1826   1827
1828   1829   1830   1831
1832   1833   1834   1835
1836   1837   1838   1839
1840   1841   1842   1843
1844   1845   1846   1847
1848   1849   1850   1851
1852   1853   1854   1855
1856   1857   1858   1859
1860   1861   1862   1863
1864   1865   1866   1867
1868   1869   1870   1871
1872   1873   1874   1875
1876   1877   1878   1879
1880   1881   1882   1883
1884   1885   1886   1887
1888   1889   1890   1891
1892   1893   1894   1895
1896   1897   1898   1899
1900   1901   1902   1903
1904   1905   1906   1907
1908   1909   1910   1911
1912   1913   1914   1915
1916   1917   1918   1919
1920   1921   1922   1923
1924   1925   1926   1927
1928   1929   1930   1931
1932   1933   1934   1935
1936   1937   1938   1939
1940   1941   1942   1943
1944   1945   1946   1947
1948   1949   1950   1951
1952   1953   1954   1955
1956   1957   1958   1959
1960   1961   1962   1963
1964   1965   1966   1967
1968   1969   1970   1971
1972   1973   1974   1975
1976   1977   1978   1979
1980   1981   1982   1983
1984   1985   1986   1987
1988   1989   1990   1991
1992   1993   1994   1995
1996   1997   1998   1999
2000   2001   2002   2003
2004   2005   2006   2007
2008   2009   2010   2011
2012   2013   2014   2015
2016   2017   2018   2019
2020   2021   2022   2023
2024   2025   2026   2027
2028   2029   2030   2031
2032   2033   2034   2035
2036   2037   2038   2039
2040   2041   2042   2043
2044   2045   2046   2047
2048   2049   2050   2051
2052   2053   2054   2055
2056   2057   2058   2059
2060   2061   2062   2063
2064   2065   2066   2067
2068   2069   2070   2071
2072   2073   2074   2075
2076   2077   2078   2079
2080   2081   2082   2083
2084   2085   2086   2087
2088   2089   2090   2091
2092   2093   2094   2095
2096   2097   2098   2099
2100   2101   2102   2103
2104   2105   2106   2107
2108   2109   2110   2111
2112   2113   2114   2115
2116   2117   2118   2119
2120   2121   2122   2123
2124   2125   2126   2127
2128   2129   2130   2131
2132   2133   2134   2135
2136   2137   2138   2139
2140   2141   2142   2143
2144   2145   2146   2147
2148   2149   2150   2151
2152   2153   2154   2155
2156   2157   2158   2159
2160   2161   2162   2163
2164   2165   2166   2167
2168   2169   2170   2171
2172   2173   2174   2175
2176   2177   2178   2179
2180   2181   2182   2183
2184   2185   2186   2187
2188   2189   2190   2191
2192   2193   2194   2195
2196   2197   2198   2199
2200   2201   2202   2203
2204   2205   2206   2207
2208   2209   2210   2211
2212   2213   2214   2215
2216   2217   2218   2219
2220   2221   2222   2223
2224   2225   2226   2227
2228   2229   2230   2231
2232   2233   2234   2235
2236   2237   2238   2239
2240   2241   2242   2243
2244   2245   2246   2247
2248   2249   2250   2251
2252   2253   2254   2255
2256   2257   2258   2259
2260   2261   2262   2263
2264   2265   2266   2267
2268   2269   2270   2271
2272   2273   2274   2275
2276   2277   2278   2279
2280   2281   2282   2283
2284   2285   2286   2287
2288   2289   2290   2291
2292   2293   2294   2295
2296   2297   2298   2299
2300   2301   2302   2303
2304   2305   2306   2307
2308   2309   2310   2311
2312   2313   2314   2315
2316   2317   2318   2319
2320   2321   2322   2323
2324   2325   2326   2327
2328   2329   2330   2331
2332   2333   2334   2335
2336   2337   2338   2339
2340   2341   2342   2343
2344   2345   2346   2347
2348   2349   2350   2351
2352   2353   2354   2355
2356   2357   2358   2359
2360   2361   2362   2363
2364   2365   2366   2367
2368   2369   2370   2371
2372   2373   2374   2375
2376   2377   2378   2379
2380   2381   2382   2383
2384   2385   2386   2387
2388   2389   2390   2391
2392   2393   2394   2395
2396   2397   2398   2399
2400   2401   2402   2403
2404   2405   2406   2407
2408   2409   2410   2411
2412   2413   2414   2415
2416   2417   2418   2419
2420   2421   2422   2423
2424   2425   2426   2427
2428   2429   2430   2431
2432   2433   2434   2435
2436   2437   2438   2439
2440   2441   2442   2443
2444   2445   2446   2447
2448   2449   2450   2451
2452   2453   2454   2455
2456   2457   2458   2459
2460   2461   2462   2463
2464   2465   2466   2467
2468   2469   2470   2471
2472   2473   2474   2475
2476   2477   2478   2479
2480   2481   2482   2483
2484   2485   2486   2487
2488   2489   2490   2491
2492   2493   2494   2495
2496   2497   2498   2499
2500   2501   2502   2503
2504   2505   2506   2507
2508   2509   2510   2511
2512   2513   2514   2515
2516   2517   2518   2519
2520   2521   2522   2523
2524   2525   2526   2527
2528   2529   2530   2531
2532   2533   2534   2535
2536   2537   2538   2539
2540   2541   2542   2543
2544   2545   2546   2547
2548   2549   2550   2551
2552   2553   2554   2555
2556   2557   2558   2559
2560   2561   2562   2563
2564   2565   2566   2567
2568   2569   2570   2571
2572   2573   2574   2575
2576   2577   2578   2579
2580   2581   2582   2583
2584   2585   2586   2587
2588   2589   2590   2591
2592   2593   2594   2595
2596   2597   2598   2599
2600   2601   2602   2603
2604   2605   2606   2607
2608   2609   2610   2611
2612   2613   2614   2615
2616   2617   2618   2619
2620   2621   2622   2623
2624   2625   2626   2627
2628   2629   2630   2631
2632   2633   2634   2635
2636   2637   2638   2639
2640   2641   2642   2643
2644   2645   2646   2647
2648   2649   2650   2651
2652   2653   2654   2655
2656   2657   2658   2659
2660   2661   2662   2663
2664   2665   2666   2667
2668   2669   2670   2671
2672   2673   2674   2675
2676   2677   2678   2679
2680   2681   2682   2683
2684   2685   2686   2687
2688   2689   2690   2691
2692   2693   2694   2695
2696   2697   2698   2699
2700   2701   2702   2703
2704   2705   2706   2707
2708   2709   2710   2711
2712   2713   2714   2715
2716   2717   2718   2719
2720   2721   2722   2723
2724   2725   2726   2727
2728   2729   2730   2731
2732   2733   2734   2735
2736   2737   2738   2739
2740   2741   2742   2743
2744   2745   2746   2747
2748   2749   2750   2751
2752   2753   2754   2755
2756   2757   2758   2759
2760   2761   2762   2763
2764   2765   2766   2767
2768   2769   2770   2771
2772   2773   2774   2775
2776   2777   2778   2779
2780   2781   2782   2783
2784   2785   2786   2787
2788   2789   2790   2791
2792   2793   2794   2795
2796   2797   2798   2799
2800   2801   2802   2803
2804   2805   2806   2807
2808   2809   2810   2811
2812   2813   2814   2815
2816   2817   2818   2819
2820   2821   2822   2823
2824   2825   2826   2827
2828   2829   2830   2831
2832   2833   2834   2835
2836   2837   2838   2839
2840   2841   2842   2843
2844   2845   2846   2847
2848   2849   2850   2851
2852   2853   2854   2855
2856   2857   2858   2859
2860   2861   2862   2863
2864   2865   2866   2867
2868   2869   2870   2871
2872   2873   2874   2875
2876   2877   2878   2879
2880   2881   2882   2883
2884   2885   2886   2887
2888   2889   2890   2891
2892   2893   2894   2895
2896   2897   2898   2899
2900   2901   2902   2903
2904   2905   2906   2907
2908   2909   2910   2911
2912   2913   2914   2915
2916   2917   2918   2919
2920   2921   2922   2923
2924   2925   2926   2927
2928   2929   2930   2931
2932   2933   2934   2935
2936   2937   2938   2939
2940   2941   2942   2943
2944   2945   2946   2947
2948   2949   2950   2951
2952   2953   2954   2955
2956   2957   2958   2959
2960   2961   2962   2963
2964   2965   2966   2967
2968   2969   2970   2971
2972   2973   2974   2975
2976   2977   2978   2979
2980   2981   2982   2983
2984   2985   2986   2987
2988   2989   2990   2991
2992   2993   2994   2995
2996   2997   2998   2999
3000   3001   3002   3003
3004   3005   3006   3007
3008   3009   3010   3011
3012   3013   3014   3015
3016   3017   3018   3019
3020   3021   3022   3023
3024   3025   3026   3027
3028   3029   3030   3031
3032   3033   3034   3035
3036   3037   3038   3039
3040   3041   3042   3043
3044   3045   3046   3047
3048   3049   3050   3051
3052   3053   3054   3055
3056   3057   3058   3059
3060   3061   3062   3063
3064   3065   3066   3067
3068   3069   3070   3071
3072   3073   3074   3075
3076   3077   3078   3079
3080   3081   3082   3083
3084   3085   3086   3087
3088   3089   3090   3091
3092   3093   3094   3095
3096   3097   3098   3099
3100   3101   3102   3103
3104   3105   3106   3107
3108   3109   3110   3111
3112   3113   3114   3115
3116   3117   3118   3119
3120   3121   3122   3123
3124   3125   3126   3127
3128   3129   3130   3131
3132   3133   3134   3135
3136   3137   3138   3139
3140   3141   3142   3143
3144   3145   3146   3147
3148   3149   3150   3151
3152   3153   3154   3155
3156   3157   3158   3159
3160   3161   3162   3163
3164   3165   3166   3167
3168   3169   3170   3171
3172   3173   3174   3175
3176   3177   3178   3179
3180   3181   3182   3183
3184   3185   3186   3187
3188   3189   3190   3191
3192   3193   3194   3195
3196   3197   3198   3199
3200   3201   3202   3203
3204   3205   3206   3207
3208   3209   3210   3211
3212   3213   3214   3215
3216   3217   3218   3219
3220   3221   3222   3223
3224   3225   3226   3227
3228   3229   3230   3231
3232   3233   3234   3235
3236   3237   3238   3239
3240   3241   3242   3243
3244   3245   3246   3247
3248   3249   3250   3251
3252   3253   3254   3255
3256   3257   3258   3259
3260   3261   3262   3263
3264   3265   3266   3267
3268   3269   3270   3271
3272   3273   3274   3275
3276   3277   3278   3279
3280   3281   3282   3283
3284   3285   3286   3287
3288   3289   3290   3291
3292   3293   3294   3295
3296   3297   3298   3299
3300   3301   3302   3303
3304   3305   3306   3307
3308   3309   3310   3311
3312   3313   3314   3315
3316   3317   3318   3319
3320   3321   3322   3323
3324   3325   3326   3327
3328   3329   3330   3331
3332   3333   3334   3335
3336   3337   3338   3339
3340   3341   3342   3343
3344   3345   3346   3347
3348   3349   3350   3351
3352   3353   3354   3355
3356   3357   3358   3359
3360   3361   3362   3363
3364   3365   3366   3367
3368   3369   3370   3371
3372   3373   3374   3375
3376   3377   3378   3379
3380   3381   3382   3383
3384   3385   3386   3387
3388   3389   3390   3391
3392   3393   3394   3395
3396   3397   3398   3399
3400   3401   3402   3403
3404   3405   3406   3407
3408   3409   3410   3411
3412   3413   3414   3415
3416   3417   3418   3419
3420   3421   3422   3423
3424   3425   3426   3427
3428   3429   3430   3431
3432   3433   3434   3435
3436   3437   3438   3439
3440   3441   3442   3443
3444   3445   3446   3447
3448   3449   3450   3451
3452   3453   3454   3455
3456   3457   3458   3459
3460   3461   3462   3463
3464   3465   3466   3467
3468   3469   3470   3471
3472   3473   3474   3475
3476   3477   3478   3479
3480   3481   3482   3483
3484   3485   3486   3487
3488   3489   3490   3491
3492   3493   3494   3495
3496   3497   3498   3499
3500   3501   3502   3503
3504   3505   3506   3507
3508   3509   3510   3511
3512   3513   3514   3515
3516   3517   3518   3519
3520   3521   3522   3523
3524   3525   3526   3527
3528   3529   3530   3531
3532   3533   3534   3535
3536   3537   3538   3539
3540   3541   3542   3543
3544   3545   3546   3547
3548   3549   3550   3551
3552   3553   3554   3555
3556   3557   3558   3559
3560   3561   3562   3563
3564   3565   3566   3567
3568   3569   3570   3571
3572   3573   3574   3575
3576   3577   3578   3579
3580   3581   3582   3583
3584   3585   3586   3587
3588   3589   3590   3591
3592   3593   3594   3595
3596   3597   3598   3599
3600   3601   3602   3603
3604   3605   3606   3607
3608   3609   3610   3611
3612   3613   3614   3615
3616   3617   3618   3619
3620   3621   3622   3623
3624   3625   3626   3627
3628   3629   3630   3631
3632   3633   3634   3635
3636   3637   3638   3639
3640   3641   3642   3643
3644   3645   3646   3647
3648   3649   3650   3651
3652   3653   3654   3655
3656   3657   3658   3659
3660   3661   3662   3663
3664   3665   3666   3667
3668   3669   3670   3671
3672   3673   3674   3675
3676   3677   3678   3679
3680   3681   3682   3683
3684   3685   3686   3687
3688   3689   3690   3691
3692   3693   3694   3695
3696   3697   3698   3699
3700   3701   3702   3703
3704   3705   3706   3707
3708   3709   3710   3711
3712   3713   3714   3715
3716   3717   3718   3719
3720   3721   3722   3723
3724   3725   3726   3727
3728   3729   3730   3731
3732   3733   3734   3735
3736   3737   3738   3739
3740   3741   3742   3743
3744   3745   3746   3747
3748   3749   3750   3751
3752   3753   3754   3755
3756   3757   3758   3759
3760   3761   3762   3763
3764   3765   3766   3767
3768   3769   3770   3771
3772   3773   3774   3775
3776   3777   3778   3779
3780   3781   3782   3783
3784   3785   3786   3787
3788   3789   3790   3791
3792   3793   3794   3795
3796   3797   3798   3799
3800   3801   3802   3803
3804   3805   3806   3807
3808   3809   3810   3811
3812   3813   3814   3815
3816   3817   3818   3819
3820   3821   3822   3823
3824   3825   3826   3827
3828   3829   3830   3831
3832   3833   3834   3835
3836   3837   3838   3839
3840   3841   3842   3843
3844   3845   3846   3847
3848   3849   3850   3851
3852   3853   3854   3855
3856   3857   3858   3859
3860   3861   3862   3863
3864   3865   3866   3867
3868   3869   3870   3871
3872   3873   3874   3875
3876   3877   3878   3879
3880   3881   3882   3883
3884   3885   3886   3887
3888   3889   3890   3891
3892   3893   3894   3895
3896   3897   3898   3899
3900   3901   3902   3903
3904   3905   3906   3907
3908   3909   3910   3911
3912   3913   3914   3915
3916   3917   3918   3919
3920   3921   3922   3923
3924   3925   3926   3927
3928   3929   3930   3931
3932   3933   3934   3935
3936   3937   3938   3939
3940   3941   3942   3943
3944   3945   3946   3947
3948   3949   3950   3951
3952   3953   3954   3955
3956   3957   3958   3959
3960   3961   3962   3963
3964   3965   3966   3967
3968   3969   3970   3971
3972   3973   3974   3975
3976   3977   3978   3979
3980   3981   3982   3983
3984   3985   3986   3987
3988   3989   3990   3991
3992   3993   3994   3995
3996   3997   3998   3999
4000   4001   4002   4003
4004   4005   4006   4007
4008   4009   4010   4011
4012   4013   4014   4015
4016   4017   4018   4019
4020   4021   4022   4023
4024   4025   4026   4027
4028   4029   4030   4031
4032   4033   4034   4035
4036   4037   4038   4039
4040   4041   4042   4043
4044   4045   4046   4047
4048   4049   4050   4051
4052   4053   4054   4055
4056   4057   4058   4059
4060   4061   4062   4063
4064   4065   4066   4067
4068   4069   4070   4071
4072   4073   4074   4075
4076   4077   4078   4079
4080   4081   4082   4083
4084   4085   4086   4087
4088   4089   4090   4091
4092   4093   4094   4095
4096   4097   4098   4099
4100   4101   4102   4103
4104   4105   4106   4107
4108   4109   4110   4111
4112   4113   4114   4115
4116   4117   4118   4119
4120   4121   4122   4123
4124   4125   4126   4127
4128   4129   4130   4131
4132   4133   4134   4135
4136   4137   4138   4139
4140   4141   4142   4143
4144   4145   4146   4147
4148   4149   4150   4151
4152   4153   4154   4155
4156   4157   4158   4159
4160   4161   4162   4163
4164   4165   4166   4167
4168   4169   4170   4171
4172   4173   4174   4175
4176   4177   4178   4179
4180   4181   4182   4183
4184   4185   4186   4187
4188   4189   4190   4191
4192   4193   4194   4195
4196   4197   4198   4199
4200   4201   4202   4203
4204   4205   4206   4207
4208   4209   4210   4211
4212   4213   4214   4215
4216   4217   4218   4219
4220   4221   4222   4223
4224   4225   4226   4227
4228   4229   4230   4231
4232   4233   4234   4235
4236   4237   4238   4239
4240   4241   4242   4243
4244   4245   4246   4247
4248   4249   4250   4251
4252   4253   4254   4255
4256   4257   4258   4259
4260   4261   4262   4263
4264   4265   4266   4267
4268   4269   4270   4271
4272   4273   4274   4275
4276   4277   4278   4279
4280   4281   4282   4283
4284   4285   4286   4287
4288   4289   4290   4291
4292   4293   4294   4295
4296   4297   4298   4299
4300   4301   4302   4303
4304   4305   4306   4307
4308   4309   4310   4311
4312   4313   4314   4315
4316   4317   4318   4319
4320   4321   4322   4323
4324   4325   4326   4327
4328   4329   4330   4331
4332   4333   4334   4335
4336   4337   4338   4339
4340   4341   4342   4343
4344   4345   4346   4347
4348   4349   4350   4351
4352   4353   4354   4355
4356   4357   4358   4359
4360   4361   4362   4363
4364   4365   4366   4367
4368   4369   4370   4371
4372   4373   4374   4375
4376   4377   4378   4379
4380   4381   4382   4383
4384   4385   4386   4387
4388   4389   4390   4391
4392   4393   4394   4395
4396   4397   4398   4399
4400   4401   4402   4403
4404   4405   4406   4407
4408   4409   4410   4411
4412   4413   4414   4415
4416   4417   4418   4419
4420   4421   4422   4423
4424   4425   4426   4427
4428   4429   4430   4431
4432   4433   4434   4435
4436   4437   4438   4439
4440   4441   4442   4443
4444   4445   4446   4447
4448   4449   4450   4451
4452   4453   4454   4455
4456   4457   4458   4459
4460   4461   4462   4463
4464   4465   4466   4467
4468   4469   4470   4471
4472   4473   4474   4475
4476   4477   4478   4479
4480   4481   4482   4483
4484   4485   4486   4487
4488   4489   4490   4491
4492   4493   4494   4495
4496   4497   4498   4499
4500   4501   4502   4503
4504   4505   4506   4507
4508   4509   4510   4511
4512   4513   4514   4515
4516   4517   4518   4519
4520   4521   4522   4523
4524   4525   4526   4527
4528   4529   4530   4531
4532   4533   4534   4535
4536   4537   4538   4539
4540   4541   4542   4543
4544   4545   4546   4547
4548   4549   4550   4551
4552   4553   4554   4555
4556   4557   4558   4559
4560   4561   4562   4563
4564   4565   4566   4567
4568   4569   4570   4571
4572   4573   4574   4575
4576   4577   4578   4579
4580   4581   4582   4583
4584   4585   4586   4587
4588   4589   4590   4591
4592   4593   4594   4595
4596   4597   4598   4599
4600   4601   4602   4603
4604   4605   4606   4607
4608   4609   4610   4611
4612   4613   4614   4615
4616   4617   4618   4619
4620   4621   4622   4623
4624   4625   4626   4627
4628   4629   4630   4631
4632   4633   4634   4635
4636   4637   4638   4639
4640   4641   4642   4643
4644   4645   4646   4647
4648   4649   4650   4651
4652   4653   4654   4655
4656   4657   4658   4659
4660   4661   4662   4663
4664   4665   4666   4667
4668   4669   4670   4671
4672   4673   4674   4675
4676   4677   4678   4679
4680   4681   4682   4683
4684   4685   4686   4687
4688   4689   4690   4691
4692   4693   4694   4695
4696   4697   4698   4699
4700   4701   4702   4703
4704   4705   4706   4707
4708   4709   4710   4711
4712   4713   4714   4715
4716   4717   4718   4719
4720   4721   4722   4723
4724   4725   4726   4727
4728   4729   4730   4731
4732   4733   4734   4735
4736   4737   4738   4739
4740   4741   4742   4743
4744   4745   4746   4747
4748   4749   4750   4751
4752   4753   4754   4755
4756   4757   4758   4759
4760   4761   4762   4763
4764   4765   4766   4767
4768   4769   4770   4771
4772   4773   4774   4775
4776   4777   4778   4779
4780   4781   4782   4783
4784   4785   4786   4787
4788   4789   4790   4791
4792   4793   4794   4795
4796   4797   4798   4799
4800   4801   4802   4803
4804   4805   4806   4807
4808   4809   4810   4811
4812   4813   4814   4815
4816   4817   4818   4819
4820   4821   4822   4823
4824   4825   4826   4827
4828   4829   4830   4831
4832   4833   4834   4835
4836   4837   4838   4839
4840   4841   4842   4843
4844   4845   4846   4847
4848   4849   4850   4851
4852   4853   4854   4855
4856   4857   4858   4859
4860   4861   4862   4863
4864   4865   4866   4867
4868   4869   4870   4871
4872   4873   4874   4875
4876   4877   4878   4879
4880   4881   4882   4883
4884   4885   4886   4887
4888   4889   4890   4891
4892   4893   4894   4895
4896   4897   4898   4899
4900   4901   4902   4903
4904   4905   4906   4907
4908   4909   4910   4911
4912   4913   4914   4915
4916   4917   4918   4919
4920   4921   4922   4923
4924   4925   4926   4927
4928   4929   4930   4931
4932   4933   4934   4935
4936   4937   4938   4939
4940   4941   4942   4943
4944   4945   4946   4947
4948   4949   4950   4951
4952   4953   4954   4955
4956   4957   4958   4959
4960   4961   4962   4963
4964   4965   4966   4967
4968   4969   4970   4971
4972   4973   4974   4975
4976   4977   4978   4979
4980   4981   4982   4983
4984   4985   4986   4987
4988   4989   4990   4991
4992   4993   4994   4995
4996   4997   4998   4999
5000   5001   5002   5003
5004   5005   5006   5007
5008   5009   5010   5011
5012   5013   5014   5015
5016   5017   5018   5019
5020   5021   5022   5023
5024   5025   5026   5027
5028   5029   5030   5031
5032   5033   5034   5035
5036   5037   5038   5039
5040   5041   5042   5043
5044   5045   5046   5047
5048   5049   5050   5051
5052   5053   5054   5055
5056   5057   5058   5059
5060   5061   5062   5063
5064   5065   5066   5067
5068   5069   5070   5071
5072   5073   5074   5075
5076   5077   5078   5079
5080   5081   5082   5083
5084   5085   5086   5087
5088   5089   5090   5091
5092   5093   5094   5095
5096   5097   5098   5099
5100   5101   5102   5103
5104   5105   5106   5107
5108   5109   5110   5111
5112   5113   5114   5115
5116   5117   5118   5119
5120   5121   5122   5123
5124   5125   5126   5127
5128   5129   5130   5131
5132   5133   5134   5135
5136   5137   5138   5139
5140   5141   5142   5143
5144   5145   5146   5147
5148   5149   5150   5151
5152   5153   5154   5155
5156   5157   5158   5159
5160   5161   5162   5163
5164   5165   5166   5167
5168   5169   5170   5171
5172   5173   5174   5175
5176   5177   5178   5179
5180   5181   5182   5183
5184   5185   5186   5187
5188   5189   5190   5191
5192   5193   5194   5195
5196   5197   5198   5199
5200   5201   5202   5203
5204   5205   5206   5207
5208   5209   5210   5211
5212   5213   5214   5215
5216   5217   5218   5219
5220   5221   5222   5223
5224   5225   5226   5227
5228   5229   5230   5231
5232   5233   5234   5235
5236   5237   5238   5239
5240   5241   5242   5243
5244   5245   5246   5247
5248   5249   5250   5251
5252   5253   5254   5255
5256   5257   5258   5259
5260   5261   5262   5263
5264   5265   5266   5267
5268   5269   5270   5271
5272   5273   5274   5275
5276   5277   5278   5279
5280   5281   5282   5283
5284   5285   5286   5287
5288   5289   5290   5291
5292   5293   5294   5295
5296   5297   5298   5299
5300   5301   5302   5303
5304   5305   5306   5307
5308   5309   5310   5311
5312   5313   5314   5315
5316   5317   5318   5319
5320   5321   5322   5323
5324   5325   5326   5327
5328   5329   5330   5331
5332   5333   5334   5335
5336   5337   5338   5339
5340   5341   5342   5343
5344   5345   5346   5347
5348   5349   5350   5351
5352   5353   5354   5355
5356   5357   5358   5359
5360   5361   5362   5363
5364   5365   5366   5367
5368   5369   5370   5371
5372   5373   5374   5375
5376   5377   5378   5379
5380   5381   5382   5383
5384   5385   5386   5387
5388   5389   5390   5391
5392   5393   5394   5395
5396   5397   5398   5399
5400   5401   5402   5403
5404   5405   5406   5407
5408   5409   5410   5411
5412   5413   5414   5415
5416   5417   5418   5419
5420   5421   5422   5423
5424   5425   5426   5427
5428   5429   5430   5431
5432   5433   5434   5435
5436   5437   5438   5439
5440   5441   5442   5443
5444   5445   5446   5447
5448   5449   5450   5451
5452   5453   5454   5455
5456   5457   5458   5459
5460   5461   5462   5463
5464   5465   5466   5467
5468   5469   5470   5471
5472   5473   5474   5475
5476   5477   5478   5479
5480   5481   5482   5483
5484   5485   5486   5487
5488   5489   5490   5491
5492   5493   5494   5495
5496   5497   5498   5499
5500   5501   5502   5503
5504   5505   5506   5507
5508   5509   5510   5511
5512   5513   5514   5515
5516   5517   5518   5519
5520   5521   5522   5523
5524   5525   5526   5527
5528   5529   5530   5531
5532   5533   5534   5535
5536   5537   5538   5539
5540   5541   5542   5543
5544   5545   5546   5547
5548   5549   5550   5551
5552   5553   5554   5555
5556   5557   5558   5559
5560   5561   5562   5563
5564   5565   5566   5567
5568   5569   5570   5571
5572   5573   5574   5575
5576   5577   5578   5579
5580   5581   5582   5583
5584   5585   5586   5587
5588   5589   5590   5591
5592   5593   5594   5595
5596   5597   5598   5599
5600   5601   5602   5603
5604   5605   5606   5607
5608   5609   5610   5611
5612   5613   5614   5615
5616   5617   5618   5619
5620   5621   5622   5623
5624   5625   5626   5627
5628   5629   5630   5631
5632   5633   5634   5635
5636   5637   5638   5639
5640   5641   5642   5643
5644   5645   5646   5647
5648   5649   5650   5651
5652   5653   5654   5655
5656   5657   5658   5659
5660   5661   5662   5663
5664   5665   5666   5667
5668   5669   5670   5671
5672   5673   5674   5675
5676   5677   5678   5679
5680   5681   5682   5683
5684   5685   5686   5687
5688   5689   5690   5691
5692   5693   5694   5695
5696   5697   5698   5699
5700   5701   5702   5703
5704   5705   5706   5707
5708   5709   5710   5711
5712   5713   5714   5715
5716   5717   5718   5719
5720   5721   5722   5723
5724   5725   5726   5727
5728   5729   5730   5731
5732   5733   5734   5735
5736   5737   5738   5739
5740   5741   5742   5743
5744   5745   5746   5747
5748   5749   5750   5751
5752   5753   5754   5755
5756   5757   5758   5759
5760   5761   5762   5763
5764   5765   5766   5767
5768   5769   5770   5771
5772   5773   5774   5775
5776   5777   5778   5779
5780   5781   5782   5783
5784   5785   5786   5787
5788   5789   5790   5791
5792   5793   5794   5795
5796   5797   5798   5799
5800   5801   5802   5803
5804   5805   5806   5807
5808   5809   5810   5811
5812   5813   5814   5815
5816   5817   5818   5819
5820   5821   5822   5823
5824   5825   5826   5827
5828   5829   5830   5831
5832   5833   5834   5835
5836   5837   5838   5839
5840   5841   5842   5843
5844   5845   5846   5847
5848   5849   5850   5851
5852   5853   5854   5855
5856   5857   5858   5859
5860   5861   5862   5863
5864   5865   5866   5867
5868   5869   5870   5871
5872   5873   5874   5875
5876   5877   5878   5879
5880   5881   5882   5883
5884   5885   5886   5887
5888   5889   5890   5891
5892   5893   5894   5895
5896   5897   5898   5899
5900   5901   5902   5903
5904   5905   5906   5907
5908   5909   5910   5911
5912   5913   5914   5915
5916   5917   5918   5919
5920   5921   5922   5923
5924   5925   5926   5927
5928   5929   5930   5931
5932   5933   5934   5935
5936   5937   5938   5939
5940   5941   5942   5943
5944   5945   5946   5947
5948   5949   5950   5951
5952   5953   5954   5955
5956   5957   5958   5959
5960   5961   5962   5963
5964   5965   5966   5967
5968   5969   5970   5971
5972   5973   5974   5975
5976   5977   5978   5979
5980   5981   5982   5983
5984   5985   5986   5987
5988   5989   5990   5991
5992   5993   5994   5995
5996   5997   5998   5999
              </DataArray>   
              <DataArray type="Int32" Name="offsets" format="ascii">   
4
8
12
16
20
24
28
32
36
40
44
48
52
56
60
64
68
72
76
80
84
88
92
96
100
104
108
112
116
120
124
128
132
136
140
144
148
152
156
160
164
168
172
176
180
184
188
192
196
200
204
208
212
216
220
224
228
232
236
240
244
248
252
256
260
264
268
272
276
280
284
288
292
296
300
304
308
312
316
320
324
328
332
336
340
344
348
352
356
360
364
368
372
376
380
384
388
392
396
400
404
408
412
416
420
424
428
432
436
440
444
448
452
456
460
464
468
472
476
480
484
488
492
496
500
504
508
512
516
520
524
528
532
536
540
544
548
552
556
560
564
568
572
576
580
584
588
592
596
600
604
608
612
616
620
624
628
632
636
640
644
648
652
656
660
664
668
672
676
680
684
688
692
696
700
704
708
712
716
720
724
728
732
736
740
744
748
752
756
760
764
768
772
776
780
784
788
792
796
800
804
808
812
816
820
824
828
832
836
840
844
848
852
856
860
864
868
872
876
880
884
888
892
896
900
904
908
912
916
920
924
928
932
936
940
944
948
952
956
960
964
968
972
976
980
984
988
992
996
1000
1004
1008
1012
1016
1020
1024
1028
1032
1036
1040
1044
1048
1052
1056
1060
1064
1068
1072
1076
1080
1084
1088
1092
1096
1100
1104
1108
1112
1116
1120
1124
1128
1132
1136
1140
1144
1148
1152
1156
1160
1164
1168
1172
1176
1180
1184
1188
1192
1196
1200
1204
1208
1212
1216
1220
1224
1228
1232
1236
1240
1244
1248
1252
1256
1260
1264
1268
1272
1276
1280
1284
1288
1292
1296
1300
1304
1308
1312
1316
1320
1324
1328
1332
1336
1340
1344
1348
1352
1356
1360
1364
1368
1372
1376
1380
1384
1388
1392
1396
1400
1404
1408
1412
1416
1420
1424
1428
1432
1436
1440
1444
1448
1452
1456
1460
1464
1468
1472
1476
1480
1484
1488
1492
1496
1500
1504
1508
1512
1516
1520
1524
1528
1532
1536
1540
1544
1548
1552
1556
1560
1564
1568
1572
1576
1580
1584
1588
1592
1596
1600
1604
1608
1612
1616
1620
1624
1628
1632
1636
1640
1644
1648
1652
1656
1660
1664
1668
1672
1676
1680
1684
1688
1692
1696
1700
1704
1708
1712
1716
1720
1724
1728
1732
1736
1740
1744
1748
1752
1756
1760
1764
1768
1772
1776
1780
1784
1788
1792
1796
1800
1804
1808
1812
1816
1820
1824
1828
1832
1836
1840
1844
1848
1852
1856
1860
1864
1868
1872
1876
1880
1884
1888
1892
1896
1900
1904
1908
1912
1916
1920
1924
1928
1932
1936
1940
1944
1948
1952
1956
1960
1964
1968
1972
1976
1980
1984
1988
1992
1996
2000
2004
2008
2012
2016
2020
2024
2028
2032
2036
2040
2044
2048
2052
2056
2060
2064
2068
2072
2076
2080
2084
2088
2092
2096
2100
2104
2108
2112
2116
2120
2124
2128
2132
2136
2140
2144
2148
2152
2156
2160
2164
2168
2172
2176
2180
2184
2188
2192
2196
2200
2204
2208
2212
2216
2220
2224
2228
2232
2236
2240
2244
2248
2252
2256
2260
2264
2268
2272
2276
2280
2284
2288
2292
2296
2300
2304
2308
2312
2316
2320
2324
2328
2332
2336
2340
2344
2348
2352
2356
2360
2364
2368
2372
2376
2380
2384
2388
2392
2396
2400
2404
2408
2412
2416
2420
2424
2428
2432
2436
2440
2444
2448
2452
2456
2460
2464
2468
2472
2476
2480
2484
2488
2492
2496
2500
2504
2508
2512
2516
2520
2524
2528
2532
2536
2540
2544
2548
2552
2556
2560
2564
2568
2572
2576
2580
2584
2588
2592
2596
2600
2604
2608
2612
2616
2620
2624
2628
2632
2636
2640
2644
2648
2652
2656
2660
2664
2668
2672
2676
2680
2684
2688
2692
2696
2700
2704
2708
2712
2716
2720
2724
2728
2732
2736
2740
2744
2748
2752
2756
2760
2764
2768
2772
2776
2780
2784
2788
2792
2796
2800
2804
2808
2812
2816
2820
2824
2828
2832
2836
2840
2844
2848
2852
2856
2860
2864
2868
2872
2876
2880
2884
2888
2892
2896
2900
2904
2908
2912
2916
2920
2924
2928
2932
2936
2940
2944
2948
2952
2956
2960
2964
2968
2972
2976
2980
2984
2988
2992
2996
3000
3004
3008
3012
3016
3020
3024
3028
3032
3036
3040
3044
3048
3052
3056
3060
3064
3068
3072
3076
3080
3084
3088
3092
3096
3100
3104
3108
3112
3116
3120
3124
3128
3132
3136
3140
3144
3148
3152
3156
3160
3164
3168
3172
3176
3180
3184
3188
3192
3196
3200
3204
3208
3212
3216
3220
3224
3228
3232
3236
3240
3244
3248
3252
3256
3260
3264
3268
3272
3276
3280
3284
3288
3292
3296
3300
3304
3308
3312
3316
3320
3324
3328
3332
3336
3340
3344
3348
3352
3356
3360
3364
3368
3372
3376
3380
3384
3388
3392
3396
3400
3404
3408
3412
3416
3420
3424
3428
3432
3436
3440
3444
3448
3452
3456
3460
3464
3468
3472
3476
3480
3484
3488
3492
3496
3500
3504
3508
3512
3516
3520
3524
3528
3532
3536
3540
3544
3548
3552
3556
3560
3564
3568
3572
3576
3580
3584
3588
3592
3596
3600
3604
3608
3612
3616
3620
3624
3628
3632
3636
3640
3644
3648
3652
3656
3660
3664
3668
3672
3676
3680
3684
3688
3692
3696
3700
3704
3708
3712
3716
3720
3724
3728
3732
3736
3740
3744
3748
3752
3756
3760
3764
3768
3772
3776
3780
3784
3788
3792
3796
3800
3804
3808
3812
3816
3820
3824
3828
3832
3836
3840
3844
3848
3852
3856
3860
3864
3868
3872
3876
3880
3884
3888
3892
3896
3900
3904
3908
3912
3916
3920
3924
3928
3932
3936
3940
3944
3948
3952
3956
3960
3964
3968
3972
3976
3980
3984
3988
3992
3996
4000
4004
4008
4012
4016
4020
4024
4028
4032
4036
4040
4044
4048
4052
4056
4060
4064
4068
4072
4076
4080
4084
4088
4092
4096
4100
4104
4108
4112
4116
4120
4124
4128
4132
4136
4140
4144
4148
4152
4156
4160
4164
4168
4172
4176
4180
4184
4188
4192
4196
4200
4204
4208
4212
4216
4220
4224
4228
4232
4236
4240
4244
4248
4252
4256
4260
4264
4268
4272
4276
4280
4284
4288
4292
4296
4300
4304
4308
4312
4316
4320
4324
4328
4332
4336
4340
4344
4348
4352
4356
4360
4364
4368
4372
4376
4380
4384
4388
4392
4396
4400
4404
4408
4412
4416
4420
4424
4428
4432
4436
4440
4444
4448
4452
4456
4460
4464
4468
4472
4476
4480
4484
4488
4492
4496
4500
4504
4508
4512
4516
4520
4524
4528
4532
4536
4540
4544
4548
4552
4556
4560
4564
4568
4572
4576
4580
4584
4588
4592
4596
4600
4604
4608
4612
4616
4620
4624
4628
4632
4636
4640
4644
4648
4652
4656
4660
4664
4668
4672
4676
4680
4684
4688
4692
4696
4700
4704
4708
4712
4716
4720
4724
4728
4732
4736
4740
4744
4748
4752
4756
4760
4764
4768
4772
4776
4780
4784
4788
4792
4796
4800
4804
4808
4812
4816
4820
4824
4828
4832
4836
4840
4844
4848
4852
4856
4860
4864
4868
4872
4876
4880
4884
4888
4892
4896
4900
4904
4908
4912
4916
4920
4924
4928
4932
4936
4940
4944
4948
4952
4956
4960
4964
4968
4972
4976
4980
4984
4988
4992
4996
5000
5004
5008
5012
5016
5020
5024
5028
5032
5036
5040
5044
5048
5052
5056
5060
5064
5068
5072
5076
5080
5084
5088
5092
5096
5100
5104
5108
5112
5116
5120
5124
5128
5132
5136
5140
5144
5148
5152
5156
5160
5164
5168
5172
5176
5180
5184
5188
5192
5196
5200
5204
5208
5212
5216
5220
5224
5228
5232
5236
5240
5244
5248
5252
5256
5260
5264
5268
5272
5276
5280
5284
5288
5292
5296
5300
5304
5308
5312
5316
5320
5324
5328
5332
5336
5340
5344
5348
5352
5356
5360
5364
5368
5372
5376
5380
5384
5388
5392
5396
5400
5404
5408
5412
5416
5420
5424
5428
5432
5436
5440
5444
5448
5452
5456
5460
5464
5468
5472
5476
5480
5484
5488
5492
5496
5500
5504
5508
5512
5516
5520
5524
5528
5532
5536
5540
5544
5548
5552
5556
5560
5564
5568
5572
5576
5580
5584
5588
5592
5596
5600
5604
5608
5612
5616
5620
5624
5628
5632
5636
5640
5644
5648
5652
5656
5660
5664
5668
5672
5676
5680
5684
5688
5692
5696
5700
5704
5708
5712
5716
5720
5724
5728
5732
5736
5740
5744
5748
5752
5756
5760
5764
5768
5772
5776
5780
5784
5788
5792
5796
5800
5804
5808
5812
5816
5820
5824
5828
5832
5836
5840
5844
5848
5852
5856
5860
5864
5868
5872
5876
5880
5884
5888
5892
5896
5900
5904
5908
5912
5916
5920
5924
5928
5932
5936
5940
5944
5948
5952
5956
5960
5964
5968
5972
5976
5980
5984
5988
5992
5996
6000
              </DataArray>   
              <DataArray type="UInt8" Name="types" format="ascii">   
10
10
10
10
10
10
10
10
10
10
10
10
10
10
10
10
10
10
10
10
10
10
10
10
10
10
10
10
10
10
10
10
10
10
10
10
10
10
10
10
10
10
10
10
10
10
10
10
10
10
10
10
10
10
10
10
10
10
10
10
10
10
10
10
10
10
10
10
10
10
10
10
10
10
10
10
10
10
10
10
10
10
10
10
10
10
10
10
10
10
10
10
10
10
10
10
10
10
10
10
10
10
10
10
10
10
10
10
10
10
10
10
10
10
10
10
10
10
10
10
10
10
10
10
10
10
10
10
10
10
10
10
10
10
10
10
10
10
10
10
10
10
10
10
10
10
10
10
10
10
10
10
10
10
10
10
10
10
10
10
10
10
10
10
10
10
10
10
10
10
10
10
10
10
10
10
10
10
10
10
10
10
10
10
10
10
10
10
10
10
10
10
10
10
10
10
10
10
10
10
10
10
10
10
10
10
10
10
10
10
10
10
10
10
10
10
10
10
10
10
10
10
10
10
10
10
10
10
10
10
10
10
10
10
10
10
10
10
10
10
10
10
10
10
10
10
10
10
10
10
10
10
10
10
10
10
10
10
10
10
10
10
10
10
10
10
10
10
10
10
10
10
10
10
10
10
10
10
10
10
10
10
10
10
10
10
10
10
10
10
10
10
10
10
10
10
10
10
10
10
10
10
10
10
10
10
10
10
10
10
10
10
10
10
10
10
10
10
10
10
10
10
10
10
10
10
10
10
10
10
10
10
10
10
10
10
10
10
10
10
10
10
10
10
10
10
10
10
10
10
10
10
10
10
10
10
10
10
10
10
10
10
10
10
10
10
10
10
10
10
10
10
10
10
10
10
10
10
10
10
10
10
10
10
10
10
10
10
10
10
10
10
10
10
10
10
10
10
10
10
10
10
10
10
10
10
10
10
10
10
10
10
10
10
10
10
10
10
10
10
10
10
10
10
10
10
10
10
10
10
10
10
10
10
10
10
10
10
10
10
10
10
10
10
10
10
10
10
10
10
10
10
10
10
10
10
10
10
10
10
10
10
10
10
10
10
10
10
10
10
10
10
10
10
10
10
10
10
10
10
10
10
10
10
10
10
10
10
10
10
10
10
10
10
10
10
10
10
10
10
10
10
10
10
10
10
10
10
10
10
10
10
10
10
10
10
10
10
10
10
10
10
10
10
10
10
10
10
10
10
10
10
10
10
10
10
10
10
10
10
10
10
10
10
10
10
10
10
10
10
10
10
10
10
10
10
10
10
10
10
10
10
10
10
10
10
10
10
10
10
10
10
10
10
10
10
10
10
10
10
10
10
10
10
10
10
10
10
10
10
10
10
10
10
10
10
10
10
10
10
10
10
10
10
10
10
10
10
10
10
10
10
10
10
10
10
10
10
10
10
10
10
10
10
10
10
10
10
10
10
10
10
10
10
10
10
10
10
10
10
10
10
10
10
10
10
10
10
10
10
10
10
10
10
10
10
10
10
10
10
10
10
10
10
10
10
10
10
10
10
10
10
10
10
10
10
10
10
10
10
10
10
10
10
10
10
10
10
10
10
10
10
10
10
10
10
10
10
10
10
10
10
10
10
10
10
10
10
10
10
10
10
10
10
10
10
10
10
10
10
10
10
10
10
10
10
10
10
10
10
10
10
10
10
10
10
10
10
10
10
10
10
10
10
10
10
10
10
10
10
10
10
10
10
10
10
10
10
10
10
10
10
10
10
10
10
10
10
10
10
10
10
10
10
10
10
10
10
10
10
10
10
10
10
10
10
10
10
10
10
10
10
10
10
10
10
10
10
10
10
10
10
10
10
10
10
10
10
10
10
10
10
10
10
10
10
10
10
10
10
10
10
10
10
10
10
10
10
10
10
10
10
10
10
10
10
10
10
10
10
10
10
10
10
10
10
10
10
10
10
10
10
10
10
10
10
10
10
10
10
10
10
10
10
10
10
10
10
10
10
10
10
10
10
10
10
10
10
10
10
10
10
10
10
10
10
10
10
10
10
10
10
10
10
10
10
10
10
10
10
10
10
10
10
10
10
10
10
10
10
10
10
10
10
10
10
10
10
10
10
10
10
10
10
10
10
10
10
10
10
10
10
10
10
10
10
10
10
10
10
10
10
10
10
10
10
10
10
10
10
10
10
10
10
10
10
10
10
10
10
10
10
10
10
10
10
10
10
10
10
10
10
10
10
10
10
10
10
10
10
10
10
10
10
10
10
10
10
10
10
10
10
10
10
10
10
10
10
10
10
10
10
10
10
10
10
10
10
10
10
10
10
10
10
10
10
10
10
10
10
10
10
10
10
10
10
10
10
10
10
10
10
10
10
10
10
10
10
10
10
10
10
10
10
10
10
10
10
10
10
10
10
10
10
10
10
10
10
10
10
10
10
10
10
10
10
10
10
10
10
10
10
10
10
10
10
10
10
10
10
10
10
10
10
10
10
10
10
10
10
10
10
10
10
10
10
10
10
10
10
10
10
10
10
10
10
10
10
10
10
10
10
10
10
10
10
10
10
10
10
10
10
10
10
10
10
10
10
10
10
10
10
10
10
10
10
10
10
10
10
10
10
10
10
10
10
10
10
10
10
10
10
10
10
10
10
10
10
10
10
10
10
10
10
10
10
10
10
10
10
10
10
10
10
10
10
10
10
10
10
10
10
10
10
10
10
10
10
10
10
10
10
10
10
10
10
10
10
10
10
10
10
10
10
10
10
10
10
10
10
10
10
10
10
10
10
10
10
10
10
10
10
10
10
10
10
10
10
10
10
10
10
10
10
10
10
10
10
10
10
10
10
10
10
10
10
10
10
10
10
10
10
10
10
10
10
10
10
10
10
10
10
10
10
10
10
10
10
10
10
10
10
10
10
10
10
10
10
10
10
10
10
10
10
10
10
10
10
10
10
10
10
10
10
10
10
10
10
10
10
10
10
10
10
10
10
10
10
10
10
10
10
10
10
10
10
10
10
10
10
10
10
10
10
10
10
10
10
10
10
10
10
10
10
10
10
10
10
10
10
10
10
10
10
10
10
10
10
10
10
10
10
10
10
10
10
10
10
10
10
10
10
10
10
10
10
10
10
10
10
10
10
10
10
10
10
10
10
10
10
10
10
10
10
10
10
10
10
10
10
10
10
10
10
10
10
10
10
10
10
10
10
10
10
10
10
10
10
10
10
10
10
10
10
10
10
10
10
10
10
10
10
10
10
10
10
10
10
10
10
10
10
10
10
10
10
10
10
10
10
10
10
10
10
10
10
10
10
10
10
10
10
10
10
10
10
10
10
10
10
10
10
10
10
10
10
10
10
10
10
10
10
10
10
10
10
10
10
10
10
10
10
10
10
10
10
10
10
10
10
10
10
10
10
10
10
10
10
10
10
              </DataArray>   
          </Cells>  
          <PointData>  
             <DataArray type="Float64" NumberOfComponents="3" Name="Strains" format="ascii">   
-5.05631382922735e-05   0.0   -3.330651037324836e-05
-5.05631382922735e-05   0.0   -3.330651037324836e-05
-5.05631382922735e-05   0.0   -3.330651037324836e-05
-5.05631382922735e-05   0.0   -3.330651037324836e-05
-3.216225291142018e-05   5.58526009637759e-06   7.127879860003189e-07
-3.216225291142018e-05   5.58526009637759e-06   7.127879860003189e-07
-3.216225291142018e-05   5.58526009637759e-06   7.127879860003189e-07
-3.216225291142018e-05   5.58526009637759e-06   7.127879860003189e-07
-3.1517942177977465e-05   0.0   -3.145082094114694e-05
-3.1517942177977465e-05   0.0   -3.145082094114694e-05
-3.1517942177977465e-05   0.0   -3.145082094114694e-05
-3.1517942177977465e-05   0.0   -3.145082094114694e-05
-5.290652083237509e-05   6.710309663165215e-06   1.7062435161677343e-07
-5.290652083237509e-05   6.710309663165215e-06   1.7062435161677343e-07
-5.290652083237509e-05   6.710309663165215e-06   1.7062435161677343e-07
-5.290652083237509e-05   6.710309663165215e-06   1.7062435161677343e-07
-4.1040540235125406e-05   1.5464078600845138e-06   -1.6507668895284254e-05
-4.1040540235125406e-05   1.5464078600845138e-06   -1.6507668895284254e-05
-4.1040540235125406e-05   1.5464078600845138e-06   -1.6507668895284254e-05
-4.1040540235125406e-05   1.5464078600845138e-06   -1.6507668895284254e-05
-5.290652083237518e-05   0.0   -3.5477006739046075e-05
-5.290652083237518e-05   0.0   -3.5477006739046075e-05
-5.290652083237518e-05   0.0   -3.5477006739046075e-05
-5.290652083237518e-05   0.0   -3.5477006739046075e-05
-3.1517942177977465e-05   6.710309663165222e-06   4.196810149515905e-06
-3.1517942177977465e-05   6.710309663165222e-06   4.196810149515905e-06
-3.1517942177977465e-05   6.710309663165222e-06   4.196810149515905e-06
-3.1517942177977465e-05   6.710309663165222e-06   4.196810149515905e-06
-3.159791231177952e-05   0.0   -3.2218226675338787e-05
-3.159791231177952e-05   0.0   -3.2218226675338787e-05
-3.159791231177952e-05   0.0   -3.2218226675338787e-05
-3.159791231177952e-05   0.0   -3.2218226675338787e-05
-5.454816225219005e-05   7.191186078055673e-06   1.7174782451788212e-06
-5.454816225219005e-05   7.191186078055673e-06   1.7174782451788212e-06
-5.454816225219005e-05   7.191186078055673e-06   1.7174782451788212e-06
-5.454816225219005e-05   7.191186078055673e-06   1.7174782451788212e-06
-4.2252216572077276e-05   2.7156500530894044e-06   -1.609044294002935e-05
-4.2252216572077276e-05   2.7156500530894044e-06   -1.609044294002935e-05
-4.2252216572077276e-05   2.7156500530894044e-06   -1.609044294002935e-05
-4.2252216572077276e-05   2.7156500530894044e-06   -1.609044294002935e-05
-5.4548162252190145e-05   0.0   -3.6532938322172195e-05
-5.4548162252190145e-05   0.0   -3.6532938322172195e-05
-5.4548162252190145e-05   0.0   -3.6532938322172195e-05
-5.4548162252190145e-05   0.0   -3.6532938322172195e-05
-3.159791231177952e-05   7.191186078055687e-06   6.032189892012236e-06
-3.159791231177952e-05   7.191186078055687e-06   6.032189892012236e-06
-3.159791231177952e-05   7.191186078055687e-06   6.032189892012236e-06
-3.159791231177952e-05   7.191186078055687e-06   6.032189892012236e-06
-3.157125288341875e-05   0.0   -3.241682530889706e-05
-3.157125288341875e-05   0.0   -3.241682530889706e-05
-3.157125288341875e-05   0.0   -3.241682530889706e-05
-3.157125288341875e-05   0.0   -3.241682530889706e-05
-5.8093558326682767e-05   8.198794460607264e-06   6.867740420178769e-06
-5.8093558326682767e-05   8.198794460607264e-06   6.867740420178769e-06
-5.8093558326682767e-05   8.198794460607264e-06   6.867740420178769e-06
-5.8093558326682767e-05   8.198794460607264e-06   6.867740420178769e-06
-4.305970756780437e-05   3.4300941777292775e-06   -1.5327457341558417e-05
-4.305970756780437e-05   3.4300941777292775e-06   -1.5327457341558417e-05
-4.305970756780437e-05   3.4300941777292775e-06   -1.5327457341558417e-05
-4.305970756780437e-05   3.4300941777292775e-06   -1.5327457341558417e-05
-3.216225291142024e-05   0.0   -2.99553543154218e-05
-3.216225291142024e-05   0.0   -2.99553543154218e-05
-3.216225291142024e-05   0.0   -2.99553543154218e-05
-3.216225291142024e-05   0.0   -2.99553543154218e-05
-1.465717464669213e-05   2.045334662580205e-06   4.4697692333981644e-07
-1.465717464669213e-05   2.045334662580205e-06   4.4697692333981644e-07
-1.465717464669213e-05   2.045334662580205e-06   4.4697692333981644e-07
-1.465717464669213e-05   2.045334662580205e-06   4.4697692333981644e-07
-1.4088373301639542e-05   0.0   -2.9700471844035178e-05
-1.4088373301639542e-05   0.0   -2.9700471844035178e-05
-1.4088373301639542e-05   0.0   -2.9700471844035178e-05
-1.4088373301639542e-05   0.0   -2.9700471844035178e-05
-3.1517942177977465e-05   2.9172484951862736e-06   -2.4015394805837335e-06
-3.1517942177977465e-05   2.9172484951862736e-06   -2.4015394805837335e-06
-3.1517942177977465e-05   2.9172484951862736e-06   -2.4015394805837335e-06
-3.1517942177977465e-05   2.9172484951862736e-06   -2.4015394805837335e-06
-2.312531310652985e-05   2.1240205948885218e-07   -1.4766346738244539e-05
-2.312531310652985e-05   2.1240205948885218e-07   -1.4766346738244539e-05
-2.312531310652985e-05   2.1240205948885218e-07   -1.4766346738244539e-05
-2.312531310652985e-05   2.1240205948885218e-07   -1.4766346738244539e-05
-3.151794217797744e-05   0.0   -3.1450820941146915e-05
-3.151794217797744e-05   0.0   -3.1450820941146915e-05
-3.151794217797744e-05   0.0   -3.1450820941146915e-05
-3.151794217797744e-05   0.0   -3.1450820941146915e-05
-1.4088373301639542e-05   2.9172484951862736e-06   -6.511903834719686e-07
-1.4088373301639542e-05   2.9172484951862736e-06   -6.511903834719686e-07
-1.4088373301639542e-05   2.9172484951862736e-06   -6.511903834719686e-07
-1.4088373301639542e-05   2.9172484951862736e-06   -6.511903834719686e-07
-1.376527229999003e-05   0.0   -3.0071449042219512e-05
-1.376527229999003e-05   0.0   -3.0071449042219512e-05
-1.376527229999003e-05   0.0   -3.0071449042219512e-05
-1.376527229999003e-05   0.0   -3.0071449042219512e-05
-3.159791231177952e-05   3.5779627218654534e-06   -2.4971599890229656e-06
-3.159791231177952e-05   3.5779627218654534e-06   -2.4971599890229656e-06
-3.159791231177952e-05   3.5779627218654534e-06   -2.4971599890229656e-06
-3.159791231177952e-05   3.5779627218654534e-06   -2.4971599890229656e-06
-2.26416072389837e-05   1.14947658243952e-06   -1.5967243426693646e-05
-2.26416072389837e-05   1.14947658243952e-06   -1.5967243426693646e-05
-2.26416072389837e-05   1.14947658243952e-06   -1.5967243426693646e-05
-2.26416072389837e-05   1.14947658243952e-06   -1.5967243426693646e-05
-3.159791231177952e-05   0.0   -3.2218226675338787e-05
-3.159791231177952e-05   0.0   -3.2218226675338787e-05
-3.159791231177952e-05   0.0   -3.2218226675338787e-05
-3.159791231177952e-05   0.0   -3.2218226675338787e-05
-1.376527229999003e-05   3.5779627218654534e-06   -3.503823559036915e-07
-1.376527229999003e-05   3.5779627218654534e-06   -3.503823559036915e-07
-1.376527229999003e-05   3.5779627218654534e-06   -3.503823559036915e-07
-1.376527229999003e-05   3.5779627218654534e-06   -3.503823559036915e-07
-1.346959065033351e-05   0.0   -2.991753005706613e-05
-1.346959065033351e-05   0.0   -2.991753005706613e-05
-1.346959065033351e-05   0.0   -2.991753005706613e-05
-1.346959065033351e-05   0.0   -2.991753005706613e-05
-3.1571252883418666e-05   4.165492086384829e-06   -2.2473882537549862e-06
-3.1571252883418666e-05   4.165492086384829e-06   -2.2473882537549862e-06
-3.1571252883418666e-05   4.165492086384829e-06   -2.2473882537549862e-06
-3.1571252883418666e-05   4.165492086384829e-06   -2.2473882537549862e-06
-2.253375148105651e-05   1.917247181893862e-06   -1.5960943648330777e-05
-2.253375148105651e-05   1.917247181893862e-06   -1.5960943648330777e-05
-2.253375148105651e-05   1.917247181893862e-06   -1.5960943648330777e-05
-2.253375148105651e-05   1.917247181893862e-06   -1.5960943648330777e-05
-1.4657174646692155e-05   0.0   -2.8728153517873676e-05
-1.4657174646692155e-05   0.0   -2.8728153517873676e-05
-1.4657174646692155e-05   0.0   -2.8728153517873676e-05
-1.4657174646692155e-05   0.0   -2.8728153517873676e-05
1.874215940955347e-06   -2.6438502896969503e-07   -1.3344668891762944e-06
1.874215940955347e-06   -2.6438502896969503e-07   -1.3344668891762944e-06
1.874215940955347e-06   -2.6438502896969503e-07   -1.3344668891762944e-06
1.874215940955347e-06   -2.6438502896969503e-07   -1.3344668891762944e-06
2.241413984858991e-06   0.0   -2.9389541628509027e-05
2.241413984858991e-06   0.0   -2.9389541628509027e-05
2.241413984858991e-06   0.0   -2.9389541628509027e-05
2.241413984858991e-06   0.0   -2.9389541628509027e-05
-1.4088373301639542e-05   5.182170258767458e-07   -2.484159699870951e-06
-1.4088373301639542e-05   5.182170258767458e-07   -2.484159699870951e-06
-1.4088373301639542e-05   5.182170258767458e-07   -2.484159699870951e-06
-1.4088373301639542e-05   5.182170258767458e-07   -2.484159699870951e-06
-6.2078803309165675e-06   -5.511567588628775e-07   -1.4976690380232071e-05
-6.2078803309165675e-06   -5.511567588628775e-07   -1.4976690380232071e-05
-6.2078803309165675e-06   -5.511567588628775e-07   -1.4976690380232071e-05
-6.2078803309165675e-06   -5.511567588628775e-07   -1.4976690380232071e-05
-1.4088373301639542e-05   0.0   -2.9700471844035178e-05
-1.4088373301639542e-05   0.0   -2.9700471844035178e-05
-1.4088373301639542e-05   0.0   -2.9700471844035178e-05
-1.4088373301639542e-05   0.0   -2.9700471844035178e-05
2.241413984858995e-06   5.182170258767458e-07   -2.1732294843448924e-06
2.241413984858995e-06   5.182170258767458e-07   -2.1732294843448924e-06
2.241413984858995e-06   5.182170258767458e-07   -2.1732294843448924e-06
2.241413984858995e-06   5.182170258767458e-07   -2.1732294843448924e-06
2.532408428955564e-06   0.0   -2.934681076410218e-05
2.532408428955564e-06   0.0   -2.934681076410218e-05
2.532408428955564e-06   0.0   -2.934681076410218e-05
2.532408428955564e-06   0.0   -2.934681076410218e-05
-1.3765272299990007e-05   1.2077304635287997e-06   -2.9086478273101813e-06
-1.3765272299990007e-05   1.2077304635287997e-06   -2.9086478273101813e-06
-1.3765272299990007e-05   1.2077304635287997e-06   -2.9086478273101813e-06
-1.3765272299990007e-05   1.2077304635287997e-06   -2.9086478273101813e-06
-5.777982436341987e-06   2.9471756661078984e-07   -1.5672989861906104e-05
-5.777982436341987e-06   2.9471756661078984e-07   -1.5672989861906104e-05
-5.777982436341987e-06   2.9471756661078984e-07   -1.5672989861906104e-05
-5.777982436341987e-06   2.9471756661078984e-07   -1.5672989861906104e-05
-1.376527229999003e-05   0.0   -3.0071449042219512e-05
-1.376527229999003e-05   0.0   -3.0071449042219512e-05
-1.376527229999003e-05   0.0   -3.0071449042219512e-05
-1.376527229999003e-05   0.0   -3.0071449042219512e-05
2.532408428955568e-06   1.2077304635287997e-06   -2.184009549192903e-06
2.532408428955568e-06   1.2077304635287997e-06   -2.184009549192903e-06
2.532408428955568e-06   1.2077304635287997e-06   -2.184009549192903e-06
2.532408428955568e-06   1.2077304635287997e-06   -2.184009549192903e-06
2.920983109736704e-06   0.0   -2.8714030474044207e-05
2.920983109736704e-06   0.0   -2.8714030474044207e-05
2.920983109736704e-06   0.0   -2.8714030474044207e-05
2.920983109736704e-06   0.0   -2.8714030474044207e-05
-1.3469590650333498e-05   2.0058326383698243e-06   -2.599907123615766e-06
-1.3469590650333498e-05   2.0058326383698243e-06   -2.599907123615766e-06
-1.3469590650333498e-05   2.0058326383698243e-06   -2.599907123615766e-06
-1.3469590650333498e-05   2.0058326383698243e-06   -2.599907123615766e-06
-5.422144595126651e-06   1.131182140146044e-06   -1.5487526916692898e-05
-5.422144595126651e-06   1.131182140146044e-06   -1.5487526916692898e-05
-5.422144595126651e-06   1.131182140146044e-06   -1.5487526916692898e-05
-5.422144595126651e-06   1.131182140146044e-06   -1.5487526916692898e-05
1.8742159409553502e-06   0.0   -2.8886784535255494e-05
1.8742159409553502e-06   0.0   -2.8886784535255494e-05
1.8742159409553502e-06   0.0   -2.8886784535255494e-05
1.8742159409553502e-06   0.0   -2.8886784535255494e-05
1.9826375837326914e-05   -2.3254783560620323e-06   -3.6180505494008924e-07
1.9826375837326914e-05   -2.3254783560620323e-06   -3.6180505494008924e-07
1.9826375837326914e-05   -2.3254783560620323e-06   -3.6180505494008924e-07
1.9826375837326914e-05   -2.3254783560620323e-06   -3.6180505494008924e-07
1.987252772158845e-05   0.0   -3.0439895491496342e-05
1.987252772158845e-05   0.0   -3.0439895491496342e-05
1.987252772158845e-05   0.0   -3.0439895491496342e-05
1.987252772158845e-05   0.0   -3.0439895491496342e-05
2.2414139848589987e-06   -1.7505897716453545e-06   -4.352067293381498e-09
2.2414139848589987e-06   -1.7505897716453545e-06   -4.352067293381498e-09
2.2414139848589987e-06   -1.7505897716453545e-06   -4.352067293381498e-09
2.2414139848589987e-06   -1.7505897716453545e-06   -4.352067293381498e-09
1.08733718312719e-05   -1.2942591302007072e-06   -1.4664746862848324e-05
1.08733718312719e-05   -1.2942591302007072e-06   -1.4664746862848324e-05
1.08733718312719e-05   -1.2942591302007072e-06   -1.4664746862848324e-05
1.08733718312719e-05   -1.2942591302007072e-06   -1.4664746862848324e-05
2.2414139848589987e-06   0.0   -2.938954162850913e-05
2.2414139848589987e-06   0.0   -2.938954162850913e-05
2.2414139848589987e-06   0.0   -2.938954162850913e-05
2.2414139848589987e-06   0.0   -2.938954162850913e-05
1.987252772158845e-05   -1.7505897716453545e-06   -1.0547059302805944e-06
1.987252772158845e-05   -1.7505897716453545e-06   -1.0547059302805944e-06
1.987252772158845e-05   -1.7505897716453545e-06   -1.0547059302805944e-06
1.987252772158845e-05   -1.7505897716453545e-06   -1.0547059302805944e-06
1.9796807612470844e-05   0.0   -3.0005303346383936e-05
1.9796807612470844e-05   0.0   -3.0005303346383936e-05
1.9796807612470844e-05   0.0   -3.0005303346383936e-05
1.9796807612470844e-05   0.0   -3.0005303346383936e-05
2.532408428955568e-06   -1.0974876371361758e-06   -5.728121249101096e-07
2.532408428955568e-06   -1.0974876371361758e-06   -5.728121249101096e-07
2.532408428955568e-06   -1.0974876371361758e-06   -5.728121249101096e-07
2.532408428955568e-06   -1.0974876371361758e-06   -5.728121249101096e-07
1.1019110798664921e-05   -5.131347648956744e-07   -1.5067927797769986e-05
1.1019110798664921e-05   -5.131347648956744e-07   -1.5067927797769986e-05
1.1019110798664921e-05   -5.131347648956744e-07   -1.5067927797769986e-05
1.1019110798664921e-05   -5.131347648956744e-07   -1.5067927797769986e-05
2.532408428955566e-06   0.0   -2.9346810764102207e-05
2.532408428955566e-06   0.0   -2.9346810764102207e-05
2.532408428955566e-06   0.0   -2.9346810764102207e-05
2.532408428955566e-06   0.0   -2.9346810764102207e-05
1.9796807612470844e-05   -1.0974876371361758e-06   -1.231304707191813e-06
1.9796807612470844e-05   -1.0974876371361758e-06   -1.231304707191813e-06
1.9796807612470844e-05   -1.0974876371361758e-06   -1.231304707191813e-06
1.9796807612470844e-05   -1.0974876371361758e-06   -1.231304707191813e-06
2.0189235753831793e-05   0.0   -2.8846292355595714e-05
2.0189235753831793e-05   0.0   -2.8846292355595714e-05
2.0189235753831793e-05   0.0   -2.8846292355595714e-05
2.0189235753831793e-05   0.0   -2.8846292355595714e-05
2.920983109736709e-06   -2.2043646925241803e-07   6.639059944754278e-08
2.920983109736709e-06   -2.2043646925241803e-07   6.639059944754278e-08
2.920983109736709e-06   -2.2043646925241803e-07   6.639059944754278e-08
2.920983109736709e-06   -2.2043646925241803e-07   6.639059944754278e-08
1.1360822091393672e-05   4.170986737554352e-07   -1.438252878911876e-05
1.1360822091393672e-05   4.170986737554352e-07   -1.438252878911876e-05
1.1360822091393672e-05   4.170986737554352e-07   -1.438252878911876e-05
1.1360822091393672e-05   4.170986737554352e-07   -1.438252878911876e-05
1.9826375837326914e-05   0.0   -3.028207154889271e-05
1.9826375837326914e-05   0.0   -3.028207154889271e-05
1.9826375837326914e-05   0.0   -3.028207154889271e-05
1.9826375837326914e-05   0.0   -3.028207154889271e-05
4.4818492616070525e-05   -5.902407897992196e-06   7.830011676884907e-06
4.4818492616070525e-05   -5.902407897992196e-06   7.830011676884907e-06
4.4818492616070525e-05   -5.902407897992196e-06   7.830011676884907e-06
4.4818492616070525e-05   -5.902407897992196e-06   7.830011676884907e-06
4.2105952049362114e-05   0.0   -3.3449648038125844e-05
4.2105952049362114e-05   0.0   -3.3449648038125844e-05
4.2105952049362114e-05   0.0   -3.3449648038125844e-05
4.2105952049362114e-05   0.0   -3.3449648038125844e-05
1.987252772158845e-05   -5.016254244382499e-06   6.615811721459759e-06
1.987252772158845e-05   -5.016254244382499e-06   6.615811721459759e-06
1.987252772158845e-05   -5.016254244382499e-06   6.615811721459759e-06
1.987252772158845e-05   -5.016254244382499e-06   6.615811721459759e-06
3.096616394334451e-05   -2.639647074360944e-06   -1.3299546283479935e-05
3.096616394334451e-05   -2.639647074360944e-06   -1.3299546283479935e-05
3.096616394334451e-05   -2.639647074360944e-06   -1.3299546283479935e-05
3.096616394334451e-05   -2.639647074360944e-06   -1.3299546283479935e-05
1.9872527721588432e-05   0.0   -3.0439895491496315e-05
1.9872527721588432e-05   0.0   -3.0439895491496315e-05
1.9872527721588432e-05   0.0   -3.0439895491496315e-05
1.9872527721588432e-05   0.0   -3.0439895491496315e-05
4.2105952049361965e-05   -5.0162542443824855e-06   3.60605917483023e-06
4.2105952049361965e-05   -5.0162542443824855e-06   3.60605917483023e-06
4.2105952049361965e-05   -5.0162542443824855e-06   3.60605917483023e-06
4.2105952049361965e-05   -5.0162542443824855e-06   3.60605917483023e-06
4.0859332974514006e-05   0.0   -3.2754314494432224e-05
4.0859332974514006e-05   0.0   -3.2754314494432224e-05
4.0859332974514006e-05   0.0   -3.2754314494432224e-05
4.0859332974514006e-05   0.0   -3.2754314494432224e-05
1.9796807612470844e-05   -4.581685246747145e-06   5.098905590354663e-06
1.9796807612470844e-05   -4.581685246747145e-06   5.098905590354663e-06
1.9796807612470844e-05   -4.581685246747145e-06   5.098905590354663e-06
1.9796807612470844e-05   -4.581685246747145e-06   5.098905590354663e-06
3.036593034805121e-05   -1.928682502446573e-06   -1.4108100615526294e-05
3.036593034805121e-05   -1.928682502446573e-06   -1.4108100615526294e-05
3.036593034805121e-05   -1.928682502446573e-06   -1.4108100615526294e-05
3.036593034805121e-05   -1.928682502446573e-06   -1.4108100615526294e-05
1.9796807612470844e-05   0.0   -3.0005303346383936e-05
1.9796807612470844e-05   0.0   -3.0005303346383936e-05
1.9796807612470844e-05   0.0   -3.0005303346383936e-05
1.9796807612470844e-05   0.0   -3.0005303346383936e-05
4.085933297451386e-05   -4.581685246747138e-06   2.349894442306354e-06
4.085933297451386e-05   -4.581685246747138e-06   2.349894442306354e-06
4.085933297451386e-05   -4.581685246747138e-06   2.349894442306354e-06
4.085933297451386e-05   -4.581685246747138e-06   2.349894442306354e-06
3.899690401126409e-05   0.0   -3.097883096027912e-05
3.899690401126409e-05   0.0   -3.097883096027912e-05
3.899690401126409e-05   0.0   -3.097883096027912e-05
3.899690401126409e-05   0.0   -3.097883096027912e-05
2.0189235753831793e-05   -3.55423100780578e-06   2.499821406791554e-06
2.0189235753831793e-05   -3.55423100780578e-06   2.499821406791554e-06
2.0189235753831793e-05   -3.55423100780578e-06   2.499821406791554e-06
2.0189235753831793e-05   -3.55423100780578e-06   2.499821406791554e-06
2.93968558118675e-05   -8.112730115793669e-07   -1.4491986821003785e-05
2.93968558118675e-05   -8.112730115793669e-07   -1.4491986821003785e-05
2.93968558118675e-05   -8.112730115793669e-07   -1.4491986821003785e-05
2.93968558118675e-05   -8.112730115793669e-07   -1.4491986821003785e-05
-4.378051475921619e-05   5.585260096377583e-06   -2.8806697670618917e-05
-4.378051475921619e-05   5.585260096377583e-06   -2.8806697670618917e-05
-4.378051475921619e-05   5.585260096377583e-06   -2.8806697670618917e-05
-4.378051475921619e-05   5.585260096377583e-06   -2.8806697670618917e-05
-2.8049172551468436e-05   5.017267864357495e-06   -2.9285893302513573e-06
-2.8049172551468436e-05   5.017267864357495e-06   -2.9285893302513573e-06
-2.8049172551468436e-05   5.017267864357495e-06   -2.9285893302513573e-06
-2.8049172551468436e-05   5.017267864357495e-06   -2.9285893302513573e-06
-2.875018636319178e-05   6.710309663165209e-06   -2.4200689078028015e-05
-2.875018636319178e-05   6.710309663165209e-06   -2.4200689078028015e-05
-2.875018636319178e-05   6.710309663165209e-06   -2.4200689078028015e-05
-2.875018636319178e-05   6.710309663165209e-06   -2.4200689078028015e-05
-4.424456834400174e-05   6.026830878822029e-06   2.033368160594566e-06
-4.424456834400174e-05   6.026830878822029e-06   2.033368160594566e-06
-4.424456834400174e-05   6.026830878822029e-06   2.033368160594566e-06
-4.424456834400174e-05   6.026830878822029e-06   2.033368160594566e-06
-3.477150392443182e-05   5.836551382563173e-06   -1.3640904840933542e-05
-3.477150392443182e-05   5.836551382563173e-06   -1.3640904840933542e-05
-3.477150392443182e-05   5.836551382563173e-06   -1.3640904840933542e-05
-3.477150392443182e-05   5.836551382563173e-06   -1.3640904840933542e-05
-4.424456834400174e-05   6.710309663165209e-06   -2.3790601807422114e-05
-4.424456834400174e-05   6.710309663165209e-06   -2.3790601807422114e-05
-4.424456834400174e-05   6.710309663165209e-06   -2.3790601807422114e-05
-4.424456834400174e-05   6.710309663165209e-06   -2.3790601807422114e-05
-2.875018636319188e-05   6.0268308788220565e-06   1.623280889988672e-06
-2.875018636319188e-05   6.0268308788220565e-06   1.623280889988672e-06
-2.875018636319188e-05   6.0268308788220565e-06   1.623280889988672e-06
-2.875018636319188e-05   6.0268308788220565e-06   1.623280889988672e-06
-2.8892066270122528e-05   7.19118607805566e-06   -2.1763399572806566e-05
-2.8892066270122528e-05   7.19118607805566e-06   -2.1763399572806566e-05
-2.8892066270122528e-05   7.19118607805566e-06   -2.1763399572806566e-05
-2.8892066270122528e-05   7.19118607805566e-06   -2.1763399572806566e-05
-4.454742184009137e-05   6.482666589812004e-06   4.753971403420891e-06
-4.454742184009137e-05   6.482666589812004e-06   4.753971403420891e-06
-4.454742184009137e-05   6.482666589812004e-06   4.753971403420891e-06
-4.454742184009137e-05   6.482666589812004e-06   4.753971403420891e-06
-3.578748166405574e-05   6.471095168883299e-06   -9.838986037414462e-06
-3.578748166405574e-05   6.471095168883299e-06   -9.838986037414462e-06
-3.578748166405574e-05   6.471095168883299e-06   -9.838986037414462e-06
-3.578748166405574e-05   6.471095168883299e-06   -9.838986037414462e-06
-4.4547421840091286e-05   7.19118607805566e-06   -2.1338287879860363e-05
-4.4547421840091286e-05   7.19118607805566e-06   -2.1338287879860363e-05
-4.4547421840091286e-05   7.19118607805566e-06   -2.1338287879860363e-05
-4.4547421840091286e-05   7.19118607805566e-06   -2.1338287879860363e-05
-2.8892066270122582e-05   6.482666589812004e-06   4.328859710474702e-06
-2.8892066270122582e-05   6.482666589812004e-06   4.328859710474702e-06
-2.8892066270122582e-05   6.482666589812004e-06   4.328859710474702e-06
-2.8892066270122582e-05   6.482666589812004e-06   4.328859710474702e-06
-2.8722420280943213e-05   8.19879446060725e-06   -1.6097695974365126e-05
-2.8722420280943213e-05   8.19879446060725e-06   -1.6097695974365126e-05
-2.8722420280943213e-05   8.19879446060725e-06   -1.6097695974365126e-05
-2.8722420280943213e-05   8.19879446060725e-06   -1.6097695974365126e-05
-4.3299680057819635e-05   6.847800556026158e-06   9.00833332984408e-06
-4.3299680057819635e-05   6.847800556026158e-06   9.00833332984408e-06
-4.3299680057819635e-05   6.847800556026158e-06   9.00833332984408e-06
-4.3299680057819635e-05   6.847800556026158e-06   9.00833332984408e-06
-3.484889330909057e-05   7.10096199216988e-06   -5.228208113057222e-06
-3.484889330909057e-05   7.10096199216988e-06   -5.228208113057222e-06
-3.484889330909057e-05   7.10096199216988e-06   -5.228208113057222e-06
-3.484889330909057e-05   7.10096199216988e-06   -5.228208113057222e-06
-2.8049172551468436e-05   2.0453346625801984e-06   -3.06405048700396e-05
-2.8049172551468436e-05   2.0453346625801984e-06   -3.06405048700396e-05
-2.8049172551468436e-05   2.0453346625801984e-06   -3.06405048700396e-05
-2.8049172551468436e-05   2.0453346625801984e-06   -3.06405048700396e-05
-1.3305761351388705e-05   2.3347833841642007e-06   -5.894483636956262e-06
-1.3305761351388705e-05   2.3347833841642007e-06   -5.894483636956262e-06
-1.3305761351388705e-05   2.3347833841642007e-06   -5.894483636956262e-06
-1.3305761351388705e-05   2.3347833841642007e-06   -5.894483636956262e-06
-1.361863864253635e-05   2.91724849518626e-06   -3.0591572654542376e-05
-1.361863864253635e-05   2.91724849518626e-06   -3.0591572654542376e-05
-1.361863864253635e-05   2.91724849518626e-06   -3.0591572654542376e-05
-1.361863864253635e-05   2.91724849518626e-06   -3.0591572654542376e-05
-2.875018636319178e-05   3.2630252511617157e-06   -5.5797925070351844e-06
-2.875018636319178e-05   3.2630252511617157e-06   -5.5797925070351844e-06
-2.875018636319178e-05   3.2630252511617157e-06   -5.5797925070351844e-06
-2.875018636319178e-05   3.2630252511617157e-06   -5.5797925070351844e-06
-2.087166029119751e-05   2.6269425756727713e-06   -1.832901968839914e-05
-2.087166029119751e-05   2.6269425756727713e-06   -1.832901968839914e-05
-2.087166029119751e-05   2.6269425756727713e-06   -1.832901968839914e-05
-2.087166029119751e-05   2.6269425756727713e-06   -1.832901968839914e-05
-2.8750186363191752e-05   2.91724849518626e-06   -3.079903870812759e-05
-2.8750186363191752e-05   2.91724849518626e-06   -3.079903870812759e-05
-2.8750186363191752e-05   2.91724849518626e-06   -3.079903870812759e-05
-2.8750186363191752e-05   2.91724849518626e-06   -3.079903870812759e-05
-1.3618638642536374e-05   3.2630252511617157e-06   -5.372326453449946e-06
-1.3618638642536374e-05   3.2630252511617157e-06   -5.372326453449946e-06
-1.3618638642536374e-05   3.2630252511617157e-06   -5.372326453449946e-06
-1.3618638642536374e-05   3.2630252511617157e-06   -5.372326453449946e-06
-1.3713296241016493e-05   3.5779627218654467e-06   -3.002034868956896e-05
-1.3713296241016493e-05   3.5779627218654467e-06   -3.002034868956896e-05
-1.3713296241016493e-05   3.5779627218654467e-06   -3.002034868956896e-05
-1.3713296241016493e-05   3.5779627218654467e-06   -3.002034868956896e-05
-2.8892066270122528e-05   4.0319639956534195e-06   -4.994799405331698e-06
-2.8892066270122528e-05   4.0319639956534195e-06   -4.994799405331698e-06
-2.8892066270122528e-05   4.0319639956534195e-06   -4.994799405331698e-06
-2.8892066270122528e-05   4.0319639956534195e-06   -4.994799405331698e-06
-2.1030205734378376e-05   3.3366929358642972e-06   -1.7680737662365104e-05
-2.1030205734378376e-05   3.3366929358642972e-06   -1.7680737662365104e-05
-2.1030205734378376e-05   3.3366929358642972e-06   -1.7680737662365104e-05
-2.1030205734378376e-05   3.3366929358642972e-06   -1.7680737662365104e-05
-2.8892066270122528e-05   3.5779627218654467e-06   -3.0292749453841733e-05
-2.8892066270122528e-05   3.5779627218654467e-06   -3.0292749453841733e-05
-2.8892066270122528e-05   3.5779627218654467e-06   -3.0292749453841733e-05
-2.8892066270122528e-05   3.5779627218654467e-06   -3.0292749453841733e-05
-1.371329624101654e-05   4.0319639956534195e-06   -4.722398641058956e-06
-1.371329624101654e-05   4.0319639956534195e-06   -4.722398641058956e-06
-1.371329624101654e-05   4.0319639956534195e-06   -4.722398641058956e-06
-1.371329624101654e-05   4.0319639956534195e-06   -4.722398641058956e-06
-1.367491975551779e-05   4.165492086384829e-06   -2.9715504991212132e-05
-1.367491975551779e-05   4.165492086384829e-06   -2.9715504991212132e-05
-1.367491975551779e-05   4.165492086384829e-06   -2.9715504991212132e-05
-1.367491975551779e-05   4.165492086384829e-06   -2.9715504991212132e-05
-2.8722420280943186e-05   4.859819308803272e-06   -5.052933782287555e-06
-2.8722420280943186e-05   4.859819308803272e-06   -5.052933782287555e-06
-2.8722420280943186e-05   4.859819308803272e-06   -5.052933782287555e-06
-2.8722420280943186e-05   4.859819308803272e-06   -5.052933782287555e-06
-2.1148981902172317e-05   3.9791224822945944e-06   -1.7146912984333874e-05
-2.1148981902172317e-05   3.9791224822945944e-06   -1.7146912984333874e-05
-2.1148981902172317e-05   3.9791224822945944e-06   -1.7146912984333874e-05
-2.1148981902172317e-05   3.9791224822945944e-06   -1.7146912984333874e-05
-1.330576135138868e-05   -2.6438502896969503e-07   -3.2089648432223494e-05
-1.330576135138868e-05   -2.6438502896969503e-07   -3.2089648432223494e-05
-1.330576135138868e-05   -2.6438502896969503e-07   -3.2089648432223494e-05
-1.330576135138868e-05   -2.6438502896969503e-07   -3.2089648432223494e-05
1.2508115736560703e-06   -7.098301060029207e-08   -7.712652346127241e-06
1.2508115736560703e-06   -7.098301060029207e-08   -7.712652346127241e-06
1.2508115736560703e-06   -7.098301060029207e-08   -7.712652346127241e-06
1.2508115736560703e-06   -7.098301060029207e-08   -7.712652346127241e-06
1.1956273738827126e-06   5.182170258767458e-07   -3.226475131477778e-05
1.1956273738827126e-06   5.182170258767458e-07   -3.226475131477778e-05
1.1956273738827126e-06   5.182170258767458e-07   -3.226475131477778e-05
1.1956273738827126e-06   5.182170258767458e-07   -3.226475131477778e-05
-1.361863864253635e-05   7.845347861494577e-07   -7.73409861024284e-06
-1.361863864253635e-05   7.845347861494577e-07   -7.73409861024284e-06
-1.361863864253635e-05   7.845347861494577e-07   -7.73409861024284e-06
-1.361863864253635e-05   7.845347861494577e-07   -7.73409861024284e-06
-6.155868639327466e-06   2.610015145874088e-07   -1.9857928652653836e-05
-6.155868639327466e-06   2.610015145874088e-07   -1.9857928652653836e-05
-6.155868639327466e-06   2.610015145874088e-07   -1.9857928652653836e-05
-6.155868639327466e-06   2.610015145874088e-07   -1.9857928652653836e-05
-1.361863864253635e-05   5.182170258767526e-07   -3.242454197094134e-05
-1.361863864253635e-05   5.182170258767526e-07   -3.242454197094134e-05
-1.361863864253635e-05   5.182170258767526e-07   -3.242454197094134e-05
-1.361863864253635e-05   5.182170258767526e-07   -3.242454197094134e-05
1.1956273738827126e-06   7.845347861494577e-07   -7.574307954079235e-06
1.1956273738827126e-06   7.845347861494577e-07   -7.574307954079235e-06
1.1956273738827126e-06   7.845347861494577e-07   -7.574307954079235e-06
1.1956273738827126e-06   7.845347861494577e-07   -7.574307954079235e-06
1.1192331430337105e-06   1.2077304635287997e-06   -3.233088295462665e-05
1.1192331430337105e-06   1.2077304635287997e-06   -3.233088295462665e-05
1.1192331430337105e-06   1.2077304635287997e-06   -3.233088295462665e-05
1.1192331430337105e-06   1.2077304635287997e-06   -3.233088295462665e-05
-1.3713296241016493e-05   1.620615807443451e-06   -7.85773185422514e-06
-1.3713296241016493e-05   1.620615807443451e-06   -7.85773185422514e-06
-1.3713296241016493e-05   1.620615807443451e-06   -7.85773185422514e-06
-1.3713296241016493e-05   1.620615807443451e-06   -7.85773185422514e-06
-6.265756028527791e-06   9.85615366010811e-07   -1.988929861017998e-05
-6.265756028527791e-06   9.85615366010811e-07   -1.988929861017998e-05
-6.265756028527791e-06   9.85615366010811e-07   -1.988929861017998e-05
-6.265756028527791e-06   9.85615366010811e-07   -1.988929861017998e-05
-1.3713296241016493e-05   1.2077304635287997e-06   -3.257861416097544e-05
-1.3713296241016493e-05   1.2077304635287997e-06   -3.257861416097544e-05
-1.3713296241016493e-05   1.2077304635287997e-06   -3.257861416097544e-05
-1.3713296241016493e-05   1.2077304635287997e-06   -3.257861416097544e-05
1.1192331430337126e-06   1.620615807443451e-06   -7.6100006478763415e-06
1.1192331430337126e-06   1.620615807443451e-06   -7.6100006478763415e-06
1.1192331430337126e-06   1.620615807443451e-06   -7.6100006478763415e-06
1.1192331430337126e-06   1.620615807443451e-06   -7.6100006478763415e-06
9.59798697253494e-07   2.0058326383698243e-06   -3.227590550951523e-05
9.59798697253494e-07   2.0058326383698243e-06   -3.227590550951523e-05
9.59798697253494e-07   2.0058326383698243e-06   -3.227590550951523e-05
9.59798697253494e-07   2.0058326383698243e-06   -3.227590550951523e-05
-1.3674919755517804e-05   2.4915219773508285e-06   -8.176121691618368e-06
-1.3674919755517804e-05   2.4915219773508285e-06   -8.176121691618368e-06
-1.3674919755517804e-05   2.4915219773508285e-06   -8.176121691618368e-06
-1.3674919755517804e-05   2.4915219773508285e-06   -8.176121691618368e-06
-6.330302256319185e-06   1.7300206617152844e-06   -1.9960250067568055e-05
-6.330302256319185e-06   1.7300206617152844e-06   -1.9960250067568055e-05
-6.330302256319185e-06   1.7300206617152844e-06   -1.9960250067568055e-05
-6.330302256319185e-06   1.7300206617152844e-06   -1.9960250067568055e-05
1.2508115736560703e-06   -2.3254783560620255e-06   -2.9605658373328415e-05
1.2508115736560703e-06   -2.3254783560620255e-06   -2.9605658373328415e-05
1.2508115736560703e-06   -2.3254783560620255e-06   -2.9605658373328415e-05
1.2508115736560703e-06   -2.3254783560620255e-06   -2.9605658373328415e-05
1.625134259538107e-05   -2.390389163382708e-06   -4.643719821512471e-06
1.625134259538107e-05   -2.390389163382708e-06   -4.643719821512471e-06
1.625134259538107e-05   -2.390389163382708e-06   -4.643719821512471e-06
1.625134259538107e-05   -2.390389163382708e-06   -4.643719821512471e-06
1.6390243094638248e-05   -1.7505897716453477e-06   -3.001275154577906e-05
1.6390243094638248e-05   -1.7505897716453477e-06   -3.001275154577906e-05
1.6390243094638248e-05   -1.7505897716453477e-06   -3.001275154577906e-05
1.6390243094638248e-05   -1.7505897716453477e-06   -3.001275154577906e-05
1.1956273738827126e-06   -1.6120525184002029e-06   -4.771514363133547e-06
1.1956273738827126e-06   -1.6120525184002029e-06   -4.771514363133547e-06
1.1956273738827126e-06   -1.6120525184002029e-06   -4.771514363133547e-06
1.1956273738827126e-06   -1.6120525184002029e-06   -4.771514363133547e-06
8.660004254326116e-06   -1.931380930281912e-06   -1.70205454500769e-05
8.660004254326116e-06   -1.931380930281912e-06   -1.70205454500769e-05
8.660004254326116e-06   -1.931380930281912e-06   -1.70205454500769e-05
8.660004254326116e-06   -1.931380930281912e-06   -1.70205454500769e-05
1.1956273738827105e-06   -1.7505897716453545e-06   -3.0095873897726216e-05
1.1956273738827105e-06   -1.7505897716453545e-06   -3.0095873897726216e-05
1.1956273738827105e-06   -1.7505897716453545e-06   -3.0095873897726216e-05
1.1956273738827105e-06   -1.7505897716453545e-06   -3.0095873897726216e-05
1.6390243094638275e-05   -1.6120525184002029e-06   -4.688392011186431e-06
1.6390243094638275e-05   -1.6120525184002029e-06   -4.688392011186431e-06
1.6390243094638275e-05   -1.6120525184002029e-06   -4.688392011186431e-06
1.6390243094638275e-05   -1.6120525184002029e-06   -4.688392011186431e-06
1.6315193260219347e-05   -1.097487637136169e-06   -3.057135335791006e-05
1.6315193260219347e-05   -1.097487637136169e-06   -3.057135335791006e-05
1.6315193260219347e-05   -1.097487637136169e-06   -3.057135335791006e-05
1.6315193260219347e-05   -1.097487637136169e-06   -3.057135335791006e-05
1.1192331430337105e-06   -8.502673497465826e-07   -5.3930853350344505e-06
1.1192331430337105e-06   -8.502673497465826e-07   -5.3930853350344505e-06
1.1192331430337105e-06   -8.502673497465826e-07   -5.3930853350344505e-06
1.1192331430337105e-06   -8.502673497465826e-07   -5.3930853350344505e-06
8.572053040443953e-06   -1.3109458195242896e-06   -1.7538044748851536e-05
8.572053040443953e-06   -1.3109458195242896e-06   -1.7538044748851536e-05
8.572053040443953e-06   -1.3109458195242896e-06   -1.7538044748851536e-05
8.572053040443953e-06   -1.3109458195242896e-06   -1.7538044748851536e-05
1.1192331430337097e-06   -1.0974876371361758e-06   -3.071968553034381e-05
1.1192331430337097e-06   -1.0974876371361758e-06   -3.071968553034381e-05
1.1192331430337097e-06   -1.0974876371361758e-06   -3.071968553034381e-05
1.1192331430337097e-06   -1.0974876371361758e-06   -3.071968553034381e-05
1.6315193260219404e-05   -8.502673497466097e-07   -5.2447531626007195e-06
1.6315193260219404e-05   -8.502673497466097e-07   -5.2447531626007195e-06
1.6315193260219404e-05   -8.502673497466097e-07   -5.2447531626007195e-06
1.6315193260219404e-05   -8.502673497466097e-07   -5.2447531626007195e-06
1.5842458114551975e-05   -2.2043646925241803e-07   -3.0626140234886015e-05
1.5842458114551975e-05   -2.2043646925241803e-07   -3.0626140234886015e-05
1.5842458114551975e-05   -2.2043646925241803e-07   -3.0626140234886015e-05
1.5842458114551975e-05   -2.2043646925241803e-07   -3.0626140234886015e-05
9.59798697253494e-07   9.117542172713518e-08   -6.008675007309665e-06
9.59798697253494e-07   9.117542172713518e-08   -6.008675007309665e-06
9.59798697253494e-07   9.117542172713518e-08   -6.008675007309665e-06
9.59798697253494e-07   9.117542172713518e-08   -6.008675007309665e-06
8.48277235908276e-06   -5.863596688958735e-07   -1.8140443389317923e-05
8.48277235908276e-06   -5.863596688958735e-07   -1.8140443389317923e-05
8.48277235908276e-06   -5.863596688958735e-07   -1.8140443389317923e-05
8.48277235908276e-06   -5.863596688958735e-07   -1.8140443389317923e-05
1.625134259538107e-05   -5.902407897992196e-06   -1.7911343387100515e-05
1.625134259538107e-05   -5.902407897992196e-06   -1.7911343387100515e-05
1.625134259538107e-05   -5.902407897992196e-06   -1.7911343387100515e-05
1.625134259538107e-05   -5.902407897992196e-06   -1.7911343387100515e-05
3.104553067004671e-05   -4.4381842121503086e-06   7.624170948847302e-06
3.104553067004671e-05   -4.4381842121503086e-06   7.624170948847302e-06
3.104553067004671e-05   -4.4381842121503086e-06   7.624170948847302e-06
3.104553067004671e-05   -4.4381842121503086e-06   7.624170948847302e-06
3.223958793059223e-05   -5.016254244382492e-06   -2.1745445279132484e-05
3.223958793059223e-05   -5.016254244382492e-06   -2.1745445279132484e-05
3.223958793059223e-05   -5.016254244382492e-06   -2.1745445279132484e-05
3.223958793059223e-05   -5.016254244382492e-06   -2.1745445279132484e-05
1.639024309463831e-05   -4.021606552871942e-06   4.073340832551133e-06
1.639024309463831e-05   -4.021606552871942e-06   4.073340832551133e-06
1.639024309463831e-05   -4.021606552871942e-06   4.073340832551133e-06
1.639024309463831e-05   -4.021606552871942e-06   4.073340832551133e-06
2.2866119037501614e-05   -4.822898688199964e-06   -6.239010457690953e-06
2.2866119037501614e-05   -4.822898688199964e-06   -6.239010457690953e-06
2.2866119037501614e-05   -4.822898688199964e-06   -6.239010457690953e-06
2.2866119037501614e-05   -4.822898688199964e-06   -6.239010457690953e-06
1.6390243094638265e-05   -5.0162542443824855e-06   -2.2342233894038734e-05
1.6390243094638265e-05   -5.0162542443824855e-06   -2.2342233894038734e-05
1.6390243094638265e-05   -5.0162542443824855e-06   -2.2342233894038734e-05
1.6390243094638265e-05   -5.0162542443824855e-06   -2.2342233894038734e-05
3.223958793059223e-05   -4.021606552871942e-06   4.670129447457467e-06
3.223958793059223e-05   -4.021606552871942e-06   4.670129447457467e-06
3.223958793059223e-05   -4.021606552871942e-06   4.670129447457467e-06
3.223958793059223e-05   -4.021606552871942e-06   4.670129447457467e-06
3.2127036481321964e-05   -4.581685246747145e-06   -2.364214056566801e-05
3.2127036481321964e-05   -4.581685246747145e-06   -2.364214056566801e-05
3.2127036481321964e-05   -4.581685246747145e-06   -2.364214056566801e-05
3.2127036481321964e-05   -4.581685246747145e-06   -2.364214056566801e-05
1.6315193260219404e-05   -3.583347755587655e-06   2.111928974807216e-06
1.6315193260219404e-05   -3.583347755587655e-06   2.111928974807216e-06
1.6315193260219404e-05   -3.583347755587655e-06   2.111928974807216e-06
1.6315193260219404e-05   -3.583347755587655e-06   2.111928974807216e-06
2.3673190305114862e-05   -4.2559767417412044e-06   -9.747822041659745e-06
2.3673190305114862e-05   -4.2559767417412044e-06   -9.747822041659745e-06
2.3673190305114862e-05   -4.2559767417412044e-06   -9.747822041659745e-06
2.3673190305114862e-05   -4.2559767417412044e-06   -9.747822041659745e-06
1.631519326021937e-05   -4.581685246747131e-06   -2.4241143060363683e-05
1.631519326021937e-05   -4.581685246747131e-06   -2.4241143060363683e-05
1.631519326021937e-05   -4.581685246747131e-06   -2.4241143060363683e-05
1.631519326021937e-05   -4.581685246747131e-06   -2.4241143060363683e-05
3.2127036481321964e-05   -3.583347755587655e-06   2.710931469502881e-06
3.2127036481321964e-05   -3.583347755587655e-06   2.710931469502881e-06
3.2127036481321964e-05   -3.583347755587655e-06   2.710931469502881e-06
3.2127036481321964e-05   -3.583347755587655e-06   2.710931469502881e-06
3.194218570091289e-05   -3.5542310078057733e-06   -2.7512305021335426e-05
3.194218570091289e-05   -3.5542310078057733e-06   -2.7512305021335426e-05
3.194218570091289e-05   -3.5542310078057733e-06   -2.7512305021335426e-05
3.194218570091289e-05   -3.5542310078057733e-06   -2.7512305021335426e-05
1.5842458114552032e-05   -2.6406601333803746e-06   -1.2275682353892438e-06
1.5842458114552032e-05   -2.6406601333803746e-06   -1.2275682353892438e-06
1.5842458114552032e-05   -2.6406601333803746e-06   -1.2275682353892438e-06
1.5842458114552032e-05   -2.6406601333803746e-06   -1.2275682353892438e-06
2.300126092826075e-05   -3.6621804494601227e-06   -1.2545994068589254e-05
2.300126092826075e-05   -3.6621804494601227e-06   -1.2545994068589254e-05
2.300126092826075e-05   -3.6621804494601227e-06   -1.2545994068589254e-05
2.300126092826075e-05   -3.6621804494601227e-06   -1.2545994068589254e-05
-3.480095437151451e-05   5.017267864357522e-06   -2.4076412251254e-05
-3.480095437151451e-05   5.017267864357522e-06   -2.4076412251254e-05
-3.480095437151451e-05   5.017267864357522e-06   -2.4076412251254e-05
-3.480095437151451e-05   5.017267864357522e-06   -2.4076412251254e-05
-2.283312293155202e-05   3.827257788188232e-06   -4.844032563684777e-06
-2.283312293155202e-05   3.827257788188232e-06   -4.844032563684777e-06
-2.283312293155202e-05   3.827257788188232e-06   -4.844032563684777e-06
-2.283312293155202e-05   3.827257788188232e-06   -4.844032563684777e-06
-2.2940771576231143e-05   6.026830878822029e-06   -1.9994033744868836e-05
-2.2940771576231143e-05   6.026830878822029e-06   -1.9994033744868836e-05
-2.2940771576231143e-05   6.026830878822029e-06   -1.9994033744868836e-05
-2.2940771576231143e-05   6.026830878822029e-06   -1.9994033744868836e-05
-3.426562185716171e-05   4.6333735386943145e-06   -2.8320887257454763e-07
-3.426562185716171e-05   4.6333735386943145e-06   -2.8320887257454763e-07
-3.426562185716171e-05   4.6333735386943145e-06   -2.8320887257454763e-07
-3.426562185716171e-05   4.6333735386943145e-06   -2.8320887257454763e-07
-2.7495496450569537e-05   5.1035688955126295e-06   -1.1848868430985908e-05
-2.7495496450569537e-05   5.1035688955126295e-06   -1.1848868430985908e-05
-2.7495496450569537e-05   5.1035688955126295e-06   -1.1848868430985908e-05
-2.7495496450569537e-05   5.1035688955126295e-06   -1.1848868430985908e-05
-3.426562185716171e-05   6.026830878822029e-06   -1.915795934079217e-05
-3.426562185716171e-05   6.026830878822029e-06   -1.915795934079217e-05
-3.426562185716171e-05   6.026830878822029e-06   -1.915795934079217e-05
-3.426562185716171e-05   6.026830878822029e-06   -1.915795934079217e-05
-2.2940771576231143e-05   4.633373538694369e-06   -1.1192832766511332e-06
-2.2940771576231143e-05   4.633373538694369e-06   -1.1192832766511332e-06
-2.2940771576231143e-05   4.633373538694369e-06   -1.1192832766511332e-06
-2.2940771576231143e-05   4.633373538694369e-06   -1.1192832766511332e-06
-2.2914620877571955e-05   6.482666589812004e-06   -1.7107591396460704e-05
-2.2914620877571955e-05   6.482666589812004e-06   -1.7107591396460704e-05
-2.2914620877571955e-05   6.482666589812004e-06   -1.7107591396460704e-05
-2.2914620877571955e-05   6.482666589812004e-06   -1.7107591396460704e-05
-3.3745354295573534e-05   4.988156630821906e-06   1.8403369422691934e-06
-3.3745354295573534e-05   4.988156630821906e-06   1.8403369422691934e-06
-3.3745354295573534e-05   4.988156630821906e-06   1.8403369422691934e-06
-3.3745354295573534e-05   4.988156630821906e-06   1.8403369422691934e-06
-2.772879892978098e-05   5.5708263612993375e-06   -8.536857172337898e-06
-2.772879892978098e-05   5.5708263612993375e-06   -8.536857172337898e-06
-2.772879892978098e-05   5.5708263612993375e-06   -8.536857172337898e-06
-2.772879892978098e-05   5.5708263612993375e-06   -8.536857172337898e-06
-3.3745354295573534e-05   6.482666589812004e-06   -1.6210885421066675e-05
-3.3745354295573534e-05   6.482666589812004e-06   -1.6210885421066675e-05
-3.3745354295573534e-05   6.482666589812004e-06   -1.6210885421066675e-05
-3.3745354295573534e-05   6.482666589812004e-06   -1.6210885421066675e-05
-2.2914620877572002e-05   4.98815663082196e-06   9.436309668753269e-07
-2.2914620877572002e-05   4.98815663082196e-06   9.436309668753269e-07
-2.2914620877572002e-05   4.98815663082196e-06   9.436309668753269e-07
-2.2914620877572002e-05   4.98815663082196e-06   9.436309668753269e-07
-2.2935826945156797e-05   6.847800556026158e-06   -1.3070607303321356e-05
-2.2935826945156797e-05   6.847800556026158e-06   -1.3070607303321356e-05
-2.2935826945156797e-05   6.847800556026158e-06   -1.3070607303321356e-05
-2.2935826945156797e-05   6.847800556026158e-06   -1.3070607303321356e-05
-3.3068167957274434e-05   5.339375266721219e-06   4.721682890457518e-06
-3.3068167957274434e-05   5.339375266721219e-06   4.721682890457518e-06
-3.3068167957274434e-05   5.339375266721219e-06   4.721682890457518e-06
-3.3068167957274434e-05   5.339375266721219e-06   4.721682890457518e-06
-2.7093610765484625e-05   5.818299074149985e-06   -5.523266713649004e-06
-2.7093610765484625e-05   5.818299074149985e-06   -5.523266713649004e-06
-2.7093610765484625e-05   5.818299074149985e-06   -5.523266713649004e-06
-2.7093610765484625e-05   5.818299074149985e-06   -5.523266713649004e-06
-2.283312293155202e-05   2.3347833841642007e-06   -2.7929981836610884e-05
-2.283312293155202e-05   2.3347833841642007e-06   -2.7929981836610884e-05
-2.283312293155202e-05   2.3347833841642007e-06   -2.7929981836610884e-05
-2.283312293155202e-05   2.3347833841642007e-06   -2.7929981836610884e-05
-1.1640714803729245e-05   1.9108248107007372e-06   -9.530343434317682e-06
-1.1640714803729245e-05   1.9108248107007372e-06   -9.530343434317682e-06
-1.1640714803729245e-05   1.9108248107007372e-06   -9.530343434317682e-06
-1.1640714803729245e-05   1.9108248107007372e-06   -9.530343434317682e-06
-1.1779871183286965e-05   3.2630252511617157e-06   -2.7532430876685493e-05
-1.1779871183286965e-05   3.2630252511617157e-06   -2.7532430876685493e-05
-1.1779871183286965e-05   3.2630252511617157e-06   -2.7532430876685493e-05
-1.1779871183286965e-05   3.2630252511617157e-06   -2.7532430876685493e-05
-2.2940771576231096e-05   2.7041523598403134e-06   -8.595606486985736e-06
-2.2940771576231096e-05   2.7041523598403134e-06   -8.595606486985736e-06
-2.2940771576231096e-05   2.7041523598403134e-06   -8.595606486985736e-06
-2.2940771576231096e-05   2.7041523598403134e-06   -8.595606486985736e-06
-1.7150183491326734e-05   2.6959924340097692e-06   -1.8241690672994725e-05
-1.7150183491326734e-05   2.6959924340097692e-06   -1.8241690672994725e-05
-1.7150183491326734e-05   2.6959924340097692e-06   -1.8241690672994725e-05
-1.7150183491326734e-05   2.6959924340097692e-06   -1.8241690672994725e-05
-2.294077157623111e-05   3.2630252511617157e-06   -2.7197107141892584e-05
-2.294077157623111e-05   3.2630252511617157e-06   -2.7197107141892584e-05
-2.294077157623111e-05   3.2630252511617157e-06   -2.7197107141892584e-05
-2.294077157623111e-05   3.2630252511617157e-06   -2.7197107141892584e-05
-1.1779871183286986e-05   2.7041523598403134e-06   -8.930930221778492e-06
-1.1779871183286986e-05   2.7041523598403134e-06   -8.930930221778492e-06
-1.1779871183286986e-05   2.7041523598403134e-06   -8.930930221778492e-06
-1.1779871183286986e-05   2.7041523598403134e-06   -8.930930221778492e-06
-1.1869342677092703e-05   4.0319639956534195e-06   -2.6804590018169016e-05
-1.1869342677092703e-05   4.0319639956534195e-06   -2.6804590018169016e-05
-1.1869342677092703e-05   4.0319639956534195e-06   -2.6804590018169016e-05
-1.1869342677092703e-05   4.0319639956534195e-06   -2.6804590018169016e-05
-2.2914620877571955e-05   3.4097314858168586e-06   -8.02245351146845e-06
-2.2914620877571955e-05   3.4097314858168586e-06   -8.02245351146845e-06
-2.2914620877571955e-05   3.4097314858168586e-06   -8.02245351146845e-06
-2.2914620877571955e-05   3.4097314858168586e-06   -8.02245351146845e-06
-1.7179910404710826e-05   3.3491846655354517e-06   -1.754397620740123e-05
-1.7179910404710826e-05   3.3491846655354517e-06   -1.754397620740123e-05
-1.7179910404710826e-05   3.3491846655354517e-06   -1.754397620740123e-05
-1.7179910404710826e-05   3.3491846655354517e-06   -1.754397620740123e-05
-2.2914620877571955e-05   4.0319639956534195e-06   -2.6431250512267117e-05
-2.2914620877571955e-05   4.0319639956534195e-06   -2.6431250512267117e-05
-2.2914620877571955e-05   4.0319639956534195e-06   -2.6431250512267117e-05
-2.2914620877571955e-05   4.0319639956534195e-06   -2.6431250512267117e-05
-1.1869342677092744e-05   3.4097314858168044e-06   -8.39579301737031e-06
-1.1869342677092744e-05   3.4097314858168044e-06   -8.39579301737031e-06
-1.1869342677092744e-05   3.4097314858168044e-06   -8.39579301737031e-06
-1.1869342677092744e-05   3.4097314858168044e-06   -8.39579301737031e-06
-1.1985944594454455e-05   4.859819308803299e-06   -2.6740503406795068e-05
-1.1985944594454455e-05   4.859819308803299e-06   -2.6740503406795068e-05
-1.1985944594454455e-05   4.859819308803299e-06   -2.6740503406795068e-05
-1.1985944594454455e-05   4.859819308803299e-06   -2.6740503406795068e-05
-2.293582694515677e-05   4.161110418652062e-06   -8.0714741548671e-06
-2.293582694515677e-05   4.161110418652062e-06   -8.0714741548671e-06
-2.293582694515677e-05   4.161110418652062e-06   -8.0714741548671e-06
-2.293582694515677e-05   4.161110418652062e-06   -8.0714741548671e-06
-1.7381406377205627e-05   3.996857687878626e-06   -1.7230290129654767e-05
-1.7381406377205627e-05   3.996857687878626e-06   -1.7230290129654767e-05
-1.7381406377205627e-05   3.996857687878626e-06   -1.7230290129654767e-05
-1.7381406377205627e-05   3.996857687878626e-06   -1.7230290129654767e-05
-1.1640714803729225e-05   -7.098301060029207e-08   -3.0118566900881597e-05
-1.1640714803729225e-05   -7.098301060029207e-08   -3.0118566900881597e-05
-1.1640714803729225e-05   -7.098301060029207e-08   -3.0118566900881597e-05
-1.1640714803729225e-05   -7.098301060029207e-08   -3.0118566900881597e-05
-5.711249291470399e-07   1.022103832926894e-07   -1.1565334406908823e-05
-5.711249291470399e-07   1.022103832926894e-07   -1.1565334406908823e-05
-5.711249291470399e-07   1.022103832926894e-07   -1.1565334406908823e-05
-5.711249291470399e-07   1.022103832926894e-07   -1.1565334406908823e-05
-6.824977387532201e-07   7.845347861494577e-07   -2.9834622323094654e-05
-6.824977387532201e-07   7.845347861494577e-07   -2.9834622323094654e-05
-6.824977387532201e-07   7.845347861494577e-07   -2.9834622323094654e-05
-6.824977387532201e-07   7.845347861494577e-07   -2.9834622323094654e-05
-1.1779871183286965e-05   8.838359701223071e-07   -1.139858062592218e-05
-1.1779871183286965e-05   8.838359701223071e-07   -1.139858062592218e-05
-1.1779871183286965e-05   8.838359701223071e-07   -1.139858062592218e-05
-1.1779871183286965e-05   8.838359701223071e-07   -1.139858062592218e-05
-6.133561376128551e-06   5.154938828395503e-07   -2.0588091718816556e-05
-6.133561376128551e-06   5.154938828395503e-07   -2.0588091718816556e-05
-6.133561376128551e-06   5.154938828395503e-07   -2.0588091718816556e-05
-6.133561376128551e-06   5.154938828395503e-07   -2.0588091718816556e-05
-1.1779871183286965e-05   7.845347861494577e-07   -2.9894203033478412e-05
-1.1779871183286965e-05   7.845347861494577e-07   -2.9894203033478412e-05
-1.1779871183286965e-05   7.845347861494577e-07   -2.9894203033478412e-05
-1.1779871183286965e-05   7.845347861494577e-07   -2.9894203033478412e-05
-6.824977387532214e-07   8.838359701223071e-07   -1.1338999915538382e-05
-6.824977387532214e-07   8.838359701223071e-07   -1.1338999915538382e-05
-6.824977387532214e-07   8.838359701223071e-07   -1.1338999915538382e-05
-6.824977387532214e-07   8.838359701223071e-07   -1.1338999915538382e-05
-7.621985467205304e-07   1.620615807443451e-06   -2.9914369752691e-05
-7.621985467205304e-07   1.620615807443451e-06   -2.9914369752691e-05
-7.621985467205304e-07   1.620615807443451e-06   -2.9914369752691e-05
-7.621985467205304e-07   1.620615807443451e-06   -2.9914369752691e-05
-1.1869342677092724e-05   1.6632049385171665e-06   -1.14280163473817e-05
-1.1869342677092724e-05   1.6632049385171665e-06   -1.14280163473817e-05
-1.1869342677092724e-05   1.6632049385171665e-06   -1.14280163473817e-05
-1.1869342677092724e-05   1.6632049385171665e-06   -1.14280163473817e-05
-6.277956459964648e-06   1.204996350121911e-06   -2.0472068222891125e-05
-6.277956459964648e-06   1.204996350121911e-06   -2.0472068222891125e-05
-6.277956459964648e-06   1.204996350121911e-06   -2.0472068222891125e-05
-6.277956459964648e-06   1.204996350121911e-06   -2.0472068222891125e-05
-1.1869342677092724e-05   1.620615807443451e-06   -2.9939923231335266e-05
-1.1869342677092724e-05   1.620615807443451e-06   -2.9939923231335266e-05
-1.1869342677092724e-05   1.620615807443451e-06   -2.9939923231335266e-05
-1.1869342677092724e-05   1.620615807443451e-06   -2.9939923231335266e-05
-7.621985467205321e-07   1.6632049385172207e-06   -1.1402462868737313e-05
-7.621985467205321e-07   1.6632049385172207e-06   -1.1402462868737313e-05
-7.621985467205321e-07   1.6632049385172207e-06   -1.1402462868737313e-05
-7.621985467205321e-07   1.6632049385172207e-06   -1.1402462868737313e-05
-8.886947553259182e-07   2.4915219773508285e-06   -3.0298833003550334e-05
-8.886947553259182e-07   2.4915219773508285e-06   -3.0298833003550334e-05
-8.886947553259182e-07   2.4915219773508285e-06   -3.0298833003550334e-05
-8.886947553259182e-07   2.4915219773508285e-06   -3.0298833003550334e-05
-1.1985944594454445e-05   2.4606130540616986e-06   -1.1784871251029473e-05
-1.1985944594454445e-05   2.4606130540616986e-06   -1.1784871251029473e-05
-1.1985944594454445e-05   2.4606130540616986e-06   -1.1784871251029473e-05
-1.1985944594454445e-05   2.4606130540616986e-06   -1.1784871251029473e-05
-6.431477666286459e-06   1.9026967213211761e-06   -2.070756633166495e-05
-6.431477666286459e-06   1.9026967213211761e-06   -2.070756633166495e-05
-6.431477666286459e-06   1.9026967213211761e-06   -2.070756633166495e-05
-6.431477666286459e-06   1.9026967213211761e-06   -2.070756633166495e-05
-5.711249291470411e-07   -2.390389163382708e-06   -2.690677185553862e-05
-5.711249291470411e-07   -2.390389163382708e-06   -2.690677185553862e-05
-5.711249291470411e-07   -2.390389163382708e-06   -2.690677185553862e-05
-5.711249291470411e-07   -2.390389163382708e-06   -2.690677185553862e-05
1.043804295654261e-05   -1.5986308730349722e-06   -8.083103738513992e-06
1.043804295654261e-05   -1.5986308730349722e-06   -8.083103738513992e-06
1.043804295654261e-05   -1.5986308730349722e-06   -8.083103738513992e-06
1.043804295654261e-05   -1.5986308730349722e-06   -8.083103738513992e-06
1.0432250230238363e-05   -1.6120525184002029e-06   -2.659329251543396e-05
1.0432250230238363e-05   -1.6120525184002029e-06   -2.659329251543396e-05
1.0432250230238363e-05   -1.6120525184002029e-06   -2.659329251543396e-05
1.0432250230238363e-05   -1.6120525184002029e-06   -2.659329251543396e-05
-6.824977387532214e-07   -8.811588238749981e-07   -8.507248783829715e-06
-6.824977387532214e-07   -8.811588238749981e-07   -8.507248783829715e-06
-6.824977387532214e-07   -8.811588238749981e-07   -8.507248783829715e-06
-6.824977387532214e-07   -8.811588238749981e-07   -8.507248783829715e-06
4.86708192023988e-06   -1.5636526955103763e-06   -1.7347051892503683e-05
4.86708192023988e-06   -1.5636526955103763e-06   -1.7347051892503683e-05
4.86708192023988e-06   -1.5636526955103763e-06   -1.7347051892503683e-05
4.86708192023988e-06   -1.5636526955103763e-06   -1.7347051892503683e-05
-6.824977387532214e-07   -1.6120525184002029e-06   -2.7031828732149006e-05
-6.824977387532214e-07   -1.6120525184002029e-06   -2.7031828732149006e-05
-6.824977387532214e-07   -1.6120525184002029e-06   -2.7031828732149006e-05
-6.824977387532214e-07   -1.6120525184002029e-06   -2.7031828732149006e-05
1.0432250230238363e-05   -8.811588238749981e-07   -8.068712567114598e-06
1.0432250230238363e-05   -8.811588238749981e-07   -8.068712567114598e-06
1.0432250230238363e-05   -8.811588238749981e-07   -8.068712567114598e-06
1.0432250230238363e-05   -8.811588238749981e-07   -8.068712567114598e-06
1.0484913296087333e-05   -8.502673497466097e-07   -2.7293504453853728e-05
1.0484913296087333e-05   -8.502673497466097e-07   -2.7293504453853728e-05
1.0484913296087333e-05   -8.502673497466097e-07   -2.7293504453853728e-05
1.0484913296087333e-05   -8.502673497466097e-07   -2.7293504453853728e-05
-7.621985467205333e-07   -1.7701737308752855e-07   -8.952268035169499e-06
-7.621985467205333e-07   -1.7701737308752855e-07   -8.952268035169499e-06
-7.621985467205333e-07   -1.7701737308752855e-07   -8.952268035169499e-06
-7.621985467205333e-07   -1.7701737308752855e-07   -8.952268035169499e-06
4.718522700275007e-06   -9.417644844048338e-07   -1.7627955180038186e-05
4.718522700275007e-06   -9.417644844048338e-07   -1.7627955180038186e-05
4.718522700275007e-06   -9.417644844048338e-07   -1.7627955180038186e-05
4.718522700275007e-06   -9.417644844048338e-07   -1.7627955180038186e-05
-7.621985467205316e-07   -8.502673497466097e-07   -2.7697454439849062e-05
-7.621985467205316e-07   -8.502673497466097e-07   -2.7697454439849062e-05
-7.621985467205316e-07   -8.502673497466097e-07   -2.7697454439849062e-05
-7.621985467205316e-07   -8.502673497466097e-07   -2.7697454439849062e-05
1.0484913296087333e-05   -1.7701737308752855e-07   -8.548318049173898e-06
1.0484913296087333e-05   -1.7701737308752855e-07   -8.548318049173898e-06
1.0484913296087333e-05   -1.7701737308752855e-07   -8.548318049173898e-06
1.0484913296087333e-05   -1.7701737308752855e-07   -8.548318049173898e-06
1.0406954015264331e-05   9.117542172713518e-08   -2.8090279938330665e-05
1.0406954015264331e-05   9.117542172713518e-08   -2.8090279938330665e-05
1.0406954015264331e-05   9.117542172713518e-08   -2.8090279938330665e-05
1.0406954015264331e-05   9.117542172713518e-08   -2.8090279938330665e-05
-8.886947553259198e-07   6.45375395559979e-07   -9.596718638313314e-06
-8.886947553259198e-07   6.45375395559979e-07   -9.596718638313314e-06
-8.886947553259198e-07   6.45375395559979e-07   -9.596718638313314e-06
-8.886947553259198e-07   6.45375395559979e-07   -9.596718638313314e-06
4.667654114618205e-06   -2.771127137061774e-07   -1.8303807222660383e-05
4.667654114618205e-06   -2.771127137061774e-07   -1.8303807222660383e-05
4.667654114618205e-06   -2.771127137061774e-07   -1.8303807222660383e-05
4.667654114618205e-06   -2.771127137061774e-07   -1.8303807222660383e-05
1.043804295654259e-05   -4.4381842121502815e-06   -1.5042360322475371e-05
1.043804295654259e-05   -4.4381842121502815e-06   -1.5042360322475371e-05
1.043804295654259e-05   -4.4381842121502815e-06   -1.5042360322475371e-05
1.043804295654259e-05   -4.4381842121502815e-06   -1.5042360322475371e-05
2.0728172167248213e-05   -2.8929067895477455e-06   3.0350214822622316e-06
2.0728172167248213e-05   -2.8929067895477455e-06   3.0350214822622316e-06
2.0728172167248213e-05   -2.8929067895477455e-06   3.0350214822622316e-06
2.0728172167248213e-05   -2.8929067895477455e-06   3.0350214822622316e-06
2.143609275881551e-05   -4.021606552871942e-06   -1.6905309634516962e-05
2.143609275881551e-05   -4.021606552871942e-06   -1.6905309634516962e-05
2.143609275881551e-05   -4.021606552871942e-06   -1.6905309634516962e-05
2.143609275881551e-05   -4.021606552871942e-06   -1.6905309634516962e-05
1.0432250230238343e-05   -2.477856490906325e-06   5.08177875932302e-07
1.0432250230238343e-05   -2.477856490906325e-06   5.08177875932302e-07
1.0432250230238343e-05   -2.477856490906325e-06   5.08177875932302e-07
1.0432250230238343e-05   -2.477856490906325e-06   5.08177875932302e-07
1.5085300012838149e-05   -3.416331351321065e-06   -6.683820178818542e-06
1.5085300012838149e-05   -3.416331351321065e-06   -6.683820178818542e-06
1.5085300012838149e-05   -3.416331351321065e-06   -6.683820178818542e-06
1.5085300012838149e-05   -3.416331351321065e-06   -6.683820178818542e-06
1.0432250230238336e-05   -4.021606552871915e-06   -1.783155967169629e-05
1.0432250230238336e-05   -4.021606552871915e-06   -1.783155967169629e-05
1.0432250230238336e-05   -4.021606552871915e-06   -1.783155967169629e-05
1.0432250230238336e-05   -4.021606552871915e-06   -1.783155967169629e-05
2.143609275881551e-05   -2.477856490906271e-06   1.4344279131117102e-06
2.143609275881551e-05   -2.477856490906271e-06   1.4344279131117102e-06
2.143609275881551e-05   -2.477856490906271e-06   1.4344279131117102e-06
2.143609275881551e-05   -2.477856490906271e-06   1.4344279131117102e-06
2.198197425377449e-05   -3.583347755587655e-06   -1.9061055309608624e-05
2.198197425377449e-05   -3.583347755587655e-06   -1.9061055309608624e-05
2.198197425377449e-05   -3.583347755587655e-06   -1.9061055309608624e-05
2.198197425377449e-05   -3.583347755587655e-06   -1.9061055309608624e-05
1.04849132960873e-05   -2.123736077525788e-06   -7.750540536338751e-07
1.04849132960873e-05   -2.123736077525788e-06   -7.750540536338751e-07
1.04849132960873e-05   -2.123736077525788e-06   -7.750540536338751e-07
1.04849132960873e-05   -2.123736077525788e-06   -7.750540536338751e-07
1.5602911951715445e-05   -3.148722712792895e-06   -8.690059831853772e-06
1.5602911951715445e-05   -3.148722712792895e-06   -8.690059831853772e-06
1.5602911951715445e-05   -3.148722712792895e-06   -8.690059831853772e-06
1.5602911951715445e-05   -3.148722712792895e-06   -8.690059831853772e-06
1.0484913296087313e-05   -3.583347755587655e-06   -1.993682231644575e-05
1.0484913296087313e-05   -3.583347755587655e-06   -1.993682231644575e-05
1.0484913296087313e-05   -3.583347755587655e-06   -1.993682231644575e-05
1.0484913296087313e-05   -3.583347755587655e-06   -1.993682231644575e-05
2.198197425377445e-05   -2.123736077525788e-06   1.0071295320336713e-07
2.198197425377445e-05   -2.123736077525788e-06   1.0071295320336713e-07
2.198197425377445e-05   -2.123736077525788e-06   1.0071295320336713e-07
2.198197425377445e-05   -2.123736077525788e-06   1.0071295320336713e-07
2.2565188726854834e-05   -2.6406601333803746e-06   -2.2733007636563583e-05
2.2565188726854834e-05   -2.6406601333803746e-06   -2.2733007636563583e-05
2.2565188726854834e-05   -2.6406601333803746e-06   -2.2733007636563583e-05
2.2565188726854834e-05   -2.6406601333803746e-06   -2.2733007636563583e-05
1.0406954015264297e-05   -1.368772359323109e-06   -3.2324157816804734e-06
1.0406954015264297e-05   -1.368772359323109e-06   -3.2324157816804734e-06
1.0406954015264297e-05   -1.368772359323109e-06   -3.2324157816804734e-06
1.0406954015264297e-05   -1.368772359323109e-06   -3.2324157816804734e-06
1.5541564641794826e-05   -2.71025179548139e-06   -1.0985212497536308e-05
1.5541564641794826e-05   -2.71025179548139e-06   -1.0985212497536308e-05
1.5541564641794826e-05   -2.71025179548139e-06   -1.0985212497536308e-05
1.5541564641794826e-05   -2.71025179548139e-06   -1.0985212497536308e-05
-2.494457310208445e-05   3.827257788188232e-06   -1.9019231880086857e-05
-2.494457310208445e-05   3.827257788188232e-06   -1.9019231880086857e-05
-2.494457310208445e-05   3.827257788188232e-06   -1.9019231880086857e-05
-2.494457310208445e-05   3.827257788188232e-06   -1.9019231880086857e-05
-1.7009678862163355e-05   2.428544768258835e-06   -6.633635958842608e-06
-1.7009678862163355e-05   2.428544768258835e-06   -6.633635958842608e-06
-1.7009678862163355e-05   2.428544768258835e-06   -6.633635958842608e-06
-1.7009678862163355e-05   2.428544768258835e-06   -6.633635958842608e-06
-1.6947270695267253e-05   4.6333735386943145e-06   -1.6158826831879822e-05
-1.6947270695267253e-05   4.6333735386943145e-06   -1.6158826831879822e-05
-1.6947270695267253e-05   4.6333735386943145e-06   -1.6158826831879822e-05
-1.6947270695267253e-05   4.6333735386943145e-06   -1.6158826831879822e-05
-2.419251963683237e-05   3.0944074854442395e-06   -3.160032297321166e-06
-2.419251963683237e-05   3.0944074854442395e-06   -3.160032297321166e-06
-2.419251963683237e-05   3.0944074854442395e-06   -3.160032297321166e-06
-2.419251963683237e-05   3.0944074854442395e-06   -3.160032297321166e-06
-1.9892045954888487e-05   3.686553359760064e-06   -1.0682775958483832e-05
-1.9892045954888487e-05   3.686553359760064e-06   -1.0682775958483832e-05
-1.9892045954888487e-05   3.686553359760064e-06   -1.0682775958483832e-05
-1.9892045954888487e-05   3.686553359760064e-06   -1.0682775958483832e-05
-2.419251963683237e-05   4.6333735386943145e-06   -1.5235447199929756e-05
-2.419251963683237e-05   4.6333735386943145e-06   -1.5235447199929756e-05
-2.419251963683237e-05   4.6333735386943145e-06   -1.5235447199929756e-05
-2.419251963683237e-05   4.6333735386943145e-06   -1.5235447199929756e-05
-1.6947270695267294e-05   3.0944074854442395e-06   -4.0834119292712285e-06
-1.6947270695267294e-05   3.0944074854442395e-06   -4.0834119292712285e-06
-1.6947270695267294e-05   3.0944074854442395e-06   -4.0834119292712285e-06
-1.6947270695267294e-05   3.0944074854442395e-06   -4.0834119292712285e-06
-1.6818414167772995e-05   4.98815663082196e-06   -1.4090879739554665e-05
-1.6818414167772995e-05   4.98815663082196e-06   -1.4090879739554665e-05
-1.6818414167772995e-05   4.98815663082196e-06   -1.4090879739554665e-05
-1.6818414167772995e-05   4.98815663082196e-06   -1.4090879739554665e-05
-2.3631394559668823e-05   3.4055235497142686e-06   -1.7863325710636645e-06
-2.3631394559668823e-05   3.4055235497142686e-06   -1.7863325710636645e-06
-2.3631394559668823e-05   3.4055235497142686e-06   -1.7863325710636645e-06
-2.3631394559668823e-05   3.4055235497142686e-06   -1.7863325710636645e-06
-1.989120289618136e-05   4.058282395844699e-06   -8.41164065122109e-06
-1.989120289618136e-05   4.058282395844699e-06   -8.41164065122109e-06
-1.989120289618136e-05   4.058282395844699e-06   -8.41164065122109e-06
-1.989120289618136e-05   4.058282395844699e-06   -8.41164065122109e-06
-2.3631394559668823e-05   4.98815663082196e-06   -1.314129989089005e-05
-2.3631394559668823e-05   4.98815663082196e-06   -1.314129989089005e-05
-2.3631394559668823e-05   4.98815663082196e-06   -1.314129989089005e-05
-2.3631394559668823e-05   4.98815663082196e-06   -1.314129989089005e-05
-1.6818414167773022e-05   3.4055235497142686e-06   -2.7359124197281754e-06
-1.6818414167773022e-05   3.4055235497142686e-06   -2.7359124197281754e-06
-1.6818414167773022e-05   3.4055235497142686e-06   -2.7359124197281754e-06
-1.6818414167773022e-05   3.4055235497142686e-06   -2.7359124197281754e-06
-1.6767521519959295e-05   5.339375266721165e-06   -1.1231562683927882e-05
-1.6767521519959295e-05   5.339375266721165e-06   -1.1231562683927882e-05
-1.6767521519959295e-05   5.339375266721165e-06   -1.1231562683927882e-05
-1.6767521519959295e-05   5.339375266721165e-06   -1.1231562683927882e-05
-2.2898435412416554e-05   3.7980889477012077e-06   -8.860107175365228e-08
-2.2898435412416554e-05   3.7980889477012077e-06   -8.860107175365228e-08
-2.2898435412416554e-05   3.7980889477012077e-06   -8.860107175365228e-08
-2.2898435412416554e-05   3.7980889477012077e-06   -8.860107175365228e-08
-1.9301674387875523e-05   4.261370143633007e-06   -6.361171496881179e-06
-1.9301674387875523e-05   4.261370143633007e-06   -6.361171496881179e-06
-1.9301674387875523e-05   4.261370143633007e-06   -6.361171496881179e-06
-1.9301674387875523e-05   4.261370143633007e-06   -6.361171496881179e-06
-1.7009678862163314e-05   1.9108248107007372e-06   -2.4290395418599258e-05
-1.7009678862163314e-05   1.9108248107007372e-06   -2.4290395418599258e-05
-1.7009678862163314e-05   1.9108248107007372e-06   -2.4290395418599258e-05
-1.7009678862163314e-05   1.9108248107007372e-06   -2.4290395418599258e-05
-9.809653562541712e-06   1.2596780463650223e-06   -1.2681041311164663e-05
-9.809653562541712e-06   1.2596780463650223e-06   -1.2681041311164663e-05
-9.809653562541712e-06   1.2596780463650223e-06   -1.2681041311164663e-05
-9.809653562541712e-06   1.2596780463650223e-06   -1.2681041311164663e-05
-9.814660019733432e-06   2.7041523598403134e-06   -2.4079692631427186e-05
-9.814660019733432e-06   2.7041523598403134e-06   -2.4079692631427186e-05
-9.814660019733432e-06   2.7041523598403134e-06   -2.4079692631427186e-05
-9.814660019733432e-06   2.7041523598403134e-06   -2.4079692631427186e-05
-1.6947270695267253e-05   1.963248044485567e-06   -1.1747465582991209e-05
-1.6947270695267253e-05   1.963248044485567e-06   -1.1747465582991209e-05
-1.6947270695267253e-05   1.963248044485567e-06   -1.1747465582991209e-05
-1.6947270695267253e-05   1.963248044485567e-06   -1.1747465582991209e-05
-1.3271609742294943e-05   2.0926306338766416e-06   -1.795119672491307e-05
-1.3271609742294943e-05   2.0926306338766416e-06   -1.795119672491307e-05
-1.3271609742294943e-05   2.0926306338766416e-06   -1.795119672491307e-05
-1.3271609742294943e-05   2.0926306338766416e-06   -1.795119672491307e-05
-1.6947270695267253e-05   2.7041523598403134e-06   -2.3635150042214208e-05
-1.6947270695267253e-05   2.7041523598403134e-06   -2.3635150042214208e-05
-1.6947270695267253e-05   2.7041523598403134e-06   -2.3635150042214208e-05
-1.6947270695267253e-05   2.7041523598403134e-06   -2.3635150042214208e-05
-9.814660019733432e-06   1.9632480444856213e-06   -1.2192008172204037e-05
-9.814660019733432e-06   1.9632480444856213e-06   -1.2192008172204037e-05
-9.814660019733432e-06   1.9632480444856213e-06   -1.2192008172204037e-05
-9.814660019733432e-06   1.9632480444856213e-06   -1.2192008172204037e-05
-9.807751518954363e-06   3.4097314858168044e-06   -2.3540209671881428e-05
-9.807751518954363e-06   3.4097314858168044e-06   -2.3540209671881428e-05
-9.807751518954363e-06   3.4097314858168044e-06   -2.3540209671881428e-05
-9.807751518954363e-06   3.4097314858168044e-06   -2.3540209671881428e-05
-1.6818414167772995e-05   2.6043223958448474e-06   -1.1372526469867239e-05
-1.6818414167772995e-05   2.6043223958448474e-06   -1.1372526469867239e-05
-1.6818414167772995e-05   2.6043223958448474e-06   -1.1372526469867239e-05
-1.6818414167772995e-05   2.6043223958448474e-06   -1.1372526469867239e-05
-1.321017548139217e-05   2.6712377155542065e-06   -1.742640680566075e-05
-1.321017548139217e-05   2.6712377155542065e-06   -1.742640680566075e-05
-1.321017548139217e-05   2.6712377155542065e-06   -1.742640680566075e-05
-1.321017548139217e-05   2.6712377155542065e-06   -1.742640680566075e-05
-1.6818414167772995e-05   3.4097314858168044e-06   -2.3056964217898265e-05
-1.6818414167772995e-05   3.4097314858168044e-06   -2.3056964217898265e-05
-1.6818414167772995e-05   3.4097314858168044e-06   -2.3056964217898265e-05
-1.6818414167772995e-05   3.4097314858168044e-06   -2.3056964217898265e-05
-9.807751518954383e-06   2.6043223958448474e-06   -1.1855771923850375e-05
-9.807751518954383e-06   2.6043223958448474e-06   -1.1855771923850375e-05
-9.807751518954383e-06   2.6043223958448474e-06   -1.1855771923850375e-05
-9.807751518954383e-06   2.6043223958448474e-06   -1.1855771923850375e-05
-9.816113327875291e-06   4.1611104186521164e-06   -2.363539624222939e-05
-9.816113327875291e-06   4.1611104186521164e-06   -2.363539624222939e-05
-9.816113327875291e-06   4.1611104186521164e-06   -2.363539624222939e-05
-9.816113327875291e-06   4.1611104186521164e-06   -2.363539624222939e-05
-1.676752151995931e-05   3.301557607719046e-06   -1.1533984235529462e-05
-1.676752151995931e-05   3.301557607719046e-06   -1.1533984235529462e-05
-1.676752151995931e-05   3.301557607719046e-06   -1.1533984235529462e-05
-1.676752151995931e-05   3.301557607719046e-06   -1.1533984235529462e-05
-1.3296085313905005e-05   3.244565282183216e-06   -1.728551585029844e-05
-1.3296085313905005e-05   3.244565282183216e-06   -1.728551585029844e-05
-1.3296085313905005e-05   3.244565282183216e-06   -1.728551585029844e-05
-1.3296085313905005e-05   3.244565282183216e-06   -1.728551585029844e-05
-9.809653562541692e-06   1.022103832926894e-07   -2.6819990486127662e-05
-9.809653562541692e-06   1.022103832926894e-07   -2.6819990486127662e-05
-9.809653562541692e-06   1.022103832926894e-07   -2.6819990486127662e-05
-9.809653562541692e-06   1.022103832926894e-07   -2.6819990486127662e-05
-2.7058896966890635e-06   2.1943543591511393e-07   -1.491004901146652e-05
-2.7058896966890635e-06   2.1943543591511393e-07   -1.491004901146652e-05
-2.7058896966890635e-06   2.1943543591511393e-07   -1.491004901146652e-05
-2.7058896966890635e-06   2.1943543591511393e-07   -1.491004901146652e-05
-2.7114342899065224e-06   8.838359701223071e-07   -2.6521003232703763e-05
-2.7114342899065224e-06   8.838359701223071e-07   -2.6521003232703763e-05
-2.7114342899065224e-06   8.838359701223071e-07   -2.6521003232703763e-05
-2.7114342899065224e-06   8.838359701223071e-07   -2.6521003232703763e-05
-9.814660019733418e-06   9.27735641567261e-07   -1.4708633485859237e-05
-9.814660019733418e-06   9.27735641567261e-07   -1.4708633485859237e-05
-9.814660019733418e-06   9.27735641567261e-07   -1.4708633485859237e-05
-9.814660019733418e-06   9.27735641567261e-07   -1.4708633485859237e-05
-6.218607246135655e-06   6.256884432038947e-07   -2.0520826456170874e-05
-6.218607246135655e-06   6.256884432038947e-07   -2.0520826456170874e-05
-6.218607246135655e-06   6.256884432038947e-07   -2.0520826456170874e-05
-6.218607246135655e-06   6.256884432038947e-07   -2.0520826456170874e-05
-9.814660019733418e-06   8.838359701223071e-07   -2.6547343035570735e-05
-9.814660019733418e-06   8.838359701223071e-07   -2.6547343035570735e-05
-9.814660019733418e-06   8.838359701223071e-07   -2.6547343035570735e-05
-9.814660019733418e-06   8.838359701223071e-07   -2.6547343035570735e-05
-2.7114342899065224e-06   9.27735641567261e-07   -1.4682293682992333e-05
-2.7114342899065224e-06   9.27735641567261e-07   -1.4682293682992333e-05
-2.7114342899065224e-06   9.27735641567261e-07   -1.4682293682992333e-05
-2.7114342899065224e-06   9.27735641567261e-07   -1.4682293682992333e-05
-2.7023363824823925e-06   1.6632049385172207e-06   -2.6587367233126295e-05
-2.7023363824823925e-06   1.6632049385172207e-06   -2.6587367233126295e-05
-2.7023363824823925e-06   1.6632049385172207e-06   -2.6587367233126295e-05
-2.7023363824823925e-06   1.6632049385172207e-06   -2.6587367233126295e-05
-9.807751518954363e-06   1.6383145531278349e-06   -1.4730074441106169e-05
-9.807751518954363e-06   1.6383145531278349e-06   -1.4730074441106169e-05
-9.807751518954363e-06   1.6383145531278349e-06   -1.4730074441106169e-05
-9.807751518954363e-06   1.6383145531278349e-06   -1.4730074441106169e-05
-6.260534453149583e-06   1.2458232120280918e-06   -2.040660807945423e-05
-6.260534453149583e-06   1.2458232120280918e-06   -2.040660807945423e-05
-6.260534453149583e-06   1.2458232120280918e-06   -2.040660807945423e-05
-6.260534453149583e-06   1.2458232120280918e-06   -2.040660807945423e-05
-9.807751518954363e-06   1.6632049385172207e-06   -2.657243300189274e-05
-9.807751518954363e-06   1.6632049385172207e-06   -2.657243300189274e-05
-9.807751518954363e-06   1.6632049385172207e-06   -2.657243300189274e-05
-9.807751518954363e-06   1.6632049385172207e-06   -2.657243300189274e-05
-2.7023363824823967e-06   1.638314553127889e-06   -1.4745008672339683e-05
-2.7023363824823967e-06   1.638314553127889e-06   -1.4745008672339683e-05
-2.7023363824823967e-06   1.638314553127889e-06   -1.4745008672339683e-05
-2.7023363824823967e-06   1.638314553127889e-06   -1.4745008672339683e-05
-2.7067160140817494e-06   2.4606130540616986e-06   -2.698914580995319e-05
-2.7067160140817494e-06   2.4606130540616986e-06   -2.698914580995319e-05
-2.7067160140817494e-06   2.4606130540616986e-06   -2.698914580995319e-05
-2.7067160140817494e-06   2.4606130540616986e-06   -2.698914580995319e-05
-9.816113327875285e-06   2.361316711308099e-06   -1.5080572481311676e-05
-9.816113327875285e-06   2.361316711308099e-06   -1.5080572481311676e-05
-9.816113327875285e-06   2.361316711308099e-06   -1.5080572481311676e-05
-9.816113327875285e-06   2.361316711308099e-06   -1.5080572481311676e-05
-6.314639862217025e-06   1.874109699847421e-06   -2.0624037383865722e-05
-6.314639862217025e-06   1.874109699847421e-06   -2.0624037383865722e-05
-6.314639862217025e-06   1.874109699847421e-06   -2.0624037383865722e-05
-6.314639862217025e-06   1.874109699847421e-06   -2.0624037383865722e-05
-2.7058896966890584e-06   -1.5986308730349722e-06   -2.374247976036798e-05
-2.7058896966890584e-06   -1.5986308730349722e-06   -2.374247976036798e-05
-2.7058896966890584e-06   -1.5986308730349722e-06   -2.374247976036798e-05
-2.7058896966890584e-06   -1.5986308730349722e-06   -2.374247976036798e-05
4.288617211181778e-06   -7.311940912327407e-07   -1.1564506178168594e-05
4.288617211181778e-06   -7.311940912327407e-07   -1.1564506178168594e-05
4.288617211181778e-06   -7.311940912327407e-07   -1.1564506178168594e-05
4.288617211181778e-06   -7.311940912327407e-07   -1.1564506178168594e-05
4.345516052366041e-06   -8.811588238749981e-07   -2.319843160399044e-05
4.345516052366041e-06   -8.811588238749981e-07   -2.319843160399044e-05
4.345516052366041e-06   -8.811588238749981e-07   -2.319843160399044e-05
4.345516052366041e-06   -8.811588238749981e-07   -2.319843160399044e-05
-2.7114342899065224e-06   -6.312466220071734e-08   -1.192766819720744e-05
-2.7114342899065224e-06   -6.312466220071734e-08   -1.192766819720744e-05
-2.7114342899065224e-06   -6.312466220071734e-08   -1.192766819720744e-05
-2.7114342899065224e-06   -6.312466220071734e-08   -1.192766819720744e-05
8.091224891836901e-07   -7.568250274326335e-07   -1.7379042609885317e-05
8.091224891836901e-07   -7.568250274326335e-07   -1.7379042609885317e-05
8.091224891836901e-07   -7.568250274326335e-07   -1.7379042609885317e-05
8.091224891836901e-07   -7.568250274326335e-07   -1.7379042609885317e-05
-2.7114342899065224e-06   -8.811588238749981e-07   -2.3689252100995078e-05
-2.7114342899065224e-06   -8.811588238749981e-07   -2.3689252100995078e-05
-2.7114342899065224e-06   -8.811588238749981e-07   -2.3689252100995078e-05
-2.7114342899065224e-06   -8.811588238749981e-07   -2.3689252100995078e-05
4.345516052366055e-06   -6.312466220066313e-08   -1.143684770020287e-05
4.345516052366055e-06   -6.312466220066313e-08   -1.143684770020287e-05
4.345516052366055e-06   -6.312466220066313e-08   -1.143684770020287e-05
4.345516052366055e-06   -6.312466220066313e-08   -1.143684770020287e-05
4.481098447097696e-06   -1.7701737308752855e-07   -2.3683724597301712e-05
4.481098447097696e-06   -1.7701737308752855e-07   -2.3683724597301712e-05
4.481098447097696e-06   -1.7701737308752855e-07   -2.3683724597301712e-05
4.481098447097696e-06   -1.7701737308752855e-07   -2.3683724597301712e-05
-2.7023363824823967e-06   5.78728964006881e-07   -1.2164781016924886e-05
-2.7023363824823967e-06   5.78728964006881e-07   -1.2164781016924886e-05
-2.7023363824823967e-06   5.78728964006881e-07   -1.2164781016924886e-05
-2.7023363824823967e-06   5.78728964006881e-07   -1.2164781016924886e-05
7.683289371116918e-07   -2.0086200794820763e-07   -1.7481468633075316e-05
7.683289371116918e-07   -2.0086200794820763e-07   -1.7481468633075316e-05
7.683289371116918e-07   -2.0086200794820763e-07   -1.7481468633075316e-05
7.683289371116918e-07   -2.0086200794820763e-07   -1.7481468633075316e-05
-2.702336382482394e-06   -1.7701737308752855e-07   -2.4137172399558255e-05
-2.702336382482394e-06   -1.7701737308752855e-07   -2.4137172399558255e-05
-2.702336382482394e-06   -1.7701737308752855e-07   -2.4137172399558255e-05
-2.702336382482394e-06   -1.7701737308752855e-07   -2.4137172399558255e-05
4.48109844709771e-06   5.787289640068268e-07   -1.171133321466823e-05
4.48109844709771e-06   5.787289640068268e-07   -1.171133321466823e-05
4.48109844709771e-06   5.787289640068268e-07   -1.171133321466823e-05
4.48109844709771e-06   5.787289640068268e-07   -1.171133321466823e-05
4.547831718528273e-06   6.453753955599248e-07   -2.4381615610797984e-05
4.547831718528273e-06   6.453753955599248e-07   -2.4381615610797984e-05
4.547831718528273e-06   6.453753955599248e-07   -2.4381615610797984e-05
4.547831718528273e-06   6.453753955599248e-07   -2.4381615610797984e-05
-2.7067160140817447e-06   1.3134291163357462e-06   -1.2691534955580072e-05
-2.7067160140817447e-06   1.3134291163357462e-06   -1.2691534955580072e-05
-2.7067160140817447e-06   1.3134291163357462e-06   -1.2691534955580072e-05
-2.7067160140817447e-06   1.3134291163357462e-06   -1.2691534955580072e-05
7.92292512260441e-07   3.928517678767631e-07   -1.797086942374157e-05
7.92292512260441e-07   3.928517678767631e-07   -1.797086942374157e-05
7.92292512260441e-07   3.928517678767631e-07   -1.797086942374157e-05
7.92292512260441e-07   3.928517678767631e-07   -1.797086942374157e-05
4.288617211181771e-06   -2.8929067895477455e-06   -1.3031058924071993e-05
4.288617211181771e-06   -2.8929067895477455e-06   -1.3031058924071993e-05
4.288617211181771e-06   -2.8929067895477455e-06   -1.3031058924071993e-05
4.288617211181771e-06   -2.8929067895477455e-06   -1.3031058924071993e-05
1.0478645031124288e-05   -1.3383468937280775e-06   -1.7816099533425698e-06
1.0478645031124288e-05   -1.3383468937280775e-06   -1.7816099533425698e-06
1.0478645031124288e-05   -1.3383468937280775e-06   -1.7816099533425698e-06
1.0478645031124288e-05   -1.3383468937280775e-06   -1.7816099533425698e-06
1.1221739477317968e-05   -2.477856490906325e-06   -1.3665621781268033e-05
1.1221739477317968e-05   -2.477856490906325e-06   -1.3665621781268033e-05
1.1221739477317968e-05   -2.477856490906325e-06   -1.3665621781268033e-05
1.1221739477317968e-05   -2.477856490906325e-06   -1.3665621781268033e-05
4.345516052366048e-06   -8.846575247804323e-07   -3.161168786023697e-06
4.345516052366048e-06   -8.846575247804323e-07   -3.161168786023697e-06
4.345516052366048e-06   -8.846575247804323e-07   -3.161168786023697e-06
4.345516052366048e-06   -8.846575247804323e-07   -3.161168786023697e-06
7.260267158344734e-06   -1.8394307270427988e-06   -7.4462233746307594e-06
7.260267158344734e-06   -1.8394307270427988e-06   -7.4462233746307594e-06
7.260267158344734e-06   -1.8394307270427988e-06   -7.4462233746307594e-06
7.260267158344734e-06   -1.8394307270427988e-06   -7.4462233746307594e-06
4.345516052366041e-06   -2.477856490906325e-06   -1.4621541160943403e-05
4.345516052366041e-06   -2.477856490906325e-06   -1.4621541160943403e-05
4.345516052366041e-06   -2.477856490906325e-06   -1.4621541160943403e-05
4.345516052366041e-06   -2.477856490906325e-06   -1.4621541160943403e-05
1.1221739477317927e-05   -8.846575247804865e-07   -2.205249406348191e-06
1.1221739477317927e-05   -8.846575247804865e-07   -2.205249406348191e-06
1.1221739477317927e-05   -8.846575247804865e-07   -2.205249406348191e-06
1.1221739477317927e-05   -8.846575247804865e-07   -2.205249406348191e-06
1.1794678300484088e-05   -2.123736077525788e-06   -1.4979722988157766e-05
1.1794678300484088e-05   -2.123736077525788e-06   -1.4979722988157766e-05
1.1794678300484088e-05   -2.123736077525788e-06   -1.4979722988157766e-05
1.1794678300484088e-05   -2.123736077525788e-06   -1.4979722988157766e-05
4.48109844709771e-06   -5.725067215192441e-07   -3.721160846117689e-06
4.48109844709771e-06   -5.725067215192441e-07   -3.721160846117689e-06
4.48109844709771e-06   -5.725067215192441e-07   -3.721160846117689e-06
4.48109844709771e-06   -5.725067215192441e-07   -3.721160846117689e-06
7.712506100689067e-06   -1.6059725965169506e-06   -8.486760743771349e-06
7.712506100689067e-06   -1.6059725965169506e-06   -8.486760743771349e-06
7.712506100689067e-06   -1.6059725965169506e-06   -8.486760743771349e-06
7.712506100689067e-06   -1.6059725965169506e-06   -8.486760743771349e-06
4.481098447097703e-06   -2.123736077525788e-06   -1.5910460601761595e-05
4.481098447097703e-06   -2.123736077525788e-06   -1.5910460601761595e-05
4.481098447097703e-06   -2.123736077525788e-06   -1.5910460601761595e-05
4.481098447097703e-06   -2.123736077525788e-06   -1.5910460601761595e-05
1.1794678300484048e-05   -5.725067215192441e-07   -2.7904232325137246e-06
1.1794678300484048e-05   -5.725067215192441e-07   -2.7904232325137246e-06
1.1794678300484048e-05   -5.725067215192441e-07   -2.7904232325137246e-06
1.1794678300484048e-05   -5.725067215192441e-07   -2.7904232325137246e-06
1.2557453727523457e-05   -1.368772359323109e-06   -1.750509549496105e-05
1.2557453727523457e-05   -1.368772359323109e-06   -1.750509549496105e-05
1.2557453727523457e-05   -1.368772359323109e-06   -1.750509549496105e-05
1.2557453727523457e-05   -1.368772359323109e-06   -1.750509549496105e-05
4.54783171852828e-06   3.912304651662417e-08   -5.000462723472887e-06
4.54783171852828e-06   3.912304651662417e-08   -5.000462723472887e-06
4.54783171852828e-06   3.912304651662417e-08   -5.000462723472887e-06
4.54783171852828e-06   3.912304651662417e-08   -5.000462723472887e-06
7.86637659458601e-06   -1.2615069274112488e-06   -9.750992865879078e-06
7.86637659458601e-06   -1.2615069274112488e-06   -9.750992865879078e-06
7.86637659458601e-06   -1.2615069274112488e-06   -9.750992865879078e-06
7.86637659458601e-06   -1.2615069274112488e-06   -9.750992865879078e-06
-1.5042401370929029e-05   2.428544768258835e-06   -1.4135435197255484e-05
-1.5042401370929029e-05   2.428544768258835e-06   -1.4135435197255484e-05
-1.5042401370929029e-05   2.428544768258835e-06   -1.4135435197255484e-05
-1.5042401370929029e-05   2.428544768258835e-06   -1.4135435197255484e-05
-1.1141216578597566e-05   9.83751220038514e-07   -8.500336672301816e-06
-1.1141216578597566e-05   9.83751220038514e-07   -8.500336672301816e-06
-1.1141216578597566e-05   9.83751220038514e-07   -8.500336672301816e-06
-1.1141216578597566e-05   9.83751220038514e-07   -8.500336672301816e-06
-1.0979251181864361e-05   3.0944074854442395e-06   -1.2470229511994473e-05
-1.0979251181864361e-05   3.0944074854442395e-06   -1.2470229511994473e-05
-1.0979251181864361e-05   3.0944074854442395e-06   -1.2470229511994473e-05
-1.0979251181864361e-05   3.0944074854442395e-06   -1.2470229511994473e-05
-1.4220818495056626e-05   1.5365935915866982e-06   -6.132928987025979e-06
-1.4220818495056626e-05   1.5365935915866982e-06   -6.132928987025979e-06
-1.4220818495056626e-05   1.5365935915866982e-06   -6.132928987025979e-06
-1.4220818495056626e-05   1.5365935915866982e-06   -6.132928987025979e-06
-1.2301772981787346e-05   2.179555046209346e-06   -9.717115048582276e-06
-1.2301772981787346e-05   2.179555046209346e-06   -9.717115048582276e-06
-1.2301772981787346e-05   2.179555046209346e-06   -9.717115048582276e-06
-1.2301772981787346e-05   2.179555046209346e-06   -9.717115048582276e-06
-1.4220818495056626e-05   3.0944074854442395e-06   -1.1535541175679916e-05
-1.4220818495056626e-05   3.0944074854442395e-06   -1.1535541175679916e-05
-1.4220818495056626e-05   3.0944074854442395e-06   -1.1535541175679916e-05
-1.4220818495056626e-05   3.0944074854442395e-06   -1.1535541175679916e-05
-1.0979251181864375e-05   1.5365935915866982e-06   -7.067617323340658e-06
-1.0979251181864375e-05   1.5365935915866982e-06   -7.067617323340658e-06
-1.0979251181864375e-05   1.5365935915866982e-06   -7.067617323340658e-06
-1.0979251181864375e-05   1.5365935915866982e-06   -7.067617323340658e-06
-1.0747505041462939e-05   3.405523549714323e-06   -1.1134437760655191e-05
-1.0747505041462939e-05   3.405523549714323e-06   -1.1134437760655191e-05
-1.0747505041462939e-05   3.405523549714323e-06   -1.1134437760655191e-05
-1.0747505041462939e-05   3.405523549714323e-06   -1.1134437760655191e-05
-1.3567174954781674e-05   1.8169906792010792e-06   -5.481868182816054e-06
-1.3567174954781674e-05   1.8169906792010792e-06   -5.481868182816054e-06
-1.3567174954781674e-05   1.8169906792010792e-06   -5.481868182816054e-06
-1.3567174954781674e-05   1.8169906792010792e-06   -5.481868182816054e-06
-1.208603203697309e-05   2.478302443192329e-06   -8.347226770891771e-06
-1.208603203697309e-05   2.478302443192329e-06   -8.347226770891771e-06
-1.208603203697309e-05   2.478302443192329e-06   -8.347226770891771e-06
-1.208603203697309e-05   2.478302443192329e-06   -8.347226770891771e-06
-1.3567174954781674e-05   3.405523549714323e-06   -1.0181318038347343e-05
-1.3567174954781674e-05   3.405523549714323e-06   -1.0181318038347343e-05
-1.3567174954781674e-05   3.405523549714323e-06   -1.0181318038347343e-05
-1.3567174954781674e-05   3.405523549714323e-06   -1.0181318038347343e-05
-1.0747505041462953e-05   1.8169906792010792e-06   -6.434987905123971e-06
-1.0747505041462953e-05   1.8169906792010792e-06   -6.434987905123971e-06
-1.0747505041462953e-05   1.8169906792010792e-06   -6.434987905123971e-06
-1.0747505041462953e-05   1.8169906792010792e-06   -6.434987905123971e-06
-1.059115027709946e-05   3.7980889477012077e-06   -9.423115032687092e-06
-1.059115027709946e-05   3.7980889477012077e-06   -9.423115032687092e-06
-1.059115027709946e-05   3.7980889477012077e-06   -9.423115032687092e-06
-1.059115027709946e-05   3.7980889477012077e-06   -9.423115032687092e-06
-1.273526946548128e-05   2.261680300578062e-06   -4.927737863776808e-06
-1.273526946548128e-05   2.261680300578062e-06   -4.927737863776808e-06
-1.273526946548128e-05   2.261680300578062e-06   -4.927737863776808e-06
-1.273526946548128e-05   2.261680300578062e-06   -4.927737863776808e-06
-1.1522412213721323e-05   2.687113191704297e-06   -7.204426351386075e-06
-1.1522412213721323e-05   2.687113191704297e-06   -7.204426351386075e-06
-1.1522412213721323e-05   2.687113191704297e-06   -7.204426351386075e-06
-1.1522412213721323e-05   2.687113191704297e-06   -7.204426351386075e-06
-1.1141216578597566e-05   1.2596780463650223e-06   -2.065902861990822e-05
-1.1141216578597566e-05   1.2596780463650223e-06   -2.065902861990822e-05
-1.1141216578597566e-05   1.2596780463650223e-06   -2.065902861990822e-05
-1.1141216578597566e-05   1.2596780463650223e-06   -2.065902861990822e-05
-7.967245058156066e-06   5.705794981101728e-07   -1.5782535214792047e-05
-7.967245058156066e-06   5.705794981101728e-07   -1.5782535214792047e-05
-7.967245058156066e-06   5.705794981101728e-07   -1.5782535214792047e-05
-7.967245058156066e-06   5.705794981101728e-07   -1.5782535214792047e-05
-7.862506565353453e-06   1.9632480444856213e-06   -2.0589180576704633e-05
-7.862506565353453e-06   1.9632480444856213e-06   -2.0589180576704633e-05
-7.862506565353453e-06   1.9632480444856213e-06   -2.0589180576704633e-05
-7.862506565353453e-06   1.9632480444856213e-06   -2.0589180576704633e-05
-1.0979251181864389e-05   1.2050856928353141e-06   -1.4939708804862759e-05
-1.0979251181864389e-05   1.2050856928353141e-06   -1.4939708804862759e-05
-1.0979251181864389e-05   1.2050856928353141e-06   -1.4939708804862759e-05
-1.0979251181864389e-05   1.2050856928353141e-06   -1.4939708804862759e-05
-9.395009185365966e-06   1.3728575630680018e-06   -1.768077525450025e-05
-9.395009185365966e-06   1.3728575630680018e-06   -1.768077525450025e-05
-9.395009185365966e-06   1.3728575630680018e-06   -1.768077525450025e-05
-9.395009185365966e-06   1.3728575630680018e-06   -1.768077525450025e-05
-1.0979251181864348e-05   1.9632480444856213e-06   -2.013428316571434e-05
-1.0979251181864348e-05   1.9632480444856213e-06   -2.013428316571434e-05
-1.0979251181864348e-05   1.9632480444856213e-06   -2.013428316571434e-05
-1.0979251181864348e-05   1.9632480444856213e-06   -2.013428316571434e-05
-7.862506565353453e-06   1.2050856928353141e-06   -1.5394606215853024e-05
-7.862506565353453e-06   1.2050856928353141e-06   -1.5394606215853024e-05
-7.862506565353453e-06   1.2050856928353141e-06   -1.5394606215853024e-05
-7.862506565353453e-06   1.2050856928353141e-06   -1.5394606215853024e-05
-7.746653290464067e-06   2.6043223958448474e-06   -2.0256058334443196e-05
-7.746653290464067e-06   2.6043223958448474e-06   -2.0256058334443196e-05
-7.746653290464067e-06   2.6043223958448474e-06   -2.0256058334443196e-05
-7.746653290464067e-06   2.6043223958448474e-06   -2.0256058334443196e-05
-1.0747505041462966e-05   1.7959781897633129e-06   -1.4769632225796028e-05
-1.0747505041462966e-05   1.7959781897633129e-06   -1.4769632225796028e-05
-1.0747505041462966e-05   1.7959781897633129e-06   -1.4769632225796028e-05
-1.0747505041462966e-05   1.7959781897633129e-06   -1.4769632225796028e-05
-9.256590623803189e-06   1.8868569896662857e-06   -1.7309016868503928e-05
-9.256590623803189e-06   1.8868569896662857e-06   -1.7309016868503928e-05
-9.256590623803189e-06   1.8868569896662857e-06   -1.7309016868503928e-05
-9.256590623803189e-06   1.8868569896662857e-06   -1.7309016868503928e-05
-1.0747505041462939e-05   2.604322395844793e-06   -1.9771051810794232e-05
-1.0747505041462939e-05   2.604322395844793e-06   -1.9771051810794232e-05
-1.0747505041462939e-05   2.604322395844793e-06   -1.9771051810794232e-05
-1.0747505041462939e-05   2.604322395844793e-06   -1.9771051810794232e-05
-7.746653290464053e-06   1.7959781897634213e-06   -1.5254638749444911e-05
-7.746653290464053e-06   1.7959781897634213e-06   -1.5254638749444911e-05
-7.746653290464053e-06   1.7959781897634213e-06   -1.5254638749444911e-05
-7.746653290464053e-06   1.7959781897634213e-06   -1.5254638749444911e-05
-7.644133630218338e-06   3.3015576077191004e-06   -2.0452594781658834e-05
-7.644133630218338e-06   3.3015576077191004e-06   -2.0452594781658834e-05
-7.644133630218338e-06   3.3015576077191004e-06   -2.0452594781658834e-05
-7.644133630218338e-06   3.3015576077191004e-06   -2.0452594781658834e-05
-1.0591150277099488e-05   2.453443646705986e-06   -1.503203199358221e-05
-1.0591150277099488e-05   2.453443646705986e-06   -1.503203199358221e-05
-1.0591150277099488e-05   2.453443646705986e-06   -1.503203199358221e-05
-1.0591150277099488e-05   2.453443646705986e-06   -1.503203199358221e-05
-9.204268130288814e-06   2.408456399528489e-06   -1.7316509889960354e-05
-9.204268130288814e-06   2.408456399528489e-06   -1.7316509889960354e-05
-9.204268130288814e-06   2.408456399528489e-06   -1.7316509889960354e-05
-9.204268130288814e-06   2.408456399528489e-06   -1.7316509889960354e-05
-7.967245058156039e-06   2.1943543591505972e-07   -2.337183048073643e-05
-7.967245058156039e-06   2.1943543591505972e-07   -2.337183048073643e-05
-7.967245058156039e-06   2.1943543591505972e-07   -2.337183048073643e-05
-7.967245058156039e-06   2.1943543591505972e-07   -2.337183048073643e-05
-4.870780688727158e-06   3.308505803441058e-07   -1.8144207445030982e-05
-4.870780688727158e-06   3.308505803441058e-07   -1.8144207445030982e-05
-4.870780688727158e-06   3.308505803441058e-07   -1.8144207445030982e-05
-4.870780688727158e-06   3.308505803441058e-07   -1.8144207445030982e-05
-4.769019275118496e-06   9.277356415672068e-07   -2.3075576184996584e-05
-4.769019275118496e-06   9.277356415672068e-07   -2.3075576184996584e-05
-4.769019275118496e-06   9.277356415672068e-07   -2.3075576184996584e-05
-4.769019275118496e-06   9.277356415672068e-07   -2.3075576184996584e-05
-7.862506565353453e-06   9.781184838393879e-07   -1.794999373996808e-05
-7.862506565353453e-06   9.781184838393879e-07   -1.794999373996808e-05
-7.862506565353453e-06   9.781184838393879e-07   -1.794999373996808e-05
-7.862506565353453e-06   9.781184838393879e-07   -1.794999373996808e-05
-6.326464554561701e-06   7.047207516474099e-07   -2.0346025118639588e-05
-6.326464554561701e-06   7.047207516474099e-07   -2.0346025118639588e-05
-6.326464554561701e-06   7.047207516474099e-07   -2.0346025118639588e-05
-6.326464554561701e-06   7.047207516474099e-07   -2.0346025118639588e-05
-7.86250656535344e-06   9.277356415672068e-07   -2.3105805890359806e-05
-7.86250656535344e-06   9.277356415672068e-07   -2.3105805890359806e-05
-7.86250656535344e-06   9.277356415672068e-07   -2.3105805890359806e-05
-7.86250656535344e-06   9.277356415672068e-07   -2.3105805890359806e-05
-4.769019275118496e-06   9.781184838392794e-07   -1.7919764034604873e-05
-4.769019275118496e-06   9.781184838392794e-07   -1.7919764034604873e-05
-4.769019275118496e-06   9.781184838392794e-07   -1.7919764034604873e-05
-4.769019275118496e-06   9.781184838392794e-07   -1.7919764034604873e-05
-4.653957864969786e-06   1.6383145531278349e-06   -2.313474331541959e-05
-4.653957864969786e-06   1.6383145531278349e-06   -2.313474331541959e-05
-4.653957864969786e-06   1.6383145531278349e-06   -2.313474331541959e-05
-4.653957864969786e-06   1.6383145531278349e-06   -2.313474331541959e-05
-7.746653290464053e-06   1.6310104469266203e-06   -1.7975868475875013e-05
-7.746653290464053e-06   1.6310104469266203e-06   -1.7975868475875013e-05
-7.746653290464053e-06   1.6310104469266203e-06   -1.7975868475875013e-05
-7.746653290464053e-06   1.6310104469266203e-06   -1.7975868475875013e-05
-6.259173763880759e-06   1.2615259895730913e-06   -2.0233310345768433e-05
-6.259173763880759e-06   1.2615259895730913e-06   -2.0233310345768433e-05
-6.259173763880759e-06   1.2615259895730913e-06   -2.0233310345768433e-05
-6.259173763880759e-06   1.2615259895730913e-06   -2.0233310345768433e-05
-7.746653290464033e-06   1.638314553127889e-06   -2.3130360851698786e-05
-7.746653290464033e-06   1.638314553127889e-06   -2.3130360851698786e-05
-7.746653290464033e-06   1.638314553127889e-06   -2.3130360851698786e-05
-7.746653290464033e-06   1.638314553127889e-06   -2.3130360851698786e-05
-4.653957864969794e-06   1.6310104469267287e-06   -1.7980250939595777e-05
-4.653957864969794e-06   1.6310104469267287e-06   -1.7980250939595777e-05
-4.653957864969794e-06   1.6310104469267287e-06   -1.7980250939595777e-05
-4.653957864969794e-06   1.6310104469267287e-06   -1.7980250939595777e-05
-4.550748883961842e-06   2.3613167113080446e-06   -2.3523955789931696e-05
-4.550748883961842e-06   2.3613167113080446e-06   -2.3523955789931696e-05
-4.550748883961842e-06   2.3613167113080446e-06   -2.3523955789931696e-05
-4.550748883961842e-06   2.3613167113080446e-06   -2.3523955789931696e-05
-7.644133630218344e-06   2.2938092962238943e-06   -1.8327810097120206e-05
-7.644133630218344e-06   2.2938092962238943e-06   -1.8327810097120206e-05
-7.644133630218344e-06   2.2938092962238943e-06   -1.8327810097120206e-05
-7.644133630218344e-06   2.2938092962238943e-06   -1.8327810097120206e-05
-6.204116094251129e-06   1.8257504254632012e-06   -2.044700400127597e-05
-6.204116094251129e-06   1.8257504254632012e-06   -2.044700400127597e-05
-6.204116094251129e-06   1.8257504254632012e-06   -2.044700400127597e-05
-6.204116094251129e-06   1.8257504254632012e-06   -2.044700400127597e-05
-4.870780688727141e-06   -7.311940912326865e-07   -2.0479900629862468e-05
-4.870780688727141e-06   -7.311940912326865e-07   -2.0479900629862468e-05
-4.870780688727141e-06   -7.311940912326865e-07   -2.0479900629862468e-05
-4.870780688727141e-06   -7.311940912326865e-07   -2.0479900629862468e-05
-1.8748153277375375e-06   1.4832758809060504e-07   -1.495891202061921e-05
-1.8748153277375375e-06   1.4832758809060504e-07   -1.495891202061921e-05
-1.8748153277375375e-06   1.4832758809060504e-07   -1.495891202061921e-05
-1.8748153277375375e-06   1.4832758809060504e-07   -1.495891202061921e-05
-1.7213968106197217e-06   -6.312466220066313e-08   -1.9817419110800037e-05
-1.7213968106197217e-06   -6.312466220066313e-08   -1.9817419110800037e-05
-1.7213968106197217e-06   -6.312466220066313e-08   -1.9817419110800037e-05
-1.7213968106197217e-06   -6.312466220066313e-08   -1.9817419110800037e-05
-4.769019275118488e-06   7.760946518187931e-07   -1.5241579925046915e-05
-4.769019275118488e-06   7.760946518187931e-07   -1.5241579925046915e-05
-4.769019275118488e-06   7.760946518187931e-07   -1.5241579925046915e-05
-4.769019275118488e-06   7.760946518187931e-07   -1.5241579925046915e-05
-3.2755577211273695e-06   9.787792098483409e-08   -1.7323752476532036e-05
-3.2755577211273695e-06   9.787792098483409e-08   -1.7323752476532036e-05
-3.2755577211273695e-06   9.787792098483409e-08   -1.7323752476532036e-05
-3.2755577211273695e-06   9.787792098483409e-08   -1.7323752476532036e-05
-4.76901927511848e-06   -6.312466220066313e-08   -2.032095069921168e-05
-4.76901927511848e-06   -6.312466220066313e-08   -2.032095069921168e-05
-4.76901927511848e-06   -6.312466220066313e-08   -2.032095069921168e-05
-4.76901927511848e-06   -6.312466220066313e-08   -2.032095069921168e-05
-1.7213968106197285e-06   7.760946518189015e-07   -1.4738048336635347e-05
-1.7213968106197285e-06   7.760946518189015e-07   -1.4738048336635347e-05
-1.7213968106197285e-06   7.760946518189015e-07   -1.4738048336635347e-05
-1.7213968106197285e-06   7.760946518189015e-07   -1.4738048336635347e-05
-1.4913845691339803e-06   5.787289640068268e-07   -2.0081615203585096e-05
-1.4913845691339803e-06   5.787289640068268e-07   -2.0081615203585096e-05
-1.4913845691339803e-06   5.787289640068268e-07   -2.0081615203585096e-05
-1.4913845691339803e-06   5.787289640068268e-07   -2.0081615203585096e-05
-4.653957864969786e-06   1.366896391372845e-06   -1.528356016694496e-05
-4.653957864969786e-06   1.366896391372845e-06   -1.528356016694496e-05
-4.653957864969786e-06   1.366896391372845e-06   -1.528356016694496e-05
-4.653957864969786e-06   1.366896391372845e-06   -1.528356016694496e-05
-3.1834628199563684e-06   6.051953356755709e-07   -1.727736460854906e-05
-3.1834628199563684e-06   6.051953356755709e-07   -1.727736460854906e-05
-3.1834628199563684e-06   6.051953356755709e-07   -1.727736460854906e-05
-3.1834628199563684e-06   6.051953356755709e-07   -1.727736460854906e-05
-4.653957864969775e-06   5.787289640068268e-07   -2.0554515660004653e-05
-4.653957864969775e-06   5.787289640068268e-07   -2.0554515660004653e-05
-4.653957864969775e-06   5.787289640068268e-07   -2.0554515660004653e-05
-4.653957864969775e-06   5.787289640068268e-07   -2.0554515660004653e-05
-1.4913845691339803e-06   1.3668963913727366e-06   -1.4810659710525387e-05
-1.4913845691339803e-06   1.3668963913727366e-06   -1.4810659710525387e-05
-1.4913845691339803e-06   1.3668963913727366e-06   -1.4810659710525387e-05
-1.4913845691339803e-06   1.3668963913727366e-06   -1.4810659710525387e-05
-1.3311688104640862e-06   1.3134291163357462e-06   -2.064302835590317e-05
-1.3311688104640862e-06   1.3134291163357462e-06   -2.064302835590317e-05
-1.3311688104640862e-06   1.3134291163357462e-06   -2.064302835590317e-05
-1.3311688104640862e-06   1.3134291163357462e-06   -2.064302835590317e-05
-4.550748883961842e-06   2.033949287410207e-06   -1.570937366938488e-05
-4.550748883961842e-06   2.033949287410207e-06   -1.570937366938488e-05
-4.550748883961842e-06   2.033949287410207e-06   -1.570937366938488e-05
-4.550748883961842e-06   2.033949287410207e-06   -1.570937366938488e-05
-3.087462041964478e-06   1.1359259720544398e-06   -1.7609371083500327e-05
-3.087462041964478e-06   1.1359259720544398e-06   -1.7609371083500327e-05
-3.087462041964478e-06   1.1359259720544398e-06   -1.7609371083500327e-05
-3.087462041964478e-06   1.1359259720544398e-06   -1.7609371083500327e-05
-1.8748153277375307e-06   -1.3383468937280775e-06   -1.1102027334934368e-05
-1.8748153277375307e-06   -1.3383468937280775e-06   -1.1102027334934368e-05
-1.8748153277375307e-06   -1.3383468937280775e-06   -1.1102027334934368e-05
-1.8748153277375307e-06   -1.3383468937280775e-06   -1.1102027334934368e-05
3.1267817885521595e-07   2.1340152071944347e-07   -6.525155775277886e-06
3.1267817885521595e-07   2.1340152071944347e-07   -6.525155775277886e-06
3.1267817885521595e-07   2.1340152071944347e-07   -6.525155775277886e-06
3.1267817885521595e-07   2.1340152071944347e-07   -6.525155775277886e-06
1.1366515325676133e-06   -8.846575247804865e-07   -1.058461241633171e-05
1.1366515325676133e-06   -8.846575247804865e-07   -1.058461241633171e-05
1.1366515325676133e-06   -8.846575247804865e-07   -1.058461241633171e-05
1.1366515325676133e-06   -8.846575247804865e-07   -1.058461241633171e-05
-1.7213968106197217e-06   7.105554423681099e-07   -6.778326291308448e-06
-1.7213968106197217e-06   7.105554423681099e-07   -6.778326291308448e-06
-1.7213968106197217e-06   7.105554423681099e-07   -6.778326291308448e-06
-1.7213968106197217e-06   7.105554423681099e-07   -6.778326291308448e-06
-5.208952809854028e-07   -2.5861926764014775e-07   -8.197657348027644e-06
-5.208952809854028e-07   -2.5861926764014775e-07   -8.197657348027644e-06
-5.208952809854028e-07   -2.5861926764014775e-07   -8.197657348027644e-06
-5.208952809854028e-07   -2.5861926764014775e-07   -8.197657348027644e-06
-1.721396810619715e-06   -8.846575247804865e-07   -1.1541740196620797e-05
-1.721396810619715e-06   -8.846575247804865e-07   -1.1541740196620797e-05
-1.721396810619715e-06   -8.846575247804865e-07   -1.1541740196620797e-05
-1.721396810619715e-06   -8.846575247804865e-07   -1.1541740196620797e-05
1.1366515325676133e-06   7.105554423681099e-07   -5.821198511019401e-06
1.1366515325676133e-06   7.105554423681099e-07   -5.821198511019401e-06
1.1366515325676133e-06   7.105554423681099e-07   -5.821198511019401e-06
1.1366515325676133e-06   7.105554423681099e-07   -5.821198511019401e-06
1.7875926395324616e-06   -5.725067215192983e-07   -1.1154147586770396e-05
1.7875926395324616e-06   -5.725067215192983e-07   -1.1154147586770396e-05
1.7875926395324616e-06   -5.725067215192983e-07   -1.1154147586770396e-05
1.7875926395324616e-06   -5.725067215192983e-07   -1.1154147586770396e-05
-1.4913845691339803e-06   9.896520255876697e-07   -6.626480820590429e-06
-1.4913845691339803e-06   9.896520255876697e-07   -6.626480820590429e-06
-1.4913845691339803e-06   9.896520255876697e-07   -6.626480820590429e-06
-1.4913845691339803e-06   9.896520255876697e-07   -6.626480820590429e-06
-1.0581494706237807e-07   -1.9719221833647445e-08   -8.330140775590292e-06
-1.0581494706237807e-07   -1.9719221833647445e-08   -8.330140775590292e-06
-1.0581494706237807e-07   -1.9719221833647445e-08   -8.330140775590292e-06
-1.0581494706237807e-07   -1.9719221833647445e-08   -8.330140775590292e-06
-1.4913845691339803e-06   -5.725067215192983e-07   -1.2091442835034582e-05
-1.4913845691339803e-06   -5.725067215192983e-07   -1.2091442835034582e-05
-1.4913845691339803e-06   -5.725067215192983e-07   -1.2091442835034582e-05
-1.4913845691339803e-06   -5.725067215192983e-07   -1.2091442835034582e-05
1.7875926395324616e-06   9.896520255876697e-07   -5.689185572326243e-06
1.7875926395324616e-06   9.896520255876697e-07   -5.689185572326243e-06
1.7875926395324616e-06   9.896520255876697e-07   -5.689185572326243e-06
1.7875926395324616e-06   9.896520255876697e-07   -5.689185572326243e-06
2.6109906727983024e-06   3.912304651662417e-08   -1.2486911186642633e-05
2.6109906727983024e-06   3.912304651662417e-08   -1.2486911186642633e-05
2.6109906727983024e-06   3.912304651662417e-08   -1.2486911186642633e-05
2.6109906727983024e-06   3.912304651662417e-08   -1.2486911186642633e-05
-1.331168810464093e-06   1.4822516625480299e-06   -6.782522550824026e-06
-1.331168810464093e-06   1.4822516625480299e-06   -6.782522550824026e-06
-1.331168810464093e-06   1.4822516625480299e-06   -6.782522550824026e-06
-1.331168810464093e-06   1.4822516625480299e-06   -6.782522550824026e-06
2.549246369119901e-07   2.5063568871448293e-07   -8.687042045484153e-06
2.549246369119901e-07   2.5063568871448293e-07   -8.687042045484153e-06
2.549246369119901e-07   2.5063568871448293e-07   -8.687042045484153e-06
2.549246369119901e-07   2.5063568871448293e-07   -8.687042045484153e-06
-5.178732653208959e-06   9.83751220038514e-07   -9.374821321511434e-06
-5.178732653208959e-06   9.83751220038514e-07   -9.374821321511434e-06
-5.178732653208959e-06   9.83751220038514e-07   -9.374821321511434e-06
-5.178732653208959e-06   9.83751220038514e-07   -9.374821321511434e-06
-5.3078135035986945e-06   -4.6658756172276473e-07   -1.0460159341217878e-05
-5.3078135035986945e-06   -4.6658756172276473e-07   -1.0460159341217878e-05
-5.3078135035986945e-06   -4.6658756172276473e-07   -1.0460159341217878e-05
-5.3078135035986945e-06   -4.6658756172276473e-07   -1.0460159341217878e-05
-5.045415763806145e-06   1.5365935915866982e-06   -8.809789419176651e-06
-5.045415763806145e-06   1.5365935915866982e-06   -8.809789419176651e-06
-5.045415763806145e-06   1.5365935915866982e-06   -8.809789419176651e-06
-5.045415763806145e-06   1.5365935915866982e-06   -8.809789419176651e-06
-4.2635566091267735e-06   -2.0529093675220392e-08   -9.17861439915182e-06
-4.2635566091267735e-06   -2.0529093675220392e-08   -9.17861439915182e-06
-4.2635566091267735e-06   -2.0529093675220392e-08   -9.17861439915182e-06
-4.2635566091267735e-06   -2.0529093675220392e-08   -9.17861439915182e-06
-4.732829653467808e-06   6.775752270919049e-07   -8.815355251044066e-06
-4.732829653467808e-06   6.775752270919049e-07   -8.815355251044066e-06
-4.732829653467808e-06   6.775752270919049e-07   -8.815355251044066e-06
-4.732829653467808e-06   6.775752270919049e-07   -8.815355251044066e-06
-4.2635566091267735e-06   1.5365935915866982e-06   -7.875515808019576e-06
-4.2635566091267735e-06   1.5365935915866982e-06   -7.875515808019576e-06
-4.2635566091267735e-06   1.5365935915866982e-06   -7.875515808019576e-06
-4.2635566091267735e-06   1.5365935915866982e-06   -7.875515808019576e-06
-5.045415763806158e-06   -2.0529093675220392e-08   -1.0112888010309031e-05
-5.045415763806158e-06   -2.0529093675220392e-08   -1.0112888010309031e-05
-5.045415763806158e-06   -2.0529093675220392e-08   -1.0112888010309031e-05
-5.045415763806158e-06   -2.0529093675220392e-08   -1.0112888010309031e-05
-4.713697564406364e-06   1.8169906792010792e-06   -8.175004582310899e-06
-4.713697564406364e-06   1.8169906792010792e-06   -8.175004582310899e-06
-4.713697564406364e-06   1.8169906792010792e-06   -8.175004582310899e-06
-4.713697564406364e-06   1.8169906792010792e-06   -8.175004582310899e-06
-3.5087673187284344e-06   2.3303737907041586e-07   -9.232849678362251e-06
-3.5087673187284344e-06   2.3303737907041586e-07   -9.232849678362251e-06
-3.5087673187284344e-06   2.3303737907041586e-07   -9.232849678362251e-06
-3.5087673187284344e-06   2.3303737907041586e-07   -9.232849678362251e-06
-4.301446055416641e-06   9.072708475122478e-07   -8.316258531613943e-06
-4.301446055416641e-06   9.072708475122478e-07   -8.316258531613943e-06
-4.301446055416641e-06   9.072708475122478e-07   -8.316258531613943e-06
-4.301446055416641e-06   9.072708475122478e-07   -8.316258531613943e-06
-3.5087673187284073e-06   1.8169906792010792e-06   -7.2246326022323815e-06
-3.5087673187284073e-06   1.8169906792010792e-06   -7.2246326022323815e-06
-3.5087673187284073e-06   1.8169906792010792e-06   -7.2246326022323815e-06
-3.5087673187284073e-06   1.8169906792010792e-06   -7.2246326022323815e-06
-4.713697564406378e-06   2.3303737907030744e-07   -1.018322165844066e-05
-4.713697564406378e-06   2.3303737907030744e-07   -1.018322165844066e-05
-4.713697564406378e-06   2.3303737907030744e-07   -1.018322165844066e-05
-4.713697564406378e-06   2.3303737907030744e-07   -1.018322165844066e-05
-4.456637870968772e-06   2.261680300578062e-06   -7.587171971295474e-06
-4.456637870968772e-06   2.261680300578062e-06   -7.587171971295474e-06
-4.456637870968772e-06   2.261680300578062e-06   -7.587171971295474e-06
-4.456637870968772e-06   2.261680300578062e-06   -7.587171971295474e-06
-2.5768422528612157e-06   7.383300410457273e-07   -9.806154512422016e-06
-2.5768422528612157e-06   7.383300410457273e-07   -9.806154512422016e-06
-2.5768422528612157e-06   7.383300410457273e-07   -9.806154512422016e-06
-2.5768422528612157e-06   7.383300410457273e-07   -9.806154512422016e-06
-3.7637275550978105e-06   1.1289553496960335e-06   -8.062387527217759e-06
-3.7637275550978105e-06   1.1289553496960335e-06   -8.062387527217759e-06
-3.7637275550978105e-06   1.1289553496960335e-06   -8.062387527217759e-06
-3.7637275550978105e-06   1.1289553496960335e-06   -8.062387527217759e-06
-5.307813503598681e-06   5.705794981101728e-07   -1.71137640041055e-05
-5.307813503598681e-06   5.705794981101728e-07   -1.71137640041055e-05
-5.307813503598681e-06   5.705794981101728e-07   -1.71137640041055e-05
-5.307813503598681e-06   5.705794981101728e-07   -1.71137640041055e-05
-6.161746563875618e-06   -9.703444595185115e-08   -1.893755413767093e-05
-6.161746563875618e-06   -9.703444595185115e-08   -1.893755413767093e-05
-6.161746563875618e-06   -9.703444595185115e-08   -1.893755413767093e-05
-6.161746563875618e-06   -9.703444595185115e-08   -1.893755413767093e-05
-5.951067144314066e-06   1.2050856928352057e-06   -1.712498219027072e-05
-5.951067144314066e-06   1.2050856928352057e-06   -1.712498219027072e-05
-5.951067144314066e-06   1.2050856928352057e-06   -1.712498219027072e-05
-5.951067144314066e-06   1.2050856928352057e-06   -1.712498219027072e-05
-5.045415763806172e-06   4.6658354354905864e-07   -1.8191299868212024e-05
-5.045415763806172e-06   4.6658354354905864e-07   -1.8191299868212024e-05
-5.045415763806172e-06   4.6658354354905864e-07   -1.8191299868212024e-05
-5.045415763806172e-06   4.6658354354905864e-07   -1.8191299868212024e-05
-5.551201389312129e-06   6.611537329895539e-07   -1.7465065939366797e-05
-5.551201389312129e-06   6.611537329895539e-07   -1.7465065939366797e-05
-5.551201389312129e-06   6.611537329895539e-07   -1.7465065939366797e-05
-5.551201389312129e-06   6.611537329895539e-07   -1.7465065939366797e-05
-5.045415763806145e-06   1.2050856928353141e-06   -1.6681880900698846e-05
-5.045415763806145e-06   1.2050856928353141e-06   -1.6681880900698846e-05
-5.045415763806145e-06   1.2050856928353141e-06   -1.6681880900698846e-05
-5.045415763806145e-06   1.2050856928353141e-06   -1.6681880900698846e-05
-5.951067144314053e-06   4.6658354354905864e-07   -1.863440115778387e-05
-5.951067144314053e-06   4.6658354354905864e-07   -1.863440115778387e-05
-5.951067144314053e-06   4.6658354354905864e-07   -1.863440115778387e-05
-5.951067144314053e-06   4.6658354354905864e-07   -1.863440115778387e-05
-5.731833413840676e-06   1.7959781897633129e-06   -1.698121319990923e-05
-5.731833413840676e-06   1.7959781897633129e-06   -1.698121319990923e-05
-5.731833413840676e-06   1.7959781897633129e-06   -1.698121319990923e-05
-5.731833413840676e-06   1.7959781897633129e-06   -1.698121319990923e-05
-4.7136975644063915e-06   1.0100376948861314e-06   -1.8206541985373216e-05
-4.7136975644063915e-06   1.0100376948861314e-06   -1.8206541985373216e-05
-4.7136975644063915e-06   1.0100376948861314e-06   -1.8206541985373216e-05
-4.7136975644063915e-06   1.0100376948861314e-06   -1.8206541985373216e-05
-5.340209409218396e-06   1.1166017486099328e-06   -1.722629400958766e-05
-5.340209409218396e-06   1.1166017486099328e-06   -1.722629400958766e-05
-5.340209409218396e-06   1.1166017486099328e-06   -1.722629400958766e-05
-5.340209409218396e-06   1.1166017486099328e-06   -1.722629400958766e-05
-4.713697564406364e-06   1.7959781897634213e-06   -1.6509648902982834e-05
-4.713697564406364e-06   1.7959781897634213e-06   -1.6509648902982834e-05
-4.713697564406364e-06   1.7959781897634213e-06   -1.6509648902982834e-05
-4.713697564406364e-06   1.7959781897634213e-06   -1.6509648902982834e-05
-5.731833413840662e-06   1.0100376948861314e-06   -1.867810628229953e-05
-5.731833413840662e-06   1.0100376948861314e-06   -1.867810628229953e-05
-5.731833413840662e-06   1.0100376948861314e-06   -1.867810628229953e-05
-5.731833413840662e-06   1.0100376948861314e-06   -1.867810628229953e-05
-5.5258205863651055e-06   2.4534436467060945e-06   -1.7262821787496002e-05
-5.5258205863651055e-06   2.4534436467060945e-06   -1.7262821787496002e-05
-5.5258205863651055e-06   2.4534436467060945e-06   -1.7262821787496002e-05
-5.5258205863651055e-06   2.4534436467060945e-06   -1.7262821787496002e-05
-4.456637870968786e-06   1.6314421889243504e-06   -1.8551592105154138e-05
-4.456637870968786e-06   1.6314421889243504e-06   -1.8551592105154138e-05
-4.456637870968786e-06   1.6314421889243504e-06   -1.8551592105154138e-05
-4.456637870968786e-06   1.6314421889243504e-06   -1.8551592105154138e-05
-5.1551254218928055e-06   1.595306699215572e-06   -1.7365764893122182e-05
-5.1551254218928055e-06   1.595306699215572e-06   -1.7365764893122182e-05
-5.1551254218928055e-06   1.595306699215572e-06   -1.7365764893122182e-05
-5.1551254218928055e-06   1.595306699215572e-06   -1.7365764893122182e-05
-6.161746563875598e-06   3.308505803441058e-07   -1.9942853687438943e-05
-6.161746563875598e-06   3.308505803441058e-07   -1.9942853687438943e-05
-6.161746563875598e-06   3.308505803441058e-07   -1.9942853687438943e-05
-6.161746563875598e-06   3.308505803441058e-07   -1.9942853687438943e-05
-7.054665187758728e-06   4.7300994137115197e-07   -2.1345755777294677e-05
-7.054665187758728e-06   4.7300994137115197e-07   -2.1345755777294677e-05
-7.054665187758728e-06   4.7300994137115197e-07   -2.1345755777294677e-05
-7.054665187758728e-06   4.7300994137115197e-07   -2.1345755777294677e-05
-6.847932481536461e-06   9.781184838393879e-07   -1.9633275689075593e-05
-6.847932481536461e-06   9.781184838393879e-07   -1.9633275689075593e-05
-6.847932481536461e-06   9.781184838393879e-07   -1.9633275689075593e-05
-6.847932481536461e-06   9.781184838393879e-07   -1.9633275689075593e-05
-5.951067144314066e-06   1.0566085260231214e-06   -2.117514527642316e-05
-5.951067144314066e-06   1.0566085260231214e-06   -2.117514527642316e-05
-5.951067144314066e-06   1.0566085260231214e-06   -2.117514527642316e-05
-5.951067144314066e-06   1.0566085260231214e-06   -2.117514527642316e-05
-6.464660450227423e-06   8.00857662731436e-07   -2.0165705915259455e-05
-6.464660450227423e-06   8.00857662731436e-07   -2.0165705915259455e-05
-6.464660450227423e-06   8.00857662731436e-07   -2.0165705915259455e-05
-6.464660450227423e-06   8.00857662731436e-07   -2.0165705915259455e-05
-5.951067144314046e-06   9.781184838393879e-07   -1.9680369714385844e-05
-5.951067144314046e-06   9.781184838393879e-07   -1.9680369714385844e-05
-5.951067144314046e-06   9.781184838393879e-07   -1.9680369714385844e-05
-5.951067144314046e-06   9.781184838393879e-07   -1.9680369714385844e-05
-6.847932481536474e-06   1.0566085260231214e-06   -2.1128051251112978e-05
-6.847932481536474e-06   1.0566085260231214e-06   -2.1128051251112978e-05
-6.847932481536474e-06   1.0566085260231214e-06   -2.1128051251112978e-05
-6.847932481536474e-06   1.0566085260231214e-06   -2.1128051251112978e-05
-6.630020010418387e-06   1.6310104469266203e-06   -1.9689327477021446e-05
-6.630020010418387e-06   1.6310104469266203e-06   -1.9689327477021446e-05
-6.630020010418387e-06   1.6310104469266203e-06   -1.9689327477021446e-05
-6.630020010418387e-06   1.6310104469266203e-06   -1.9689327477021446e-05
-5.731833413840676e-06   1.6528695291231736e-06   -2.1199420587302166e-05
-5.731833413840676e-06   1.6528695291231736e-06   -2.1199420587302166e-05
-5.731833413840676e-06   1.6528695291231736e-06   -2.1199420587302166e-05
-5.731833413840676e-06   1.6528695291231736e-06   -2.1199420587302166e-05
-6.291881058455712e-06   1.3008148884349193e-06   -2.0054775061864442e-05
-6.291881058455712e-06   1.3008148884349193e-06   -2.0054775061864442e-05
-6.291881058455712e-06   1.3008148884349193e-06   -2.0054775061864442e-05
-6.291881058455712e-06   1.3008148884349193e-06   -2.0054775061864442e-05
-5.731833413840662e-06   1.6310104469266203e-06   -1.970244292633929e-05
-5.731833413840662e-06   1.6310104469266203e-06   -1.970244292633929e-05
-5.731833413840662e-06   1.6310104469266203e-06   -1.970244292633929e-05
-5.731833413840662e-06   1.6310104469266203e-06   -1.970244292633929e-05
-6.630020010418387e-06   1.6528695291231736e-06   -2.1186305137984186e-05
-6.630020010418387e-06   1.6528695291231736e-06   -2.1186305137984186e-05
-6.630020010418387e-06   1.6528695291231736e-06   -2.1186305137984186e-05
-6.630020010418387e-06   1.6528695291231736e-06   -2.1186305137984186e-05
-6.424623322357954e-06   2.293809296223786e-06   -2.0071539010497455e-05
-6.424623322357954e-06   2.293809296223786e-06   -2.0071539010497455e-05
-6.424623322357954e-06   2.293809296223786e-06   -2.0071539010497455e-05
-6.424623322357954e-06   2.293809296223786e-06   -2.0071539010497455e-05
-5.525820586365112e-06   2.2574634694384754e-06   -2.154773607441419e-05
-5.525820586365112e-06   2.2574634694384754e-06   -2.154773607441419e-05
-5.525820586365112e-06   2.2574634694384754e-06   -2.154773607441419e-05
-5.525820586365112e-06   2.2574634694384754e-06   -2.154773607441419e-05
-6.133298714756388e-06   1.8078029866020612e-06   -2.026547623739362e-05
-6.133298714756388e-06   1.8078029866020612e-06   -2.026547623739362e-05
-6.133298714756388e-06   1.8078029866020612e-06   -2.026547623739362e-05
-6.133298714756388e-06   1.8078029866020612e-06   -2.026547623739362e-05
-7.054665187758703e-06   1.4832758809060504e-07   -1.7199975654005038e-05
-7.054665187758703e-06   1.4832758809060504e-07   -1.7199975654005038e-05
-7.054665187758703e-06   1.4832758809060504e-07   -1.7199975654005038e-05
-7.054665187758703e-06   1.4832758809060504e-07   -1.7199975654005038e-05
-8.00197247454516e-06   1.0490717100002794e-06   -1.8238374658836626e-05
-8.00197247454516e-06   1.0490717100002794e-06   -1.8238374658836626e-05
-8.00197247454516e-06   1.0490717100002794e-06   -1.8238374658836626e-05
-8.00197247454516e-06   1.0490717100002794e-06   -1.8238374658836626e-05
-7.750896339445204e-06   7.760946518189015e-07   -1.643963000149491e-05
-7.750896339445204e-06   7.760946518189015e-07   -1.643963000149491e-05
-7.750896339445204e-06   7.760946518189015e-07   -1.643963000149491e-05
-7.750896339445204e-06   7.760946518189015e-07   -1.643963000149491e-05
-6.847932481536461e-06   1.6351972818568058e-06   -1.846003134269884e-05
-6.847932481536461e-06   1.6351972818568058e-06   -1.846003134269884e-05
-6.847932481536461e-06   1.6351972818568058e-06   -1.846003134269884e-05
-6.847932481536461e-06   1.6351972818568058e-06   -1.846003134269884e-05
-7.356421183301327e-06   9.670558851000884e-07   -1.7211665335036897e-05
-7.356421183301327e-06   9.670558851000884e-07   -1.7211665335036897e-05
-7.356421183301327e-06   9.670558851000884e-07   -1.7211665335036897e-05
-7.356421183301327e-06   9.670558851000884e-07   -1.7211665335036897e-05
-6.847932481536449e-06   7.760946518187931e-07   -1.6955091579517708e-05
-6.847932481536449e-06   7.760946518187931e-07   -1.6955091579517708e-05
-6.847932481536449e-06   7.760946518187931e-07   -1.6955091579517708e-05
-6.847932481536449e-06   7.760946518187931e-07   -1.6955091579517708e-05
-7.750896339445204e-06   1.6351972818569142e-06   -1.794456976467613e-05
-7.750896339445204e-06   1.6351972818569142e-06   -1.794456976467613e-05
-7.750896339445204e-06   1.6351972818569142e-06   -1.794456976467613e-05
-7.750896339445204e-06   1.6351972818569142e-06   -1.794456976467613e-05
-7.4242829917117855e-06   1.366896391372845e-06   -1.6507634545362025e-05
-7.4242829917117855e-06   1.366896391372845e-06   -1.6507634545362025e-05
-7.4242829917117855e-06   1.366896391372845e-06   -1.6507634545362025e-05
-7.4242829917117855e-06   1.366896391372845e-06   -1.6507634545362025e-05
-6.630020010418376e-06   2.175233323053788e-06   -1.831640833985959e-05
-6.630020010418376e-06   2.175233323053788e-06   -1.831640833985959e-05
-6.630020010418376e-06   2.175233323053788e-06   -1.831640833985959e-05
-6.630020010418376e-06   2.175233323053788e-06   -1.831640833985959e-05
-7.131893218785738e-06   1.4326693893964475e-06   -1.7034414632386395e-05
-7.131893218785738e-06   1.4326693893964475e-06   -1.7034414632386395e-05
-7.131893218785738e-06   1.4326693893964475e-06   -1.7034414632386395e-05
-7.131893218785738e-06   1.4326693893964475e-06   -1.7034414632386395e-05
-6.6300200104183585e-06   1.3668963913727366e-06   -1.6992636704370504e-05
-6.6300200104183585e-06   1.3668963913727366e-06   -1.6992636704370504e-05
-6.6300200104183585e-06   1.3668963913727366e-06   -1.6992636704370504e-05
-6.6300200104183585e-06   1.3668963913727366e-06   -1.6992636704370504e-05
-7.424282991711799e-06   2.175233323053788e-06   -1.7831406180850997e-05
-7.424282991711799e-06   2.175233323053788e-06   -1.7831406180850997e-05
-7.424282991711799e-06   2.175233323053788e-06   -1.7831406180850997e-05
-7.424282991711799e-06   2.175233323053788e-06   -1.7831406180850997e-05
-7.168241591962517e-06   2.0339492874103153e-06   -1.6965334915696817e-05
-7.168241591962517e-06   2.0339492874103153e-06   -1.6965334915696817e-05
-7.168241591962517e-06   2.0339492874103153e-06   -1.6965334915696817e-05
-7.168241591962517e-06   2.0339492874103153e-06   -1.6965334915696817e-05
-6.424623322357954e-06   2.7793879841015064e-06   -1.865196191638573e-05
-6.424623322357954e-06   2.7793879841015064e-06   -1.865196191638573e-05
-6.424623322357954e-06   2.7793879841015064e-06   -1.865196191638573e-05
-6.424623322357954e-06   2.7793879841015064e-06   -1.865196191638573e-05
-6.965526116607007e-06   1.9076057616656487e-06   -1.7227387925842304e-05
-6.965526116607007e-06   1.9076057616656487e-06   -1.7227387925842304e-05
-6.965526116607007e-06   1.9076057616656487e-06   -1.7227387925842304e-05
-6.965526116607007e-06   1.9076057616656487e-06   -1.7227387925842304e-05
-8.001972474545126e-06   2.1340152071944347e-07   -9.156821984186573e-06
-8.001972474545126e-06   2.1340152071944347e-07   -9.156821984186573e-06
-8.001972474545126e-06   2.1340152071944347e-07   -9.156821984186573e-06
-8.001972474545126e-06   2.1340152071944347e-07   -9.156821984186573e-06
-9.731243095451936e-06   1.7670511426633043e-06   -1.1106749912531471e-05
-9.731243095451936e-06   1.7670511426633043e-06   -1.1106749912531471e-05
-9.731243095451936e-06   1.7670511426633043e-06   -1.1106749912531471e-05
-9.731243095451936e-06   1.7670511426633043e-06   -1.1106749912531471e-05
-8.825696920253723e-06   7.105554423681099e-07   -7.526623610776132e-06
-8.825696920253723e-06   7.105554423681099e-07   -7.526623610776132e-06
-8.825696920253723e-06   7.105554423681099e-07   -7.526623610776132e-06
-8.825696920253723e-06   7.105554423681099e-07   -7.526623610776132e-06
-7.750896339445197e-06   2.2993626846880407e-06   -1.0271242257515572e-05
-7.750896339445197e-06   2.2993626846880407e-06   -1.0271242257515572e-05
-7.750896339445197e-06   2.2993626846880407e-06   -1.0271242257515572e-05
-7.750896339445197e-06   2.2993626846880407e-06   -1.0271242257515572e-05
-8.230370662502574e-06   1.3108548068941316e-06   -8.879013659077119e-06
-8.230370662502574e-06   1.3108548068941316e-06   -8.879013659077119e-06
-8.230370662502574e-06   1.3108548068941316e-06   -8.879013659077119e-06
-8.230370662502574e-06   1.3108548068941316e-06   -8.879013659077119e-06
-7.750896339445177e-06   7.105554423680015e-07   -8.479907956167971e-06
-7.750896339445177e-06   7.105554423680015e-07   -8.479907956167971e-06
-7.750896339445177e-06   7.105554423680015e-07   -8.479907956167971e-06
-7.750896339445177e-06   7.105554423680015e-07   -8.479907956167971e-06
-8.825696920253709e-06   2.2993626846880407e-06   -9.317957912123652e-06
-8.825696920253709e-06   2.2993626846880407e-06   -9.317957912123652e-06
-8.825696920253709e-06   2.2993626846880407e-06   -9.317957912123652e-06
-8.825696920253709e-06   2.2993626846880407e-06   -9.317957912123652e-06
-8.089163292735179e-06   9.896520255876697e-07   -7.391442297255012e-06
-8.089163292735179e-06   9.896520255876697e-07   -7.391442297255012e-06
-8.089163292735179e-06   9.896520255876697e-07   -7.391442297255012e-06
-8.089163292735179e-06   9.896520255876697e-07   -7.391442297255012e-06
-7.4242829917117855e-06   2.5430076225410863e-06   -9.431589490465988e-06
-7.4242829917117855e-06   2.5430076225410863e-06   -9.431589490465988e-06
-7.4242829917117855e-06   2.5430076225410863e-06   -9.431589490465988e-06
-7.4242829917117855e-06   2.5430076225410863e-06   -9.431589490465988e-06
-7.848478244869396e-06   1.5584040852360034e-06   -8.133835279487055e-06
-7.848478244869396e-06   1.5584040852360034e-06   -8.133835279487055e-06
-7.848478244869396e-06   1.5584040852360034e-06   -8.133835279487055e-06
-7.848478244869396e-06   1.5584040852360034e-06   -8.133835279487055e-06
-7.424282991711772e-06   9.896520255876697e-07   -8.32345565542704e-06
-7.424282991711772e-06   9.896520255876697e-07   -8.32345565542704e-06
-7.424282991711772e-06   9.896520255876697e-07   -8.32345565542704e-06
-7.424282991711772e-06   9.896520255876697e-07   -8.32345565542704e-06
-8.089163292735179e-06   2.5430076225410863e-06   -8.499576132293919e-06
-8.089163292735179e-06   2.5430076225410863e-06   -8.499576132293919e-06
-8.089163292735179e-06   2.5430076225410863e-06   -8.499576132293919e-06
-8.089163292735179e-06   2.5430076225410863e-06   -8.499576132293919e-06
-7.186015896296129e-06   1.4822516625480299e-06   -7.609376054551215e-06
-7.186015896296129e-06   1.4822516625480299e-06   -7.609376054551215e-06
-7.186015896296129e-06   1.4822516625480299e-06   -7.609376054551215e-06
-7.186015896296129e-06   1.4822516625480299e-06   -7.609376054551215e-06
-7.168241591962496e-06   2.9179514045972075e-06   -8.500419740336553e-06
-7.168241591962496e-06   2.9179514045972075e-06   -8.500419740336553e-06
-7.168241591962496e-06   2.9179514045972075e-06   -8.500419740336553e-06
-7.168241591962496e-06   2.9179514045972075e-06   -8.500419740336553e-06
-7.2784367216261515e-06   1.7568161715260898e-06   -7.6200800510545284e-06
-7.2784367216261515e-06   1.7568161715260898e-06   -7.6200800510545284e-06
-7.2784367216261515e-06   1.7568161715260898e-06   -7.6200800510545284e-06
-7.2784367216261515e-06   1.7568161715260898e-06   -7.6200800510545284e-06
4.728962021137813e-06   -4.6658756172276473e-07   -4.691305541298398e-06
4.728962021137813e-06   -4.6658756172276473e-07   -4.691305541298398e-06
4.728962021137813e-06   -4.6658756172276473e-07   -4.691305541298398e-06
4.728962021137813e-06   -4.6658756172276473e-07   -4.691305541298398e-06
4.961752147282549e-07   -1.937282343911738e-06   -1.2628367087960982e-05
4.961752147282549e-07   -1.937282343911738e-06   -1.2628367087960982e-05
4.961752147282549e-07   -1.937282343911738e-06   -1.2628367087960982e-05
4.961752147282549e-07   -1.937282343911738e-06   -1.2628367087960982e-05
8.550907711582674e-07   -2.0529093675220392e-08   -5.195943068424941e-06
8.550907711582674e-07   -2.0529093675220392e-08   -5.195943068424941e-06
8.550907711582674e-07   -2.0529093675220392e-08   -5.195943068424941e-06
8.550907711582674e-07   -2.0529093675220392e-08   -5.195943068424941e-06
5.742949528864241e-06   -1.593494777893281e-06   -1.2398594920737455e-05
5.742949528864241e-06   -1.593494777893281e-06   -1.2398594920737455e-05
5.742949528864241e-06   -1.593494777893281e-06   -1.2398594920737455e-05
5.742949528864241e-06   -1.593494777893281e-06   -1.2398594920737455e-05
2.844881799042959e-06   -8.109101639014547e-07   -8.038032806097038e-06
2.844881799042959e-06   -8.109101639014547e-07   -8.038032806097038e-06
2.844881799042959e-06   -8.109101639014547e-07   -8.038032806097038e-06
2.844881799042959e-06   -8.109101639014547e-07   -8.038032806097038e-06
5.742949528864268e-06   -2.0529093675220392e-08   -4.252163657894148e-06
5.742949528864268e-06   -2.0529093675220392e-08   -4.252163657894148e-06
5.742949528864268e-06   -2.0529093675220392e-08   -4.252163657894148e-06
5.742949528864268e-06   -2.0529093675220392e-08   -4.252163657894148e-06
8.550907711582674e-07   -1.593494777893281e-06   -1.3342374331268357e-05
8.550907711582674e-07   -1.593494777893281e-06   -1.3342374331268357e-05
8.550907711582674e-07   -1.593494777893281e-06   -1.3342374331268357e-05
8.550907711582674e-07   -1.593494777893281e-06   -1.3342374331268357e-05
1.2788300038254048e-06   2.3303737907041586e-07   -5.240104716307237e-06
1.2788300038254048e-06   2.3303737907041586e-07   -5.240104716307237e-06
1.2788300038254048e-06   2.3303737907041586e-07   -5.240104716307237e-06
1.2788300038254048e-06   2.3303737907041586e-07   -5.240104716307237e-06
6.597906310321203e-06   -1.3628650067254054e-06   -1.3147690462322708e-05
6.597906310321203e-06   -1.3628650067254054e-06   -1.3147690462322708e-05
6.597906310321203e-06   -1.3628650067254054e-06   -1.3147690462322708e-05
6.597906310321203e-06   -1.3628650067254054e-06   -1.3147690462322708e-05
3.4865352521954715e-06   -6.49378644454468e-07   -8.390163849476161e-06
3.4865352521954715e-06   -6.49378644454468e-07   -8.390163849476161e-06
3.4865352521954715e-06   -6.49378644454468e-07   -8.390163849476161e-06
3.4865352521954715e-06   -6.49378644454468e-07   -8.390163849476161e-06
6.59790631032123e-06   2.3303737907041586e-07   -4.282563284829734e-06
6.59790631032123e-06   2.3303737907041586e-07   -4.282563284829734e-06
6.59790631032123e-06   2.3303737907041586e-07   -4.282563284829734e-06
6.59790631032123e-06   2.3303737907041586e-07   -4.282563284829734e-06
1.2788300038253913e-06   -1.362865006725297e-06   -1.4105231893800265e-05
1.2788300038253913e-06   -1.362865006725297e-06   -1.4105231893800265e-05
1.2788300038253913e-06   -1.362865006725297e-06   -1.4105231893800265e-05
1.2788300038253913e-06   -1.362865006725297e-06   -1.4105231893800265e-05
1.6260113759125286e-06   7.383300410457273e-07   -5.753343834882059e-06
1.6260113759125286e-06   7.383300410457273e-07   -5.753343834882059e-06
1.6260113759125286e-06   7.383300410457273e-07   -5.753343834882059e-06
1.6260113759125286e-06   7.383300410457273e-07   -5.753343834882059e-06
7.625108118967781e-06   -7.831339617936665e-07   -1.4838960004937127e-05
7.625108118967781e-06   -7.831339617936665e-07   -1.4838960004937127e-05
7.625108118967781e-06   -7.831339617936665e-07   -1.4838960004937127e-05
7.625108118967781e-06   -7.831339617936665e-07   -1.4838960004937127e-05
3.993501196652852e-06   -4.1091773036365867e-07   -9.009611539937296e-06
3.993501196652852e-06   -4.1091773036365867e-07   -9.009611539937296e-06
3.993501196652852e-06   -4.1091773036365867e-07   -9.009611539937296e-06
3.993501196652852e-06   -4.1091773036365867e-07   -9.009611539937296e-06
4.961752147282549e-07   -9.703444595185115e-08   -1.3650548840627656e-05
4.961752147282549e-07   -9.703444595185115e-08   -1.3650548840627656e-05
4.961752147282549e-07   -9.703444595185115e-08   -1.3650548840627656e-05
4.961752147282549e-07   -9.703444595185115e-08   -1.3650548840627656e-05
-4.416953554211089e-06   -7.604001794917978e-07   -2.2237116228983886e-05
-4.416953554211089e-06   -7.604001794917978e-07   -2.2237116228983886e-05
-4.416953554211089e-06   -7.604001794917978e-07   -2.2237116228983886e-05
-4.416953554211089e-06   -7.604001794917978e-07   -2.2237116228983886e-05
-4.10335526480588e-06   4.665835435489502e-07   -1.3726802457529608e-05
-4.10335526480588e-06   4.665835435489502e-07   -1.3726802457529608e-05
-4.10335526480588e-06   4.665835435489502e-07   -1.3726802457529608e-05
-4.10335526480588e-06   4.665835435489502e-07   -1.3726802457529608e-05
8.550907711582674e-07   -2.874956751202718e-07   -2.1538431652934977e-05
8.550907711582674e-07   -2.874956751202718e-07   -2.1538431652934977e-05
8.550907711582674e-07   -2.874956751202718e-07   -2.1538431652934977e-05
8.550907711582674e-07   -2.874956751202718e-07   -2.1538431652934977e-05
-1.7512102505100468e-06   -2.4269505644091208e-08   -1.735253231850684e-05
-1.7512102505100468e-06   -2.4269505644091208e-08   -1.735253231850684e-05
-1.7512102505100468e-06   -2.4269505644091208e-08   -1.735253231850684e-05
-1.7512102505100468e-06   -2.4269505644091208e-08   -1.735253231850684e-05
8.550907711582674e-07   4.6658354354905864e-07   -1.3274354926327988e-05
8.550907711582674e-07   4.6658354354905864e-07   -1.3274354926327988e-05
8.550907711582674e-07   4.6658354354905864e-07   -1.3274354926327988e-05
8.550907711582674e-07   4.6658354354905864e-07   -1.3274354926327988e-05
-4.10335526480588e-06   -2.874956751202718e-07   -2.1990879184136624e-05
-4.10335526480588e-06   -2.874956751202718e-07   -2.1990879184136624e-05
-4.10335526480588e-06   -2.874956751202718e-07   -2.1990879184136624e-05
-4.10335526480588e-06   -2.874956751202718e-07   -2.1990879184136624e-05
-3.7879165137393012e-06   1.0100376948861314e-06   -1.3748246725885115e-05
-3.7879165137393012e-06   1.0100376948861314e-06   -1.3748246725885115e-05
-3.7879165137393012e-06   1.0100376948861314e-06   -1.3748246725885115e-05
-3.7879165137393012e-06   1.0100376948861314e-06   -1.3748246725885115e-05
1.2788300038254048e-06   2.0200155714399006e-07   -2.1708002572514334e-05
1.2788300038254048e-06   2.0200155714399006e-07   -2.1708002572514334e-05
1.2788300038254048e-06   2.0200155714399006e-07   -2.1708002572514334e-05
1.2788300038254048e-06   2.0200155714399006e-07   -2.1708002572514334e-05
-1.4742399261486776e-06   3.651426053034347e-07   -1.7217437318119957e-05
-1.4742399261486776e-06   3.651426053034347e-07   -1.7217437318119957e-05
-1.4742399261486776e-06   3.651426053034347e-07   -1.7217437318119957e-05
-1.4742399261486776e-06   3.651426053034347e-07   -1.7217437318119957e-05
1.2788300038254048e-06   1.0100376948861314e-06   -1.326342504323982e-05
1.2788300038254048e-06   1.0100376948861314e-06   -1.326342504323982e-05
1.2788300038254048e-06   1.0100376948861314e-06   -1.326342504323982e-05
1.2788300038254048e-06   1.0100376948861314e-06   -1.326342504323982e-05
-3.7879165137393012e-06   2.0200155714388164e-07   -2.2192824255159657e-05
-3.7879165137393012e-06   2.0200155714388164e-07   -2.2192824255159657e-05
-3.7879165137393012e-06   2.0200155714388164e-07   -2.2192824255159657e-05
-3.7879165137393012e-06   2.0200155714388164e-07   -2.2192824255159657e-05
-3.486956488906606e-06   1.631442188924242e-06   -1.4094157698461688e-05
-3.486956488906606e-06   1.631442188924242e-06   -1.4094157698461688e-05
-3.486956488906606e-06   1.631442188924242e-06   -1.4094157698461688e-05
-3.486956488906606e-06   1.631442188924242e-06   -1.4094157698461688e-05
1.6260113759125286e-06   7.824648113127644e-07   -2.2106384379926632e-05
1.6260113759125286e-06   7.824648113127644e-07   -2.2106384379926632e-05
1.6260113759125286e-06   7.824648113127644e-07   -2.2106384379926632e-05
1.6260113759125286e-06   7.824648113127644e-07   -2.2106384379926632e-05
-1.1649530220286754e-06   7.976010055756825e-07   -1.74638587665827e-05
-1.1649530220286754e-06   7.976010055756825e-07   -1.74638587665827e-05
-1.1649530220286754e-06   7.976010055756825e-07   -1.74638587665827e-05
-1.1649530220286754e-06   7.976010055756825e-07   -1.74638587665827e-05
-4.416953554211103e-06   4.7300994137115197e-07   -1.6542065536991665e-05
-4.416953554211103e-06   4.7300994137115197e-07   -1.6542065536991665e-05
-4.416953554211103e-06   4.7300994137115197e-07   -1.6542065536991665e-05
-4.416953554211103e-06   4.7300994137115197e-07   -1.6542065536991665e-05
-9.28514549245539e-06   5.959031224447115e-07   -2.4581982858754643e-05
-9.28514549245539e-06   5.959031224447115e-07   -2.4581982858754643e-05
-9.28514549245539e-06   5.959031224447115e-07   -2.4581982858754643e-05
-9.28514549245539e-06   5.959031224447115e-07   -2.4581982858754643e-05
-8.96959645888485e-06   1.0566085260232299e-06   -1.624315986703789e-05
-8.96959645888485e-06   1.0566085260232299e-06   -1.624315986703789e-05
-8.96959645888485e-06   1.0566085260232299e-06   -1.624315986703789e-05
-8.96959645888485e-06   1.0566085260232299e-06   -1.624315986703789e-05
-4.103355264805893e-06   1.0972530412415313e-06   -2.4377948566300527e-05
-4.103355264805893e-06   1.0972530412415313e-06   -2.4377948566300527e-05
-4.103355264805893e-06   1.0972530412415313e-06   -2.4377948566300527e-05
-4.103355264805893e-06   1.0972530412415313e-06   -2.4377948566300527e-05
-6.655069290739023e-06   9.077703036336742e-07   -2.001140221384728e-05
-6.655069290739023e-06   9.077703036336742e-07   -2.001140221384728e-05
-6.655069290739023e-06   9.077703036336742e-07   -2.001140221384728e-05
-6.655069290739023e-06   9.077703036336742e-07   -2.001140221384728e-05
-4.103355264805893e-06   1.0566085260231214e-06   -1.6267546576168913e-05
-4.103355264805893e-06   1.0566085260231214e-06   -1.6267546576168913e-05
-4.103355264805893e-06   1.0566085260231214e-06   -1.6267546576168913e-05
-4.103355264805893e-06   1.0566085260231214e-06   -1.6267546576168913e-05
-8.96959645888485e-06   1.0972530412416397e-06   -2.4353561857169584e-05
-8.96959645888485e-06   1.0972530412416397e-06   -2.4353561857169584e-05
-8.96959645888485e-06   1.0972530412416397e-06   -2.4353561857169584e-05
-8.96959645888485e-06   1.0972530412416397e-06   -2.4353561857169584e-05
-8.648582582022912e-06   1.6528695291231736e-06   -1.6284731578809124e-05
-8.648582582022912e-06   1.6528695291231736e-06   -1.6284731578809124e-05
-8.648582582022912e-06   1.6528695291231736e-06   -1.6284731578809124e-05
-8.648582582022912e-06   1.6528695291231736e-06   -1.6284731578809124e-05
-3.7879165137393012e-06   1.6275852825872912e-06   -2.4370671144693666e-05
-3.7879165137393012e-06   1.6275852825872912e-06   -2.4370671144693666e-05
-3.7879165137393012e-06   1.6275852825872912e-06   -2.4370671144693666e-05
-3.7879165137393012e-06   1.6275852825872912e-06   -2.4370671144693666e-05
-6.37796703418154e-06   1.345968499725657e-06   -1.9884950207573257e-05
-6.37796703418154e-06   1.345968499725657e-06   -1.9884950207573257e-05
-6.37796703418154e-06   1.345968499725657e-06   -1.9884950207573257e-05
-6.37796703418154e-06   1.345968499725657e-06   -1.9884950207573257e-05
-3.7879165137393012e-06   1.6528695291231736e-06   -1.626956103088767e-05
-3.7879165137393012e-06   1.6528695291231736e-06   -1.626956103088767e-05
-3.7879165137393012e-06   1.6528695291231736e-06   -1.626956103088767e-05
-3.7879165137393012e-06   1.6528695291231736e-06   -1.626956103088767e-05
-8.648582582022897e-06   1.6275852825873996e-06   -2.438584169261516e-05
-8.648582582022897e-06   1.6275852825873996e-06   -2.438584169261516e-05
-8.648582582022897e-06   1.6275852825873996e-06   -2.438584169261516e-05
-8.648582582022897e-06   1.6275852825873996e-06   -2.438584169261516e-05
-8.342551970271125e-06   2.2574634694384754e-06   -1.665129754636007e-05
-8.342551970271125e-06   2.2574634694384754e-06   -1.665129754636007e-05
-8.342551970271125e-06   2.2574634694384754e-06   -1.665129754636007e-05
-8.342551970271125e-06   2.2574634694384754e-06   -1.665129754636007e-05
-3.4869564889066195e-06   2.167135547259582e-06   -2.4689759928660235e-05
-3.4869564889066195e-06   2.167135547259582e-06   -2.4689759928660235e-05
-3.4869564889066195e-06   2.167135547259582e-06   -2.4689759928660235e-05
-3.4869564889066195e-06   2.167135547259582e-06   -2.4689759928660235e-05
-6.120612658369851e-06   1.7908816707328358e-06   -2.0074580653639128e-05
-6.120612658369851e-06   1.7908816707328358e-06   -2.0074580653639128e-05
-6.120612658369851e-06   1.7908816707328358e-06   -2.0074580653639128e-05
-6.120612658369851e-06   1.7908816707328358e-06   -2.0074580653639128e-05
-9.285145492455404e-06   1.0490717100002794e-06   -1.3901394983035348e-05
-9.285145492455404e-06   1.0490717100002794e-06   -1.3901394983035348e-05
-9.285145492455404e-06   1.0490717100002794e-06   -1.3901394983035348e-05
-9.285145492455404e-06   1.0490717100002794e-06   -1.3901394983035348e-05
-1.41042269550376e-05   1.914874635849744e-06   -2.1413715665162623e-05
-1.41042269550376e-05   1.914874635849744e-06   -2.1413715665162623e-05
-1.41042269550376e-05   1.914874635849744e-06   -2.1413715665162623e-05
-1.41042269550376e-05   1.914874635849744e-06   -2.1413715665162623e-05
-1.3742986500271674e-05   1.6351972818568058e-06   -1.3086199869409478e-05
-1.3742986500271674e-05   1.6351972818568058e-06   -1.3086199869409478e-05
-1.3742986500271674e-05   1.6351972818568058e-06   -1.3086199869409478e-05
-1.3742986500271674e-05   1.6351972818568058e-06   -1.3086199869409478e-05
-8.96959645888485e-06   2.450097430547766e-06   -2.1530790027601944e-05
-8.96959645888485e-06   2.450097430547766e-06   -2.1530790027601944e-05
-8.96959645888485e-06   2.450097430547766e-06   -2.1530790027601944e-05
-8.96959645888485e-06   2.450097430547766e-06   -2.1530790027601944e-05
-1.1445534701624045e-05   1.8310990496737262e-06   -1.7032827261178934e-05
-1.1445534701624045e-05   1.8310990496737262e-06   -1.7032827261178934e-05
-1.1445534701624045e-05   1.8310990496737262e-06   -1.7032827261178934e-05
-1.1445534701624045e-05   1.8310990496737262e-06   -1.7032827261178934e-05
-8.969596458884867e-06   1.6351972818569142e-06   -1.3575139958623946e-05
-8.969596458884867e-06   1.6351972818569142e-06   -1.3575139958623946e-05
-8.969596458884867e-06   1.6351972818569142e-06   -1.3575139958623946e-05
-8.969596458884867e-06   1.6351972818569142e-06   -1.3575139958623946e-05
-1.3742986500271701e-05   2.4500974305476575e-06   -2.1041849938387646e-05
-1.3742986500271701e-05   2.4500974305476575e-06   -2.1041849938387646e-05
-1.3742986500271701e-05   2.4500974305476575e-06   -2.1041849938387646e-05
-1.3742986500271701e-05   2.4500974305476575e-06   -2.1041849938387646e-05
-1.330852537876785e-05   2.175233323053788e-06   -1.2960978618625166e-05
-1.330852537876785e-05   2.175233323053788e-06   -1.2960978618625166e-05
-1.330852537876785e-05   2.175233323053788e-06   -1.2960978618625166e-05
-1.330852537876785e-05   2.175233323053788e-06   -1.2960978618625166e-05
-8.648582582022912e-06   2.931660259819437e-06   -2.1181406108592717e-05
-8.648582582022912e-06   2.931660259819437e-06   -2.1181406108592717e-05
-8.648582582022912e-06   2.931660259819437e-06   -2.1181406108592717e-05
-8.648582582022912e-06   2.931660259819437e-06   -2.1181406108592717e-05
-1.108049596268031e-05   2.2543359853815885e-06   -1.6721822576167965e-05
-1.108049596268031e-05   2.2543359853815885e-06   -1.6721822576167965e-05
-1.108049596268031e-05   2.2543359853815885e-06   -1.6721822576167965e-05
-1.108049596268031e-05   2.2543359853815885e-06   -1.6721822576167965e-05
-8.648582582022904e-06   2.175233323053788e-06   -1.3414834780684415e-05
-8.648582582022904e-06   2.175233323053788e-06   -1.3414834780684415e-05
-8.648582582022904e-06   2.175233323053788e-06   -1.3414834780684415e-05
-8.648582582022904e-06   2.175233323053788e-06   -1.3414834780684415e-05
-1.330852537876785e-05   2.9316602598193284e-06   -2.0727549946533523e-05
-1.330852537876785e-05   2.9316602598193284e-06   -2.0727549946533523e-05
-1.330852537876785e-05   2.9316602598193284e-06   -2.0727549946533523e-05
-1.330852537876785e-05   2.9316602598193284e-06   -2.0727549946533523e-05
-1.2947065004153458e-05   2.7793879841015064e-06   -1.3319784345512068e-05
-1.2947065004153458e-05   2.7793879841015064e-06   -1.3319784345512068e-05
-1.2947065004153458e-05   2.7793879841015064e-06   -1.3319784345512068e-05
-1.2947065004153458e-05   2.7793879841015064e-06   -1.3319784345512068e-05
-8.342551970271125e-06   3.469273895348869e-06   -2.1407904282064323e-05
-8.342551970271125e-06   3.469273895348869e-06   -2.1407904282064323e-05
-8.342551970271125e-06   3.469273895348869e-06   -2.1407904282064323e-05
-8.342551970271125e-06   3.469273895348869e-06   -2.1407904282064323e-05
-1.0838896752660305e-05   2.6706109039213895e-06   -1.6768131849892508e-05
-1.0838896752660305e-05   2.6706109039213895e-06   -1.6768131849892508e-05
-1.0838896752660305e-05   2.6706109039213895e-06   -1.6768131849892508e-05
-1.0838896752660305e-05   2.6706109039213895e-06   -1.6768131849892508e-05
-1.41042269550376e-05   1.7670511426631959e-06   -7.182478254386831e-06
-1.41042269550376e-05   1.7670511426631959e-06   -7.182478254386831e-06
-1.41042269550376e-05   1.7670511426631959e-06   -7.182478254386831e-06
-1.41042269550376e-05   1.7670511426631959e-06   -7.182478254386831e-06
-1.960614769177865e-05   3.2938211325812252e-06   -1.5436284155004396e-05
-1.960614769177865e-05   3.2938211325812252e-06   -1.5436284155004396e-05
-1.960614769177865e-05   3.2938211325812252e-06   -1.5436284155004396e-05
-1.960614769177865e-05   3.2938211325812252e-06   -1.5436284155004396e-05
-1.860125426744554e-05   2.2993626846880407e-06   -4.482214078355834e-06
-1.860125426744554e-05   2.2993626846880407e-06   -4.482214078355834e-06
-1.860125426744554e-05   2.2993626846880407e-06   -4.482214078355834e-06
-1.860125426744554e-05   2.2993626846880407e-06   -4.482214078355834e-06
-1.3742986500271674e-05   3.850459824509861e-06   -1.3509985307538686e-05
-1.3742986500271674e-05   3.850459824509861e-06   -1.3509985307538686e-05
-1.3742986500271674e-05   3.850459824509861e-06   -1.3509985307538686e-05
-1.3742986500271674e-05   3.850459824509861e-06   -1.3509985307538686e-05
-1.5842041556295574e-05   2.864818574407034e-06   -9.420175464103806e-06
-1.5842041556295574e-05   2.864818574407034e-06   -9.420175464103806e-06
-1.5842041556295574e-05   2.864818574407034e-06   -9.420175464103806e-06
-1.5842041556295574e-05   2.864818574407034e-06   -9.420175464103806e-06
-1.3742986500271684e-05   2.2993626846880407e-06   -5.412872362248894e-06
-1.3742986500271684e-05   2.2993626846880407e-06   -5.412872362248894e-06
-1.3742986500271684e-05   2.2993626846880407e-06   -5.412872362248894e-06
-1.3742986500271684e-05   2.2993626846880407e-06   -5.412872362248894e-06
-1.8601254267445457e-05   3.850459824509861e-06   -1.257932702364566e-05
-1.8601254267445457e-05   3.850459824509861e-06   -1.257932702364566e-05
-1.8601254267445457e-05   3.850459824509861e-06   -1.257932702364566e-05
-1.8601254267445457e-05   3.850459824509861e-06   -1.257932702364566e-05
-1.7770781600419302e-05   2.5430076225410863e-06   -3.6568305399672517e-06
-1.7770781600419302e-05   2.5430076225410863e-06   -3.6568305399672517e-06
-1.7770781600419302e-05   2.5430076225410863e-06   -3.6568305399672517e-06
-1.7770781600419302e-05   2.5430076225410863e-06   -3.6568305399672517e-06
-1.3308525378767826e-05   4.050226602995933e-06   -1.1998255630992614e-05
-1.3308525378767826e-05   4.050226602995933e-06   -1.1998255630992614e-05
-1.3308525378767826e-05   4.050226602995933e-06   -1.1998255630992614e-05
-1.3308525378767826e-05   4.050226602995933e-06   -1.1998255630992614e-05
-1.5480372339232123e-05   3.1164652524227985e-06   -7.81825388654155e-06
-1.5480372339232123e-05   3.1164652524227985e-06   -7.81825388654155e-06
-1.5480372339232123e-05   3.1164652524227985e-06   -7.81825388654155e-06
-1.5480372339232123e-05   3.1164652524227985e-06   -7.81825388654155e-06
-1.330852537876785e-05   2.5430076225410863e-06   -4.561161928240171e-06
-1.330852537876785e-05   2.5430076225410863e-06   -4.561161928240171e-06
-1.330852537876785e-05   2.5430076225410863e-06   -4.561161928240171e-06
-1.330852537876785e-05   2.5430076225410863e-06   -4.561161928240171e-06
-1.7770781600419275e-05   4.050226602995933e-06   -1.109392424271979e-05
-1.7770781600419275e-05   4.050226602995933e-06   -1.109392424271979e-05
-1.7770781600419275e-05   4.050226602995933e-06   -1.109392424271979e-05
-1.7770781600419275e-05   4.050226602995933e-06   -1.109392424271979e-05
-1.6786139394990178e-05   2.9179514045972075e-06   -2.7858155013901526e-06
-1.6786139394990178e-05   2.9179514045972075e-06   -2.7858155013901526e-06
-1.6786139394990178e-05   2.9179514045972075e-06   -2.7858155013901526e-06
-1.6786139394990178e-05   2.9179514045972075e-06   -2.7858155013901526e-06
-1.2947065004153458e-05   4.300767881409767e-06   -1.001396270553885e-05
-1.2947065004153458e-05   4.300767881409767e-06   -1.001396270553885e-05
-1.2947065004153458e-05   4.300767881409767e-06   -1.001396270553885e-05
-1.2947065004153458e-05   4.300767881409767e-06   -1.001396270553885e-05
-1.4697066666156296e-05   3.2369745339362902e-06   -6.4590172603835525e-06
-1.4697066666156296e-05   3.2369745339362902e-06   -6.4590172603835525e-06
-1.4697066666156296e-05   3.2369745339362902e-06   -6.4590172603835525e-06
-1.4697066666156296e-05   3.2369745339362902e-06   -6.4590172603835525e-06
1.4798616402872757e-05   -1.937282343911738e-06   -1.7178563907417795e-08
1.4798616402872757e-05   -1.937282343911738e-06   -1.7178563907417795e-08
1.4798616402872757e-05   -1.937282343911738e-06   -1.7178563907417795e-08
1.4798616402872757e-05   -1.937282343911738e-06   -1.7178563907417795e-08
6.29042258199359e-06   -3.4820549807573244e-06   -1.51243651808132e-05
6.29042258199359e-06   -3.4820549807573244e-06   -1.51243651808132e-05
6.29042258199359e-06   -3.4820549807573244e-06   -1.51243651808132e-05
6.29042258199359e-06   -3.4820549807573244e-06   -1.51243651808132e-05
6.7275813434024045e-06   -1.593494777893281e-06   -1.572958037985889e-06
6.7275813434024045e-06   -1.593494777893281e-06   -1.572958037985889e-06
6.7275813434024045e-06   -1.593494777893281e-06   -1.572958037985889e-06
6.7275813434024045e-06   -1.593494777893281e-06   -1.572958037985889e-06
1.5903361703823983e-05   -3.239767159149724e-06   -1.5878161876601356e-05
1.5903361703823983e-05   -3.239767159149724e-06   -1.5878161876601356e-05
1.5903361703823983e-05   -3.239767159149724e-06   -1.5878161876601356e-05
1.5903361703823983e-05   -3.239767159149724e-06   -1.5878161876601356e-05
1.0488418300384272e-05   -2.298869864986652e-06   -7.417794580699699e-06
1.0488418300384272e-05   -2.298869864986652e-06   -7.417794580699699e-06
1.0488418300384272e-05   -2.298869864986652e-06   -7.417794580699699e-06
1.0488418300384272e-05   -2.298869864986652e-06   -7.417794580699699e-06
1.5903361703823983e-05   -1.593494777893281e-06   -5.851946092320448e-07
1.5903361703823983e-05   -1.593494777893281e-06   -5.851946092320448e-07
1.5903361703823983e-05   -1.593494777893281e-06   -5.851946092320448e-07
1.5903361703823983e-05   -1.593494777893281e-06   -5.851946092320448e-07
6.7275813434023774e-06   -3.239767159149724e-06   -1.6865925305355146e-05
6.7275813434023774e-06   -3.239767159149724e-06   -1.6865925305355146e-05
6.7275813434023774e-06   -3.239767159149724e-06   -1.6865925305355146e-05
6.7275813434023774e-06   -3.239767159149724e-06   -1.6865925305355146e-05
7.212321517464221e-06   -1.3628650067254054e-06   -2.257582508327573e-06
7.212321517464221e-06   -1.3628650067254054e-06   -2.257582508327573e-06
7.212321517464221e-06   -1.3628650067254054e-06   -2.257582508327573e-06
7.212321517464221e-06   -1.3628650067254054e-06   -2.257582508327573e-06
1.6829541532685906e-05   -3.029754716918614e-06   -1.728614870758101e-05
1.6829541532685906e-05   -3.029754716918614e-06   -1.728614870758101e-05
1.6829541532685906e-05   -3.029754716918614e-06   -1.728614870758101e-05
1.6829541532685906e-05   -3.029754716918614e-06   -1.728614870758101e-05
1.1317878322099839e-05   -2.2052717844880595e-06   -8.594733116062546e-06
1.1317878322099839e-05   -2.2052717844880595e-06   -8.594733116062546e-06
1.1317878322099839e-05   -2.2052717844880595e-06   -8.594733116062546e-06
1.1317878322099839e-05   -2.2052717844880595e-06   -8.594733116062546e-06
1.6829541532685906e-05   -1.3628650067254054e-06   -1.257448682211561e-06
1.6829541532685906e-05   -1.3628650067254054e-06   -1.257448682211561e-06
1.6829541532685906e-05   -1.3628650067254054e-06   -1.257448682211561e-06
1.6829541532685906e-05   -1.3628650067254054e-06   -1.257448682211561e-06
7.212321517464221e-06   -3.029754716918614e-06   -1.8286282533696966e-05
7.212321517464221e-06   -3.029754716918614e-06   -1.8286282533696966e-05
7.212321517464221e-06   -3.029754716918614e-06   -1.8286282533696966e-05
7.212321517464221e-06   -3.029754716918614e-06   -1.8286282533696966e-05
7.611541227097758e-06   -7.831339617936665e-07   -3.831819399345939e-06
7.611541227097758e-06   -7.831339617936665e-07   -3.831819399345939e-06
7.611541227097758e-06   -7.831339617936665e-07   -3.831819399345939e-06
7.611541227097758e-06   -7.831339617936665e-07   -3.831819399345939e-06
1.7905205476393115e-05   -2.367618248041818e-06   -2.0037235909755907e-05
1.7905205476393115e-05   -2.367618248041818e-06   -2.0037235909755907e-05
1.7905205476393115e-05   -2.367618248041818e-06   -2.0037235909755907e-05
1.7905205476393115e-05   -2.367618248041818e-06   -2.0037235909755907e-05
1.1762073515148084e-05   -1.944786568694977e-06   -1.0052381648622811e-05
1.1762073515148084e-05   -1.944786568694977e-06   -1.0052381648622811e-05
1.1762073515148084e-05   -1.944786568694977e-06   -1.0052381648622811e-05
1.1762073515148084e-05   -1.944786568694977e-06   -1.0052381648622811e-05
6.290422581993604e-06   -7.604001794917978e-07   -1.0154771846913489e-05
6.290422581993604e-06   -7.604001794917978e-07   -1.0154771846913489e-05
6.290422581993604e-06   -7.604001794917978e-07   -1.0154771846913489e-05
6.290422581993604e-06   -7.604001794917978e-07   -1.0154771846913489e-05
-2.6983090763702715e-06   -1.6213833547279975e-06   -2.5652581182661707e-05
-2.6983090763702715e-06   -1.6213833547279975e-06   -2.5652581182661707e-05
-2.6983090763702715e-06   -1.6213833547279975e-06   -2.5652581182661707e-05
-2.6983090763702715e-06   -1.6213833547279975e-06   -2.5652581182661707e-05
-2.2926143267134393e-06   -2.874956751202718e-07   -1.0365704302043254e-05
-2.2926143267134393e-06   -2.874956751202718e-07   -1.0365704302043254e-05
-2.2926143267134393e-06   -2.874956751202718e-07   -1.0365704302043254e-05
-2.2926143267134393e-06   -2.874956751202718e-07   -1.0365704302043254e-05
6.727581343402391e-06   -1.2819772457711796e-06   -2.4802674809845627e-05
6.727581343402391e-06   -1.2819772457711796e-06   -2.4802674809845627e-05
6.727581343402391e-06   -1.2819772457711796e-06   -2.4802674809845627e-05
6.727581343402391e-06   -1.2819772457711796e-06   -2.4802674809845627e-05
2.0286252686564396e-06   -7.822836982928922e-07   -1.7270897480422772e-05
2.0286252686564396e-06   -7.822836982928922e-07   -1.7270897480422772e-05
2.0286252686564396e-06   -7.822836982928922e-07   -1.7270897480422772e-05
2.0286252686564396e-06   -7.822836982928922e-07   -1.7270897480422772e-05
6.727581343402391e-06   -2.874956751202718e-07   -9.769015359652536e-06
6.727581343402391e-06   -2.874956751202718e-07   -9.769015359652536e-06
6.727581343402391e-06   -2.874956751202718e-07   -9.769015359652536e-06
6.727581343402391e-06   -2.874956751202718e-07   -9.769015359652536e-06
-2.2926143267134393e-06   -1.2819772457711796e-06   -2.5399363752236237e-05
-2.2926143267134393e-06   -1.2819772457711796e-06   -2.5399363752236237e-05
-2.2926143267134393e-06   -1.2819772457711796e-06   -2.5399363752236237e-05
-2.2926143267134393e-06   -1.2819772457711796e-06   -2.5399363752236237e-05
-1.9052975421392725e-06   2.0200155714399006e-07   -1.050197497302961e-05
-1.9052975421392725e-06   2.0200155714399006e-07   -1.050197497302961e-05
-1.9052975421392725e-06   2.0200155714399006e-07   -1.050197497302961e-05
-1.9052975421392725e-06   2.0200155714399006e-07   -1.050197497302961e-05
7.212321517464221e-06   -8.673680861692821e-07   -2.5056384953047275e-05
7.212321517464221e-06   -8.673680861692821e-07   -2.5056384953047275e-05
7.212321517464221e-06   -8.673680861692821e-07   -2.5056384953047275e-05
7.212321517464221e-06   -8.673680861692821e-07   -2.5056384953047275e-05
2.349164604973119e-06   -4.813875821953802e-07   -1.7182711734612896e-05
2.349164604973119e-06   -4.813875821953802e-07   -1.7182711734612896e-05
2.349164604973119e-06   -4.813875821953802e-07   -1.7182711734612896e-05
2.349164604973119e-06   -4.813875821953802e-07   -1.7182711734612896e-05
7.212321517464221e-06   2.0200155714399006e-07   -9.860353187041452e-06
7.212321517464221e-06   2.0200155714399006e-07   -9.860353187041452e-06
7.212321517464221e-06   2.0200155714399006e-07   -9.860353187041452e-06
7.212321517464221e-06   2.0200155714399006e-07   -9.860353187041452e-06
-1.9052975421392725e-06   -8.673680861694989e-07   -2.5698006739035488e-05
-1.9052975421392725e-06   -8.673680861694989e-07   -2.5698006739035488e-05
-1.9052975421392725e-06   -8.673680861694989e-07   -2.5698006739035488e-05
-1.9052975421392725e-06   -8.673680861694989e-07   -2.5698006739035488e-05
-1.5418697554969848e-06   7.824648113127644e-07   -1.0862889846959185e-05
-1.5418697554969848e-06   7.824648113127644e-07   -1.0862889846959185e-05
-1.5418697554969848e-06   7.824648113127644e-07   -1.0862889846959185e-05
-1.5418697554969848e-06   7.824648113127644e-07   -1.0862889846959185e-05
7.611541227097758e-06   -3.450759792330074e-07   -2.544205034362302e-05
7.611541227097758e-06   -3.450759792330074e-07   -2.544205034362302e-05
7.611541227097758e-06   -3.450759792330074e-07   -2.544205034362302e-05
7.611541227097758e-06   -3.450759792330074e-07   -2.544205034362302e-05
2.7512254278683155e-06   -1.0987944038323705e-07   -1.7482641934884135e-05
2.7512254278683155e-06   -1.0987944038323705e-07   -1.7482641934884135e-05
2.7512254278683155e-06   -1.0987944038323705e-07   -1.7482641934884135e-05
2.7512254278683155e-06   -1.0987944038323705e-07   -1.7482641934884135e-05
-2.6983090763702715e-06   5.959031224447115e-07   -1.3089964290470156e-05
-2.6983090763702715e-06   5.959031224447115e-07   -1.3089964290470156e-05
-2.6983090763702715e-06   5.959031224447115e-07   -1.3089964290470156e-05
-2.6983090763702715e-06   5.959031224447115e-07   -1.3089964290470156e-05
-1.1528643424790554e-05   3.134608654010128e-07   -2.7976653558730224e-05
-1.1528643424790554e-05   3.134608654010128e-07   -2.7976653558730224e-05
-1.1528643424790554e-05   3.134608654010128e-07   -2.7976653558730224e-05
-1.1528643424790554e-05   3.134608654010128e-07   -2.7976653558730224e-05
-1.109211059453353e-05   1.0972530412415313e-06   -1.2993904528641321e-05
-1.109211059453353e-05   1.0972530412415313e-06   -1.2993904528641321e-05
-1.109211059453353e-05   1.0972530412415313e-06   -1.2993904528641321e-05
-1.109211059453353e-05   1.0972530412415313e-06   -1.2993904528641321e-05
-2.2926143267134393e-06   6.953683005178971e-07   -2.7418600797240815e-05
-2.2926143267134393e-06   6.953683005178971e-07   -2.7418600797240815e-05
-2.2926143267134393e-06   6.953683005178971e-07   -2.7418600797240815e-05
-2.2926143267134393e-06   6.953683005178971e-07   -2.7418600797240815e-05
-6.8560287475602745e-06   8.177915281125468e-07   -1.9886364032386096e-05
-6.8560287475602745e-06   8.177915281125468e-07   -1.9886364032386096e-05
-6.8560287475602745e-06   8.177915281125468e-07   -1.9886364032386096e-05
-6.8560287475602745e-06   8.177915281125468e-07   -1.9886364032386096e-05
-2.2926143267134393e-06   1.0972530412415313e-06   -1.2752773684207293e-05
-2.2926143267134393e-06   1.0972530412415313e-06   -1.2752773684207293e-05
-2.2926143267134393e-06   1.0972530412415313e-06   -1.2752773684207293e-05
-2.2926143267134393e-06   1.0972530412415313e-06   -1.2752773684207293e-05
-1.109211059453353e-05   6.953683005178971e-07   -2.7659731641674844e-05
-1.109211059453353e-05   6.953683005178971e-07   -2.7659731641674844e-05
-1.109211059453353e-05   6.953683005178971e-07   -2.7659731641674844e-05
-1.109211059453353e-05   6.953683005178971e-07   -2.7659731641674844e-05
-1.0670822579835194e-05   1.6275852825872912e-06   -1.297441460162529e-05
-1.0670822579835194e-05   1.6275852825872912e-06   -1.297441460162529e-05
-1.0670822579835194e-05   1.6275852825872912e-06   -1.297441460162529e-05
-1.0670822579835194e-05   1.6275852825872912e-06   -1.297441460162529e-05
-1.905297542139286e-06   1.1365973841511497e-06   -2.7289030258723467e-05
-1.905297542139286e-06   1.1365973841511497e-06   -2.7289030258723467e-05
-1.905297542139286e-06   1.1365973841511497e-06   -2.7289030258723467e-05
-1.905297542139286e-06   1.1365973841511497e-06   -2.7289030258723467e-05
-6.4809290011437675e-06   1.1755254748144466e-06   -1.9686334681447257e-05
-6.4809290011437675e-06   1.1755254748144466e-06   -1.9686334681447257e-05
-6.4809290011437675e-06   1.1755254748144466e-06   -1.9686334681447257e-05
-6.4809290011437675e-06   1.1755254748144466e-06   -1.9686334681447257e-05
-1.905297542139286e-06   1.6275852825872912e-06   -1.2679821862563497e-05
-1.905297542139286e-06   1.6275852825872912e-06   -1.2679821862563497e-05
-1.905297542139286e-06   1.6275852825872912e-06   -1.2679821862563497e-05
-1.905297542139286e-06   1.6275852825872912e-06   -1.2679821862563497e-05
-1.0670822579835194e-05   1.1365973841511497e-06   -2.7583622997785057e-05
-1.0670822579835194e-05   1.1365973841511497e-06   -2.7583622997785057e-05
-1.0670822579835194e-05   1.1365973841511497e-06   -2.7583622997785057e-05
-1.0670822579835194e-05   1.1365973841511497e-06   -2.7583622997785057e-05
-1.0281571654755266e-05   2.167135547259582e-06   -1.328172121023278e-05
-1.0281571654755266e-05   2.167135547259582e-06   -1.328172121023278e-05
-1.0281571654755266e-05   2.167135547259582e-06   -1.328172121023278e-05
-1.0281571654755266e-05   2.167135547259582e-06   -1.328172121023278e-05
-1.5418697554969713e-06   1.592398478747958e-06   -2.7503048801223083e-05
-1.5418697554969713e-06   1.592398478747958e-06   -2.7503048801223083e-05
-1.5418697554969713e-06   1.592398478747958e-06   -2.7503048801223083e-05
-1.5418697554969713e-06   1.592398478747958e-06   -2.7503048801223083e-05
-6.146277721352361e-06   1.5425640777127006e-06   -1.9799134884176505e-05
-6.146277721352361e-06   1.5425640777127006e-06   -1.9799134884176505e-05
-6.146277721352361e-06   1.5425640777127006e-06   -1.9799134884176505e-05
-6.146277721352361e-06   1.5425640777127006e-06   -1.9799134884176505e-05
-1.1528643424790571e-05   1.914874635849744e-06   -1.0610644206614033e-05
-1.1528643424790571e-05   1.914874635849744e-06   -1.0610644206614033e-05
-1.1528643424790571e-05   1.914874635849744e-06   -1.0610644206614033e-05
-1.1528643424790571e-05   1.914874635849744e-06   -1.0610644206614033e-05
-2.0206013579327132e-05   2.317904540509279e-06   -2.4831109854712573e-05
-2.0206013579327132e-05   2.317904540509279e-06   -2.4831109854712573e-05
-2.0206013579327132e-05   2.317904540509279e-06   -2.4831109854712573e-05
-2.0206013579327132e-05   2.317904540509279e-06   -2.4831109854712573e-05
-1.9679184219831134e-05   2.450097430547766e-06   -9.960232855856497e-06
-1.9679184219831134e-05   2.450097430547766e-06   -9.960232855856497e-06
-1.9679184219831134e-05   2.450097430547766e-06   -9.960232855856497e-06
-1.9679184219831134e-05   2.450097430547766e-06   -9.960232855856497e-06
-1.1092110594533546e-05   2.8015971692432837e-06   -2.4482922074569903e-05
-1.1092110594533546e-05   2.8015971692432837e-06   -2.4482922074569903e-05
-1.1092110594533546e-05   2.8015971692432837e-06   -2.4482922074569903e-05
-1.1092110594533546e-05   2.8015971692432837e-06   -2.4482922074569903e-05
-1.55125368169737e-05   2.4706704773375717e-06   -1.6916989022026398e-05
-1.55125368169737e-05   2.4706704773375717e-06   -1.6916989022026398e-05
-1.55125368169737e-05   2.4706704773375717e-06   -1.6916989022026398e-05
-1.55125368169737e-05   2.4706704773375717e-06   -1.6916989022026398e-05
-1.1092110594533546e-05   2.450097430547766e-06   -1.017113269907396e-05
-1.1092110594533546e-05   2.450097430547766e-06   -1.017113269907396e-05
-1.1092110594533546e-05   2.450097430547766e-06   -1.017113269907396e-05
-1.1092110594533546e-05   2.450097430547766e-06   -1.017113269907396e-05
-1.9679184219831168e-05   2.8015971692432837e-06   -2.4272022231352597e-05
-1.9679184219831168e-05   2.8015971692432837e-06   -2.4272022231352597e-05
-1.9679184219831168e-05   2.8015971692432837e-06   -2.4272022231352597e-05
-1.9679184219831168e-05   2.8015971692432837e-06   -2.4272022231352597e-05
-1.909474348838945e-05   2.931660259819437e-06   -9.598200764460055e-06
-1.909474348838945e-05   2.931660259819437e-06   -9.598200764460055e-06
-1.909474348838945e-05   2.931660259819437e-06   -9.598200764460055e-06
-1.909474348838945e-05   2.931660259819437e-06   -9.598200764460055e-06
-1.0670822579835215e-05   3.2179573483909034e-06   -2.3809847198526544e-05
-1.0670822579835215e-05   3.2179573483909034e-06   -2.3809847198526544e-05
-1.0670822579835215e-05   3.2179573483909034e-06   -2.3809847198526544e-05
-1.0670822579835215e-05   3.2179573483909034e-06   -2.3809847198526544e-05
-1.4978138462994501e-05   2.848076072731404e-06   -1.6409058627865365e-05
-1.4978138462994501e-05   2.848076072731404e-06   -1.6409058627865365e-05
-1.4978138462994501e-05   2.848076072731404e-06   -1.6409058627865365e-05
-1.4978138462994501e-05   2.848076072731404e-06   -1.6409058627865365e-05
-1.0670822579835204e-05   2.931660259819437e-06   -9.769979017602848e-06
-1.0670822579835204e-05   2.931660259819437e-06   -9.769979017602848e-06
-1.0670822579835204e-05   2.931660259819437e-06   -9.769979017602848e-06
-1.0670822579835204e-05   2.931660259819437e-06   -9.769979017602848e-06
-1.909474348838945e-05   3.2179573483909034e-06   -2.3638068945383778e-05
-1.909474348838945e-05   3.2179573483909034e-06   -2.3638068945383778e-05
-1.909474348838945e-05   3.2179573483909034e-06   -2.3638068945383778e-05
-1.909474348838945e-05   3.2179573483909034e-06   -2.3638068945383778e-05
-1.8601281084169097e-05   3.469273895348869e-06   -9.82070248763177e-06
-1.8601281084169097e-05   3.469273895348869e-06   -9.82070248763177e-06
-1.8601281084169097e-05   3.469273895348869e-06   -9.82070248763177e-06
-1.8601281084169097e-05   3.469273895348869e-06   -9.82070248763177e-06
-1.0281571654755283e-05   3.6775510998453362e-06   -2.3811851192685875e-05
-1.0281571654755283e-05   3.6775510998453362e-06   -2.3811851192685875e-05
-1.0281571654755283e-05   3.6775510998453362e-06   -2.3811851192685875e-05
-1.0281571654755283e-05   3.6775510998453362e-06   -2.3811851192685875e-05
-1.4649409910142982e-05   3.19530329183945e-06   -1.6242772082236386e-05
-1.4649409910142982e-05   3.19530329183945e-06   -1.6242772082236386e-05
-1.4649409910142982e-05   3.19530329183945e-06   -1.6242772082236386e-05
-1.4649409910142982e-05   3.19530329183945e-06   -1.6242772082236386e-05
-2.0206013579327132e-05   3.2938211325813337e-06   -5.3074567476109466e-06
-2.0206013579327132e-05   3.2938211325813337e-06   -5.3074567476109466e-06
-2.0206013579327132e-05   3.2938211325813337e-06   -5.3074567476109466e-06
-2.0206013579327132e-05   3.2938211325813337e-06   -5.3074567476109466e-06
-2.9360561495925436e-05   4.540732943190224e-06   -1.9816889522242948e-05
-2.9360561495925436e-05   4.540732943190224e-06   -1.9816889522242948e-05
-2.9360561495925436e-05   4.540732943190224e-06   -1.9816889522242948e-05
-2.9360561495925436e-05   4.540732943190224e-06   -1.9816889522242948e-05
-2.8140155637636695e-05   3.850459824509861e-06   -1.6284861276656204e-06
-2.8140155637636695e-05   3.850459824509861e-06   -1.6284861276656204e-06
-2.8140155637636695e-05   3.850459824509861e-06   -1.6284861276656204e-06
-2.8140155637636695e-05   3.850459824509861e-06   -1.6284861276656204e-06
-1.9679184219831134e-05   5.183596653413275e-06   -1.6529987254683644e-05
-1.9679184219831134e-05   5.183596653413275e-06   -1.6529987254683644e-05
-1.9679184219831134e-05   5.183596653413275e-06   -1.6529987254683644e-05
-1.9679184219831134e-05   5.183596653413275e-06   -1.6529987254683644e-05
-2.334055906875226e-05   4.325378384806679e-06   -9.91276487865108e-06
-2.334055906875226e-05   4.325378384806679e-06   -9.91276487865108e-06
-2.334055906875226e-05   4.325378384806679e-06   -9.91276487865108e-06
-2.334055906875226e-05   4.325378384806679e-06   -9.91276487865108e-06
-1.967918421983115e-05   3.850459824509861e-06   -2.428368225007734e-06
-1.967918421983115e-05   3.850459824509861e-06   -2.428368225007734e-06
-1.967918421983115e-05   3.850459824509861e-06   -2.428368225007734e-06
-1.967918421983115e-05   3.850459824509861e-06   -2.428368225007734e-06
-2.8140155637636654e-05   5.183596653413275e-06   -1.5730105157341643e-05
-2.8140155637636654e-05   5.183596653413275e-06   -1.5730105157341643e-05
-2.8140155637636654e-05   5.183596653413275e-06   -1.5730105157341643e-05
-2.8140155637636654e-05   5.183596653413275e-06   -1.5730105157341643e-05
-2.71361019658317e-05   4.050226602995933e-06   -8.707742174388945e-08
-2.71361019658317e-05   4.050226602995933e-06   -8.707742174388945e-08
-2.71361019658317e-05   4.050226602995933e-06   -8.707742174388945e-08
-2.71361019658317e-05   4.050226602995933e-06   -8.707742174388945e-08
-1.909474348838945e-05   5.353274981621499e-06   -1.4271170577989633e-05
-1.909474348838945e-05   5.353274981621499e-06   -1.4271170577989633e-05
-1.909474348838945e-05   5.353274981621499e-06   -1.4271170577989633e-05
-1.909474348838945e-05   5.353274981621499e-06   -1.4271170577989633e-05
-2.293312560895688e-05   4.583314761265724e-06   -7.4118909114967305e-06
-2.293312560895688e-05   4.583314761265724e-06   -7.4118909114967305e-06
-2.293312560895688e-05   4.583314761265724e-06   -7.4118909114967305e-06
-2.293312560895688e-05   4.583314761265724e-06   -7.4118909114967305e-06
-1.909474348838945e-05   4.050226602995933e-06   -8.689064489191857e-07
-1.909474348838945e-05   4.050226602995933e-06   -8.689064489191857e-07
-1.909474348838945e-05   4.050226602995933e-06   -8.689064489191857e-07
-1.909474348838945e-05   4.050226602995933e-06   -8.689064489191857e-07
-2.7136101965831604e-05   5.353274981621716e-06   -1.3489341550814316e-05
-2.7136101965831604e-05   5.353274981621716e-06   -1.3489341550814316e-05
-2.7136101965831604e-05   5.353274981621716e-06   -1.3489341550814316e-05
-2.7136101965831604e-05   5.353274981621716e-06   -1.3489341550814316e-05
-2.605027710883244e-05   4.300767881409767e-06   1.8766277106761287e-06
-2.605027710883244e-05   4.300767881409767e-06   1.8766277106761287e-06
-2.605027710883244e-05   4.300767881409767e-06   1.8766277106761287e-06
-2.605027710883244e-05   4.300767881409767e-06   1.8766277106761287e-06
-1.8601281084169097e-05   5.496301495627742e-06   -1.1255685832293514e-05
-1.8601281084169097e-05   5.496301495627742e-06   -1.1255685832293514e-05
-1.8601281084169097e-05   5.496301495627742e-06   -1.1255685832293514e-05
-1.8601281084169097e-05   5.496301495627742e-06   -1.1255685832293514e-05
-2.1910653662480828e-05   4.624951719281673e-06   -5.217255002633173e-06
-2.1910653662480828e-05   4.624951719281673e-06   -5.217255002633173e-06
-2.1910653662480828e-05   4.624951719281673e-06   -5.217255002633173e-06
-2.1910653662480828e-05   4.624951719281673e-06   -5.217255002633173e-06
2.501024073028982e-05   -3.4820549807573244e-06   5.051363344617146e-06
2.501024073028982e-05   -3.4820549807573244e-06   5.051363344617146e-06
2.501024073028982e-05   -3.4820549807573244e-06   5.051363344617146e-06
2.501024073028982e-05   -3.4820549807573244e-06   5.051363344617146e-06
1.2032009483013302e-05   -5.141849713694328e-06   -1.7574898907272637e-05
1.2032009483013302e-05   -5.141849713694328e-06   -1.7574898907272637e-05
1.2032009483013302e-05   -5.141849713694328e-06   -1.7574898907272637e-05
1.2032009483013302e-05   -5.141849713694328e-06   -1.7574898907272637e-05
1.251591782206863e-05   -3.239767159149724e-06   2.4848847975671075e-06
1.251591782206863e-05   -3.239767159149724e-06   2.4848847975671075e-06
1.251591782206863e-05   -3.239767159149724e-06   2.4848847975671075e-06
1.251591782206863e-05   -3.239767159149724e-06   2.4848847975671075e-06
2.6141892325086874e-05   -5.023424752720242e-06   -1.915487815132088e-05
2.6141892325086874e-05   -5.023424752720242e-06   -1.915487815132088e-05
2.6141892325086874e-05   -5.023424752720242e-06   -1.915487815132088e-05
2.6141892325086874e-05   -5.023424752720242e-06   -1.915487815132088e-05
1.8154605433654683e-05   -3.8094380743712835e-06   -6.571125339276557e-06
1.8154605433654683e-05   -3.8094380743712835e-06   -6.571125339276557e-06
1.8154605433654683e-05   -3.8094380743712835e-06   -6.571125339276557e-06
1.8154605433654683e-05   -3.8094380743712835e-06   -6.571125339276557e-06
2.61418923250869e-05   -3.239767159149724e-06   3.5550793537095053e-06
2.61418923250869e-05   -3.239767159149724e-06   3.5550793537095053e-06
2.61418923250869e-05   -3.239767159149724e-06   3.5550793537095053e-06
2.61418923250869e-05   -3.239767159149724e-06   3.5550793537095053e-06
1.2515917822068602e-05   -5.023424752720242e-06   -2.022507270746333e-05
1.2515917822068602e-05   -5.023424752720242e-06   -2.022507270746333e-05
1.2515917822068602e-05   -5.023424752720242e-06   -2.022507270746333e-05
1.2515917822068602e-05   -5.023424752720242e-06   -2.022507270746333e-05
1.2997525395633722e-05   -3.029754716918614e-06   1.2253856256896813e-06
1.2997525395633722e-05   -3.029754716918614e-06   1.2253856256896813e-06
1.2997525395633722e-05   -3.029754716918614e-06   1.2253856256896813e-06
1.2997525395633722e-05   -3.029754716918614e-06   1.2253856256896813e-06
2.7009261539218707e-05   -4.848468339658293e-06   -2.1036279773308355e-05
2.7009261539218707e-05   -4.848468339658293e-06   -2.1036279773308355e-05
2.7009261539218707e-05   -4.848468339658293e-06   -2.1036279773308355e-05
2.7009261539218707e-05   -4.848468339658293e-06   -2.1036279773308355e-05
1.9109025744416e-05   -3.7964970559833163e-06   -8.500402885508798e-06
1.9109025744416e-05   -3.7964970559833163e-06   -8.500402885508798e-06
1.9109025744416e-05   -3.7964970559833163e-06   -8.500402885508798e-06
1.9109025744416e-05   -3.7964970559833163e-06   -8.500402885508798e-06
2.7009261539218707e-05   -3.029754716918614e-06   2.316613799333337e-06
2.7009261539218707e-05   -3.029754716918614e-06   2.316613799333337e-06
2.7009261539218707e-05   -3.029754716918614e-06   2.316613799333337e-06
2.7009261539218707e-05   -3.029754716918614e-06   2.316613799333337e-06
1.2997525395633722e-05   -4.848468339658076e-06   -2.212750794695212e-05
1.2997525395633722e-05   -4.848468339658076e-06   -2.212750794695212e-05
1.2997525395633722e-05   -4.848468339658076e-06   -2.212750794695212e-05
1.2997525395633722e-05   -4.848468339658076e-06   -2.212750794695212e-05
1.3323220385335206e-05   -2.367618248041818e-06   -1.3049633073799766e-06
1.3323220385335206e-05   -2.367618248041818e-06   -1.3049633073799766e-06
1.3323220385335206e-05   -2.367618248041818e-06   -1.3049633073799766e-06
1.3323220385335206e-05   -2.367618248041818e-06   -1.3049633073799766e-06
2.7926913594142642e-05   -4.168078082009098e-06   -2.4564176088345488e-05
2.7926913594142642e-05   -4.168078082009098e-06   -2.4564176088345488e-05
2.7926913594142642e-05   -4.168078082009098e-06   -2.4564176088345488e-05
2.7926913594142642e-05   -4.168078082009098e-06   -2.4564176088345488e-05
1.936955098049642e-05   -3.503639677573901e-06   -1.0700568108263384e-05
1.936955098049642e-05   -3.503639677573901e-06   -1.0700568108263384e-05
1.936955098049642e-05   -3.503639677573901e-06   -1.0700568108263384e-05
1.936955098049642e-05   -3.503639677573901e-06   -1.0700568108263384e-05
1.2032009483013329e-05   -1.6213833547279975e-06   -5.956139591851853e-06
1.2032009483013329e-05   -1.6213833547279975e-06   -5.956139591851853e-06
1.2032009483013329e-05   -1.6213833547279975e-06   -5.956139591851853e-06
1.2032009483013329e-05   -1.6213833547279975e-06   -5.956139591851853e-06
-7.653555919755802e-07   -3.3098639934750224e-06   -2.8298169766748354e-05
-7.653555919755802e-07   -3.3098639934750224e-06   -2.8298169766748354e-05
-7.653555919755802e-07   -3.3098639934750224e-06   -2.8298169766748354e-05
-7.653555919755802e-07   -3.3098639934750224e-06   -2.8298169766748354e-05
-2.6943678518047333e-07   -1.2819772457711796e-06   -6.571662342477877e-06
-2.6943678518047333e-07   -1.2819772457711796e-06   -6.571662342477877e-06
-2.6943678518047333e-07   -1.2819772457711796e-06   -6.571662342477877e-06
-2.6943678518047333e-07   -1.2819772457711796e-06   -6.571662342477877e-06
1.251591782206863e-05   -3.148306638362181e-06   -2.6760789052338572e-05
1.251591782206863e-05   -3.148306638362181e-06   -2.6760789052338572e-05
1.251591782206863e-05   -3.148306638362181e-06   -2.6760789052338572e-05
1.251591782206863e-05   -3.148306638362181e-06   -2.6760789052338572e-05
5.895275484056808e-06   -2.003474634494672e-06   -1.6413284357972722e-05
5.895275484056808e-06   -2.003474634494672e-06   -1.6413284357972722e-05
5.895275484056808e-06   -2.003474634494672e-06   -1.6413284357972722e-05
5.895275484056808e-06   -2.003474634494672e-06   -1.6413284357972722e-05
1.2515917822068616e-05   -1.2819772457711796e-06   -5.451864706923319e-06
1.2515917822068616e-05   -1.2819772457711796e-06   -5.451864706923319e-06
1.2515917822068616e-05   -1.2819772457711796e-06   -5.451864706923319e-06
1.2515917822068616e-05   -1.2819772457711796e-06   -5.451864706923319e-06
-2.6943678518047333e-07   -3.148306638362181e-06   -2.788058668789302e-05
-2.6943678518047333e-07   -3.148306638362181e-06   -2.788058668789302e-05
-2.6943678518047333e-07   -3.148306638362181e-06   -2.788058668789302e-05
-2.6943678518047333e-07   -3.148306638362181e-06   -2.788058668789302e-05
1.6729774729542016e-07   -8.673680861694989e-07   -6.734174555976546e-06
1.6729774729542016e-07   -8.673680861694989e-07   -6.734174555976546e-06
1.6729774729542016e-07   -8.673680861694989e-07   -6.734174555976546e-06
1.6729774729542016e-07   -8.673680861694989e-07   -6.734174555976546e-06
1.2997525395633722e-05   -2.849797690028912e-06   -2.6928429540891283e-05
1.2997525395633722e-05   -2.849797690028912e-06   -2.6928429540891283e-05
1.2997525395633722e-05   -2.849797690028912e-06   -2.6928429540891283e-05
1.2997525395633722e-05   -2.849797690028912e-06   -2.6928429540891283e-05
6.230918794279753e-06   -1.835794789063934e-06   -1.625915361254675e-05
6.230918794279753e-06   -1.835794789063934e-06   -1.625915361254675e-05
6.230918794279753e-06   -1.835794789063934e-06   -1.625915361254675e-05
6.230918794279753e-06   -1.835794789063934e-06   -1.625915361254675e-05
1.2997525395633722e-05   -8.673680861694989e-07   -5.54471679366079e-06
1.2997525395633722e-05   -8.673680861694989e-07   -5.54471679366079e-06
1.2997525395633722e-05   -8.673680861694989e-07   -5.54471679366079e-06
1.2997525395633722e-05   -8.673680861694989e-07   -5.54471679366079e-06
1.672977472954066e-07   -2.849797690028912e-06   -2.8117887303207175e-05
1.672977472954066e-07   -2.849797690028912e-06   -2.8117887303207175e-05
1.672977472954066e-07   -2.849797690028912e-06   -2.8117887303207175e-05
1.672977472954066e-07   -2.849797690028912e-06   -2.8117887303207175e-05
4.775453986928584e-07   -3.450759792330074e-07   -7.006987698612616e-06
4.775453986928584e-07   -3.450759792330074e-07   -7.006987698612616e-06
4.775453986928584e-07   -3.450759792330074e-07   -7.006987698612616e-06
4.775453986928584e-07   -3.450759792330074e-07   -7.006987698612616e-06
1.3323220385335247e-05   -2.424910194423306e-06   -2.716854548056902e-05
1.3323220385335247e-05   -2.424910194423306e-06   -2.716854548056902e-05
1.3323220385335247e-05   -2.424910194423306e-06   -2.716854548056902e-05
1.3323220385335247e-05   -2.424910194423306e-06   -2.716854548056902e-05
6.635638982552376e-06   -1.5417355240200312e-06   -1.6552481278173212e-05
6.635638982552376e-06   -1.5417355240200312e-06   -1.6552481278173212e-05
6.635638982552376e-06   -1.5417355240200312e-06   -1.6552481278173212e-05
6.635638982552376e-06   -1.5417355240200312e-06   -1.6552481278173212e-05
-7.653555919755802e-07   3.134608654010128e-07   -9.123834996942453e-06
-7.653555919755802e-07   3.134608654010128e-07   -9.123834996942453e-06
-7.653555919755802e-07   3.134608654010128e-07   -9.123834996942453e-06
-7.653555919755802e-07   3.134608654010128e-07   -9.123834996942453e-06
-1.3373782003691811e-05   -1.7034830564366821e-06   -3.1348045369572084e-05
-1.3373782003691811e-05   -1.7034830564366821e-06   -3.1348045369572084e-05
-1.3373782003691811e-05   -1.7034830564366821e-06   -3.1348045369572084e-05
-1.3373782003691811e-05   -1.7034830564366821e-06   -3.1348045369572084e-05
-1.277847181677548e-05   6.953683005178971e-07   -9.915414611400106e-06
-1.277847181677548e-05   6.953683005178971e-07   -9.915414611400106e-06
-1.277847181677548e-05   6.953683005178971e-07   -9.915414611400106e-06
-1.277847181677548e-05   6.953683005178971e-07   -9.915414611400106e-06
-2.6943678518047333e-07   -1.512157072678386e-06   -2.943929110680728e-05
-2.6943678518047333e-07   -1.512157072678386e-06   -2.943929110680728e-05
-2.6943678518047333e-07   -1.512157072678386e-06   -2.943929110680728e-05
-2.6943678518047333e-07   -1.512157072678386e-06   -2.943929110680728e-05
-6.717313576183798e-06   -3.069021185099323e-07   -1.9415982760969395e-05
-6.717313576183798e-06   -3.069021185099323e-07   -1.9415982760969395e-05
-6.717313576183798e-06   -3.069021185099323e-07   -1.9415982760969395e-05
-6.717313576183798e-06   -3.069021185099323e-07   -1.9415982760969395e-05
-2.6943678518047333e-07   6.953683005178971e-07   -8.590899387482293e-06
-2.6943678518047333e-07   6.953683005178971e-07   -8.590899387482293e-06
-2.6943678518047333e-07   6.953683005178971e-07   -8.590899387482293e-06
-2.6943678518047333e-07   6.953683005178971e-07   -8.590899387482293e-06
-1.277847181677548e-05   -1.5121570726781691e-06   -3.076380633072512e-05
-1.277847181677548e-05   -1.5121570726781691e-06   -3.076380633072512e-05
-1.277847181677548e-05   -1.5121570726781691e-06   -3.076380633072512e-05
-1.277847181677548e-05   -1.5121570726781691e-06   -3.076380633072512e-05
-1.2232341582292461e-05   1.1365973841511497e-06   -9.737706892235182e-06
-1.2232341582292461e-05   1.1365973841511497e-06   -9.737706892235182e-06
-1.2232341582292461e-05   1.1365973841511497e-06   -9.737706892235182e-06
-1.2232341582292461e-05   1.1365973841511497e-06   -9.737706892235182e-06
1.672977472954066e-07   -1.2175839768000483e-06   -2.8991263624977744e-05
1.672977472954066e-07   -1.2175839768000483e-06   -2.8991263624977744e-05
1.672977472954066e-07   -1.2175839768000483e-06   -2.8991263624977744e-05
1.672977472954066e-07   -1.2175839768000483e-06   -2.8991263624977744e-05
-6.233114116543834e-06   -8.906526493906129e-08   -1.9001021745695458e-05
-6.233114116543834e-06   -8.906526493906129e-08   -1.9001021745695458e-05
-6.233114116543834e-06   -8.906526493906129e-08   -1.9001021745695458e-05
-6.233114116543834e-06   -8.906526493906129e-08   -1.9001021745695458e-05
1.672977472954066e-07   1.1365973841511497e-06   -8.325198075664593e-06
1.672977472954066e-07   1.1365973841511497e-06   -8.325198075664593e-06
1.672977472954066e-07   1.1365973841511497e-06   -8.325198075664593e-06
1.672977472954066e-07   1.1365973841511497e-06   -8.325198075664593e-06
-1.2232341582292481e-05   -1.2175839767998315e-06   -3.040377244154847e-05
-1.2232341582292481e-05   -1.2175839767998315e-06   -3.040377244154847e-05
-1.2232341582292481e-05   -1.2175839767998315e-06   -3.040377244154847e-05
-1.2232341582292481e-05   -1.2175839767998315e-06   -3.040377244154847e-05
-1.1864387947456264e-05   1.592398478747958e-06   -9.90956903240952e-06
-1.1864387947456264e-05   1.592398478747958e-06   -9.90956903240952e-06
-1.1864387947456264e-05   1.592398478747958e-06   -9.90956903240952e-06
-1.1864387947456264e-05   1.592398478747958e-06   -9.90956903240952e-06
4.775453986928448e-07   -9.37780438792701e-07   -2.8961350592133717e-05
4.775453986928448e-07   -9.37780438792701e-07   -2.8961350592133717e-05
4.775453986928448e-07   -9.37780438792701e-07   -2.8961350592133717e-05
4.775453986928448e-07   -9.37780438792701e-07   -2.8961350592133717e-05
-5.888476653766701e-06   1.5510978329004443e-07   -1.9007047971284473e-05
-5.888476653766701e-06   1.5510978329004443e-07   -1.9007047971284473e-05
-5.888476653766701e-06   1.5510978329004443e-07   -1.9007047971284473e-05
-5.888476653766701e-06   1.5510978329004443e-07   -1.9007047971284473e-05
-1.3373782003691784e-05   2.317904540509279e-06   -7.430275588823031e-06
-1.3373782003691784e-05   2.317904540509279e-06   -7.430275588823031e-06
-1.3373782003691784e-05   2.317904540509279e-06   -7.430275588823031e-06
-1.3373782003691784e-05   2.317904540509279e-06   -7.430275588823031e-06
-2.6162575416369722e-05   5.064120298546235e-07   -2.9831826783012407e-05
-2.6162575416369722e-05   5.064120298546235e-07   -2.9831826783012407e-05
-2.6162575416369722e-05   5.064120298546235e-07   -2.9831826783012407e-05
-2.6162575416369722e-05   5.064120298546235e-07   -2.9831826783012407e-05
-2.5314717667942433e-05   2.801597169243067e-06   -7.906199813222407e-06
-2.5314717667942433e-05   2.801597169243067e-06   -7.906199813222407e-06
-2.5314717667942433e-05   2.801597169243067e-06   -7.906199813222407e-06
-2.5314717667942433e-05   2.801597169243067e-06   -7.906199813222407e-06
-1.277847181677546e-05   8.556058876975619e-07   -2.763234812957341e-05
-1.277847181677546e-05   8.556058876975619e-07   -2.763234812957341e-05
-1.277847181677546e-05   8.556058876975619e-07   -2.763234812957341e-05
-1.277847181677546e-05   8.556058876975619e-07   -2.763234812957341e-05
-1.920772456586047e-05   1.7839104735526638e-06   -1.7473909632611476e-05
-1.920772456586047e-05   1.7839104735526638e-06   -1.7473909632611476e-05
-1.920772456586047e-05   1.7839104735526638e-06   -1.7473909632611476e-05
-1.920772456586047e-05   1.7839104735526638e-06   -1.7473909632611476e-05
-1.277847181677546e-05   2.801597169243067e-06   -6.738605044295104e-06
-1.277847181677546e-05   2.801597169243067e-06   -6.738605044295104e-06
-1.277847181677546e-05   2.801597169243067e-06   -6.738605044295104e-06
-1.277847181677546e-05   2.801597169243067e-06   -6.738605044295104e-06
-2.5314717667942477e-05   8.55605887697345e-07   -2.8799942898500848e-05
-2.5314717667942477e-05   8.55605887697345e-07   -2.8799942898500848e-05
-2.5314717667942477e-05   8.55605887697345e-07   -2.8799942898500848e-05
-2.5314717667942477e-05   8.55605887697345e-07   -2.8799942898500848e-05
-2.4493553600561224e-05   3.2179573483909034e-06   -7.188756087803789e-06
-2.4493553600561224e-05   3.2179573483909034e-06   -7.188756087803789e-06
-2.4493553600561224e-05   3.2179573483909034e-06   -7.188756087803789e-06
-2.4493553600561224e-05   3.2179573483909034e-06   -7.188756087803789e-06
-1.2232341582292481e-05   1.1765823570123075e-06   -2.6399284456758064e-05
-1.2232341582292481e-05   1.1765823570123075e-06   -2.6399284456758064e-05
-1.2232341582292481e-05   1.1765823570123075e-06   -2.6399284456758064e-05
-1.2232341582292481e-05   1.1765823570123075e-06   -2.6399284456758064e-05
-1.8439147771829652e-05   2.087804342452244e-06   -1.660134066545991e-05
-1.8439147771829652e-05   2.087804342452244e-06   -1.660134066545991e-05
-1.8439147771829652e-05   2.087804342452244e-06   -1.660134066545991e-05
-1.8439147771829652e-05   2.087804342452244e-06   -1.660134066545991e-05
-1.2232341582292454e-05   3.2179573483909034e-06   -5.963931092976588e-06
-1.2232341582292454e-05   3.2179573483909034e-06   -5.963931092976588e-06
-1.2232341582292454e-05   3.2179573483909034e-06   -5.963931092976588e-06
-1.2232341582292454e-05   3.2179573483909034e-06   -5.963931092976588e-06
-2.4493553600561264e-05   1.1765823570123075e-06   -2.762410945158513e-05
-2.4493553600561264e-05   1.1765823570123075e-06   -2.762410945158513e-05
-2.4493553600561264e-05   1.1765823570123075e-06   -2.762410945158513e-05
-2.4493553600561264e-05   1.1765823570123075e-06   -2.762410945158513e-05
-2.387288908663795e-05   3.6775510998451194e-06   -7.2118182351222585e-06
-2.387288908663795e-05   3.6775510998451194e-06   -7.2118182351222585e-06
-2.387288908663795e-05   3.6775510998451194e-06   -7.2118182351222585e-06
-2.387288908663795e-05   3.6775510998451194e-06   -7.2118182351222585e-06
-1.1864387947456281e-05   1.447069345917153e-06   -2.588769774806823e-05
-1.1864387947456281e-05   1.447069345917153e-06   -2.588769774806823e-05
-1.1864387947456281e-05   1.447069345917153e-06   -2.588769774806823e-05
-1.1864387947456281e-05   1.447069345917153e-06   -2.588769774806823e-05
-1.8013867673035812e-05   2.3002158794703347e-06   -1.6150452792234086e-05
-1.8013867673035812e-05   2.3002158794703347e-06   -1.6150452792234086e-05
-1.8013867673035812e-05   2.3002158794703347e-06   -1.6150452792234086e-05
-1.8013867673035812e-05   2.3002158794703347e-06   -1.6150452792234086e-05
-2.6162575416369722e-05   4.540732943190441e-06   -4.2510978491116635e-06
-2.6162575416369722e-05   4.540732943190441e-06   -4.2510978491116635e-06
-2.6162575416369722e-05   4.540732943190441e-06   -4.2510978491116635e-06
-2.6162575416369722e-05   4.540732943190441e-06   -4.2510978491116635e-06
-3.9537464429570307e-05   4.301178693340247e-06   -2.6686312087689508e-05
-3.9537464429570307e-05   4.301178693340247e-06   -2.6686312087689508e-05
-3.9537464429570307e-05   4.301178693340247e-06   -2.6686312087689508e-05
-3.9537464429570307e-05   4.301178693340247e-06   -2.6686312087689508e-05
-3.7852503958600406e-05   5.183596653413275e-06   -1.914400612112923e-08
-3.7852503958600406e-05   5.183596653413275e-06   -1.914400612112923e-08
-3.7852503958600406e-05   5.183596653413275e-06   -1.914400612112923e-08
-3.7852503958600406e-05   5.183596653413275e-06   -1.914400612112923e-08
-2.531471766794239e-05   5.425298037467193e-06   -2.1060475320983645e-05
-2.531471766794239e-05   5.425298037467193e-06   -2.1060475320983645e-05
-2.531471766794239e-05   5.425298037467193e-06   -2.1060475320983645e-05
-2.531471766794239e-05   5.425298037467193e-06   -2.1060475320983645e-05
-3.082822589835903e-05   5.112921364332527e-06   -1.1683868933075195e-05
-3.082822589835903e-05   5.112921364332527e-06   -1.1683868933075195e-05
-3.082822589835903e-05   5.112921364332527e-06   -1.1683868933075195e-05
-3.082822589835903e-05   5.112921364332527e-06   -1.1683868933075195e-05
-2.5314717667942454e-05   5.183596653413275e-06   -1.641648365535665e-07
-2.5314717667942454e-05   5.183596653413275e-06   -1.641648365535665e-07
-2.5314717667942454e-05   5.183596653413275e-06   -1.641648365535665e-07
-2.5314717667942454e-05   5.183596653413275e-06   -1.641648365535665e-07
-3.7852503958600406e-05   5.425298037467193e-06   -2.0915454490551245e-05
-3.7852503958600406e-05   5.425298037467193e-06   -2.0915454490551245e-05
-3.7852503958600406e-05   5.425298037467193e-06   -2.0915454490551245e-05
-3.7852503958600406e-05   5.425298037467193e-06   -2.0915454490551245e-05
-3.645687526893084e-05   5.353274981621716e-06   2.3734720950737125e-06
-3.645687526893084e-05   5.353274981621716e-06   2.3734720950737125e-06
-3.645687526893084e-05   5.353274981621716e-06   2.3734720950737125e-06
-3.645687526893084e-05   5.353274981621716e-06   2.3734720950737125e-06
-2.4493553600561224e-05   5.6788246740938336e-06   -1.776072716769238e-05
-2.4493553600561224e-05   5.6788246740938336e-06   -1.776072716769238e-05
-2.4493553600561224e-05   5.6788246740938336e-06   -1.776072716769238e-05
-2.4493553600561224e-05   5.6788246740938336e-06   -1.776072716769238e-05
-3.0201472514380407e-05   5.482233388161457e-06   -8.12957420643414e-06
-3.0201472514380407e-05   5.482233388161457e-06   -8.12957420643414e-06
-3.0201472514380407e-05   5.482233388161457e-06   -8.12957420643414e-06
-3.0201472514380407e-05   5.482233388161457e-06   -8.12957420643414e-06
-2.4493553600561264e-05   5.353274981621499e-06   2.1781422795902686e-06
-2.4493553600561264e-05   5.353274981621499e-06   2.1781422795902686e-06
-2.4493553600561264e-05   5.353274981621499e-06   2.1781422795902686e-06
-2.4493553600561264e-05   5.353274981621499e-06   2.1781422795902686e-06
-3.645687526893078e-05   5.67882467409405e-06   -1.7565397352209064e-05
-3.645687526893078e-05   5.67882467409405e-06   -1.7565397352209064e-05
-3.645687526893078e-05   5.67882467409405e-06   -1.7565397352209064e-05
-3.645687526893078e-05   5.67882467409405e-06   -1.7565397352209064e-05
-3.499526661334284e-05   5.496301495627742e-06   5.586605060879028e-06
-3.499526661334284e-05   5.496301495627742e-06   5.586605060879028e-06
-3.499526661334284e-05   5.496301495627742e-06   5.586605060879028e-06
-3.499526661334284e-05   5.496301495627742e-06   5.586605060879028e-06
-2.387288908663795e-05   6.10834192613899e-06   -1.3317915075269246e-05
-2.387288908663795e-05   6.10834192613899e-06   -1.3317915075269246e-05
-2.387288908663795e-05   6.10834192613899e-06   -1.3317915075269246e-05
-2.387288908663795e-05   6.10834192613899e-06   -1.3317915075269246e-05
-2.878637224443253e-05   5.603957604921866e-06   -4.826145886214822e-06
-2.878637224443253e-05   5.603957604921866e-06   -4.826145886214822e-06
-2.878637224443253e-05   5.603957604921866e-06   -4.826145886214822e-06
-2.878637224443253e-05   5.603957604921866e-06   -4.826145886214822e-06
3.43024341424907e-05   -5.141849713694328e-06   1.1775620145048813e-05
3.43024341424907e-05   -5.141849713694328e-06   1.1775620145048813e-05
3.43024341424907e-05   -5.141849713694328e-06   1.1775620145048813e-05
3.43024341424907e-05   -5.141849713694328e-06   1.1775620145048813e-05
1.7220216278073617e-05   -6.491726638845844e-06   -1.7504669117403846e-05
1.7220216278073617e-05   -6.491726638845844e-06   -1.7504669117403846e-05
1.7220216278073617e-05   -6.491726638845844e-06   -1.7504669117403846e-05
1.7220216278073617e-05   -6.491726638845844e-06   -1.7504669117403846e-05
1.7633563418210184e-05   -5.023424752720242e-06   8.464695300051494e-06
1.7633563418210184e-05   -5.023424752720242e-06   8.464695300051494e-06
1.7633563418210184e-05   -5.023424752720242e-06   8.464695300051494e-06
1.7633563418210184e-05   -5.023424752720242e-06   8.464695300051494e-06
3.5147623331782546e-05   -6.6541997203681e-06   -1.9746939575313884e-05
3.5147623331782546e-05   -6.6541997203681e-06   -1.9746939575313884e-05
3.5147623331782546e-05   -6.6541997203681e-06   -1.9746939575313884e-05
3.5147623331782546e-05   -6.6541997203681e-06   -1.9746939575313884e-05
2.5035653309955037e-05   -5.2518927418292e-06   -3.7350403927247458e-06
2.5035653309955037e-05   -5.2518927418292e-06   -3.7350403927247458e-06
2.5035653309955037e-05   -5.2518927418292e-06   -3.7350403927247458e-06
2.5035653309955037e-05   -5.2518927418292e-06   -3.7350403927247458e-06
3.5147623331782546e-05   -5.023424752720242e-06   9.443160280640035e-06
3.5147623331782546e-05   -5.023424752720242e-06   9.443160280640035e-06
3.5147623331782546e-05   -5.023424752720242e-06   9.443160280640035e-06
3.5147623331782546e-05   -5.023424752720242e-06   9.443160280640035e-06
1.7633563418210184e-05   -6.6541997203681e-06   -2.0725404555902533e-05
1.7633563418210184e-05   -6.6541997203681e-06   -2.0725404555902533e-05
1.7633563418210184e-05   -6.6541997203681e-06   -2.0725404555902533e-05
1.7633563418210184e-05   -6.6541997203681e-06   -2.0725404555902533e-05
1.798277010962362e-05   -4.848468339658076e-06   6.688544402297467e-06
1.798277010962362e-05   -4.848468339658076e-06   6.688544402297467e-06
1.798277010962362e-05   -4.848468339658076e-06   6.688544402297467e-06
1.798277010962362e-05   -4.848468339658076e-06   6.688544402297467e-06
3.5673601169119106e-05   -6.592473793999186e-06   -2.1749770757590508e-05
3.5673601169119106e-05   -6.592473793999186e-06   -2.1749770757590508e-05
3.5673601169119106e-05   -6.592473793999186e-06   -2.1749770757590508e-05
3.5673601169119106e-05   -6.592473793999186e-06   -2.1749770757590508e-05
2.5911632784475416e-05   -5.416004399731288e-06   -6.185705086411751e-06
2.5911632784475416e-05   -5.416004399731288e-06   -6.185705086411751e-06
2.5911632784475416e-05   -5.416004399731288e-06   -6.185705086411751e-06
2.5911632784475416e-05   -5.416004399731288e-06   -6.185705086411751e-06
3.5673601169119106e-05   -4.848468339658076e-06   7.734947674902003e-06
3.5673601169119106e-05   -4.848468339658076e-06   7.734947674902003e-06
3.5673601169119106e-05   -4.848468339658076e-06   7.734947674902003e-06
3.5673601169119106e-05   -4.848468339658076e-06   7.734947674902003e-06
1.798277010962362e-05   -6.592473793999186e-06   -2.2796174030195043e-05
1.798277010962362e-05   -6.592473793999186e-06   -2.2796174030195043e-05
1.798277010962362e-05   -6.592473793999186e-06   -2.2796174030195043e-05
1.798277010962362e-05   -6.592473793999186e-06   -2.2796174030195043e-05
1.8346523971236235e-05   -4.168078082009098e-06   3.250644444943371e-06
1.8346523971236235e-05   -4.168078082009098e-06   3.250644444943371e-06
1.8346523971236235e-05   -4.168078082009098e-06   3.250644444943371e-06
1.8346523971236235e-05   -4.168078082009098e-06   3.250644444943371e-06
3.6191596951412055e-05   -6.221535753371402e-06   -2.5259069252532145e-05
3.6191596951412055e-05   -6.221535753371402e-06   -2.5259069252532145e-05
3.6191596951412055e-05   -6.221535753371402e-06   -2.5259069252532145e-05
3.6191596951412055e-05   -6.221535753371402e-06   -2.5259069252532145e-05
2.5917394055785875e-05   -5.210002251377537e-06   -8.742317861018382e-06
2.5917394055785875e-05   -5.210002251377537e-06   -8.742317861018382e-06
2.5917394055785875e-05   -5.210002251377537e-06   -8.742317861018382e-06
2.5917394055785875e-05   -5.210002251377537e-06   -8.742317861018382e-06
1.7220216278073617e-05   -3.3098639934752393e-06   1.2555115137304887e-06
1.7220216278073617e-05   -3.3098639934752393e-06   1.2555115137304887e-06
1.7220216278073617e-05   -3.3098639934752393e-06   1.2555115137304887e-06
1.7220216278073617e-05   -3.3098639934752393e-06   1.2555115137304887e-06
1.9837154300750298e-06   -6.459487753722069e-06   -2.6028430822415275e-05
1.9837154300750298e-06   -6.459487753722069e-06   -2.6028430822415275e-05
1.9837154300750298e-06   -6.459487753722069e-06   -2.6028430822415275e-05
1.9837154300750298e-06   -6.459487753722069e-06   -2.6028430822415275e-05
2.4647646852879592e-06   -3.148306638362181e-06   -3.6096875852958954e-08
2.4647646852879592e-06   -3.148306638362181e-06   -3.6096875852958954e-08
2.4647646852879592e-06   -3.148306638362181e-06   -3.6096875852958954e-08
2.4647646852879592e-06   -3.148306638362181e-06   -3.6096875852958954e-08
1.763356341821021e-05   -6.423433023410941e-06   -2.3352352266360832e-05
1.763356341821021e-05   -6.423433023410941e-06   -2.3352352266360832e-05
1.763356341821021e-05   -6.423433023410941e-06   -2.3352352266360832e-05
1.763356341821021e-05   -6.423433023410941e-06   -2.3352352266360832e-05
9.862484850691071e-06   -4.360965554489355e-06   -1.1638035135182049e-05
9.862484850691071e-06   -4.360965554489355e-06   -1.1638035135182049e-05
9.862484850691071e-06   -4.360965554489355e-06   -1.1638035135182049e-05
9.862484850691071e-06   -4.360965554489355e-06   -1.1638035135182049e-05
1.763356341821017e-05   -3.148306638362181e-06   1.928978955176362e-06
1.763356341821017e-05   -3.148306638362181e-06   1.928978955176362e-06
1.763356341821017e-05   -3.148306638362181e-06   1.928978955176362e-06
1.763356341821017e-05   -3.148306638362181e-06   1.928978955176362e-06
2.4647646852879592e-06   -6.423433023410941e-06   -2.5317428097389964e-05
2.4647646852879592e-06   -6.423433023410941e-06   -2.5317428097389964e-05
2.4647646852879592e-06   -6.423433023410941e-06   -2.5317428097389964e-05
2.4647646852879592e-06   -6.423433023410941e-06   -2.5317428097389964e-05
2.898902264120715e-06   -2.849797690028912e-06   -2.0246651491527632e-07
2.898902264120715e-06   -2.849797690028912e-06   -2.0246651491527632e-07
2.898902264120715e-06   -2.849797690028912e-06   -2.0246651491527632e-07
2.898902264120715e-06   -2.849797690028912e-06   -2.0246651491527632e-07
1.798277010962362e-05   -6.33327989548447e-06   -2.325215693414675e-05
1.798277010962362e-05   -6.33327989548447e-06   -2.325215693414675e-05
1.798277010962362e-05   -6.33327989548447e-06   -2.325215693414675e-05
1.798277010962362e-05   -6.33327989548447e-06   -2.325215693414675e-05
1.0133107330218592e-05   -4.405463636641526e-06   -1.1326075390443759e-05
1.0133107330218592e-05   -4.405463636641526e-06   -1.1326075390443759e-05
1.0133107330218592e-05   -4.405463636641526e-06   -1.1326075390443759e-05
1.0133107330218592e-05   -4.405463636641526e-06   -1.1326075390443759e-05
1.798277010962362e-05   -2.849797690028912e-06   1.8876228083581671e-06
1.798277010962362e-05   -2.849797690028912e-06   1.8876228083581671e-06
1.798277010962362e-05   -2.849797690028912e-06   1.8876228083581671e-06
1.798277010962362e-05   -2.849797690028912e-06   1.8876228083581671e-06
2.898902264120715e-06   -6.33327989548447e-06   -2.5342246257420192e-05
2.898902264120715e-06   -6.33327989548447e-06   -2.5342246257420192e-05
2.898902264120715e-06   -6.33327989548447e-06   -2.5342246257420192e-05
2.898902264120715e-06   -6.33327989548447e-06   -2.5342246257420192e-05
3.5474373424767663e-06   -2.424910194423306e-06   -5.11932496790094e-07
3.5474373424767663e-06   -2.424910194423306e-06   -5.11932496790094e-07
3.5474373424767663e-06   -2.424910194423306e-06   -5.11932496790094e-07
3.5474373424767663e-06   -2.424910194423306e-06   -5.11932496790094e-07
1.834652397123622e-05   -6.155715944240617e-06   -2.2938593428165592e-05
1.834652397123622e-05   -6.155715944240617e-06   -2.2938593428165592e-05
1.834652397123622e-05   -6.155715944240617e-06   -2.2938593428165592e-05
1.834652397123622e-05   -6.155715944240617e-06   -2.2938593428165592e-05
1.0655483642287242e-05   -4.332483130507943e-06   -1.1214132568156652e-05
1.0655483642287242e-05   -4.332483130507943e-06   -1.1214132568156652e-05
1.0655483642287242e-05   -4.332483130507943e-06   -1.1214132568156652e-05
1.0655483642287242e-05   -4.332483130507943e-06   -1.1214132568156652e-05
1.9837154300750298e-06   -1.7034830564364653e-06   -2.4739719921387012e-06
1.9837154300750298e-06   -1.7034830564364653e-06   -2.4739719921387012e-06
1.9837154300750298e-06   -1.7034830564364653e-06   -2.4739719921387012e-06
1.9837154300750298e-06   -1.7034830564364653e-06   -2.4739719921387012e-06
-1.3092762237026694e-05   -7.736110766895813e-06   -3.122101139691716e-05
-1.3092762237026694e-05   -7.736110766895813e-06   -3.122101139691716e-05
-1.3092762237026694e-05   -7.736110766895813e-06   -3.122101139691716e-05
-1.3092762237026694e-05   -7.736110766895813e-06   -3.122101139691716e-05
-1.234278848382457e-05   -1.512157072678386e-06   -5.429162080379979e-06
-1.234278848382457e-05   -1.512157072678386e-06   -5.429162080379979e-06
-1.234278848382457e-05   -1.512157072678386e-06   -5.429162080379979e-06
-1.234278848382457e-05   -1.512157072678386e-06   -5.429162080379979e-06
2.4647646852879592e-06   -7.90275838203269e-06   -2.627405657662148e-05
2.4647646852879592e-06   -7.90275838203269e-06   -2.627405657662148e-05
2.4647646852879592e-06   -7.90275838203269e-06   -2.627405657662148e-05
2.4647646852879592e-06   -7.90275838203269e-06   -2.627405657662148e-05
-5.075240708622439e-06   -4.360189077681591e-06   -1.5832922502714863e-05
-5.075240708622439e-06   -4.360189077681591e-06   -1.5832922502714863e-05
-5.075240708622439e-06   -4.360189077681591e-06   -1.5832922502714863e-05
-5.075240708622439e-06   -4.360189077681591e-06   -1.5832922502714863e-05
2.4647646852879592e-06   -1.512157072678386e-06   -1.5948012947672452e-06
2.4647646852879592e-06   -1.512157072678386e-06   -1.5948012947672452e-06
2.4647646852879592e-06   -1.512157072678386e-06   -1.5948012947672452e-06
2.4647646852879592e-06   -1.512157072678386e-06   -1.5948012947672452e-06
-1.234278848382459e-05   -7.90275838203269e-06   -3.0108417362234227e-05
-1.234278848382459e-05   -7.90275838203269e-06   -3.0108417362234227e-05
-1.234278848382459e-05   -7.90275838203269e-06   -3.0108417362234227e-05
-1.234278848382459e-05   -7.90275838203269e-06   -3.0108417362234227e-05
-1.1695776588489352e-05   -1.2175839767998315e-06   -5.061552109185841e-06
-1.1695776588489352e-05   -1.2175839767998315e-06   -5.061552109185841e-06
-1.1695776588489352e-05   -1.2175839767998315e-06   -5.061552109185841e-06
-1.1695776588489352e-05   -1.2175839767998315e-06   -5.061552109185841e-06
2.898902264120715e-06   -7.860432764300032e-06   -2.5400307591036078e-05
2.898902264120715e-06   -7.860432764300032e-06   -2.5400307591036078e-05
2.898902264120715e-06   -7.860432764300032e-06   -2.5400307591036078e-05
2.898902264120715e-06   -7.860432764300032e-06   -2.5400307591036078e-05
-4.54303303340451e-06   -4.455143198410592e-06   -1.5040255834694214e-05
-4.54303303340451e-06   -4.455143198410592e-06   -1.5040255834694214e-05
-4.54303303340451e-06   -4.455143198410592e-06   -1.5040255834694214e-05
-4.54303303340451e-06   -4.455143198410592e-06   -1.5040255834694214e-05
2.898902264120715e-06   -1.2175839768000483e-06   -1.075842836685873e-06
2.898902264120715e-06   -1.2175839768000483e-06   -1.075842836685873e-06
2.898902264120715e-06   -1.2175839768000483e-06   -1.075842836685873e-06
2.898902264120715e-06   -1.2175839768000483e-06   -1.075842836685873e-06
-1.1695776588489386e-05   -7.860432764300032e-06   -2.938601686353602e-05
-1.1695776588489386e-05   -7.860432764300032e-06   -2.938601686353602e-05
-1.1695776588489386e-05   -7.860432764300032e-06   -2.938601686353602e-05
-1.1695776588489386e-05   -7.860432764300032e-06   -2.938601686353602e-05
-1.0578978571222772e-05   -9.37780438792701e-07   -5.04128799963218e-06
-1.0578978571222772e-05   -9.37780438792701e-07   -5.04128799963218e-06
-1.0578978571222772e-05   -9.37780438792701e-07   -5.04128799963218e-06
-1.0578978571222772e-05   -9.37780438792701e-07   -5.04128799963218e-06
3.5474373424767663e-06   -7.578531972778817e-06   -2.460086360207321e-05
3.5474373424767663e-06   -7.578531972778817e-06   -2.460086360207321e-05
3.5474373424767663e-06   -7.578531972778817e-06   -2.460086360207321e-05
3.5474373424767663e-06   -7.578531972778817e-06   -2.460086360207321e-05
-3.851116715517934e-06   -4.351446060343704e-06   -1.4206191719543133e-05
-3.851116715517934e-06   -4.351446060343704e-06   -1.4206191719543133e-05
-3.851116715517934e-06   -4.351446060343704e-06   -1.4206191719543133e-05
-3.851116715517934e-06   -4.351446060343704e-06   -1.4206191719543133e-05
-1.3092762237026667e-05   5.064120298544066e-07   -3.490434525461818e-06
-1.3092762237026667e-05   5.064120298544066e-07   -3.490434525461818e-06
-1.3092762237026667e-05   5.064120298544066e-07   -3.490434525461818e-06
-1.3092762237026667e-05   5.064120298544066e-07   -3.490434525461818e-06
-2.9890555054566837e-05   -9.590790267009893e-06   -3.7545077266147304e-05
-2.9890555054566837e-05   -9.590790267009893e-06   -3.7545077266147304e-05
-2.9890555054566837e-05   -9.590790267009893e-06   -3.7545077266147304e-05
-2.9890555054566837e-05   -9.590790267009893e-06   -3.7545077266147304e-05
-2.8990552231052077e-05   8.556058876975619e-07   -9.249979028979867e-06
-2.8990552231052077e-05   8.556058876975619e-07   -9.249979028979867e-06
-2.8990552231052077e-05   8.556058876975619e-07   -9.249979028979867e-06
-2.8990552231052077e-05   8.556058876975619e-07   -9.249979028979867e-06
-1.234278848382457e-05   -1.0731519361888717e-05   -3.0043976791273934e-05
-1.234278848382457e-05   -1.0731519361888717e-05   -3.0043976791273934e-05
-1.234278848382457e-05   -1.0731519361888717e-05   -3.0043976791273934e-05
-1.234278848382457e-05   -1.0731519361888717e-05   -3.0043976791273934e-05
-2.0778858183327248e-05   -4.848608823911863e-06   -1.9513606948222395e-05
-2.0778858183327248e-05   -4.848608823911863e-06   -1.9513606948222395e-05
-2.0778858183327248e-05   -4.848608823911863e-06   -1.9513606948222395e-05
-2.0778858183327248e-05   -4.848608823911863e-06   -1.9513606948222395e-05
-1.234278848382457e-05   8.556058876975619e-07   -2.2977038792281867e-06
-1.234278848382457e-05   8.556058876975619e-07   -2.2977038792281867e-06
-1.234278848382457e-05   8.556058876975619e-07   -2.2977038792281867e-06
-1.234278848382457e-05   8.556058876975619e-07   -2.2977038792281867e-06
-2.8990552231052077e-05   -1.0731519361888717e-05   -3.6996251941025736e-05
-2.8990552231052077e-05   -1.0731519361888717e-05   -3.6996251941025736e-05
-2.8990552231052077e-05   -1.0731519361888717e-05   -3.6996251941025736e-05
-2.8990552231052077e-05   -1.0731519361888717e-05   -3.6996251941025736e-05
-2.8128301632318155e-05   1.1765823570123075e-06   -8.234599366961528e-06
-2.8128301632318155e-05   1.1765823570123075e-06   -8.234599366961528e-06
-2.8128301632318155e-05   1.1765823570123075e-06   -8.234599366961528e-06
-2.8128301632318155e-05   1.1765823570123075e-06   -8.234599366961528e-06
-1.1695776588489366e-05   -1.0785976380597818e-05   -2.8444605864110157e-05
-1.1695776588489366e-05   -1.0785976380597818e-05   -2.8444605864110157e-05
-1.1695776588489366e-05   -1.0785976380597818e-05   -2.8444605864110157e-05
-1.1695776588489366e-05   -1.0785976380597818e-05   -2.8444605864110157e-05
-1.9901163204783568e-05   -4.860157265444351e-06   -1.8324452972711758e-05
-1.9901163204783568e-05   -4.860157265444351e-06   -1.8324452972711758e-05
-1.9901163204783568e-05   -4.860157265444351e-06   -1.8324452972711758e-05
-1.9901163204783568e-05   -4.860157265444351e-06   -1.8324452972711758e-05
-1.1695776588489352e-05   1.1765823570123075e-06   -1.0570641243954097e-06
-1.1695776588489352e-05   1.1765823570123075e-06   -1.0570641243954097e-06
-1.1695776588489352e-05   1.1765823570123075e-06   -1.0570641243954097e-06
-1.1695776588489352e-05   1.1765823570123075e-06   -1.0570641243954097e-06
-2.8128301632318202e-05   -1.0785976380597818e-05   -3.5622141106676276e-05
-2.8128301632318202e-05   -1.0785976380597818e-05   -3.5622141106676276e-05
-2.8128301632318202e-05   -1.0785976380597818e-05   -3.5622141106676276e-05
-2.8128301632318202e-05   -1.0785976380597818e-05   -3.5622141106676276e-05
-2.6711630047131507e-05   1.4470693459173699e-06   -7.204428329773906e-06
-2.6711630047131507e-05   1.4470693459173699e-06   -7.204428329773906e-06
-2.6711630047131507e-05   1.4470693459173699e-06   -7.204428329773906e-06
-2.6711630047131507e-05   1.4470693459173699e-06   -7.204428329773906e-06
-1.0578978571222805e-05   -9.81109819530191e-06   -2.7337280264890396e-05
-1.0578978571222805e-05   -9.81109819530191e-06   -2.7337280264890396e-05
-1.0578978571222805e-05   -9.81109819530191e-06   -2.7337280264890396e-05
-1.0578978571222805e-05   -9.81109819530191e-06   -2.7337280264890396e-05
-1.9038600216837495e-05   -4.2695973779419225e-06   -1.6562811345947968e-05
-1.9038600216837495e-05   -4.2695973779419225e-06   -1.6562811345947968e-05
-1.9038600216837495e-05   -4.2695973779419225e-06   -1.6562811345947968e-05
-1.9038600216837495e-05   -4.2695973779419225e-06   -1.6562811345947968e-05
-2.9890555054566837e-05   4.301178693340247e-06   -6.2595086583476425e-06
-2.9890555054566837e-05   4.301178693340247e-06   -6.2595086583476425e-06
-2.9890555054566837e-05   4.301178693340247e-06   -6.2595086583476425e-06
-2.9890555054566837e-05   4.301178693340247e-06   -6.2595086583476425e-06
-5.134009794571463e-05   0.0   -4.458945402626487e-05
-5.134009794571463e-05   0.0   -4.458945402626487e-05
-5.134009794571463e-05   0.0   -4.458945402626487e-05
-5.134009794571463e-05   0.0   -4.458945402626487e-05
-5.002723988690756e-05   5.425298037467193e-06   -4.765690273943147e-06
-5.002723988690756e-05   5.425298037467193e-06   -4.765690273943147e-06
-5.002723988690756e-05   5.425298037467193e-06   -4.765690273943147e-06
-5.002723988690756e-05   5.425298037467193e-06   -4.765690273943147e-06
-2.8990552231052026e-05   0.0   -3.657165754455525e-05
-2.8990552231052026e-05   0.0   -3.657165754455525e-05
-2.8990552231052026e-05   0.0   -3.657165754455525e-05
-2.8990552231052026e-05   0.0   -3.657165754455525e-05
-3.836103232033979e-05   1.6695727124145347e-06   -2.195593435652454e-05
-3.836103232033979e-05   1.6695727124145347e-06   -2.195593435652454e-05
-3.836103232033979e-05   1.6695727124145347e-06   -2.195593435652454e-05
-3.836103232033979e-05   1.6695727124145347e-06   -2.195593435652454e-05
-2.8990552231052053e-05   5.425298037467193e-06   -1.5105114514628098e-06
-2.8990552231052053e-05   5.425298037467193e-06   -1.5105114514628098e-06
-2.8990552231052053e-05   5.425298037467193e-06   -1.5105114514628098e-06
-2.8990552231052053e-05   5.425298037467193e-06   -1.5105114514628098e-06
-5.002723988690747e-05   0.0   -3.98268363670356e-05
-5.002723988690747e-05   0.0   -3.98268363670356e-05
-5.002723988690747e-05   0.0   -3.98268363670356e-05
-5.002723988690747e-05   0.0   -3.98268363670356e-05
-4.8914046153745925e-05   5.67882467409405e-06   -1.778511887525337e-06
-4.8914046153745925e-05   5.67882467409405e-06   -1.778511887525337e-06
-4.8914046153745925e-05   5.67882467409405e-06   -1.778511887525337e-06
-4.8914046153745925e-05   5.67882467409405e-06   -1.778511887525337e-06
-2.8128301632318202e-05   0.0   -3.301412461878192e-05
-2.8128301632318202e-05   0.0   -3.301412461878192e-05
-2.8128301632318202e-05   0.0   -3.301412461878192e-05
-2.8128301632318202e-05   0.0   -3.301412461878192e-05
-3.798074292719851e-05   2.6299602557272334e-06   -1.817136528075062e-05
-3.798074292719851e-05   2.6299602557272334e-06   -1.817136528075062e-05
-3.798074292719851e-05   2.6299602557272334e-06   -1.817136528075062e-05
-3.798074292719851e-05   2.6299602557272334e-06   -1.817136528075062e-05
-2.8128301632318202e-05   5.67882467409405e-06   1.6287829169309848e-06
-2.8128301632318202e-05   5.67882467409405e-06   1.6287829169309848e-06
-2.8128301632318202e-05   5.67882467409405e-06   1.6287829169309848e-06
-2.8128301632318202e-05   5.67882467409405e-06   1.6287829169309848e-06
-4.891404615374584e-05   0.0   -3.642141942323824e-05
-4.891404615374584e-05   0.0   -3.642141942323824e-05
-4.891404615374584e-05   0.0   -3.642141942323824e-05
-4.891404615374584e-05   0.0   -3.642141942323824e-05
-4.6690363046143185e-05   6.10834192613899e-06   3.038638239698417e-06
-4.6690363046143185e-05   6.10834192613899e-06   3.038638239698417e-06
-4.6690363046143185e-05   6.10834192613899e-06   3.038638239698417e-06
-4.6690363046143185e-05   6.10834192613899e-06   3.038638239698417e-06
-2.6711630047131555e-05   0.0   -2.6594244936304417e-05
-2.6711630047131555e-05   0.0   -2.6594244936304417e-05
-2.6711630047131555e-05   0.0   -2.6594244936304417e-05
-2.6711630047131555e-05   0.0   -2.6594244936304417e-05
-3.6030822405878796e-05   3.2392684764452184e-06   -1.3005818757592664e-05
-3.6030822405878796e-05   3.2392684764452184e-06   -1.3005818757592664e-05
-3.6030822405878796e-05   3.2392684764452184e-06   -1.3005818757592664e-05
-3.6030822405878796e-05   3.2392684764452184e-06   -1.3005818757592664e-05
3.794825317849499e-05   -6.491726638845844e-06   2.2607107789021533e-05
3.794825317849499e-05   -6.491726638845844e-06   2.2607107789021533e-05
3.794825317849499e-05   -6.491726638845844e-06   2.2607107789021533e-05
3.794825317849499e-05   -6.491726638845844e-06   2.2607107789021533e-05
1.965989476213775e-05   -5.024777672501439e-06   -6.993320191767366e-06
1.965989476213775e-05   -5.024777672501439e-06   -6.993320191767366e-06
1.965989476213775e-05   -5.024777672501439e-06   -6.993320191767366e-06
1.965989476213775e-05   -5.024777672501439e-06   -6.993320191767366e-06
1.9171206519246985e-05   -6.6541997203681e-06   1.9940151007447624e-05
1.9171206519246985e-05   -6.6541997203681e-06   1.9940151007447624e-05
1.9171206519246985e-05   -6.6541997203681e-06   1.9940151007447624e-05
1.9171206519246985e-05   -6.6541997203681e-06   1.9940151007447624e-05
3.7550568248001216e-05   -5.520372217628208e-06   -1.1372415042120015e-05
3.7550568248001216e-05   -5.520372217628208e-06   -1.1372415042120015e-05
3.7550568248001216e-05   -5.520372217628208e-06   -1.1372415042120015e-05
3.7550568248001216e-05   -5.520372217628208e-06   -1.1372415042120015e-05
2.7411463353897943e-05   -5.605798011548875e-06   5.577348591071201e-06
2.7411463353897943e-05   -5.605798011548875e-06   5.577348591071201e-06
2.7411463353897943e-05   -5.605798011548875e-06   5.577348591071201e-06
2.7411463353897943e-05   -5.605798011548875e-06   5.577348591071201e-06
3.7550568248001216e-05   -6.6541997203681e-06   1.9259854505803775e-05
3.7550568248001216e-05   -6.6541997203681e-06   1.9259854505803775e-05
3.7550568248001216e-05   -6.6541997203681e-06   1.9259854505803775e-05
3.7550568248001216e-05   -6.6541997203681e-06   1.9259854505803775e-05
1.9171206519246985e-05   -5.520372217628208e-06   -1.0692118540476126e-05
1.9171206519246985e-05   -5.520372217628208e-06   -1.0692118540476126e-05
1.9171206519246985e-05   -5.520372217628208e-06   -1.0692118540476126e-05
1.9171206519246985e-05   -5.520372217628208e-06   -1.0692118540476126e-05
1.8728572882251634e-05   -6.592473793999186e-06   1.7889687115672727e-05
1.8728572882251634e-05   -6.592473793999186e-06   1.7889687115672727e-05
1.8728572882251634e-05   -6.592473793999186e-06   1.7889687115672727e-05
1.8728572882251634e-05   -6.592473793999186e-06   1.7889687115672727e-05
3.708850307494427e-05   -5.564270776681462e-06   -1.3327118349205385e-05
3.708850307494427e-05   -5.564270776681462e-06   -1.3327118349205385e-05
3.708850307494427e-05   -5.564270776681462e-06   -1.3327118349205385e-05
3.708850307494427e-05   -5.564270776681462e-06   -1.3327118349205385e-05
2.7397621055937196e-05   -5.704172056766876e-06   2.9082924505242263e-06
2.7397621055937196e-05   -5.704172056766876e-06   2.9082924505242263e-06
2.7397621055937196e-05   -5.704172056766876e-06   2.9082924505242263e-06
2.7397621055937196e-05   -5.704172056766876e-06   2.9082924505242263e-06
3.7088503074944334e-05   -6.592473793999186e-06   1.7272765305282288e-05
3.7088503074944334e-05   -6.592473793999186e-06   1.7272765305282288e-05
3.7088503074944334e-05   -6.592473793999186e-06   1.7272765305282288e-05
3.7088503074944334e-05   -6.592473793999186e-06   1.7272765305282288e-05
1.8728572882251634e-05   -5.564270776681462e-06   -1.271019653881504e-05
1.8728572882251634e-05   -5.564270776681462e-06   -1.271019653881504e-05
1.8728572882251634e-05   -5.564270776681462e-06   -1.271019653881504e-05
1.8728572882251634e-05   -5.564270776681462e-06   -1.271019653881504e-05
1.8188248434830145e-05   -6.221535753371402e-06   1.4553696648096355e-05
1.8188248434830145e-05   -6.221535753371402e-06   1.4553696648096355e-05
1.8188248434830145e-05   -6.221535753371402e-06   1.4553696648096355e-05
1.8188248434830145e-05   -6.221535753371402e-06   1.4553696648096355e-05
3.636433275430102e-05   -5.442370951689321e-06   -1.6207276098697618e-05
3.636433275430102e-05   -5.442370951689321e-06   -1.6207276098697618e-05
3.636433275430102e-05   -5.442370951689321e-06   -1.6207276098697618e-05
3.636433275430102e-05   -5.442370951689321e-06   -1.6207276098697618e-05
2.646858628015526e-05   -5.423480113751333e-06   2.7430018878244616e-07
2.646858628015526e-05   -5.423480113751333e-06   2.7430018878244616e-07
2.646858628015526e-05   -5.423480113751333e-06   2.7430018878244616e-07
2.646858628015526e-05   -5.423480113751333e-06   2.7430018878244616e-07
1.965989476213775e-05   -6.459487753722069e-06   1.6853289719964758e-05
1.965989476213775e-05   -6.459487753722069e-06   1.6853289719964758e-05
1.965989476213775e-05   -6.459487753722069e-06   1.6853289719964758e-05
1.965989476213775e-05   -6.459487753722069e-06   1.6853289719964758e-05
4.1057252985385025e-06   -3.081253677569883e-06   -7.043385607009411e-06
4.1057252985385025e-06   -3.081253677569883e-06   -7.043385607009411e-06
4.1057252985385025e-06   -3.081253677569883e-06   -7.043385607009411e-06
4.1057252985385025e-06   -3.081253677569883e-06   -7.043385607009411e-06
3.3324413187416026e-06   -6.423433023410941e-06   1.9207476575163482e-05
3.3324413187416026e-06   -6.423433023410941e-06   1.9207476575163482e-05
3.3324413187416026e-06   -6.423433023410941e-06   1.9207476575163482e-05
3.3324413187416026e-06   -6.423433023410941e-06   1.9207476575163482e-05
1.9171206519246985e-05   -3.266310893120525e-06   -9.084738703852926e-06
1.9171206519246985e-05   -3.266310893120525e-06   -9.084738703852926e-06
1.9171206519246985e-05   -3.266310893120525e-06   -9.084738703852926e-06
1.9171206519246985e-05   -3.266310893120525e-06   -9.084738703852926e-06
1.1550013466988141e-05   -4.6292086385356195e-06   4.4349883638273506e-06
1.1550013466988141e-05   -4.6292086385356195e-06   4.4349883638273506e-06
1.1550013466988141e-05   -4.6292086385356195e-06   4.4349883638273506e-06
1.1550013466988141e-05   -4.6292086385356195e-06   4.4349883638273506e-06
1.9171206519247e-05   -6.423433023410941e-06   1.7313203296989298e-05
1.9171206519247e-05   -6.423433023410941e-06   1.7313203296989298e-05
1.9171206519247e-05   -6.423433023410941e-06   1.7313203296989298e-05
1.9171206519247e-05   -6.423433023410941e-06   1.7313203296989298e-05
3.3324413187416026e-06   -3.266310893120525e-06   -7.190465425678809e-06
3.3324413187416026e-06   -3.266310893120525e-06   -7.190465425678809e-06
3.3324413187416026e-06   -3.266310893120525e-06   -7.190465425678809e-06
3.3324413187416026e-06   -3.266310893120525e-06   -7.190465425678809e-06
2.7801004887029814e-06   -6.33327989548447e-06   1.9225880747393738e-05
2.7801004887029814e-06   -6.33327989548447e-06   1.9225880747393738e-05
2.7801004887029814e-06   -6.33327989548447e-06   1.9225880747393738e-05
2.7801004887029814e-06   -6.33327989548447e-06   1.9225880747393738e-05
1.8728572882251634e-05   -3.346319002696862e-06   -9.147083110860044e-06
1.8728572882251634e-05   -3.346319002696862e-06   -9.147083110860044e-06
1.8728572882251634e-05   -3.346319002696862e-06   -9.147083110860044e-06
1.8728572882251634e-05   -3.346319002696862e-06   -9.147083110860044e-06
1.0884993436737766e-05   -4.532625064007081e-06   4.637332935116369e-06
1.0884993436737766e-05   -4.532625064007081e-06   4.637332935116369e-06
1.0884993436737766e-05   -4.532625064007081e-06   4.637332935116369e-06
1.0884993436737766e-05   -4.532625064007081e-06   4.637332935116369e-06
1.8728572882251668e-05   -6.33327989548447e-06   1.7433704211721238e-05
1.8728572882251668e-05   -6.33327989548447e-06   1.7433704211721238e-05
1.8728572882251668e-05   -6.33327989548447e-06   1.7433704211721238e-05
1.8728572882251668e-05   -6.33327989548447e-06   1.7433704211721238e-05
2.7801004887029814e-06   -3.346319002696862e-06   -7.354906575187314e-06
2.7801004887029814e-06   -3.346319002696862e-06   -7.354906575187314e-06
2.7801004887029814e-06   -3.346319002696862e-06   -7.354906575187314e-06
2.7801004887029814e-06   -3.346319002696862e-06   -7.354906575187314e-06
2.16604683107515e-06   -6.155715944240617e-06   1.9839594353584155e-05
2.16604683107515e-06   -6.155715944240617e-06   1.9839594353584155e-05
2.16604683107515e-06   -6.155715944240617e-06   1.9839594353584155e-05
2.16604683107515e-06   -6.155715944240617e-06   1.9839594353584155e-05
1.8188248434830124e-05   -3.2668038137343564e-06   -8.597422264311217e-06
1.8188248434830124e-05   -3.2668038137343564e-06   -8.597422264311217e-06
1.8188248434830124e-05   -3.2668038137343564e-06   -8.597422264311217e-06
1.8188248434830124e-05   -3.2668038137343564e-06   -8.597422264311217e-06
1.0480080381272166e-05   -4.330618703334314e-06   4.88781342537878e-06
1.0480080381272166e-05   -4.330618703334314e-06   4.88781342537878e-06
1.0480080381272166e-05   -4.330618703334314e-06   4.88781342537878e-06
1.0480080381272166e-05   -4.330618703334314e-06   4.88781342537878e-06
4.105725298538516e-06   -7.736110766895813e-06   1.7307226217429706e-05
4.105725298538516e-06   -7.736110766895813e-06   1.7307226217429706e-05
4.105725298538516e-06   -7.736110766895813e-06   1.7307226217429706e-05
4.105725298538516e-06   -7.736110766895813e-06   1.7307226217429706e-05
-1.0841884166175123e-05   -1.256033347922991e-06   -3.71740977237584e-06
-1.0841884166175123e-05   -1.256033347922991e-06   -3.71740977237584e-06
-1.0841884166175123e-05   -1.256033347922991e-06   -3.71740977237584e-06
-1.0841884166175123e-05   -1.256033347922991e-06   -3.71740977237584e-06
-1.2044138921316198e-05   -7.90275838203269e-06   2.219747717176917e-05
-1.2044138921316198e-05   -7.90275838203269e-06   2.219747717176917e-05
-1.2044138921316198e-05   -7.90275838203269e-06   2.219747717176917e-05
-1.2044138921316198e-05   -7.90275838203269e-06   2.219747717176917e-05
3.332441318741616e-06   -1.3250432556377242e-06   -7.376785637497663e-06
3.332441318741616e-06   -1.3250432556377242e-06   -7.376785637497663e-06
3.332441318741616e-06   -1.3250432556377242e-06   -7.376785637497663e-06
3.332441318741616e-06   -1.3250432556377242e-06   -7.376785637497663e-06
-3.730448744141926e-06   -4.407442299311868e-06   6.244137226846236e-06
-3.730448744141926e-06   -4.407442299311868e-06   6.244137226846236e-06
-3.730448744141926e-06   -4.407442299311868e-06   6.244137226846236e-06
-3.730448744141926e-06   -4.407442299311868e-06   6.244137226846236e-06
3.3324413187416026e-06   -7.90275838203269e-06   1.825084809593206e-05
3.3324413187416026e-06   -7.90275838203269e-06   1.825084809593206e-05
3.3324413187416026e-06   -7.90275838203269e-06   1.825084809593206e-05
3.3324413187416026e-06   -7.90275838203269e-06   1.825084809593206e-05
-1.2044138921316184e-05   -1.3250432556377242e-06   -3.430156561660567e-06
-1.2044138921316184e-05   -1.3250432556377242e-06   -3.430156561660567e-06
-1.2044138921316184e-05   -1.3250432556377242e-06   -3.430156561660567e-06
-1.2044138921316184e-05   -1.3250432556377242e-06   -3.430156561660567e-06
-1.2780465755860701e-05   -7.860432764300032e-06   2.3037969132849874e-05
-1.2780465755860701e-05   -7.860432764300032e-06   2.3037969132849874e-05
-1.2780465755860701e-05   -7.860432764300032e-06   2.3037969132849874e-05
-1.2780465755860701e-05   -7.860432764300032e-06   2.3037969132849874e-05
2.7801004887029814e-06   -1.4101832325134466e-06   -6.766457660494865e-06
2.7801004887029814e-06   -1.4101832325134466e-06   -6.766457660494865e-06
2.7801004887029814e-06   -1.4101832325134466e-06   -6.766457660494865e-06
2.7801004887029814e-06   -1.4101832325134466e-06   -6.766457660494865e-06
-4.545102142112119e-06   -4.38930047697776e-06   7.2296837375422055e-06
-4.545102142112119e-06   -4.38930047697776e-06   7.2296837375422055e-06
-4.545102142112119e-06   -4.38930047697776e-06   7.2296837375422055e-06
-4.545102142112119e-06   -4.38930047697776e-06   7.2296837375422055e-06
2.780100488702968e-06   -7.860432764299815e-06   1.916781941377777e-05
2.780100488702968e-06   -7.860432764299815e-06   1.916781941377777e-05
2.780100488702968e-06   -7.860432764299815e-06   1.916781941377777e-05
2.780100488702968e-06   -7.860432764299815e-06   1.916781941377777e-05
-1.2780465755860674e-05   -1.4101832325134466e-06   -2.8963079414229655e-06
-1.2780465755860674e-05   -1.4101832325134466e-06   -2.8963079414229655e-06
-1.2780465755860674e-05   -1.4101832325134466e-06   -2.8963079414229655e-06
-1.2780465755860674e-05   -1.4101832325134466e-06   -2.8963079414229655e-06
-1.3644704911832065e-05   -7.578531972778817e-06   2.4123768251126804e-05
-1.3644704911832065e-05   -7.578531972778817e-06   2.4123768251126804e-05
-1.3644704911832065e-05   -7.578531972778817e-06   2.4123768251126804e-05
-1.3644704911832065e-05   -7.578531972778817e-06   2.4123768251126804e-05
2.16604683107515e-06   -1.3985976035123596e-06   -5.935445275278349e-06
2.16604683107515e-06   -1.3985976035123596e-06   -5.935445275278349e-06
2.16604683107515e-06   -1.3985976035123596e-06   -5.935445275278349e-06
2.16604683107515e-06   -1.3985976035123596e-06   -5.935445275278349e-06
-5.209249304076153e-06   -4.209116413771662e-06   8.04302623612943e-06
-5.209249304076153e-06   -4.209116413771662e-06   8.04302623612943e-06
-5.209249304076153e-06   -4.209116413771662e-06   8.04302623612943e-06
-5.209249304076153e-06   -4.209116413771662e-06   8.04302623612943e-06
-1.0841884166175137e-05   -9.590790267009893e-06   2.092952817770203e-05
-1.0841884166175137e-05   -9.590790267009893e-06   2.092952817770203e-05
-1.0841884166175137e-05   -9.590790267009893e-06   2.092952817770203e-05
-1.0841884166175137e-05   -9.590790267009893e-06   2.092952817770203e-05
-2.7818680567053312e-05   1.4639775755950681e-06   -7.322717848652627e-07
-2.7818680567053312e-05   1.4639775755950681e-06   -7.322717848652627e-07
-2.7818680567053312e-05   1.4639775755950681e-06   -7.322717848652627e-07
-2.7818680567053312e-05   1.4639775755950681e-06   -7.322717848652627e-07
-2.926900658563086e-05   -1.0731519361888717e-05   2.9532946346662683e-05
-2.926900658563086e-05   -1.0731519361888717e-05   2.9532946346662683e-05
-2.926900658563086e-05   -1.0731519361888717e-05   2.9532946346662683e-05
-2.926900658563086e-05   -1.0731519361888717e-05   2.9532946346662683e-05
-1.2044138921316184e-05   1.3868616446669965e-06   -6.446195031128467e-06
-1.2044138921316184e-05   1.3868616446669965e-06   -6.446195031128467e-06
-1.2044138921316184e-05   1.3868616446669965e-06   -6.446195031128467e-06
-1.2044138921316184e-05   1.3868616446669965e-06   -6.446195031128467e-06
-1.9717631790034573e-05   -3.930010745505476e-06   9.53308318417227e-06
-1.9717631790034573e-05   -3.930010745505476e-06   9.53308318417227e-06
-1.9717631790034573e-05   -3.930010745505476e-06   9.53308318417227e-06
-1.9717631790034573e-05   -3.930010745505476e-06   9.53308318417227e-06
-1.2044138921316198e-05   -1.0731519361888717e-05   2.226191774272934e-05
-1.2044138921316198e-05   -1.0731519361888717e-05   2.226191774272934e-05
-1.2044138921316198e-05   -1.0731519361888717e-05   2.226191774272934e-05
-1.2044138921316198e-05   -1.0731519361888717e-05   2.226191774272934e-05
-2.926900658563086e-05   1.3868616446669965e-06   8.24833572804929e-07
-2.926900658563086e-05   1.3868616446669965e-06   8.24833572804929e-07
-2.926900658563086e-05   1.3868616446669965e-06   8.24833572804929e-07
-2.926900658563086e-05   1.3868616446669965e-06   8.24833572804929e-07
-3.0151882742016003e-05   -1.0785976380597818e-05   3.119350762220078e-05
-3.0151882742016003e-05   -1.0785976380597818e-05   3.119350762220078e-05
-3.0151882742016003e-05   -1.0785976380597818e-05   3.119350762220078e-05
-3.0151882742016003e-05   -1.0785976380597818e-05   3.119350762220078e-05
-1.2780465755860674e-05   1.2375694359437802e-06   -4.972981511316415e-06
-1.2780465755860674e-05   1.2375694359437802e-06   -4.972981511316415e-06
-1.2780465755860674e-05   1.2375694359437802e-06   -4.972981511316415e-06
-1.2780465755860674e-05   1.2375694359437802e-06   -4.972981511316415e-06
-2.065600962667894e-05   -4.543537429981242e-06   1.1621589059602436e-05
-2.065600962667894e-05   -4.543537429981242e-06   1.1621589059602436e-05
-2.065600962667894e-05   -4.543537429981242e-06   1.1621589059602436e-05
-2.065600962667894e-05   -4.543537429981242e-06   1.1621589059602436e-05
-1.2780465755860667e-05   -1.0785976380597818e-05   2.3979380132275736e-05
-1.2780465755860667e-05   -1.0785976380597818e-05   2.3979380132275736e-05
-1.2780465755860667e-05   -1.0785976380597818e-05   2.3979380132275736e-05
-1.2780465755860667e-05   -1.0785976380597818e-05   2.3979380132275736e-05
-3.0151882742015955e-05   1.2375694359437802e-06   2.24114597860859e-06
-3.0151882742015955e-05   1.2375694359437802e-06   2.24114597860859e-06
-3.0151882742015955e-05   1.2375694359437802e-06   2.24114597860859e-06
-3.0151882742015955e-05   1.2375694359437802e-06   2.24114597860859e-06
-3.11044269622211e-05   -9.81109819530191e-06   3.189902753396225e-05
-3.11044269622211e-05   -9.81109819530191e-06   3.189902753396225e-05
-3.11044269622211e-05   -9.81109819530191e-06   3.189902753396225e-05
-3.11044269622211e-05   -9.81109819530191e-06   3.189902753396225e-05
-1.364470491183201e-05   1.067610180132978e-06   -3.7277342419470547e-06
-1.364470491183201e-05   1.067610180132978e-06   -3.7277342419470547e-06
-1.364470491183201e-05   1.067610180132978e-06   -3.7277342419470547e-06
-1.364470491183201e-05   1.067610180132978e-06   -3.7277342419470547e-06
-2.1627406474107873e-05   -4.573941911358275e-06   1.296169961674114e-05
-2.1627406474107873e-05   -4.573941911358275e-06   1.296169961674114e-05
-2.1627406474107873e-05   -4.573941911358275e-06   1.296169961674114e-05
-2.1627406474107873e-05   -4.573941911358275e-06   1.296169961674114e-05
-2.7818680567053217e-05   0.0   2.3098719339151438e-05
-2.7818680567053217e-05   0.0   2.3098719339151438e-05
-2.7818680567053217e-05   0.0   2.3098719339151438e-05
-2.7818680567053217e-05   0.0   2.3098719339151438e-05
-4.886232907992229e-05   6.422053690122512e-06   -8.12079596822354e-06
-4.886232907992229e-05   6.422053690122512e-06   -8.12079596822354e-06
-4.886232907992229e-05   6.422053690122512e-06   -8.12079596822354e-06
-4.886232907992229e-05   6.422053690122512e-06   -8.12079596822354e-06
-5.085192704469003e-05   0.0   3.368410371928357e-05
-5.085192704469003e-05   0.0   3.368410371928357e-05
-5.085192704469003e-05   0.0   3.368410371928357e-05
-5.085192704469003e-05   0.0   3.368410371928357e-05
-2.9269006585630804e-05   6.210938293584522e-06   -6.013993355299301e-06
-2.9269006585630804e-05   6.210938293584522e-06   -6.013993355299301e-06
-2.9269006585630804e-05   6.210938293584522e-06   -6.013993355299301e-06
-2.9269006585630804e-05   6.210938293584522e-06   -6.013993355299301e-06
-3.753101103782811e-05   3.809229294433501e-06   9.197039464520153e-06
-3.753101103782811e-05   3.809229294433501e-06   9.197039464520153e-06
-3.753101103782811e-05   3.809229294433501e-06   9.197039464520153e-06
-3.753101103782811e-05   3.809229294433501e-06   9.197039464520153e-06
-2.9269006585630777e-05   0.0   2.9957540743132832e-05
-2.9269006585630777e-05   0.0   2.9957540743132832e-05
-2.9269006585630777e-05   0.0   2.9957540743132832e-05
-2.9269006585630777e-05   0.0   2.9957540743132832e-05
-5.0851927044690116e-05   6.210938293584522e-06   -2.287430379148566e-06
-5.0851927044690116e-05   6.210938293584522e-06   -2.287430379148566e-06
-5.0851927044690116e-05   6.210938293584522e-06   -2.287430379148566e-06
-5.0851927044690116e-05   6.210938293584522e-06   -2.287430379148566e-06
-5.185265499986079e-05   0.0   3.743533347057553e-05
-5.185265499986079e-05   0.0   3.743533347057553e-05
-5.185265499986079e-05   0.0   3.743533347057553e-05
-5.185265499986079e-05   0.0   3.743533347057553e-05
-3.0151882742015955e-05   6.056348934134568e-06   -2.3664296529799666e-06
-3.0151882742015955e-05   6.056348934134568e-06   -2.3664296529799666e-06
-3.0151882742015955e-05   6.056348934134568e-06   -2.3664296529799666e-06
-3.0151882742015955e-05   6.056348934134568e-06   -2.3664296529799666e-06
-3.9463802960331477e-05   3.1841944050513445e-06   1.4876730094996163e-05
-3.9463802960331477e-05   3.1841944050513445e-06   1.4876730094996163e-05
-3.9463802960331477e-05   3.1841944050513445e-06   1.4876730094996163e-05
-3.9463802960331477e-05   3.1841944050513445e-06   1.4876730094996163e-05
-3.0151882742015955e-05   0.0   3.380152411009492e-05
-3.0151882742015955e-05   0.0   3.380152411009492e-05
-3.0151882742015955e-05   0.0   3.380152411009492e-05
-3.0151882742015955e-05   0.0   3.380152411009492e-05
-5.185265499986096e-05   6.056348934134568e-06   1.267379707500793e-06
-5.185265499986096e-05   6.056348934134568e-06   1.267379707500793e-06
-5.185265499986096e-05   6.056348934134568e-06   1.267379707500793e-06
-5.185265499986096e-05   6.056348934134568e-06   1.267379707500793e-06
-5.296205991686479e-05   0.0   4.2434933241704016e-05
-5.296205991686479e-05   0.0   4.2434933241704016e-05
-5.296205991686479e-05   0.0   4.2434933241704016e-05
-5.296205991686479e-05   0.0   4.2434933241704016e-05
-3.11044269622211e-05   5.063283090707372e-06   2.967575129540049e-06
-3.11044269622211e-05   5.063283090707372e-06   2.967575129540049e-06
-3.11044269622211e-05   5.063283090707372e-06   2.967575129540049e-06
-3.11044269622211e-05   5.063283090707372e-06   2.967575129540049e-06
-3.97749556348805e-05   2.2444640136744763e-06   1.910974769685881e-05
-3.97749556348805e-05   2.2444640136744763e-06   1.910974769685881e-05
-3.97749556348805e-05   2.2444640136744763e-06   1.910974769685881e-05
-3.97749556348805e-05   2.2444640136744763e-06   1.910974769685881e-05
3.347513207388822e-05   -5.024777672501656e-06   2.368032872311534e-05
3.347513207388822e-05   -5.024777672501656e-06   2.368032872311534e-05
3.347513207388822e-05   -5.024777672501656e-06   2.368032872311534e-05
3.347513207388822e-05   -5.024777672501656e-06   2.368032872311534e-05
1.690999017265931e-05   -3.8080833179390296e-06   -3.1982244995286055e-06
1.690999017265931e-05   -3.8080833179390296e-06   -3.1982244995286055e-06
1.690999017265931e-05   -3.8080833179390296e-06   -3.1982244995286055e-06
1.690999017265931e-05   -3.8080833179390296e-06   -3.1982244995286055e-06
1.6469436179521722e-05   -5.520372217627991e-06   2.0650943385691926e-05
1.6469436179521722e-05   -5.520372217627991e-06   2.0650943385691926e-05
1.6469436179521722e-05   -5.520372217627991e-06   2.0650943385691926e-05
1.6469436179521722e-05   -5.520372217627991e-06   2.0650943385691926e-05
3.269107841555412e-05   -4.311101948296925e-06   -7.1106891692940114e-06
3.269107841555412e-05   -4.311101948296925e-06   -7.1106891692940114e-06
3.269107841555412e-05   -4.311101948296925e-06   -7.1106891692940114e-06
3.269107841555412e-05   -4.311101948296925e-06   -7.1106891692940114e-06
2.3778515975533446e-05   -4.481040084107881e-06   7.84554444556028e-06
2.3778515975533446e-05   -4.481040084107881e-06   7.84554444556028e-06
2.3778515975533446e-05   -4.481040084107881e-06   7.84554444556028e-06
2.3778515975533446e-05   -4.481040084107881e-06   7.84554444556028e-06
3.269107841555407e-05   -5.520372217627991e-06   1.9925381224093265e-05
3.269107841555407e-05   -5.520372217627991e-06   1.9925381224093265e-05
3.269107841555407e-05   -5.520372217627991e-06   1.9925381224093265e-05
3.269107841555407e-05   -5.520372217627991e-06   1.9925381224093265e-05
1.646943617952175e-05   -4.311101948296925e-06   -6.385127007695404e-06
1.646943617952175e-05   -4.311101948296925e-06   -6.385127007695404e-06
1.646943617952175e-05   -4.311101948296925e-06   -6.385127007695404e-06
1.646943617952175e-05   -4.311101948296925e-06   -6.385127007695404e-06
1.5901866831182147e-05   -5.564270776681462e-06   1.852472102673898e-05
1.5901866831182147e-05   -5.564270776681462e-06   1.852472102673898e-05
1.5901866831182147e-05   -5.564270776681462e-06   1.852472102673898e-05
1.5901866831182147e-05   -5.564270776681462e-06   1.852472102673898e-05
3.1896946286509256e-05   -4.3846896756736305e-06   -8.841493392744384e-06
3.1896946286509256e-05   -4.3846896756736305e-06   -8.841493392744384e-06
3.1896946286509256e-05   -4.3846896756736305e-06   -8.841493392744384e-06
3.1896946286509256e-05   -4.3846896756736305e-06   -8.841493392744384e-06
2.3564238882209657e-05   -4.6755557139544456e-06   5.220871904056666e-06
2.3564238882209657e-05   -4.6755557139544456e-06   5.220871904056666e-06
2.3564238882209657e-05   -4.6755557139544456e-06   5.220871904056666e-06
2.3564238882209657e-05   -4.6755557139544456e-06   5.220871904056666e-06
3.1896946286509256e-05   -5.564270776681462e-06   1.781697236613415e-05
3.1896946286509256e-05   -5.564270776681462e-06   1.781697236613415e-05
3.1896946286509256e-05   -5.564270776681462e-06   1.781697236613415e-05
3.1896946286509256e-05   -5.564270776681462e-06   1.781697236613415e-05
1.5901866831182147e-05   -4.3846896756736305e-06   -8.133744732139576e-06
1.5901866831182147e-05   -4.3846896756736305e-06   -8.133744732139576e-06
1.5901866831182147e-05   -4.3846896756736305e-06   -8.133744732139576e-06
1.5901866831182147e-05   -4.3846896756736305e-06   -8.133744732139576e-06
1.530595415329502e-05   -5.442370951689321e-06   1.5366380219279945e-05
1.530595415329502e-05   -5.442370951689321e-06   1.5366380219279945e-05
1.530595415329502e-05   -5.442370951689321e-06   1.5366380219279945e-05
1.530595415329502e-05   -5.442370951689321e-06   1.5366380219279945e-05
3.090250413582202e-05   -4.3517079116779395e-06   -1.1282267575605246e-05
3.090250413582202e-05   -4.3517079116779395e-06   -1.1282267575605246e-05
3.090250413582202e-05   -4.3517079116779395e-06   -1.1282267575605246e-05
3.090250413582202e-05   -4.3517079116779395e-06   -1.1282267575605246e-05
2.252358368178111e-05   -4.551407269560732e-06   2.8024194625261194e-06
2.252358368178111e-05   -4.551407269560732e-06   2.8024194625261194e-06
2.252358368178111e-05   -4.551407269560732e-06   2.8024194625261194e-06
2.252358368178111e-05   -4.551407269560732e-06   2.8024194625261194e-06
1.690999017265933e-05   -3.081253677569666e-06   2.2333339474919778e-05
1.690999017265933e-05   -3.081253677569666e-06   2.2333339474919778e-05
1.690999017265933e-05   -3.081253677569666e-06   2.2333339474919778e-05
1.690999017265933e-05   -3.081253677569666e-06   2.2333339474919778e-05
1.8046612914574911e-06   -1.3372408866590534e-06   -1.7958009858702606e-06
1.8046612914574911e-06   -1.3372408866590534e-06   -1.7958009858702606e-06
1.8046612914574911e-06   -1.3372408866590534e-06   -1.7958009858702606e-06
1.8046612914574911e-06   -1.3372408866590534e-06   -1.7958009858702606e-06
1.366442915552352e-06   -3.266310893120525e-06   2.32542737523963e-05
1.366442915552352e-06   -3.266310893120525e-06   2.32542737523963e-05
1.366442915552352e-06   -3.266310893120525e-06   2.32542737523963e-05
1.366442915552352e-06   -3.266310893120525e-06   2.32542737523963e-05
1.646943617952175e-05   -1.6063933429854866e-06   -2.9133322176338864e-06
1.646943617952175e-05   -1.6063933429854866e-06   -2.9133322176338864e-06
1.646943617952175e-05   -1.6063933429854866e-06   -2.9133322176338864e-06
1.646943617952175e-05   -1.6063933429854866e-06   -2.9133322176338864e-06
9.049764102201214e-06   -2.160635826602055e-06   9.7853334014036e-06
9.049764102201214e-06   -2.160635826602055e-06   9.7853334014036e-06
9.049764102201214e-06   -2.160635826602055e-06   9.7853334014036e-06
9.049764102201214e-06   -2.160635826602055e-06   9.7853334014036e-06
1.646943617952173e-05   -3.266310893120525e-06   2.225832322231506e-05
1.646943617952173e-05   -3.266310893120525e-06   2.225832322231506e-05
1.646943617952173e-05   -3.266310893120525e-06   2.225832322231506e-05
1.646943617952173e-05   -3.266310893120525e-06   2.225832322231506e-05
1.366442915552352e-06   -1.6063933429854866e-06   -1.9173816875527007e-06
1.366442915552352e-06   -1.6063933429854866e-06   -1.9173816875527007e-06
1.366442915552352e-06   -1.6063933429854866e-06   -1.9173816875527007e-06
1.366442915552352e-06   -1.6063933429854866e-06   -1.9173816875527007e-06
8.076657632619376e-07   -3.346319002696862e-06   2.302684846115495e-05
8.076657632619376e-07   -3.346319002696862e-06   2.302684846115495e-05
8.076657632619376e-07   -3.346319002696862e-06   2.302684846115495e-05
8.076657632619376e-07   -3.346319002696862e-06   2.302684846115495e-05
1.5901866831182147e-05   -1.781295658595007e-06   -3.0691673251731066e-06
1.5901866831182147e-05   -1.781295658595007e-06   -3.0691673251731066e-06
1.5901866831182147e-05   -1.781295658595007e-06   -3.0691673251731066e-06
1.5901866831182147e-05   -1.781295658595007e-06   -3.0691673251731066e-06
8.493037307632991e-06   -2.2616726273231268e-06   9.567108061979326e-06
8.493037307632991e-06   -2.2616726273231268e-06   9.567108061979326e-06
8.493037307632991e-06   -2.2616726273231268e-06   9.567108061979326e-06
8.493037307632991e-06   -2.2616726273231268e-06   9.567108061979326e-06
1.5901866831182113e-05   -3.346319002696862e-06   2.208783445469388e-05
1.5901866831182113e-05   -3.346319002696862e-06   2.208783445469388e-05
1.5901866831182113e-05   -3.346319002696862e-06   2.208783445469388e-05
1.5901866831182113e-05   -3.346319002696862e-06   2.208783445469388e-05
8.076657632619376e-07   -1.781295658595007e-06   -2.130153318712037e-06
8.076657632619376e-07   -1.781295658595007e-06   -2.130153318712037e-06
8.076657632619376e-07   -1.781295658595007e-06   -2.130153318712037e-06
8.076657632619376e-07   -1.781295658595007e-06   -2.130153318712037e-06
1.9046265650992164e-07   -3.2668038137343564e-06   2.335647339890654e-05
1.9046265650992164e-07   -3.2668038137343564e-06   2.335647339890654e-05
1.9046265650992164e-07   -3.2668038137343564e-06   2.335647339890654e-05
1.9046265650992164e-07   -3.2668038137343564e-06   2.335647339890654e-05
1.5305954153295006e-05   -1.8539067699850642e-06   -2.6837506553181387e-06
1.5305954153295006e-05   -1.8539067699850642e-06   -2.6837506553181387e-06
1.5305954153295006e-05   -1.8539067699850642e-06   -2.6837506553181387e-06
1.5305954153295006e-05   -1.8539067699850642e-06   -2.6837506553181387e-06
8.042070663351633e-06   -2.2379898422201106e-06   9.653171671262205e-06
8.042070663351633e-06   -2.2379898422201106e-06   9.653171671262205e-06
8.042070663351633e-06   -2.2379898422201106e-06   9.653171671262205e-06
8.042070663351633e-06   -2.2379898422201106e-06   9.653171671262205e-06
1.8046612914574911e-06   -1.256033347922991e-06   2.281767653271598e-05
1.8046612914574911e-06   -1.256033347922991e-06   2.281767653271598e-05
1.8046612914574911e-06   -1.256033347922991e-06   2.281767653271598e-05
1.8046612914574911e-06   -1.256033347922991e-06   2.281767653271598e-05
-1.2833855178582954e-05   1.2024107957000346e-06   -1.0478443117779412e-07
-1.2833855178582954e-05   1.2024107957000346e-06   -1.0478443117779412e-07
-1.2833855178582954e-05   1.2024107957000346e-06   -1.0478443117779412e-07
-1.2833855178582954e-05   1.2024107957000346e-06   -1.0478443117779412e-07
-1.332783958925328e-05   -1.3250432556377242e-06   2.446209647458716e-05
-1.332783958925328e-05   -1.3250432556377242e-06   2.446209647458716e-05
-1.332783958925328e-05   -1.3250432556377242e-06   2.446209647458716e-05
-1.332783958925328e-05   -1.3250432556377242e-06   2.446209647458716e-05
1.366442915552352e-06   9.98528301045156e-07   -1.4225173007650503e-06
1.366442915552352e-06   9.98528301045156e-07   -1.4225173007650503e-06
1.366442915552352e-06   9.98528301045156e-07   -1.4225173007650503e-06
1.366442915552352e-06   9.98528301045156e-07   -1.4225173007650503e-06
-5.73731646932304e-06   1.238753984914194e-08   1.100876613074485e-05
-5.73731646932304e-06   1.238753984914194e-08   1.100876613074485e-05
-5.73731646932304e-06   1.238753984914194e-08   1.100876613074485e-05
-5.73731646932304e-06   1.238753984914194e-08   1.100876613074485e-05
1.366442915552352e-06   -1.3250432556377242e-06   2.306795354057754e-05
1.366442915552352e-06   -1.3250432556377242e-06   2.306795354057754e-05
1.366442915552352e-06   -1.3250432556377242e-06   2.306795354057754e-05
1.366442915552352e-06   -1.3250432556377242e-06   2.306795354057754e-05
-1.332783958925328e-05   9.985283010449392e-07   -2.837436675559319e-08
-1.332783958925328e-05   9.985283010449392e-07   -2.837436675559319e-08
-1.332783958925328e-05   9.985283010449392e-07   -2.837436675559319e-08
-1.332783958925328e-05   9.985283010449392e-07   -2.837436675559319e-08
-1.3988687494046164e-05   -1.4101832325132298e-06   2.4946659912974392e-05
-1.3988687494046164e-05   -1.4101832325132298e-06   2.4946659912974392e-05
-1.3988687494046164e-05   -1.4101832325132298e-06   2.4946659912974392e-05
-1.3988687494046164e-05   -1.4101832325132298e-06   2.4946659912974392e-05
8.076657632619376e-07   8.08754329364959e-07   -1.0452913863327339e-06
8.076657632619376e-07   8.08754329364959e-07   -1.0452913863327339e-06
8.076657632619376e-07   8.08754329364959e-07   -1.0452913863327339e-06
8.076657632619376e-07   8.08754329364959e-07   -1.0452913863327339e-06
-6.22420521505241e-06   -4.346091761822657e-08   1.1185822725714523e-05
-6.22420521505241e-06   -4.346091761822657e-08   1.1185822725714523e-05
-6.22420521505241e-06   -4.346091761822657e-08   1.1185822725714523e-05
-6.22420521505241e-06   -4.346091761822657e-08   1.1185822725714523e-05
8.076657632619376e-07   -1.4101832325134466e-06   2.3615297375847413e-05
8.076657632619376e-07   -1.4101832325134466e-06   2.3615297375847413e-05
8.076657632619376e-07   -1.4101832325134466e-06   2.3615297375847413e-05
8.076657632619376e-07   -1.4101832325134466e-06   2.3615297375847413e-05
-1.3988687494046137e-05   8.08754329364959e-07   2.860711507941902e-07
-1.3988687494046137e-05   8.08754329364959e-07   2.860711507941902e-07
-1.3988687494046137e-05   8.08754329364959e-07   2.860711507941902e-07
-1.3988687494046137e-05   8.08754329364959e-07   2.860711507941902e-07
-1.4692737442984201e-05   -1.3985976035123596e-06   2.5527814670495684e-05
-1.4692737442984201e-05   -1.3985976035123596e-06   2.5527814670495684e-05
-1.4692737442984201e-05   -1.3985976035123596e-06   2.5527814670495684e-05
-1.4692737442984201e-05   -1.3985976035123596e-06   2.5527814670495684e-05
1.9046265650992842e-07   6.725883312538958e-07   -5.202303895211291e-07
1.9046265650992842e-07   6.725883312538958e-07   -5.202303895211291e-07
1.9046265650992842e-07   6.725883312538958e-07   -5.202303895211291e-07
1.9046265650992842e-07   6.725883312538958e-07   -5.202303895211291e-07
-6.844575681544509e-06   -8.273755668520427e-08   1.1658029040000062e-05
-6.844575681544509e-06   -8.273755668520427e-08   1.1658029040000062e-05
-6.844575681544509e-06   -8.273755668520427e-08   1.1658029040000062e-05
-6.844575681544509e-06   -8.273755668520427e-08   1.1658029040000062e-05
-1.28338551785829e-05   1.463977575595285e-06   2.0645020300837308e-05
-1.28338551785829e-05   1.463977575595285e-06   2.0645020300837308e-05
-1.28338551785829e-05   1.463977575595285e-06   2.0645020300837308e-05
-1.28338551785829e-05   1.463977575595285e-06   2.0645020300837308e-05
-2.7191102649816237e-05   3.898869788614189e-06   -1.82279015674045e-06
-2.7191102649816237e-05   3.898869788614189e-06   -1.82279015674045e-06
-2.7191102649816237e-05   3.898869788614189e-06   -1.82279015674045e-06
-2.7191102649816237e-05   3.898869788614189e-06   -1.82279015674045e-06
-2.790754906773674e-05   1.3868616446669965e-06   2.283133386853087e-05
-2.790754906773674e-05   1.3868616446669965e-06   2.283133386853087e-05
-2.790754906773674e-05   1.3868616446669965e-06   2.283133386853087e-05
-2.790754906773674e-05   1.3868616446669965e-06   2.283133386853087e-05
-1.3327839589253226e-05   3.6956547503530675e-06   -2.8534577923531603e-06
-1.3327839589253226e-05   3.6956547503530675e-06   -2.8534577923531603e-06
-1.3327839589253226e-05   3.6956547503530675e-06   -2.8534577923531603e-06
-1.3327839589253226e-05   3.6956547503530675e-06   -2.8534577923531603e-06
-2.0156924169009625e-05   2.653519932791946e-06   9.153630731110758e-06
-2.0156924169009625e-05   2.653519932791946e-06   9.153630731110758e-06
-2.0156924169009625e-05   2.653519932791946e-06   9.153630731110758e-06
-2.0156924169009625e-05   2.653519932791946e-06   9.153630731110758e-06
-1.332783958925324e-05   1.3868616446669965e-06   2.1446058005119314e-05
-1.332783958925324e-05   1.3868616446669965e-06   2.1446058005119314e-05
-1.332783958925324e-05   1.3868616446669965e-06   2.1446058005119314e-05
-1.332783958925324e-05   1.3868616446669965e-06   2.1446058005119314e-05
-2.79075490677367e-05   3.6956547503528506e-06   -1.4681819289416587e-06
-2.79075490677367e-05   3.6956547503528506e-06   -1.4681819289416587e-06
-2.79075490677367e-05   3.6956547503528506e-06   -1.4681819289416587e-06
-2.79075490677367e-05   3.6956547503528506e-06   -1.4681819289416587e-06
-2.8786590446138764e-05   1.2375694359437802e-06   2.4231421089482177e-05
-2.8786590446138764e-05   1.2375694359437802e-06   2.4231421089482177e-05
-2.8786590446138764e-05   1.2375694359437802e-06   2.4231421089482177e-05
-2.8786590446138764e-05   1.2375694359437802e-06   2.4231421089482177e-05
-1.3988687494046137e-05   3.506627346612501e-06   -1.7931852437401484e-06
-1.3988687494046137e-05   3.506627346612501e-06   -1.7931852437401484e-06
-1.3988687494046137e-05   3.506627346612501e-06   -1.7931852437401484e-06
-1.3988687494046137e-05   3.506627346612501e-06   -1.7931852437401484e-06
-2.068848847362921e-05   2.609111043755559e-06   9.911659503945847e-06
-2.068848847362921e-05   2.609111043755559e-06   9.911659503945847e-06
-2.068848847362921e-05   2.609111043755559e-06   9.911659503945847e-06
-2.068848847362921e-05   2.609111043755559e-06   9.911659503945847e-06
-1.3988687494046124e-05   1.2375694359437802e-06   2.2869986343080793e-05
-1.3988687494046124e-05   1.2375694359437802e-06   2.2869986343080793e-05
-1.3988687494046124e-05   1.2375694359437802e-06   2.2869986343080793e-05
-1.3988687494046124e-05   1.2375694359437802e-06   2.2869986343080793e-05
-2.8786590446138764e-05   3.506627346612501e-06   -4.317504973388184e-07
-2.8786590446138764e-05   3.506627346612501e-06   -4.317504973388184e-07
-2.8786590446138764e-05   3.506627346612501e-06   -4.317504973388184e-07
-2.8786590446138764e-05   3.506627346612501e-06   -4.317504973388184e-07
-2.971552807053204e-05   1.067610180132978e-06   2.5337766422264796e-05
-2.971552807053204e-05   1.067610180132978e-06   2.5337766422264796e-05
-2.971552807053204e-05   1.067610180132978e-06   2.5337766422264796e-05
-2.971552807053204e-05   1.067610180132978e-06   2.5337766422264796e-05
-1.4692737442984147e-05   3.251279080129137e-06   -1.0104192969792906e-06
-1.4692737442984147e-05   3.251279080129137e-06   -1.0104192969792906e-06
-1.4692737442984147e-05   3.251279080129137e-06   -1.0104192969792906e-06
-1.4692737442984147e-05   3.251279080129137e-06   -1.0104192969792906e-06
-2.1581220429472962e-05   2.456608338425063e-06   1.0947188125525116e-05
-2.1581220429472962e-05   2.456608338425063e-06   1.0947188125525116e-05
-2.1581220429472962e-05   2.456608338425063e-06   1.0947188125525116e-05
-2.1581220429472962e-05   2.456608338425063e-06   1.0947188125525116e-05
-2.7191102649816237e-05   6.422053690122512e-06   1.0864199231216671e-05
-2.7191102649816237e-05   6.422053690122512e-06   1.0864199231216671e-05
-2.7191102649816237e-05   6.422053690122512e-06   1.0864199231216671e-05
-2.7191102649816237e-05   6.422053690122512e-06   1.0864199231216671e-05
-4.096132466437724e-05   6.340876892155321e-06   -1.2134876871832106e-05
-4.096132466437724e-05   6.340876892155321e-06   -1.2134876871832106e-05
-4.096132466437724e-05   6.340876892155321e-06   -1.2134876871832106e-05
-4.096132466437724e-05   6.340876892155321e-06   -1.2134876871832106e-05
-4.224915702927387e-05   6.210938293584522e-06   1.6146740361071147e-05
-4.224915702927387e-05   6.210938293584522e-06   1.6146740361071147e-05
-4.224915702927387e-05   6.210938293584522e-06   1.6146740361071147e-05
-4.224915702927387e-05   6.210938293584522e-06   1.6146740361071147e-05
-2.79075490677367e-05   6.467993994658519e-06   -7.91017299546875e-06
-2.79075490677367e-05   6.467993994658519e-06   -7.91017299546875e-06
-2.79075490677367e-05   6.467993994658519e-06   -7.91017299546875e-06
-2.79075490677367e-05   6.467993994658519e-06   -7.91017299546875e-06
-3.318547304459664e-05   6.4556780585420855e-06   8.93756527634449e-07
-3.318547304459664e-05   6.4556780585420855e-06   8.93756527634449e-07
-3.318547304459664e-05   6.4556780585420855e-06   8.93756527634449e-07
-3.318547304459664e-05   6.4556780585420855e-06   8.93756527634449e-07
-2.7907549067736673e-05   6.210938293584522e-06   1.599250694042664e-05
-2.7907549067736673e-05   6.210938293584522e-06   1.599250694042664e-05
-2.7907549067736673e-05   6.210938293584522e-06   1.599250694042664e-05
-2.7907549067736673e-05   6.210938293584522e-06   1.599250694042664e-05
-4.224915702927387e-05   6.467993994658519e-06   -7.755939574824325e-06
-4.224915702927387e-05   6.467993994658519e-06   -7.755939574824325e-06
-4.224915702927387e-05   6.467993994658519e-06   -7.755939574824325e-06
-4.224915702927387e-05   6.467993994658519e-06   -7.755939574824325e-06
-4.351194731387212e-05   6.056348934134351e-06   1.9843953076059554e-05
-4.351194731387212e-05   6.056348934134351e-06   1.9843953076059554e-05
-4.351194731387212e-05   6.056348934134351e-06   1.9843953076059554e-05
-4.351194731387212e-05   6.056348934134351e-06   1.9843953076059554e-05
-2.878659044613871e-05   6.423194964410911e-06   -4.918415988328903e-06
-2.878659044613871e-05   6.423194964410911e-06   -4.918415988328903e-06
-2.878659044613871e-05   6.423194964410911e-06   -4.918415988328903e-06
-2.878659044613871e-05   6.423194964410911e-06   -4.918415988328903e-06
-3.467164625778287e-05   6.45956557960496e-06   4.868187995295432e-06
-3.467164625778287e-05   6.45956557960496e-06   4.868187995295432e-06
-3.467164625778287e-05   6.45956557960496e-06   4.868187995295432e-06
-3.467164625778287e-05   6.45956557960496e-06   4.868187995295432e-06
-2.878659044613871e-05   6.056348934134568e-06   1.962384545789366e-05
-2.878659044613871e-05   6.056348934134568e-06   1.962384545789366e-05
-2.878659044613871e-05   6.056348934134568e-06   1.962384545789366e-05
-2.878659044613871e-05   6.056348934134568e-06   1.962384545789366e-05
-4.351194731387212e-05   6.423194964410911e-06   -4.698308370163092e-06
-4.351194731387212e-05   6.423194964410911e-06   -4.698308370163092e-06
-4.351194731387212e-05   6.423194964410911e-06   -4.698308370163092e-06
-4.351194731387212e-05   6.423194964410911e-06   -4.698308370163092e-06
-4.500214356626379e-05   5.063283090707372e-06   2.6018958359618383e-05
-4.500214356626379e-05   5.063283090707372e-06   2.6018958359618383e-05
-4.500214356626379e-05   5.063283090707372e-06   2.6018958359618383e-05
-4.500214356626379e-05   5.063283090707372e-06   2.6018958359618383e-05
-2.9715528070531932e-05   5.918462409253405e-06   2.8158275604327036e-08
-2.9715528070531932e-05   5.918462409253405e-06   2.8158275604327036e-08
-2.9715528070531932e-05   5.918462409253405e-06   2.8158275604327036e-08
-2.9715528070531932e-05   5.918462409253405e-06   2.8158275604327036e-08
-3.519078166004083e-05   6.15689524674631e-06   9.010521222290423e-06
-3.519078166004083e-05   6.15689524674631e-06   9.010521222290423e-06
-3.519078166004083e-05   6.15689524674631e-06   9.010521222290423e-06
-3.519078166004083e-05   6.15689524674631e-06   9.010521222290423e-06
2.7256393537091093e-05   -3.8080833179390296e-06   2.0944372231026446e-05
2.7256393537091093e-05   -3.8080833179390296e-06   2.0944372231026446e-05
2.7256393537091093e-05   -3.8080833179390296e-06   2.0944372231026446e-05
2.7256393537091093e-05   -3.8080833179390296e-06   2.0944372231026446e-05
1.3477896889465945e-05   -2.8062062893505647e-06   -1.418662631195674e-06
1.3477896889465945e-05   -2.8062062893505647e-06   -1.418662631195674e-06
1.3477896889465945e-05   -2.8062062893505647e-06   -1.418662631195674e-06
1.3477896889465945e-05   -2.8062062893505647e-06   -1.418662631195674e-06
1.2970106605992259e-05   -4.311101948296925e-06   1.8199974416592004e-05
1.2970106605992259e-05   -4.311101948296925e-06   1.8199974416592004e-05
1.2970106605992259e-05   -4.311101948296925e-06   1.8199974416592004e-05
1.2970106605992259e-05   -4.311101948296925e-06   1.8199974416592004e-05
2.6323301232501703e-05   -3.251569045588116e-06   -4.691069702548901e-06
2.6323301232501703e-05   -3.251569045588116e-06   -4.691069702548901e-06
2.6323301232501703e-05   -3.251569045588116e-06   -4.691069702548901e-06
2.6323301232501703e-05   -3.251569045588116e-06   -4.691069702548901e-06
1.9091231752968393e-05   -3.5076510379985007e-06   7.51602862545292e-06
1.9091231752968393e-05   -3.5076510379985007e-06   7.51602862545292e-06
1.9091231752968393e-05   -3.5076510379985007e-06   7.51602862545292e-06
1.9091231752968393e-05   -3.5076510379985007e-06   7.51602862545292e-06
2.6323301232501656e-05   -4.311101948296925e-06   1.756425467496674e-05
2.6323301232501656e-05   -4.311101948296925e-06   1.756425467496674e-05
2.6323301232501656e-05   -4.311101948296925e-06   1.756425467496674e-05
2.6323301232501656e-05   -4.311101948296925e-06   1.756425467496674e-05
1.2970106605992307e-05   -3.251569045588116e-06   -4.055349960923617e-06
1.2970106605992307e-05   -3.251569045588116e-06   -4.055349960923617e-06
1.2970106605992307e-05   -3.251569045588116e-06   -4.055349960923617e-06
1.2970106605992307e-05   -3.251569045588116e-06   -4.055349960923617e-06
1.2405375805445957e-05   -4.3846896756736305e-06   1.6301816421947983e-05
1.2405375805445957e-05   -4.3846896756736305e-06   1.6301816421947983e-05
1.2405375805445957e-05   -4.3846896756736305e-06   1.6301816421947983e-05
1.2405375805445957e-05   -4.3846896756736305e-06   1.6301816421947983e-05
2.5477357168810912e-05   -3.340241348183089e-06   -6.111488180154558e-06
2.5477357168810912e-05   -3.340241348183089e-06   -6.111488180154558e-06
2.5477357168810912e-05   -3.340241348183089e-06   -6.111488180154558e-06
2.5477357168810912e-05   -3.340241348183089e-06   -6.111488180154558e-06
1.8745386168168004e-05   -3.680615603929207e-06   5.312688041031314e-06
1.8745386168168004e-05   -3.680615603929207e-06   5.312688041031314e-06
1.8745386168168004e-05   -3.680615603929207e-06   5.312688041031314e-06
1.8745386168168004e-05   -3.680615603929207e-06   5.312688041031314e-06
2.5477357168810824e-05   -4.3846896756736305e-06   1.5675147425453615e-05
2.5477357168810824e-05   -4.3846896756736305e-06   1.5675147425453615e-05
2.5477357168810824e-05   -4.3846896756736305e-06   1.5675147425453615e-05
2.5477357168810824e-05   -4.3846896756736305e-06   1.5675147425453615e-05
1.240537580544598e-05   -3.340241348183089e-06   -5.484819183660078e-06
1.240537580544598e-05   -3.340241348183089e-06   -5.484819183660078e-06
1.240537580544598e-05   -3.340241348183089e-06   -5.484819183660078e-06
1.240537580544598e-05   -3.340241348183089e-06   -5.484819183660078e-06
1.1861770450943299e-05   -4.3517079116779395e-06   1.3648209261779023e-05
1.1861770450943299e-05   -4.3517079116779395e-06   1.3648209261779023e-05
1.1861770450943299e-05   -4.3517079116779395e-06   1.3648209261779023e-05
1.1861770450943299e-05   -4.3517079116779395e-06   1.3648209261779023e-05
2.4518312706102797e-05   -3.3720118942977967e-06   -8.033845440581445e-06
2.4518312706102797e-05   -3.3720118942977967e-06   -8.033845440581445e-06
2.4518312706102797e-05   -3.3720118942977967e-06   -8.033845440581445e-06
2.4518312706102797e-05   -3.3720118942977967e-06   -8.033845440581445e-06
1.7790962008156096e-05   -3.6167533697343407e-06   3.325250607925511e-06
1.7790962008156096e-05   -3.6167533697343407e-06   3.325250607925511e-06
1.7790962008156096e-05   -3.6167533697343407e-06   3.325250607925511e-06
1.7790962008156096e-05   -3.6167533697343407e-06   3.325250607925511e-06
1.3477896889465945e-05   -1.3372408866590534e-06   2.1901514287291416e-05
1.3477896889465945e-05   -1.3372408866590534e-06   2.1901514287291416e-05
1.3477896889465945e-05   -1.3372408866590534e-06   2.1901514287291416e-05
1.3477896889465945e-05   -1.3372408866590534e-06   2.1901514287291416e-05
5.4387234035979e-07   -5.383478685651311e-07   8.241425163041686e-07
5.4387234035979e-07   -5.383478685651311e-07   8.241425163041686e-07
5.4387234035979e-07   -5.383478685651311e-07   8.241425163041686e-07
5.4387234035979e-07   -5.383478685651311e-07   8.241425163041686e-07
5.5902497411979696e-08   -1.6063933429852698e-06   2.212372873318109e-05
5.5902497411979696e-08   -1.6063933429852698e-06   2.212372873318109e-05
5.5902497411979696e-08   -1.6063933429852698e-06   2.212372873318109e-05
5.5902497411979696e-08   -1.6063933429852698e-06   2.212372873318109e-05
1.2970106605992307e-05   -8.531274654393402e-07   1.480956923530005e-07
1.2970106605992307e-05   -8.531274654393402e-07   1.480956923530005e-07
1.2970106605992307e-05   -8.531274654393402e-07   1.480956923530005e-07
1.2970106605992307e-05   -8.531274654393402e-07   1.480956923530005e-07
6.679615060150556e-06   -1.044181095224278e-06   1.0746880446626747e-05
6.679615060150556e-06   -1.044181095224278e-06   1.0746880446626747e-05
6.679615060150556e-06   -1.044181095224278e-06   1.0746880446626747e-05
6.679615060150556e-06   -1.044181095224278e-06   1.0746880446626747e-05
1.2970106605992296e-05   -1.6063933429854866e-06   2.1671769206653467e-05
1.2970106605992296e-05   -1.6063933429854866e-06   2.1671769206653467e-05
1.2970106605992296e-05   -1.6063933429854866e-06   2.1671769206653467e-05
1.2970106605992296e-05   -1.6063933429854866e-06   2.1671769206653467e-05
5.5902497411979696e-08   -8.531274654393402e-07   6.000552188805894e-07
5.5902497411979696e-08   -8.531274654393402e-07   6.000552188805894e-07
5.5902497411979696e-08   -8.531274654393402e-07   6.000552188805894e-07
5.5902497411979696e-08   -8.531274654393402e-07   6.000552188805894e-07
-4.513485962280957e-07   -1.781295658595224e-06   2.178376979493173e-05
-4.513485962280957e-07   -1.781295658595224e-06   2.178376979493173e-05
-4.513485962280957e-07   -1.781295658595224e-06   2.178376979493173e-05
-4.513485962280957e-07   -1.781295658595224e-06   2.178376979493173e-05
1.240537580544598e-05   -1.0856690485663931e-06   -6.148017387541801e-08
1.240537580544598e-05   -1.0856690485663931e-06   -6.148017387541801e-08
1.240537580544598e-05   -1.0856690485663931e-06   -6.148017387541801e-08
1.240537580544598e-05   -1.0856690485663931e-06   -6.148017387541801e-08
6.118261439147835e-06   -1.2085174390741651e-06   1.049075280425962e-05
6.118261439147835e-06   -1.2085174390741651e-06   1.049075280425962e-05
6.118261439147835e-06   -1.2085174390741651e-06   1.049075280425962e-05
6.118261439147835e-06   -1.2085174390741651e-06   1.049075280425962e-05
1.2405375805445957e-05   -1.781295658595224e-06   2.1366393828914452e-05
1.2405375805445957e-05   -1.781295658595224e-06   2.1366393828914452e-05
1.2405375805445957e-05   -1.781295658595224e-06   2.1366393828914452e-05
1.2405375805445957e-05   -1.781295658595224e-06   2.1366393828914452e-05
-4.513485962280957e-07   -1.0856690485663931e-06   3.5589579214158774e-07
-4.513485962280957e-07   -1.0856690485663931e-06   3.5589579214158774e-07
-4.513485962280957e-07   -1.0856690485663931e-06   3.5589579214158774e-07
-4.513485962280957e-07   -1.0856690485663931e-06   3.5589579214158774e-07
-9.794467638905364e-07   -1.8539067699850642e-06   2.1944138567023177e-05
-9.794467638905364e-07   -1.8539067699850642e-06   2.1944138567023177e-05
-9.794467638905364e-07   -1.8539067699850642e-06   2.1944138567023177e-05
-9.794467638905364e-07   -1.8539067699850642e-06   2.1944138567023177e-05
1.1861770450943333e-05   -1.2675564217119826e-06   1.9029966666967606e-07
1.1861770450943333e-05   -1.2675564217119826e-06   1.9029966666967606e-07
1.1861770450943333e-05   -1.2675564217119826e-06   1.9029966666967606e-07
1.1861770450943333e-05   -1.2675564217119826e-06   1.9029966666967606e-07
5.6982252258508466e-06   -1.2952047799578634e-06   1.0479464056771504e-05
5.6982252258508466e-06   -1.2952047799578634e-06   1.0479464056771504e-05
5.6982252258508466e-06   -1.2952047799578634e-06   1.0479464056771504e-05
5.6982252258508466e-06   -1.2952047799578634e-06   1.0479464056771504e-05
5.438723403598035e-07   1.2024107956998178e-06   2.2596800166666486e-05
5.438723403598035e-07   1.2024107956998178e-06   2.2596800166666486e-05
5.438723403598035e-07   1.2024107956998178e-06   2.2596800166666486e-05
5.438723403598035e-07   1.2024107956998178e-06   2.2596800166666486e-05
-1.2015881860253521e-05   1.734918739411135e-06   1.9833812652043014e-06
-1.2015881860253521e-05   1.734918739411135e-06   1.9833812652043014e-06
-1.2015881860253521e-05   1.734918739411135e-06   1.9833812652043014e-06
-1.2015881860253521e-05   1.734918739411135e-06   1.9833812652043014e-06
-1.2526031514475052e-05   9.985283010449392e-07   2.2904160692223548e-05
-1.2526031514475052e-05   9.985283010449392e-07   2.2904160692223548e-05
-1.2526031514475052e-05   9.985283010449392e-07   2.2904160692223548e-05
-1.2526031514475052e-05   9.985283010449392e-07   2.2904160692223548e-05
5.5902497411979696e-08   1.4744742548031872e-06   1.6487031001570024e-06
5.5902497411979696e-08   1.4744742548031872e-06   1.6487031001570024e-06
5.5902497411979696e-08   1.4744742548031872e-06   1.6487031001570024e-06
5.5902497411979696e-08   1.4744742548031872e-06   1.6487031001570024e-06
-5.994689924865377e-06   1.3666320358026417e-06   1.1797729135352812e-05
-5.994689924865377e-06   1.3666320358026417e-06   1.1797729135352812e-05
-5.994689924865377e-06   1.3666320358026417e-06   1.1797729135352812e-05
-5.994689924865377e-06   1.3666320358026417e-06   1.1797729135352812e-05
5.5902497411979696e-08   9.985283010449392e-07   2.2618593119968578e-05
5.5902497411979696e-08   9.985283010449392e-07   2.2618593119968578e-05
5.5902497411979696e-08   9.985283010449392e-07   2.2618593119968578e-05
5.5902497411979696e-08   9.985283010449392e-07   2.2618593119968578e-05
-1.2526031514475052e-05   1.4744742548031872e-06   1.9342706724117696e-06
-1.2526031514475052e-05   1.4744742548031872e-06   1.9342706724117696e-06
-1.2526031514475052e-05   1.4744742548031872e-06   1.9342706724117696e-06
-1.2526031514475052e-05   1.4744742548031872e-06   1.9342706724117696e-06
-1.3064340114229893e-05   8.087543293651758e-07   2.311636933096501e-05
-1.3064340114229893e-05   8.087543293651758e-07   2.311636933096501e-05
-1.3064340114229893e-05   8.087543293651758e-07   2.311636933096501e-05
-1.3064340114229893e-05   8.087543293651758e-07   2.311636933096501e-05
-4.5134859622808217e-07   1.2216503354550105e-06   1.8469791973079906e-06
-4.5134859622808217e-07   1.2216503354550105e-06   1.8469791973079906e-06
-4.5134859622808217e-07   1.2216503354550105e-06   1.8469791973079906e-06
-4.5134859622808217e-07   1.2216503354550105e-06   1.8469791973079906e-06
-6.468337110465715e-06   1.218783441192875e-06   1.1877013524261228e-05
-6.468337110465715e-06   1.218783441192875e-06   1.1877013524261228e-05
-6.468337110465715e-06   1.218783441192875e-06   1.1877013524261228e-05
-6.468337110465715e-06   1.218783441192875e-06   1.1877013524261228e-05
-4.513485962280957e-07   8.087543293651758e-07   2.2868631727310977e-05
-4.513485962280957e-07   8.087543293651758e-07   2.2868631727310977e-05
-4.513485962280957e-07   8.087543293651758e-07   2.2868631727310977e-05
-4.513485962280957e-07   8.087543293651758e-07   2.2868631727310977e-05
-1.3064340114229907e-05   1.2216503354550105e-06   2.0947168009620215e-06
-1.3064340114229907e-05   1.2216503354550105e-06   2.0947168009620215e-06
-1.3064340114229907e-05   1.2216503354550105e-06   2.0947168009620215e-06
-1.3064340114229907e-05   1.2216503354550105e-06   2.0947168009620215e-06
-1.3619603476904685e-05   6.725883312538958e-07   2.3454387972308153e-05
-1.3619603476904685e-05   6.725883312538958e-07   2.3454387972308153e-05
-1.3619603476904685e-05   6.725883312538958e-07   2.3454387972308153e-05
-1.3619603476904685e-05   6.725883312538958e-07   2.3454387972308153e-05
-9.794467638905364e-07   9.967006074831225e-07   2.1929927515471016e-06
-9.794467638905364e-07   9.967006074831225e-07   2.1929927515471016e-06
-9.794467638905364e-07   9.967006074831225e-07   2.1929927515471016e-06
-9.794467638905364e-07   9.967006074831225e-07   2.1929927515471016e-06
-6.980939299342805e-06   1.0773105977421229e-06   1.2147114316479247e-05
-6.980939299342805e-06   1.0773105977421229e-06   1.2147114316479247e-05
-6.980939299342805e-06   1.0773105977421229e-06   1.2147114316479247e-05
-6.980939299342805e-06   1.0773105977421229e-06   1.2147114316479247e-05
-1.2015881860253562e-05   3.898869788614189e-06   1.973736387951943e-05
-1.2015881860253562e-05   3.898869788614189e-06   1.973736387951943e-05
-1.2015881860253562e-05   3.898869788614189e-06   1.973736387951943e-05
-1.2015881860253562e-05   3.898869788614189e-06   1.973736387951943e-05
-2.4195286684907023e-05   3.948573399376086e-06   -5.318219951126139e-07
-2.4195286684907023e-05   3.948573399376086e-06   -5.318219951126139e-07
-2.4195286684907023e-05   3.948573399376086e-06   -5.318219951126139e-07
-2.4195286684907023e-05   3.948573399376086e-06   -5.318219951126139e-07
-2.4787341521291382e-05   3.6956547503528506e-06   2.0082400458544514e-05
-2.4787341521291382e-05   3.6956547503528506e-06   2.0082400458544514e-05
-2.4787341521291382e-05   3.6956547503528506e-06   2.0082400458544514e-05
-2.4787341521291382e-05   3.6956547503528506e-06   2.0082400458544514e-05
-1.2526031514475066e-05   3.7011934035503877e-06   -3.564394114011671e-07
-1.2526031514475066e-05   3.7011934035503877e-06   -3.564394114011671e-07
-1.2526031514475066e-05   3.7011934035503877e-06   -3.564394114011671e-07
-1.2526031514475066e-05   3.7011934035503877e-06   -3.564394114011671e-07
-1.829906474024729e-05   3.7999401116567844e-06   9.206034606688601e-06
-1.829906474024729e-05   3.7999401116567844e-06   9.206034606688601e-06
-1.829906474024729e-05   3.7999401116567844e-06   9.206034606688601e-06
-1.829906474024729e-05   3.7999401116567844e-06   9.206034606688601e-06
-1.2526031514475066e-05   3.6956547503528506e-06   2.0079077266625927e-05
-1.2526031514475066e-05   3.6956547503528506e-06   2.0079077266625927e-05
-1.2526031514475066e-05   3.6956547503528506e-06   2.0079077266625927e-05
-1.2526031514475066e-05   3.6956547503528506e-06   2.0079077266625927e-05
-2.4787341521291314e-05   3.7011934035503877e-06   -3.53116219482634e-07
-2.4787341521291314e-05   3.7011934035503877e-06   -3.53116219482634e-07
-2.4787341521291314e-05   3.7011934035503877e-06   -3.53116219482634e-07
-2.4787341521291314e-05   3.7011934035503877e-06   -3.53116219482634e-07
-2.5442788390559208e-05   3.506627346612501e-06   2.1016334895430835e-05
-2.5442788390559208e-05   3.506627346612501e-06   2.1016334895430835e-05
-2.5442788390559208e-05   3.506627346612501e-06   2.1016334895430835e-05
-2.5442788390559208e-05   3.506627346612501e-06   2.1016334895430835e-05
-1.3064340114229907e-05   3.4719972782793884e-06   4.063658092152446e-07
-1.3064340114229907e-05   3.4719972782793884e-06   4.063658092152446e-07
-1.3064340114229907e-05   3.4719972782793884e-06   4.063658092152446e-07
-1.3064340114229907e-05   3.4719972782793884e-06   4.063658092152446e-07
-1.8724780145254894e-05   3.6609951634251382e-06   9.727033796502825e-06
-1.8724780145254894e-05   3.6609951634251382e-06   9.727033796502825e-06
-1.8724780145254894e-05   3.6609951634251382e-06   9.727033796502825e-06
-1.8724780145254894e-05   3.6609951634251382e-06   9.727033796502825e-06
-1.3064340114229893e-05   3.506627346612501e-06   2.1037112936430724e-05
-1.3064340114229893e-05   3.506627346612501e-06   2.1037112936430724e-05
-1.3064340114229893e-05   3.506627346612501e-06   2.1037112936430724e-05
-1.3064340114229893e-05   3.506627346612501e-06   2.1037112936430724e-05
-2.5442788390559167e-05   3.4719972782793884e-06   3.8558776821538254e-07
-2.5442788390559167e-05   3.4719972782793884e-06   3.8558776821538254e-07
-2.5442788390559167e-05   3.4719972782793884e-06   3.8558776821538254e-07
-2.5442788390559167e-05   3.4719972782793884e-06   3.8558776821538254e-07
-2.606701747134061e-05   3.251279080129137e-06   2.168535689007925e-05
-2.606701747134061e-05   3.251279080129137e-06   2.168535689007925e-05
-2.606701747134061e-05   3.251279080129137e-06   2.168535689007925e-05
-2.606701747134061e-05   3.251279080129137e-06   2.168535689007925e-05
-1.3619603476904726e-05   3.1910613902776715e-06   9.757975132636634e-07
-1.3619603476904726e-05   3.1910613902776715e-06   9.757975132636634e-07
-1.3619603476904726e-05   3.1910613902776715e-06   9.757975132636634e-07
-1.3619603476904726e-05   3.1910613902776715e-06   9.757975132636634e-07
-1.940723527769673e-05   3.4790356328326475e-06   1.044906596905145e-05
-1.940723527769673e-05   3.4790356328326475e-06   1.044906596905145e-05
-1.940723527769673e-05   3.4790356328326475e-06   1.044906596905145e-05
-1.940723527769673e-05   3.4790356328326475e-06   1.044906596905145e-05
-2.4195286684906982e-05   6.340876892155321e-06   9.503805409665183e-06
-2.4195286684906982e-05   6.340876892155321e-06   9.503805409665183e-06
-2.4195286684906982e-05   6.340876892155321e-06   9.503805409665183e-06
-2.4195286684906982e-05   6.340876892155321e-06   9.503805409665183e-06
-3.579508807046732e-05   5.697937988335478e-06   -1.02149602418939e-05
-3.579508807046732e-05   5.697937988335478e-06   -1.02149602418939e-05
-3.579508807046732e-05   5.697937988335478e-06   -1.02149602418939e-05
-3.579508807046732e-05   5.697937988335478e-06   -1.02149602418939e-05
-3.672775775331164e-05   6.467993994658736e-06   1.3217132569406562e-05
-3.672775775331164e-05   6.467993994658736e-06   1.3217132569406562e-05
-3.672775775331164e-05   6.467993994658736e-06   1.3217132569406562e-05
-3.672775775331164e-05   6.467993994658736e-06   1.3217132569406562e-05
-2.4787341521291382e-05   5.7625326236408064e-06   -6.2602843280167085e-06
-2.4787341521291382e-05   5.7625326236408064e-06   -6.2602843280167085e-06
-2.4787341521291382e-05   5.7625326236408064e-06   -6.2602843280167085e-06
-2.4787341521291382e-05   5.7625326236408064e-06   -6.2602843280167085e-06
-2.9212558397648986e-05   6.029530794690596e-06   9.548782299495973e-07
-2.9212558397648986e-05   6.029530794690596e-06   9.548782299495973e-07
-2.9212558397648986e-05   6.029530794690596e-06   9.548782299495973e-07
-2.9212558397648986e-05   6.029530794690596e-06   9.548782299495973e-07
-2.47873415212913e-05   6.467993994658736e-06   1.3640409392017233e-05
-2.47873415212913e-05   6.467993994658736e-06   1.3640409392017233e-05
-2.47873415212913e-05   6.467993994658736e-06   1.3640409392017233e-05
-2.47873415212913e-05   6.467993994658736e-06   1.3640409392017233e-05
-3.6727757753311774e-05   5.7625326236408064e-06   -6.6835611506274335e-06
-3.6727757753311774e-05   5.7625326236408064e-06   -6.6835611506274335e-06
-3.6727757753311774e-05   5.7625326236408064e-06   -6.6835611506274335e-06
-3.6727757753311774e-05   5.7625326236408064e-06   -6.6835611506274335e-06
-3.763736460068773e-05   6.423194964410911e-06   1.6095917385615757e-05
-3.763736460068773e-05   6.423194964410911e-06   1.6095917385615757e-05
-3.763736460068773e-05   6.423194964410911e-06   1.6095917385615757e-05
-3.763736460068773e-05   6.423194964410911e-06   1.6095917385615757e-05
-2.5442788390559208e-05   5.700274933035732e-06   -3.7946242791067598e-06
-2.5442788390559208e-05   5.700274933035732e-06   -3.7946242791067598e-06
-2.5442788390559208e-05   5.700274933035732e-06   -3.7946242791067598e-06
-2.5442788390559208e-05   5.700274933035732e-06   -3.7946242791067598e-06
-3.036612558106608e-05   6.141219252190711e-06   4.146371113578843e-06
-3.036612558106608e-05   6.141219252190711e-06   4.146371113578843e-06
-3.036612558106608e-05   6.141219252190711e-06   4.146371113578843e-06
-3.036612558106608e-05   6.141219252190711e-06   4.146371113578843e-06
-2.5442788390559208e-05   6.423194964410911e-06   1.6529669404440994e-05
-2.5442788390559208e-05   6.423194964410911e-06   1.6529669404440994e-05
-2.5442788390559208e-05   6.423194964410911e-06   1.6529669404440994e-05
-2.5442788390559208e-05   6.423194964410911e-06   1.6529669404440994e-05
-3.7637364600687836e-05   5.700274933035732e-06   -4.228376297931889e-06
-3.7637364600687836e-05   5.700274933035732e-06   -4.228376297931889e-06
-3.7637364600687836e-05   5.700274933035732e-06   -4.228376297931889e-06
-3.7637364600687836e-05   5.700274933035732e-06   -4.228376297931889e-06
-3.869857180847347e-05   5.918462409253405e-06   2.1020876347388603e-05
-3.869857180847347e-05   5.918462409253405e-06   2.1020876347388603e-05
-3.869857180847347e-05   5.918462409253405e-06   2.1020876347388603e-05
-3.869857180847347e-05   5.918462409253405e-06   2.1020876347388603e-05
-2.606701747134061e-05   5.263701117125654e-06   3.6114256077705875e-07
-2.606701747134061e-05   5.263701117125654e-06   3.6114256077705875e-07
-2.606701747134061e-05   5.263701117125654e-06   3.6114256077705875e-07
-2.606701747134061e-05   5.263701117125654e-06   3.6114256077705875e-07
-3.0647724067355085e-05   5.960845494396884e-06   7.577366927772277e-06
-3.0647724067355085e-05   5.960845494396884e-06   7.577366927772277e-06
-3.0647724067355085e-05   5.960845494396884e-06   7.577366927772277e-06
-3.0647724067355085e-05   5.960845494396884e-06   7.577366927772277e-06
2.079231098319172e-05   -2.8062062893505647e-06   1.7559360331879026e-05
2.079231098319172e-05   -2.8062062893505647e-06   1.7559360331879026e-05
2.079231098319172e-05   -2.8062062893505647e-06   1.7559360331879026e-05
2.079231098319172e-05   -2.8062062893505647e-06   1.7559360331879026e-05
9.779484691907431e-06   -1.8669875289254942e-06   -2.3181889733986296e-07
9.779484691907431e-06   -1.8669875289254942e-06   -2.3181889733986296e-07
9.779484691907431e-06   -1.8669875289254942e-06   -2.3181889733986296e-07
9.779484691907431e-06   -1.8669875289254942e-06   -2.3181889733986296e-07
9.325109367973428e-06   -3.251569045588116e-06   1.541803020841206e-05
9.325109367973428e-06   -3.251569045588116e-06   1.541803020841206e-05
9.325109367973428e-06   -3.251569045588116e-06   1.541803020841206e-05
9.325109367973428e-06   -3.251569045588116e-06   1.541803020841206e-05
1.9912496707542056e-05   -2.2614878834625093e-06   -2.821664054810935e-06
1.9912496707542056e-05   -2.2614878834625093e-06   -2.821664054810935e-06
1.9912496707542056e-05   -2.2614878834625093e-06   -2.821664054810935e-06
1.9912496707542056e-05   -2.2614878834625093e-06   -2.821664054810935e-06
1.4249342867567188e-05   -2.565086914760057e-06   6.799085097259033e-06
1.4249342867567188e-05   -2.565086914760057e-06   6.799085097259033e-06
1.4249342867567188e-05   -2.565086914760057e-06   6.799085097259033e-06
1.4249342867567188e-05   -2.565086914760057e-06   6.799085097259033e-06
1.9912496707542056e-05   -3.251569045588116e-06   1.482398151113676e-05
1.9912496707542056e-05   -3.251569045588116e-06   1.482398151113676e-05
1.9912496707542056e-05   -3.251569045588116e-06   1.482398151113676e-05
1.9912496707542056e-05   -3.251569045588116e-06   1.482398151113676e-05
9.325109367973441e-06   -2.2614878834625093e-06   -2.2276153575355884e-06
9.325109367973441e-06   -2.2614878834625093e-06   -2.2276153575355884e-06
9.325109367973441e-06   -2.2614878834625093e-06   -2.2276153575355884e-06
9.325109367973441e-06   -2.2614878834625093e-06   -2.2276153575355884e-06
8.822921005044776e-06   -3.340241348182872e-06   1.3913955786057884e-05
8.822921005044776e-06   -3.340241348182872e-06   1.3913955786057884e-05
8.822921005044776e-06   -3.340241348182872e-06   1.3913955786057884e-05
8.822921005044776e-06   -3.340241348182872e-06   1.3913955786057884e-05
1.914058353139738e-05   -2.366204078407992e-06   -3.866570786394508e-06
1.914058353139738e-05   -2.366204078407992e-06   -3.866570786394508e-06
1.914058353139738e-05   -2.366204078407992e-06   -3.866570786394508e-06
1.914058353139738e-05   -2.366204078407992e-06   -3.866570786394508e-06
1.3889363137059828e-05   -2.7255218588016945e-06   5.101053872404561e-06
1.3889363137059828e-05   -2.7255218588016945e-06   5.101053872404561e-06
1.3889363137059828e-05   -2.7255218588016945e-06   5.101053872404561e-06
1.3889363137059828e-05   -2.7255218588016945e-06   5.101053872404561e-06
1.914058353139735e-05   -3.340241348182872e-06   1.332953342419313e-05
1.914058353139735e-05   -3.340241348182872e-06   1.332953342419313e-05
1.914058353139735e-05   -3.340241348182872e-06   1.332953342419313e-05
1.914058353139735e-05   -3.340241348182872e-06   1.332953342419313e-05
8.82292100504479e-06   -2.366204078407992e-06   -3.282148424529679e-06
8.82292100504479e-06   -2.366204078407992e-06   -3.282148424529679e-06
8.82292100504479e-06   -2.366204078407992e-06   -3.282148424529679e-06
8.82292100504479e-06   -2.366204078407992e-06   -3.282148424529679e-06
8.358840509459453e-06   -3.3720118942977967e-06   1.187060763340516e-05
8.358840509459453e-06   -3.3720118942977967e-06   1.187060763340516e-05
8.358840509459453e-06   -3.3720118942977967e-06   1.187060763340516e-05
8.358840509459453e-06   -3.3720118942977967e-06   1.187060763340516e-05
1.8276887985421555e-05   -2.4609398375854963e-06   -5.206114727225669e-06
1.8276887985421555e-05   -2.4609398375854963e-06   -5.206114727225669e-06
1.8276887985421555e-05   -2.4609398375854963e-06   -5.206114727225669e-06
1.8276887985421555e-05   -2.4609398375854963e-06   -5.206114727225669e-06
1.307882977281014e-05   -2.7083363146234232e-06   3.6057535133497015e-06
1.307882977281014e-05   -2.7083363146234232e-06   3.6057535133497015e-06
1.307882977281014e-05   -2.7083363146234232e-06   3.6057535133497015e-06
1.307882977281014e-05   -2.7083363146234232e-06   3.6057535133497015e-06
9.779484691907397e-06   -5.383478685651311e-07   1.9886360924777362e-05
9.779484691907397e-06   -5.383478685651311e-07   1.9886360924777362e-05
9.779484691907397e-06   -5.383478685651311e-07   1.9886360924777362e-05
9.779484691907397e-06   -5.383478685651311e-07   1.9886360924777362e-05
-6.392409537221764e-07   -1.6100973170398228e-08   2.8351663192982546e-06
-6.392409537221764e-07   -1.6100973170398228e-08   2.8351663192982546e-06
-6.392409537221764e-07   -1.6100973170398228e-08   2.8351663192982546e-06
-6.392409537221764e-07   -1.6100973170398228e-08   2.8351663192982546e-06
-1.0667910544074369e-06   -8.531274654393402e-07   1.991851187257217e-05
-1.0667910544074369e-06   -8.531274654393402e-07   1.991851187257217e-05
-1.0667910544074369e-06   -8.531274654393402e-07   1.991851187257217e-05
-1.0667910544074369e-06   -8.531274654393402e-07   1.991851187257217e-05
9.325109367973441e-06   -3.5806744730013107e-07   2.301641824387207e-06
9.325109367973441e-06   -3.5806744730013107e-07   2.301641824387207e-06
9.325109367973441e-06   -3.5806744730013107e-07   2.301641824387207e-06
9.325109367973441e-06   -3.5806744730013107e-07   2.301641824387207e-06
4.2789724057245e-06   -4.540162854356662e-07   1.076943939768354e-05
4.2789724057245e-06   -4.540162854356662e-07   1.076943939768354e-05
4.2789724057245e-06   -4.540162854356662e-07   1.076943939768354e-05
4.2789724057245e-06   -4.540162854356662e-07   1.076943939768354e-05
9.325109367973418e-06   -8.531274654393402e-07   1.9621475861688752e-05
9.325109367973418e-06   -8.531274654393402e-07   1.9621475861688752e-05
9.325109367973418e-06   -8.531274654393402e-07   1.9621475861688752e-05
9.325109367973418e-06   -8.531274654393402e-07   1.9621475861688752e-05
-1.0667910544074369e-06   -3.5806744730013107e-07   2.5986778352706918e-06
-1.0667910544074369e-06   -3.5806744730013107e-07   2.5986778352706918e-06
-1.0667910544074369e-06   -3.5806744730013107e-07   2.5986778352706918e-06
-1.0667910544074369e-06   -3.5806744730013107e-07   2.5986778352706918e-06
-1.5035906415768012e-06   -1.0856690485663931e-06   1.961279604737289e-05
-1.5035906415768012e-06   -1.0856690485663931e-06   1.961279604737289e-05
-1.5035906415768012e-06   -1.0856690485663931e-06   1.961279604737289e-05
-1.5035906415768012e-06   -1.0856690485663931e-06   1.961279604737289e-05
8.82292100504479e-06   -6.265002960158684e-07   2.1264420514731508e-06
8.82292100504479e-06   -6.265002960158684e-07   2.1264420514731508e-06
8.82292100504479e-06   -6.265002960158684e-07   2.1264420514731508e-06
8.82292100504479e-06   -6.265002960158684e-07   2.1264420514731508e-06
3.79838165091718e-06   -6.644711237064997e-07   1.0523456804967788e-05
3.79838165091718e-06   -6.644711237064997e-07   1.0523456804967788e-05
3.79838165091718e-06   -6.644711237064997e-07   1.0523456804967788e-05
3.79838165091718e-06   -6.644711237064997e-07   1.0523456804967788e-05
8.822921005044776e-06   -1.08566904856661e-06   1.9337294795842598e-05
8.822921005044776e-06   -1.08566904856661e-06   1.9337294795842598e-05
8.822921005044776e-06   -1.08566904856661e-06   1.9337294795842598e-05
8.822921005044776e-06   -1.08566904856661e-06   1.9337294795842598e-05
-1.5035906415768012e-06   -6.265002960158684e-07   2.401943303003708e-06
-1.5035906415768012e-06   -6.265002960158684e-07   2.401943303003708e-06
-1.5035906415768012e-06   -6.265002960158684e-07   2.401943303003708e-06
-1.5035906415768012e-06   -6.265002960158684e-07   2.401943303003708e-06
-1.942853536946731e-06   -1.2675564217119826e-06   1.9743237961308228e-05
-1.942853536946731e-06   -1.2675564217119826e-06   1.9743237961308228e-05
-1.942853536946731e-06   -1.2675564217119826e-06   1.9743237961308228e-05
-1.942853536946731e-06   -1.2675564217119826e-06   1.9743237961308228e-05
8.35884050945946e-06   -8.737183699117097e-07   2.337445052884372e-06
8.35884050945946e-06   -8.737183699117097e-07   2.337445052884372e-06
8.35884050945946e-06   -8.737183699117097e-07   2.337445052884372e-06
8.35884050945946e-06   -8.737183699117097e-07   2.337445052884372e-06
3.4330480325422592e-06   -8.189220375097971e-07   1.0514221381638812e-05
3.4330480325422592e-06   -8.189220375097971e-07   1.0514221381638812e-05
3.4330480325422592e-06   -8.189220375097971e-07   1.0514221381638812e-05
3.4330480325422592e-06   -8.189220375097971e-07   1.0514221381638812e-05
-6.392409537221764e-07   1.734918739411135e-06   2.1039443044687674e-05
-6.392409537221764e-07   1.734918739411135e-06   2.1039443044687674e-05
-6.392409537221764e-07   1.734918739411135e-06   2.1039443044687674e-05
-6.392409537221764e-07   1.734918739411135e-06   2.1039443044687674e-05
-1.0839226333093457e-05   1.7882659822988662e-06   4.071475758134842e-06
-1.0839226333093457e-05   1.7882659822988662e-06   4.071475758134842e-06
-1.0839226333093457e-05   1.7882659822988662e-06   4.071475758134842e-06
-1.0839226333093457e-05   1.7882659822988662e-06   4.071475758134842e-06
-1.1269455351841956e-05   1.4744742548031872e-06   2.0975899927716773e-05
-1.1269455351841956e-05   1.4744742548031872e-06   2.0975899927716773e-05
-1.1269455351841956e-05   1.4744742548031872e-06   2.0975899927716773e-05
-1.1269455351841956e-05   1.4744742548031872e-06   2.0975899927716773e-05
-1.0667910544074369e-06   1.4890412112504754e-06   3.9627192581243465e-06
-1.0667910544074369e-06   1.4890412112504754e-06   3.9627192581243465e-06
-1.0667910544074369e-06   1.4890412112504754e-06   3.9627192581243465e-06
-1.0667910544074369e-06   1.4890412112504754e-06   3.9627192581243465e-06
-5.969048396226666e-06   1.5925779092000082e-06   1.2071026142386704e-05
-5.969048396226666e-06   1.5925779092000082e-06   1.2071026142386704e-05
-5.969048396226666e-06   1.5925779092000082e-06   1.2071026142386704e-05
-5.969048396226666e-06   1.5925779092000082e-06   1.2071026142386704e-05
-1.0667910544074369e-06   1.4744742548031872e-06   2.0967159753848595e-05
-1.0667910544074369e-06   1.4744742548031872e-06   2.0967159753848595e-05
-1.0667910544074369e-06   1.4744742548031872e-06   2.0967159753848595e-05
-1.0667910544074369e-06   1.4744742548031872e-06   2.0967159753848595e-05
-1.1269455351841956e-05   1.4890412112504754e-06   3.971459431992633e-06
-1.1269455351841956e-05   1.4890412112504754e-06   3.971459431992633e-06
-1.1269455351841956e-05   1.4890412112504754e-06   3.971459431992633e-06
-1.1269455351841956e-05   1.4890412112504754e-06   3.971459431992633e-06
-1.171022280956627e-05   1.2216503354550105e-06   2.1087663732692e-05
-1.171022280956627e-05   1.2216503354550105e-06   2.1087663732692e-05
-1.171022280956627e-05   1.2216503354550105e-06   2.1087663732692e-05
-1.171022280956627e-05   1.2216503354550105e-06   2.1087663732692e-05
-1.5035906415768147e-06   1.1946241357094125e-06   4.092825839223586e-06
-1.5035906415768147e-06   1.1946241357094125e-06   4.092825839223586e-06
-1.5035906415768147e-06   1.1946241357094125e-06   4.092825839223586e-06
-1.5035906415768147e-06   1.1946241357094125e-06   4.092825839223586e-06
-6.368153987100995e-06   1.391946319482737e-06   1.208203810483359e-05
-6.368153987100995e-06   1.391946319482737e-06   1.208203810483359e-05
-6.368153987100995e-06   1.391946319482737e-06   1.208203810483359e-05
-6.368153987100995e-06   1.391946319482737e-06   1.208203810483359e-05
-1.5035906415768147e-06   1.2216503354550105e-06   2.1103879452539403e-05
-1.5035906415768147e-06   1.2216503354550105e-06   2.1103879452539403e-05
-1.5035906415768147e-06   1.2216503354550105e-06   2.1103879452539403e-05
-1.5035906415768147e-06   1.2216503354550105e-06   2.1103879452539403e-05
-1.171022280956627e-05   1.1946241357094125e-06   4.076610119376238e-06
-1.171022280956627e-05   1.1946241357094125e-06   4.076610119376238e-06
-1.171022280956627e-05   1.1946241357094125e-06   4.076610119376238e-06
-1.171022280956627e-05   1.1946241357094125e-06   4.076610119376238e-06
-1.2150627242419961e-05   9.967006074831225e-07   2.134530679604341e-05
-1.2150627242419961e-05   9.967006074831225e-07   2.134530679604341e-05
-1.2150627242419961e-05   9.967006074831225e-07   2.134530679604341e-05
-1.2150627242419961e-05   9.967006074831225e-07   2.134530679604341e-05
-1.942853536946731e-06   9.153438721857046e-07   4.381164661433086e-06
-1.942853536946731e-06   9.153438721857046e-07   4.381164661433086e-06
-1.942853536946731e-06   9.153438721857046e-07   4.381164661433086e-06
-1.942853536946731e-06   9.153438721857046e-07   4.381164661433086e-06
-6.786154802280985e-06   1.1966034251748112e-06   1.2284577705197258e-05
-6.786154802280985e-06   1.1966034251748112e-06   1.2284577705197258e-05
-6.786154802280985e-06   1.1966034251748112e-06   1.2284577705197258e-05
-6.786154802280985e-06   1.1966034251748112e-06   1.2284577705197258e-05
-1.0839226333093444e-05   3.948573399376086e-06   1.8526425963646237e-05
-1.0839226333093444e-05   3.948573399376086e-06   1.8526425963646237e-05
-1.0839226333093444e-05   3.948573399376086e-06   1.8526425963646237e-05
-1.0839226333093444e-05   3.948573399376086e-06   1.8526425963646237e-05
-2.0824601690498602e-05   3.5264495983425032e-06   1.6308594206840017e-06
-2.0824601690498602e-05   3.5264495983425032e-06   1.6308594206840017e-06
-2.0824601690498602e-05   3.5264495983425032e-06   1.6308594206840017e-06
-2.0824601690498602e-05   3.5264495983425032e-06   1.6308594206840017e-06
-2.1287856449842918e-05   3.7011934035503877e-06   1.8409053347718434e-05
-2.1287856449842918e-05   3.7011934035503877e-06   1.8409053347718434e-05
-2.1287856449842918e-05   3.7011934035503877e-06   1.8409053347718434e-05
-2.1287856449842918e-05   3.7011934035503877e-06   1.8409053347718434e-05
-1.1269455351841984e-05   3.240965909908104e-06   1.987854680568919e-06
-1.1269455351841984e-05   3.240965909908104e-06   1.987854680568919e-06
-1.1269455351841984e-05   3.240965909908104e-06   1.987854680568919e-06
-1.1269455351841984e-05   3.240965909908104e-06   1.987854680568919e-06
-1.600194703202444e-05   3.5559774452910767e-06   9.686333892976732e-06
-1.600194703202444e-05   3.5559774452910767e-06   9.686333892976732e-06
-1.600194703202444e-05   3.5559774452910767e-06   9.686333892976732e-06
-1.600194703202444e-05   3.5559774452910767e-06   9.686333892976732e-06
-1.1269455351841956e-05   3.7011934035506046e-06   1.8685189843903782e-05
-1.1269455351841956e-05   3.7011934035506046e-06   1.8685189843903782e-05
-1.1269455351841956e-05   3.7011934035506046e-06   1.8685189843903782e-05
-1.1269455351841956e-05   3.7011934035506046e-06   1.8685189843903782e-05
-2.1287856449842918e-05   3.240965909908104e-06   1.7117181843834348e-06
-2.1287856449842918e-05   3.240965909908104e-06   1.7117181843834348e-06
-2.1287856449842918e-05   3.240965909908104e-06   1.7117181843834348e-06
-2.1287856449842918e-05   3.240965909908104e-06   1.7117181843834348e-06
-2.1797318280099835e-05   3.4719972782793884e-06   1.910048769908216e-05
-2.1797318280099835e-05   3.4719972782793884e-06   1.910048769908216e-05
-2.1797318280099835e-05   3.4719972782793884e-06   1.910048769908216e-05
-2.1797318280099835e-05   3.4719972782793884e-06   1.910048769908216e-05
-1.1710222809566283e-05   2.9739555418410463e-06   2.587486956722769e-06
-1.1710222809566283e-05   2.9739555418410463e-06   2.587486956722769e-06
-1.1710222809566283e-05   2.9739555418410463e-06   2.587486956722769e-06
-1.1710222809566283e-05   2.9739555418410463e-06   2.587486956722769e-06
-1.6332326143465132e-05   3.3741750188260363e-06   1.0050860827030182e-05
-1.6332326143465132e-05   3.3741750188260363e-06   1.0050860827030182e-05
-1.6332326143465132e-05   3.3741750188260363e-06   1.0050860827030182e-05
-1.6332326143465132e-05   3.3741750188260363e-06   1.0050860827030182e-05
-1.1710222809566283e-05   3.4719972782793884e-06   1.939931274094525e-05
-1.1710222809566283e-05   3.4719972782793884e-06   1.939931274094525e-05
-1.1710222809566283e-05   3.4719972782793884e-06   1.939931274094525e-05
-1.1710222809566283e-05   3.4719972782793884e-06   1.939931274094525e-05
-2.1797318280099835e-05   2.9739555418410463e-06   2.28866191485965e-06
-2.1797318280099835e-05   2.9739555418410463e-06   2.28866191485965e-06
-2.1797318280099835e-05   2.9739555418410463e-06   2.28866191485965e-06
-2.1797318280099835e-05   2.9739555418410463e-06   2.28866191485965e-06
-2.2262544108984483e-05   3.1910613902776715e-06   1.9616262325391847e-05
-2.2262544108984483e-05   3.1910613902776715e-06   1.9616262325391847e-05
-2.2262544108984483e-05   3.1910613902776715e-06   1.9616262325391847e-05
-2.2262544108984483e-05   3.1910613902776715e-06   1.9616262325391847e-05
-1.2150627242419988e-05   2.662091612559833e-06   3.0804494144151106e-06
-1.2150627242419988e-05   2.662091612559833e-06   3.0804494144151106e-06
-1.2150627242419988e-05   2.662091612559833e-06   3.0804494144151106e-06
-1.2150627242419988e-05   2.662091612559833e-06   3.0804494144151106e-06
-1.6862422803240114e-05   3.167985498998046e-06   1.0629905683919879e-05
-1.6862422803240114e-05   3.167985498998046e-06   1.0629905683919879e-05
-1.6862422803240114e-05   3.167985498998046e-06   1.0629905683919879e-05
-1.6862422803240114e-05   3.167985498998046e-06   1.0629905683919879e-05
-2.0824601690498602e-05   5.697937988335478e-06   8.9757767785365e-06
-2.0824601690498602e-05   5.697937988335478e-06   8.9757767785365e-06
-2.0824601690498602e-05   5.697937988335478e-06   8.9757767785365e-06
-2.0824601690498602e-05   5.697937988335478e-06   8.9757767785365e-06
-3.033124966967811e-05   4.873241758576556e-06   -7.3634542579512725e-06
-3.033124966967811e-05   4.873241758576556e-06   -7.3634542579512725e-06
-3.033124966967811e-05   4.873241758576556e-06   -7.3634542579512725e-06
-3.033124966967811e-05   4.873241758576556e-06   -7.3634542579512725e-06
-3.116500446240166e-05   5.7625326236408064e-06   1.1956021602642993e-05
-3.116500446240166e-05   5.7625326236408064e-06   1.1956021602642993e-05
-3.116500446240166e-05   5.7625326236408064e-06   1.1956021602642993e-05
-3.116500446240166e-05   5.7625326236408064e-06   1.1956021602642993e-05
-2.1287856449842918e-05   4.852759896071699e-06   -3.960028115080423e-06
-2.1287856449842918e-05   4.852759896071699e-06   -3.960028115080423e-06
-2.1287856449842918e-05   4.852759896071699e-06   -3.960028115080423e-06
-2.1287856449842918e-05   4.852759896071699e-06   -3.960028115080423e-06
-2.4916146678219812e-05   5.217504886548003e-06   1.8682752712620323e-06
-2.4916146678219812e-05   5.217504886548003e-06   1.8682752712620323e-06
-2.4916146678219812e-05   5.217504886548003e-06   1.8682752712620323e-06
-2.4916146678219812e-05   5.217504886548003e-06   1.8682752712620323e-06
-2.1287856449842918e-05   5.76253262364059e-06   1.2501885239184414e-05
-2.1287856449842918e-05   5.76253262364059e-06   1.2501885239184414e-05
-2.1287856449842918e-05   5.76253262364059e-06   1.2501885239184414e-05
-2.1287856449842918e-05   5.76253262364059e-06   1.2501885239184414e-05
-3.1165004462401684e-05   4.852759896071699e-06   -4.505891751621681e-06
-3.1165004462401684e-05   4.852759896071699e-06   -4.505891751621681e-06
-3.1165004462401684e-05   4.852759896071699e-06   -4.505891751621681e-06
-3.1165004462401684e-05   4.852759896071699e-06   -4.505891751621681e-06
-3.19103915339063e-05   5.700274933035732e-06   1.4353207619814613e-05
-3.19103915339063e-05   5.700274933035732e-06   1.4353207619814613e-05
-3.19103915339063e-05   5.700274933035732e-06   1.4353207619814613e-05
-3.19103915339063e-05   5.700274933035732e-06   1.4353207619814613e-05
-2.1797318280099835e-05   4.755161546460404e-06   -1.934846437917626e-06
-2.1797318280099835e-05   4.755161546460404e-06   -1.934846437917626e-06
-2.1797318280099835e-05   4.755161546460404e-06   -1.934846437917626e-06
-2.1797318280099835e-05   4.755161546460404e-06   -1.934846437917626e-06
-2.5879976501005247e-05   5.27654050978257e-06   4.556756552265566e-06
-2.5879976501005247e-05   5.27654050978257e-06   4.556756552265566e-06
-2.5879976501005247e-05   5.27654050978257e-06   4.556756552265566e-06
-2.5879976501005247e-05   5.27654050978257e-06   4.556756552265566e-06
-2.1797318280099835e-05   5.700274933035949e-06   1.4920275651760179e-05
-2.1797318280099835e-05   5.700274933035949e-06   1.4920275651760179e-05
-2.1797318280099835e-05   5.700274933035949e-06   1.4920275651760179e-05
-2.1797318280099835e-05   5.700274933035949e-06   1.4920275651760179e-05
-3.1910391533906355e-05   4.755161546460404e-06   -2.5019144698629203e-06
-3.1910391533906355e-05   4.755161546460404e-06   -2.5019144698629203e-06
-3.1910391533906355e-05   4.755161546460404e-06   -2.5019144698629203e-06
-3.1910391533906355e-05   4.755161546460404e-06   -2.5019144698629203e-06
-3.276580810578105e-05   5.263701117125654e-06   1.8472438258902105e-05
-3.276580810578105e-05   5.263701117125654e-06   1.8472438258902105e-05
-3.276580810578105e-05   5.263701117125654e-06   1.8472438258902105e-05
-3.276580810578105e-05   5.263701117125654e-06   1.8472438258902105e-05
-2.2262544108984483e-05   4.321534903935654e-06   1.5322979921548216e-06
-2.2262544108984483e-05   4.321534903935654e-06   1.5322979921548216e-06
-2.2262544108984483e-05   4.321534903935654e-06   1.5322979921548216e-06
-2.2262544108984483e-05   4.321534903935654e-06   1.5322979921548216e-06
-2.6077096224281352e-05   5.096381951424488e-06   7.424976622490359e-06
-2.6077096224281352e-05   5.096381951424488e-06   7.424976622490359e-06
-2.6077096224281352e-05   5.096381951424488e-06   7.424976622490359e-06
-2.6077096224281352e-05   5.096381951424488e-06   7.424976622490359e-06
1.4420799046768314e-05   -1.8669875289254942e-06   1.4359833204457173e-05
1.4420799046768314e-05   -1.8669875289254942e-06   1.4359833204457173e-05
1.4420799046768314e-05   -1.8669875289254942e-06   1.4359833204457173e-05
1.4420799046768314e-05   -1.8669875289254942e-06   1.4359833204457173e-05
5.989747070467835e-06   -9.314541064865938e-07   8.693999640863948e-07
5.989747070467835e-06   -9.314541064865938e-07   8.693999640863948e-07
5.989747070467835e-06   -9.314541064865938e-07   8.693999640863948e-07
5.989747070467835e-06   -9.314541064865938e-07   8.693999640863948e-07
5.623092115083897e-06   -2.2614878834625093e-06   1.289970416540635e-05
5.623092115083897e-06   -2.2614878834625093e-06   1.289970416540635e-05
5.623092115083897e-06   -2.2614878834625093e-06   1.289970416540635e-05
5.623092115083897e-06   -2.2614878834625093e-06   1.289970416540635e-05
1.3638782045707947e-05   -1.285803944728564e-06   -1.0451894155408026e-06
1.3638782045707947e-05   -1.285803944728564e-06   -1.0451894155408026e-06
1.3638782045707947e-05   -1.285803944728564e-06   -1.0451894155408026e-06
1.3638782045707947e-05   -1.285803944728564e-06   -1.0451894155408026e-06
9.425297748768561e-06   -1.623656816076213e-06   6.179996135500295e-06
9.425297748768561e-06   -1.623656816076213e-06   6.179996135500295e-06
9.425297748768561e-06   -1.623656816076213e-06   6.179996135500295e-06
9.425297748768561e-06   -1.623656816076213e-06   6.179996135500295e-06
1.3638782045707971e-05   -2.2614878834625093e-06   1.2314293802165896e-05
1.3638782045707971e-05   -2.2614878834625093e-06   1.2314293802165896e-05
1.3638782045707971e-05   -2.2614878834625093e-06   1.2314293802165896e-05
1.3638782045707971e-05   -2.2614878834625093e-06   1.2314293802165896e-05
5.623092115083878e-06   -1.285803944728564e-06   -4.597790523003893e-07
5.623092115083878e-06   -1.285803944728564e-06   -4.597790523003893e-07
5.623092115083878e-06   -1.285803944728564e-06   -4.597790523003893e-07
5.623092115083878e-06   -1.285803944728564e-06   -4.597790523003893e-07
5.210526551782779e-06   -2.366204078407992e-06   1.1816876791740337e-05
5.210526551782779e-06   -2.366204078407992e-06   1.1816876791740337e-05
5.210526551782779e-06   -2.366204078407992e-06   1.1816876791740337e-05
5.210526551782779e-06   -2.366204078407992e-06   1.1816876791740337e-05
1.2966695841797588e-05   -1.40699899218034e-06   -1.6855950766876958e-06
1.2966695841797588e-05   -1.40699899218034e-06   -1.6855950766876958e-06
1.2966695841797588e-05   -1.40699899218034e-06   -1.6855950766876958e-06
1.2966695841797588e-05   -1.40699899218034e-06   -1.6855950766876958e-06
9.081170986119814e-06   -1.774239843440749e-06   5.0106241935317765e-06
9.081170986119814e-06   -1.774239843440749e-06   5.0106241935317765e-06
9.081170986119814e-06   -1.774239843440749e-06   5.0106241935317765e-06
9.081170986119814e-06   -1.774239843440749e-06   5.0106241935317765e-06
1.2966695841797608e-05   -2.366204078407992e-06   1.1241353740003594e-05
1.2966695841797608e-05   -2.366204078407992e-06   1.1241353740003594e-05
1.2966695841797608e-05   -2.366204078407992e-06   1.1241353740003594e-05
1.2966695841797608e-05   -2.366204078407992e-06   1.1241353740003594e-05
5.2105265517827726e-06   -1.40699899218034e-06   -1.1100720249509121e-06
5.2105265517827726e-06   -1.40699899218034e-06   -1.1100720249509121e-06
5.2105265517827726e-06   -1.40699899218034e-06   -1.1100720249509121e-06
5.2105265517827726e-06   -1.40699899218034e-06   -1.1100720249509121e-06
4.840383387436118e-06   -2.4609398375854963e-06   1.0404976559273433e-05
4.840383387436118e-06   -2.4609398375854963e-06   1.0404976559273433e-05
4.840383387436118e-06   -2.4609398375854963e-06   1.0404976559273433e-05
4.840383387436118e-06   -2.4609398375854963e-06   1.0404976559273433e-05
1.220308558379932e-05   -1.5646721752860405e-06   -2.4039543653783346e-06
1.220308558379932e-05   -1.5646721752860405e-06   -2.4039543653783346e-06
1.220308558379932e-05   -1.5646721752860405e-06   -2.4039543653783346e-06
1.220308558379932e-05   -1.5646721752860405e-06   -2.4039543653783346e-06
8.432464892193851e-06   -1.8020120463193125e-06   4.02281737658407e-06
8.432464892193851e-06   -1.8020120463193125e-06   4.02281737658407e-06
8.432464892193851e-06   -1.8020120463193125e-06   4.02281737658407e-06
8.432464892193851e-06   -1.8020120463193125e-06   4.02281737658407e-06
5.9897470704678556e-06   -1.6100973170398228e-08   1.767479033732192e-05
5.9897470704678556e-06   -1.6100973170398228e-08   1.767479033732192e-05
5.9897470704678556e-06   -1.6100973170398228e-08   1.767479033732192e-05
5.9897470704678556e-06   -1.6100973170398228e-08   1.767479033732192e-05
-1.9148105182353008e-06   4.6101831962608395e-07   4.78679926516133e-06
-1.9148105182353008e-06   4.6101831962608395e-07   4.78679926516133e-06
-1.9148105182353008e-06   4.6101831962608395e-07   4.78679926516133e-06
-1.9148105182353008e-06   4.6101831962608395e-07   4.78679926516133e-06
-2.2520467406803957e-06   -3.5806744730013107e-07   1.770601380439668e-05
-2.2520467406803957e-06   -3.5806744730013107e-07   1.770601380439668e-05
-2.2520467406803957e-06   -3.5806744730013107e-07   1.770601380439668e-05
-2.2520467406803957e-06   -3.5806744730013107e-07   1.770601380439668e-05
5.623092115083878e-06   1.0368664781249762e-07   4.303729921055272e-06
5.623092115083878e-06   1.0368664781249762e-07   4.303729921055272e-06
5.623092115083878e-06   1.0368664781249762e-07   4.303729921055272e-06
5.623092115083878e-06   1.0368664781249762e-07   4.303729921055272e-06
1.804888363492607e-06   1.6607016219442536e-08   1.071965061933013e-05
1.804888363492607e-06   1.6607016219442536e-08   1.071965061933013e-05
1.804888363492607e-06   1.6607016219442536e-08   1.071965061933013e-05
1.804888363492607e-06   1.6607016219442536e-08   1.071965061933013e-05
5.623092115083893e-06   -3.5806744730013107e-07   1.7428961347328996e-05
5.623092115083893e-06   -3.5806744730013107e-07   1.7428961347328996e-05
5.623092115083893e-06   -3.5806744730013107e-07   1.7428961347328996e-05
5.623092115083893e-06   -3.5806744730013107e-07   1.7428961347328996e-05
-2.2520467406803957e-06   1.0368664781249762e-07   4.580782378122805e-06
-2.2520467406803957e-06   1.0368664781249762e-07   4.580782378122805e-06
-2.2520467406803957e-06   1.0368664781249762e-07   4.580782378122805e-06
-2.2520467406803957e-06   1.0368664781249762e-07   4.580782378122805e-06
-2.597016453100996e-06   -6.265002960158684e-07   1.748877551827283e-05
-2.597016453100996e-06   -6.265002960158684e-07   1.748877551827283e-05
-2.597016453100996e-06   -6.265002960158684e-07   1.748877551827283e-05
-2.597016453100996e-06   -6.265002960158684e-07   1.748877551827283e-05
5.2105265517827726e-06   -1.8765321180009686e-07   4.212895592936986e-06
5.2105265517827726e-06   -1.8765321180009686e-07   4.212895592936986e-06
5.2105265517827726e-06   -1.8765321180009686e-07   4.212895592936986e-06
5.2105265517827726e-06   -1.8765321180009686e-07   4.212895592936986e-06
1.4333545065899555e-06   -2.21096161422585e-07   1.0528248104699103e-05
1.4333545065899555e-06   -2.21096161422585e-07   1.0528248104699103e-05
1.4333545065899555e-06   -2.21096161422585e-07   1.0528248104699103e-05
1.4333545065899555e-06   -2.21096161422585e-07   1.0528248104699103e-05
5.210526551782791e-06   -6.265002960158684e-07   1.7225467267743323e-05
5.210526551782791e-06   -6.265002960158684e-07   1.7225467267743323e-05
5.210526551782791e-06   -6.265002960158684e-07   1.7225467267743323e-05
5.210526551782791e-06   -6.265002960158684e-07   1.7225467267743323e-05
-2.5970164531010097e-06   -1.8765321180009686e-07   4.476203843466523e-06
-2.5970164531010097e-06   -1.8765321180009686e-07   4.476203843466523e-06
-2.5970164531010097e-06   -1.8765321180009686e-07   4.476203843466523e-06
-2.5970164531010097e-06   -1.8765321180009686e-07   4.476203843466523e-06
-2.9392172844831647e-06   -8.737183699117097e-07   1.7642072428408653e-05
-2.9392172844831647e-06   -8.737183699117097e-07   1.7642072428408653e-05
-2.9392172844831647e-06   -8.737183699117097e-07   1.7642072428408653e-05
-2.9392172844831647e-06   -8.737183699117097e-07   1.7642072428408653e-05
4.840383387436098e-06   -4.7341949815764024e-07   4.43589198549073e-06
4.840383387436098e-06   -4.7341949815764024e-07   4.43589198549073e-06
4.840383387436098e-06   -4.7341949815764024e-07   4.43589198549073e-06
4.840383387436098e-06   -4.7341949815764024e-07   4.43589198549073e-06
1.141077732250732e-06   -4.180025285230402e-07   1.0568151229018862e-05
1.141077732250732e-06   -4.180025285230402e-07   1.0568151229018862e-05
1.141077732250732e-06   -4.180025285230402e-07   1.0568151229018862e-05
1.141077732250732e-06   -4.180025285230402e-07   1.0568151229018862e-05
-1.9148105182353008e-06   1.7882659822988662e-06   1.9165363006103716e-05
-1.9148105182353008e-06   1.7882659822988662e-06   1.9165363006103716e-05
-1.9148105182353008e-06   1.7882659822988662e-06   1.9165363006103716e-05
-1.9148105182353008e-06   1.7882659822988662e-06   1.9165363006103716e-05
-9.686500089841975e-06   1.7633961623489142e-06   6.197625161456018e-06
-9.686500089841975e-06   1.7633961623489142e-06   6.197625161456018e-06
-9.686500089841975e-06   1.7633961623489142e-06   6.197625161456018e-06
-9.686500089841975e-06   1.7633961623489142e-06   6.197625161456018e-06
-1.0019582031829119e-05   1.4890412112504754e-06   1.90405485760263e-05
-1.0019582031829119e-05   1.4890412112504754e-06   1.90405485760263e-05
-1.0019582031829119e-05   1.4890412112504754e-06   1.90405485760263e-05
-1.0019582031829119e-05   1.4890412112504754e-06   1.90405485760263e-05
-2.252046740680382e-06   1.4398634592103794e-06   6.1241630753357306e-06
-2.252046740680382e-06   1.4398634592103794e-06   6.1241630753357306e-06
-2.252046740680382e-06   1.4398634592103794e-06   6.1241630753357306e-06
-2.252046740680382e-06   1.4398634592103794e-06   6.1241630753357306e-06
-5.983235977508428e-06   1.579196300811143e-06   1.22592120984223e-05
-5.983235977508428e-06   1.579196300811143e-06   1.22592120984223e-05
-5.983235977508428e-06   1.579196300811143e-06   1.22592120984223e-05
-5.983235977508428e-06   1.579196300811143e-06   1.22592120984223e-05
-2.2520467406803957e-06   1.4890412112504754e-06   1.9070055227250228e-05
-2.2520467406803957e-06   1.4890412112504754e-06   1.9070055227250228e-05
-2.2520467406803957e-06   1.4890412112504754e-06   1.9070055227250228e-05
-2.2520467406803957e-06   1.4890412112504754e-06   1.9070055227250228e-05
-1.0019582031829119e-05   1.439863459210271e-06   6.0946564241117895e-06
-1.0019582031829119e-05   1.439863459210271e-06   6.0946564241117895e-06
-1.0019582031829119e-05   1.439863459210271e-06   6.0946564241117895e-06
-1.0019582031829119e-05   1.439863459210271e-06   6.0946564241117895e-06
-1.0360525613516621e-05   1.1946241357094125e-06   1.9134931019515575e-05
-1.0360525613516621e-05   1.1946241357094125e-06   1.9134931019515575e-05
-1.0360525613516621e-05   1.1946241357094125e-06   1.9134931019515575e-05
-1.0360525613516621e-05   1.1946241357094125e-06   1.9134931019515575e-05
-2.597016453100996e-06   1.1200790774142837e-06   6.240476120466777e-06
-2.597016453100996e-06   1.1200790774142837e-06   6.240476120466777e-06
-2.597016453100996e-06   1.1200790774142837e-06   6.240476120466777e-06
-2.597016453100996e-06   1.1200790774142837e-06   6.240476120466777e-06
-6.287917167490111e-06   1.3448708070115884e-06   1.2257102273357238e-05
-6.287917167490111e-06   1.3448708070115884e-06   1.2257102273357238e-05
-6.287917167490111e-06   1.3448708070115884e-06   1.2257102273357238e-05
-6.287917167490111e-06   1.3448708070115884e-06   1.2257102273357238e-05
-2.5970164531010097e-06   1.1946241357094125e-06   1.917965805449276e-05
-2.5970164531010097e-06   1.1946241357094125e-06   1.917965805449276e-05
-2.5970164531010097e-06   1.1946241357094125e-06   1.917965805449276e-05
-2.5970164531010097e-06   1.1946241357094125e-06   1.917965805449276e-05
-1.0360525613516621e-05   1.1200790774141753e-06   6.195749085489565e-06
-1.0360525613516621e-05   1.1200790774141753e-06   6.195749085489565e-06
-1.0360525613516621e-05   1.1200790774141753e-06   6.195749085489565e-06
-1.0360525613516621e-05   1.1200790774141753e-06   6.195749085489565e-06
-1.069735115755091e-05   9.153438721857046e-07   1.9387711754102646e-05
-1.069735115755091e-05   9.153438721857046e-07   1.9387711754102646e-05
-1.069735115755091e-05   9.153438721857046e-07   1.9387711754102646e-05
-1.069735115755091e-05   9.153438721857046e-07   1.9387711754102646e-05
-2.9392172844831647e-06   8.123814525615863e-07   6.519266084097758e-06
-2.9392172844831647e-06   8.123814525615863e-07   6.519266084097758e-06
-2.9392172844831647e-06   8.123814525615863e-07   6.519266084097758e-06
-2.9392172844831647e-06   8.123814525615863e-07   6.519266084097758e-06
-6.606800434350417e-06   1.1161860564683082e-06   1.2449621904865729e-05
-6.606800434350417e-06   1.1161860564683082e-06   1.2449621904865729e-05
-6.606800434350417e-06   1.1161860564683082e-06   1.2449621904865729e-05
-6.606800434350417e-06   1.1161860564683082e-06   1.2449621904865729e-05
-9.686500089841975e-06   3.5264495983425032e-06   1.6963099057303098e-05
-9.686500089841975e-06   3.5264495983425032e-06   1.6963099057303098e-05
-9.686500089841975e-06   3.5264495983425032e-06   1.6963099057303098e-05
-9.686500089841975e-06   3.5264495983425032e-06   1.6963099057303098e-05
-1.733532071924193e-05   3.03129754947889e-06   3.917973445651923e-06
-1.733532071924193e-05   3.03129754947889e-06   3.917973445651923e-06
-1.733532071924193e-05   3.03129754947889e-06   3.917973445651923e-06
-1.733532071924193e-05   3.03129754947889e-06   3.917973445651923e-06
-1.769304832616812e-05   3.240965909908104e-06   1.674199761959622e-05
-1.769304832616812e-05   3.240965909908104e-06   1.674199761959622e-05
-1.769304832616812e-05   3.240965909908104e-06   1.674199761959622e-05
-1.769304832616812e-05   3.240965909908104e-06   1.674199761959622e-05
-1.0019582031829091e-05   2.7160555682310527e-06   4.267833334037618e-06
-1.0019582031829091e-05   2.7160555682310527e-06   4.267833334037618e-06
-1.0019582031829091e-05   2.7160555682310527e-06   4.267833334037618e-06
-1.0019582031829091e-05   2.7160555682310527e-06   4.267833334037618e-06
-1.3644692718859196e-05   3.074230197298118e-06   1.0094779701647853e-05
-1.3644692718859196e-05   3.074230197298118e-06   1.0094779701647853e-05
-1.3644692718859196e-05   3.074230197298118e-06   1.0094779701647853e-05
-1.3644692718859196e-05   3.074230197298118e-06   1.0094779701647853e-05
-1.0019582031829119e-05   3.240965909908104e-06   1.705694382460256e-05
-1.0019582031829119e-05   3.240965909908104e-06   1.705694382460256e-05
-1.0019582031829119e-05   3.240965909908104e-06   1.705694382460256e-05
-1.0019582031829119e-05   3.240965909908104e-06   1.705694382460256e-05
-1.7693048326168095e-05   2.7160555682310527e-06   3.952887129031306e-06
-1.7693048326168095e-05   2.7160555682310527e-06   3.952887129031306e-06
-1.7693048326168095e-05   2.7160555682310527e-06   3.952887129031306e-06
-1.7693048326168095e-05   2.7160555682310527e-06   3.952887129031306e-06
-1.809524202166796e-05   2.9739555418410463e-06   1.7315535138157155e-05
-1.809524202166796e-05   2.9739555418410463e-06   1.7315535138157155e-05
-1.809524202166796e-05   2.9739555418410463e-06   1.7315535138157155e-05
-1.809524202166796e-05   2.9739555418410463e-06   1.7315535138157155e-05
-1.036052561351658e-05   2.423501010666209e-06   4.754613843276491e-06
-1.036052561351658e-05   2.423501010666209e-06   4.754613843276491e-06
-1.036052561351658e-05   2.423501010666209e-06   4.754613843276491e-06
-1.036052561351658e-05   2.423501010666209e-06   4.754613843276491e-06
-1.3890698540509071e-05   2.8598604698389573e-06   1.0376419712760867e-05
-1.3890698540509071e-05   2.8598604698389573e-06   1.0376419712760867e-05
-1.3890698540509071e-05   2.8598604698389573e-06   1.0376419712760867e-05
-1.3890698540509071e-05   2.8598604698389573e-06   1.0376419712760867e-05
-1.0360525613516608e-05   2.9739555418410463e-06   1.764580785686197e-05
-1.0360525613516608e-05   2.9739555418410463e-06   1.764580785686197e-05
-1.0360525613516608e-05   2.9739555418410463e-06   1.764580785686197e-05
-1.0360525613516608e-05   2.9739555418410463e-06   1.764580785686197e-05
-1.8095242021667934e-05   2.4235010106663174e-06   4.424341124571675e-06
-1.8095242021667934e-05   2.4235010106663174e-06   4.424341124571675e-06
-1.8095242021667934e-05   2.4235010106663174e-06   4.424341124571675e-06
-1.8095242021667934e-05   2.4235010106663174e-06   4.424341124571675e-06
-1.845218607392346e-05   2.662091612559833e-06   1.7795923190402625e-05
-1.845218607392346e-05   2.662091612559833e-06   1.7795923190402625e-05
-1.845218607392346e-05   2.662091612559833e-06   1.7795923190402625e-05
-1.845218607392346e-05   2.662091612559833e-06   1.7795923190402625e-05
-1.0697351157550882e-05   2.0956126827923307e-06   5.211085687642177e-06
-1.0697351157550882e-05   2.0956126827923307e-06   5.211085687642177e-06
-1.0697351157550882e-05   2.0956126827923307e-06   5.211085687642177e-06
-1.0697351157550882e-05   2.0956126827923307e-06   5.211085687642177e-06
-1.4294805885700243e-05   2.633258693985111e-06   1.088425596117577e-05
-1.4294805885700243e-05   2.633258693985111e-06   1.088425596117577e-05
-1.4294805885700243e-05   2.633258693985111e-06   1.088425596117577e-05
-1.4294805885700243e-05   2.633258693985111e-06   1.088425596117577e-05
-1.733532071924193e-05   4.873241758576556e-06   8.166511887205139e-06
-1.733532071924193e-05   4.873241758576556e-06   8.166511887205139e-06
-1.733532071924193e-05   4.873241758576556e-06   8.166511887205139e-06
-1.733532071924193e-05   4.873241758576556e-06   8.166511887205139e-06
-2.4530093430920346e-05   3.988731376708128e-06   -4.355482194713406e-06
-2.4530093430920346e-05   3.988731376708128e-06   -4.355482194713406e-06
-2.4530093430920346e-05   3.988731376708128e-06   -4.355482194713406e-06
-2.4530093430920346e-05   3.988731376708128e-06   -4.355482194713406e-06
-2.527970080890609e-05   4.852759896071699e-06   1.0492469233676295e-05
-2.527970080890609e-05   4.852759896071699e-06   1.0492469233676295e-05
-2.527970080890609e-05   4.852759896071699e-06   1.0492469233676295e-05
-2.527970080890609e-05   4.852759896071699e-06   1.0492469233676295e-05
-1.769304832616804e-05   3.8897897519782e-06   -1.574169484430839e-06
-1.769304832616804e-05   3.8897897519782e-06   -1.574169484430839e-06
-1.769304832616804e-05   3.8897897519782e-06   -1.574169484430839e-06
-1.769304832616804e-05   3.8897897519782e-06   -1.574169484430839e-06
-2.041410438253335e-05   4.319614222881999e-06   2.7030292603026813e-06
-2.041410438253335e-05   4.319614222881999e-06   2.7030292603026813e-06
-2.041410438253335e-05   4.319614222881999e-06   2.7030292603026813e-06
-2.041410438253335e-05   4.319614222881999e-06   2.7030292603026813e-06
-1.7693048326168095e-05   4.852759896071699e-06   1.1070251320132417e-05
-1.7693048326168095e-05   4.852759896071699e-06   1.1070251320132417e-05
-1.7693048326168095e-05   4.852759896071699e-06   1.1070251320132417e-05
-1.7693048326168095e-05   4.852759896071699e-06   1.1070251320132417e-05
-2.5279700808906146e-05   3.889789751978308e-06   -2.151951570887069e-06
-2.5279700808906146e-05   3.889789751978308e-06   -2.151951570887069e-06
-2.5279700808906146e-05   3.889789751978308e-06   -2.151951570887069e-06
-2.5279700808906146e-05   3.889789751978308e-06   -2.151951570887069e-06
-2.5932623053475967e-05   4.755161546460187e-06   1.2498274555700333e-05
-2.5932623053475967e-05   4.755161546460187e-06   1.2498274555700333e-05
-2.5932623053475967e-05   4.755161546460187e-06   1.2498274555700333e-05
-2.5932623053475967e-05   4.755161546460187e-06   1.2498274555700333e-05
-1.8095242021667934e-05   3.7655744969944394e-06   2.9725065699777627e-08
-1.8095242021667934e-05   3.7655744969944394e-06   2.9725065699777627e-08
-1.8095242021667934e-05   3.7655744969944394e-06   2.9725065699777627e-08
-1.8095242021667934e-05   3.7655744969944394e-06   2.9725065699777627e-08
-2.121165081957656e-05   4.324022111335869e-06   4.8886711602767535e-06
-2.121165081957656e-05   4.324022111335869e-06   4.8886711602767535e-06
-2.121165081957656e-05   4.324022111335869e-06   4.8886711602767535e-06
-2.121165081957656e-05   4.324022111335869e-06   4.8886711602767535e-06
-1.809524202166796e-05   4.755161546460404e-06   1.3092026785379825e-05
-1.809524202166796e-05   4.755161546460404e-06   1.3092026785379825e-05
-1.809524202166796e-05   4.755161546460404e-06   1.3092026785379825e-05
-1.809524202166796e-05   4.755161546460404e-06   1.3092026785379825e-05
-2.5932623053475967e-05   3.7655744969944394e-06   -5.640271639797143e-07
-2.5932623053475967e-05   3.7655744969944394e-06   -5.640271639797143e-07
-2.5932623053475967e-05   3.7655744969944394e-06   -5.640271639797143e-07
-2.5932623053475967e-05   3.7655744969944394e-06   -5.640271639797143e-07
-2.6689054585703106e-05   4.321534903935654e-06   1.5979943488629296e-05
-2.6689054585703106e-05   4.321534903935654e-06   1.5979943488629296e-05
-2.6689054585703106e-05   4.321534903935654e-06   1.5979943488629296e-05
-2.6689054585703106e-05   4.321534903935654e-06   1.5979943488629296e-05
-1.8452186073923406e-05   3.346184660362947e-06   2.837039448473676e-06
-1.8452186073923406e-05   3.346184660362947e-06   2.837039448473676e-06
-1.8452186073923406e-05   3.346184660362947e-06   2.837039448473676e-06
-1.8452186073923406e-05   3.346184660362947e-06   2.837039448473676e-06
-2.1382776706521493e-05   4.141135485783657e-06   7.244386674217927e-06
-2.1382776706521493e-05   4.141135485783657e-06   7.244386674217927e-06
-2.1382776706521493e-05   4.141135485783657e-06   7.244386674217927e-06
-2.1382776706521493e-05   4.141135485783657e-06   7.244386674217927e-06
8.11009423013326e-06   -9.314541064865938e-07   1.135621979123807e-05
8.11009423013326e-06   -9.314541064865938e-07   1.135621979123807e-05
8.11009423013326e-06   -9.314541064865938e-07   1.135621979123807e-05
8.11009423013326e-06   -9.314541064865938e-07   1.135621979123807e-05
2.1600767424100745e-06   -1.091152072884606e-09   1.9977417510143444e-06
2.1600767424100745e-06   -1.091152072884606e-09   1.9977417510143444e-06
2.1600767424100745e-06   -1.091152072884606e-09   1.9977417510143444e-06
2.1600767424100745e-06   -1.091152072884606e-09   1.9977417510143444e-06
1.884199997400115e-06   -1.285803944728564e-06   1.0574561403509412e-05
1.884199997400115e-06   -1.285803944728564e-06   1.0574561403509412e-05
1.884199997400115e-06   -1.285803944728564e-06   1.0574561403509412e-05
1.884199997400115e-06   -1.285803944728564e-06   1.0574561403509412e-05
7.427016953488332e-06   -3.1959373680238035e-07   7.568070186069067e-07
7.427016953488332e-06   -3.1959373680238035e-07   7.568070186069067e-07
7.427016953488332e-06   -3.1959373680238035e-07   7.568070186069067e-07
7.427016953488332e-06   -3.1959373680238035e-07   7.568070186069067e-07
4.608180304447346e-06   -6.795476561602875e-07   5.670840451956827e-06
4.608180304447346e-06   -6.795476561602875e-07   5.670840451956827e-06
4.608180304447346e-06   -6.795476561602875e-07   5.670840451956827e-06
4.608180304447346e-06   -6.795476561602875e-07   5.670840451956827e-06
7.427016953488345e-06   -1.285803944728564e-06   9.994835278753756e-06
7.427016953488345e-06   -1.285803944728564e-06   9.994835278753756e-06
7.427016953488345e-06   -1.285803944728564e-06   9.994835278753756e-06
7.427016953488345e-06   -1.285803944728564e-06   9.994835278753756e-06
1.8841999974001134e-06   -3.1959373680238035e-07   1.3365331433625761e-06
1.8841999974001134e-06   -3.1959373680238035e-07   1.3365331433625761e-06
1.8841999974001134e-06   -3.1959373680238035e-07   1.3365331433625761e-06
1.8841999974001134e-06   -3.1959373680238035e-07   1.3365331433625761e-06
1.561989151111199e-06   -1.4069989921804485e-06   9.915684794062373e-06
1.561989151111199e-06   -1.4069989921804485e-06   9.915684794062373e-06
1.561989151111199e-06   -1.4069989921804485e-06   9.915684794062373e-06
1.561989151111199e-06   -1.4069989921804485e-06   9.915684794062373e-06
6.847859052730329e-06   -4.55802513786986e-07   5.351837376611204e-07
6.847859052730329e-06   -4.55802513786986e-07   5.351837376611204e-07
6.847859052730329e-06   -4.55802513786986e-07   5.351837376611204e-07
6.847859052730329e-06   -4.55802513786986e-07   5.351837376611204e-07
4.280780059978838e-06   -8.186852270280912e-07   5.031378353524956e-06
4.280780059978838e-06   -8.186852270280912e-07   5.031378353524956e-06
4.280780059978838e-06   -8.186852270280912e-07   5.031378353524956e-06
4.280780059978838e-06   -8.186852270280912e-07   5.031378353524956e-06
6.8478590527303425e-06   -1.4069989921804485e-06   9.344966907026339e-06
6.8478590527303425e-06   -1.4069989921804485e-06   9.344966907026339e-06
6.8478590527303425e-06   -1.4069989921804485e-06   9.344966907026339e-06
6.8478590527303425e-06   -1.4069989921804485e-06   9.344966907026339e-06
1.5619891511111923e-06   -4.55802513786986e-07   1.1059016246971545e-06
1.5619891511111923e-06   -4.55802513786986e-07   1.1059016246971545e-06
1.5619891511111923e-06   -4.55802513786986e-07   1.1059016246971545e-06
1.5619891511111923e-06   -4.55802513786986e-07   1.1059016246971545e-06
1.2824570026285066e-06   -1.5646721752860405e-06   9.147391564064199e-06
1.2824570026285066e-06   -1.5646721752860405e-06   9.147391564064199e-06
1.2824570026285066e-06   -1.5646721752860405e-06   9.147391564064199e-06
1.2824570026285066e-06   -1.5646721752860405e-06   9.147391564064199e-06
6.168511946131943e-06   -6.805756454876305e-07   4.7350874034629814e-07
6.168511946131943e-06   -6.805756454876305e-07   4.7350874034629814e-07
6.168511946131943e-06   -6.805756454876305e-07   4.7350874034629814e-07
6.168511946131943e-06   -6.805756454876305e-07   4.7350874034629814e-07
3.7908168520822163e-06   -8.884228817644321e-07   4.561042238862079e-06
3.7908168520822163e-06   -8.884228817644321e-07   4.561042238862079e-06
3.7908168520822163e-06   -8.884228817644321e-07   4.561042238862079e-06
3.7908168520822163e-06   -8.884228817644321e-07   4.561042238862079e-06
2.160076742410078e-06   4.6101831962619237e-07   1.554556528928332e-05
2.160076742410078e-06   4.6101831962619237e-07   1.554556528928332e-05
2.160076742410078e-06   4.6101831962619237e-07   1.554556528928332e-05
2.160076742410078e-06   4.6101831962619237e-07   1.554556528928332e-05
-3.2540065274204834e-06   8.845740211881536e-07   6.776226593836255e-06
-3.2540065274204834e-06   8.845740211881536e-07   6.776226593836255e-06
-3.2540065274204834e-06   8.845740211881536e-07   6.776226593836255e-06
-3.2540065274204834e-06   8.845740211881536e-07   6.776226593836255e-06
-3.496737951372354e-06   1.0368664781249762e-07   1.5591548690813183e-05
-3.496737951372354e-06   1.0368664781249762e-07   1.5591548690813183e-05
-3.496737951372354e-06   1.0368664781249762e-07   1.5591548690813183e-05
-3.496737951372354e-06   1.0368664781249762e-07   1.5591548690813183e-05
1.8841999974001134e-06   5.261505043923026e-07   6.3698404622446096e-06
1.8841999974001134e-06   5.261505043923026e-07   6.3698404622446096e-06
1.8841999974001134e-06   5.261505043923026e-07   6.3698404622446096e-06
1.8841999974001134e-06   5.261505043923026e-07   6.3698404622446096e-06
-7.175830394128173e-07   4.5748430424973844e-07   1.0747345243685444e-05
-7.175830394128173e-07   4.5748430424973844e-07   1.0747345243685444e-05
-7.175830394128173e-07   4.5748430424973844e-07   1.0747345243685444e-05
-7.175830394128173e-07   4.5748430424973844e-07   1.0747345243685444e-05
1.884199997400115e-06   1.0368664781249762e-07   1.533807037686519e-05
1.884199997400115e-06   1.0368664781249762e-07   1.533807037686519e-05
1.884199997400115e-06   1.0368664781249762e-07   1.533807037686519e-05
1.884199997400115e-06   1.0368664781249762e-07   1.533807037686519e-05
-3.496737951372354e-06   5.261505043924111e-07   6.623318776192543e-06
-3.496737951372354e-06   5.261505043924111e-07   6.623318776192543e-06
-3.496737951372354e-06   5.261505043924111e-07   6.623318776192543e-06
-3.496737951372354e-06   5.261505043924111e-07   6.623318776192543e-06
-3.7467171643927057e-06   -1.8765321179998844e-07   1.5485338248491043e-05
-3.7467171643927057e-06   -1.8765321179998844e-07   1.5485338248491043e-05
-3.7467171643927057e-06   -1.8765321179998844e-07   1.5485338248491043e-05
-3.7467171643927057e-06   -1.8765321179998844e-07   1.5485338248491043e-05
1.5619891511111923e-06   2.2348984910110226e-07   6.390808552777305e-06
1.5619891511111923e-06   2.2348984910110226e-07   6.390808552777305e-06
1.5619891511111923e-06   2.2348984910110226e-07   6.390808552777305e-06
1.5619891511111923e-06   2.2348984910110226e-07   6.390808552777305e-06
-9.771439824575316e-07   2.0819938592012317e-07   1.0631871386633897e-05
-9.771439824575316e-07   2.0819938592012317e-07   1.0631871386633897e-05
-9.771439824575316e-07   2.0819938592012317e-07   1.0631871386633897e-05
-9.771439824575316e-07   2.0819938592012317e-07   1.0631871386633897e-05
1.561989151111199e-06   -1.8765321179998844e-07   1.523865241195041e-05
1.561989151111199e-06   -1.8765321179998844e-07   1.523865241195041e-05
1.561989151111199e-06   -1.8765321179998844e-07   1.523865241195041e-05
1.561989151111199e-06   -1.8765321179998844e-07   1.523865241195041e-05
-3.7467171643927057e-06   2.2348984910110226e-07   6.637494389317934e-06
-3.7467171643927057e-06   2.2348984910110226e-07   6.637494389317934e-06
-3.7467171643927057e-06   2.2348984910110226e-07   6.637494389317934e-06
-3.7467171643927057e-06   2.2348984910110226e-07   6.637494389317934e-06
-3.9931493316428635e-06   -4.7341949815764024e-07   1.5682855004965526e-05
-3.9931493316428635e-06   -4.7341949815764024e-07   1.5682855004965526e-05
-3.9931493316428635e-06   -4.7341949815764024e-07   1.5682855004965526e-05
-3.9931493316428635e-06   -4.7341949815764024e-07   1.5682855004965526e-05
1.2824570026285032e-06   -8.445668580432057e-08   6.6568000937679435e-06
1.2824570026285032e-06   -8.445668580432057e-08   6.6568000937679435e-06
1.2824570026285032e-06   -8.445668580432057e-08   6.6568000937679435e-06
1.2824570026285032e-06   -8.445668580432057e-08   6.6568000937679435e-06
-1.1961858251826603e-06   -1.4240486030181812e-08   1.074574175358899e-05
-1.1961858251826603e-06   -1.4240486030181812e-08   1.074574175358899e-05
-1.1961858251826603e-06   -1.4240486030181812e-08   1.074574175358899e-05
-1.1961858251826603e-06   -1.4240486030181812e-08   1.074574175358899e-05
-3.2540065274204834e-06   1.7633961623489142e-06   1.7225446498485265e-05
-3.2540065274204834e-06   1.7633961623489142e-06   1.7225446498485265e-05
-3.2540065274204834e-06   1.7633961623489142e-06   1.7225446498485265e-05
-3.2540065274204834e-06   1.7633961623489142e-06   1.7225446498485265e-05
-8.572033067477262e-06   1.6658146164745145e-06   8.303520004199184e-06
-8.572033067477262e-06   1.6658146164745145e-06   8.303520004199184e-06
-8.572033067477262e-06   1.6658146164745145e-06   8.303520004199184e-06
-8.572033067477262e-06   1.6658146164745145e-06   8.303520004199184e-06
-8.805270213509548e-06   1.4398634592103794e-06   1.7072911035557895e-05
-8.805270213509548e-06   1.4398634592103794e-06   1.7072911035557895e-05
-8.805270213509548e-06   1.4398634592103794e-06   1.7072911035557895e-05
-8.805270213509548e-06   1.4398634592103794e-06   1.7072911035557895e-05
-3.4967379513723405e-06   1.3364995384302627e-06   8.287375617797442e-06
-3.4967379513723405e-06   1.3364995384302627e-06   8.287375617797442e-06
-3.4967379513723405e-06   1.3364995384302627e-06   8.287375617797442e-06
-3.4967379513723405e-06   1.3364995384302627e-06   8.287375617797442e-06
-6.043600932712252e-06   1.5133018201390555e-06   1.242606588433925e-05
-6.043600932712252e-06   1.5133018201390555e-06   1.242606588433925e-05
-6.043600932712252e-06   1.5133018201390555e-06   1.242606588433925e-05
-6.043600932712252e-06   1.5133018201390555e-06   1.242606588433925e-05
-3.496737951372354e-06   1.4398634592103794e-06   1.7134929388026203e-05
-3.496737951372354e-06   1.4398634592103794e-06   1.7134929388026203e-05
-3.496737951372354e-06   1.4398634592103794e-06   1.7134929388026203e-05
-3.496737951372354e-06   1.4398634592103794e-06   1.7134929388026203e-05
-8.805270213509535e-06   1.3364995384302627e-06   8.225357265329513e-06
-8.805270213509535e-06   1.3364995384302627e-06   8.225357265329513e-06
-8.805270213509535e-06   1.3364995384302627e-06   8.225357265329513e-06
-8.805270213509535e-06   1.3364995384302627e-06   8.225357265329513e-06
-9.046023646966161e-06   1.1200790774142837e-06   1.7182905382902465e-05
-9.046023646966161e-06   1.1200790774142837e-06   1.7182905382902465e-05
-9.046023646966161e-06   1.1200790774142837e-06   1.7182905382902465e-05
-9.046023646966161e-06   1.1200790774142837e-06   1.7182905382902465e-05
-3.746717164392692e-06   1.0089038397662021e-06   8.417433054535629e-06
-3.746717164392692e-06   1.0089038397662021e-06   8.417433054535629e-06
-3.746717164392692e-06   1.0089038397662021e-06   8.417433054535629e-06
-3.746717164392692e-06   1.0089038397662021e-06   8.417433054535629e-06
-6.250998724194304e-06   1.2633343891121484e-06   1.2438577324597313e-05
-6.250998724194304e-06   1.2633343891121484e-06   1.2438577324597313e-05
-6.250998724194304e-06   1.2633343891121484e-06   1.2438577324597313e-05
-6.250998724194304e-06   1.2633343891121484e-06   1.2438577324597313e-05
-3.7467171643927057e-06   1.1200790774142837e-06   1.724961052549127e-05
-3.7467171643927057e-06   1.1200790774142837e-06   1.724961052549127e-05
-3.7467171643927057e-06   1.1200790774142837e-06   1.724961052549127e-05
-3.7467171643927057e-06   1.1200790774142837e-06   1.724961052549127e-05
-9.046023646966148e-06   1.0089038397660937e-06   8.350727911946769e-06
-9.046023646966148e-06   1.0089038397660937e-06   8.350727911946769e-06
-9.046023646966148e-06   1.0089038397660937e-06   8.350727911946769e-06
-9.046023646966148e-06   1.0089038397660937e-06   8.350727911946769e-06
-9.28292769451795e-06   8.123814525615863e-07   1.7455929853155616e-05
-9.28292769451795e-06   8.123814525615863e-07   1.7455929853155616e-05
-9.28292769451795e-06   8.123814525615863e-07   1.7455929853155616e-05
-9.28292769451795e-06   8.123814525615863e-07   1.7455929853155616e-05
-3.99314933164285e-06   6.955149069541979e-07   8.709752509061764e-06
-3.99314933164285e-06   6.955149069541979e-07   8.709752509061764e-06
-3.99314933164285e-06   6.955149069541979e-07   8.709752509061764e-06
-3.99314933164285e-06   6.955149069541979e-07   8.709752509061764e-06
-6.4717514148058584e-06   1.0185213306822738e-06   1.2646952126763391e-05
-6.4717514148058584e-06   1.0185213306822738e-06   1.2646952126763391e-05
-6.4717514148058584e-06   1.0185213306822738e-06   1.2646952126763391e-05
-6.4717514148058584e-06   1.0185213306822738e-06   1.2646952126763391e-05
-8.572033067477262e-06   3.03129754947889e-06   1.5184337084474492e-05
-8.572033067477262e-06   3.03129754947889e-06   1.5184337084474492e-05
-8.572033067477262e-06   3.03129754947889e-06   1.5184337084474492e-05
-8.572033067477262e-06   3.03129754947889e-06   1.5184337084474492e-05
-1.3799383111815134e-05   2.482180135077259e-06   6.142616561937027e-06
-1.3799383111815134e-05   2.482180135077259e-06   6.142616561937027e-06
-1.3799383111815134e-05   2.482180135077259e-06   6.142616561937027e-06
-1.3799383111815134e-05   2.482180135077259e-06   6.142616561937027e-06
-1.4053978682322367e-05   2.7160555682310527e-06   1.4906803872549333e-05
-1.4053978682322367e-05   2.7160555682310527e-06   1.4906803872549333e-05
-1.4053978682322367e-05   2.7160555682310527e-06   1.4906803872549333e-05
-1.4053978682322367e-05   2.7160555682310527e-06   1.4906803872549333e-05
-8.805270213509521e-06   2.1505821133401947e-06   6.498240497462485e-06
-8.805270213509521e-06   2.1505821133401947e-06   6.498240497462485e-06
-8.805270213509521e-06   2.1505821133401947e-06   6.498240497462485e-06
-8.805270213509521e-06   2.1505821133401947e-06   6.498240497462485e-06
-1.128024721822348e-05   2.551402613706205e-06   1.0382709871766807e-05
-1.128024721822348e-05   2.551402613706205e-06   1.0382709871766807e-05
-1.128024721822348e-05   2.551402613706205e-06   1.0382709871766807e-05
-1.128024721822348e-05   2.551402613706205e-06   1.0382709871766807e-05
-8.805270213509548e-06   2.7160555682310527e-06   1.5246087945483804e-05
-8.805270213509548e-06   2.7160555682310527e-06   1.5246087945483804e-05
-8.805270213509548e-06   2.7160555682310527e-06   1.5246087945483804e-05
-8.805270213509548e-06   2.7160555682310527e-06   1.5246087945483804e-05
-1.405397868232234e-05   2.1505821133401947e-06   6.158956424528013e-06
-1.405397868232234e-05   2.1505821133401947e-06   6.158956424528013e-06
-1.405397868232234e-05   2.1505821133401947e-06   6.158956424528013e-06
-1.405397868232234e-05   2.1505821133401947e-06   6.158956424528013e-06
-1.435504621723419e-05   2.423501010666209e-06   1.5396699590853333e-05
-1.435504621723419e-05   2.423501010666209e-06   1.5396699590853333e-05
-1.435504621723419e-05   2.423501010666209e-06   1.5396699590853333e-05
-1.435504621723419e-05   2.423501010666209e-06   1.5396699590853333e-05
-9.046023646966134e-06   1.8483834276063291e-06   6.893399190242605e-06
-9.046023646966134e-06   1.8483834276063291e-06   6.893399190242605e-06
-9.046023646966134e-06   1.8483834276063291e-06   6.893399190242605e-06
-9.046023646966134e-06   1.8483834276063291e-06   6.893399190242605e-06
-1.1444069786038575e-05   2.317264579108566e-06   1.0608814064461976e-05
-1.1444069786038575e-05   2.317264579108566e-06   1.0608814064461976e-05
-1.1444069786038575e-05   2.317264579108566e-06   1.0608814064461976e-05
-1.1444069786038575e-05   2.317264579108566e-06   1.0608814064461976e-05
-9.046023646966148e-06   2.423501010666209e-06   1.5741770140689174e-05
-9.046023646966148e-06   2.423501010666209e-06   1.5741770140689174e-05
-9.046023646966148e-06   2.423501010666209e-06   1.5741770140689174e-05
-9.046023646966148e-06   2.423501010666209e-06   1.5741770140689174e-05
-1.4355046217234135e-05   1.8483834276063291e-06   6.548328640406656e-06
-1.4355046217234135e-05   1.8483834276063291e-06   6.548328640406656e-06
-1.4355046217234135e-05   1.8483834276063291e-06   6.548328640406656e-06
-1.4355046217234135e-05   1.8483834276063291e-06   6.548328640406656e-06
-1.4612837571465257e-05   2.0956126827923307e-06   1.586696358231584e-05
-1.4612837571465257e-05   2.0956126827923307e-06   1.586696358231584e-05
-1.4612837571465257e-05   2.0956126827923307e-06   1.586696358231584e-05
-1.4612837571465257e-05   2.0956126827923307e-06   1.586696358231584e-05
-9.282927694517909e-06   1.5246738058608596e-06   7.3263437802292635e-06
-9.282927694517909e-06   1.5246738058608596e-06   7.3263437802292635e-06
-9.282927694517909e-06   1.5246738058608596e-06   7.3263437802292635e-06
-9.282927694517909e-06   1.5246738058608596e-06   7.3263437802292635e-06
-1.1727939905306517e-05   2.081966092781968e-06   1.1066988759391425e-05
-1.1727939905306517e-05   2.081966092781968e-06   1.1066988759391425e-05
-1.1727939905306517e-05   2.081966092781968e-06   1.1066988759391425e-05
-1.1727939905306517e-05   2.081966092781968e-06   1.1066988759391425e-05
-1.3799383111815189e-05   3.988731376708128e-06   7.112117224589284e-06
-1.3799383111815189e-05   3.988731376708128e-06   7.112117224589284e-06
-1.3799383111815189e-05   3.988731376708128e-06   7.112117224589284e-06
-1.3799383111815189e-05   3.988731376708128e-06   7.112117224589284e-06
-1.8536666761953524e-05   3.065661066657048e-06   -1.3371977116720033e-06
-1.8536666761953524e-05   3.065661066657048e-06   -1.3371977116720033e-06
-1.8536666761953524e-05   3.065661066657048e-06   -1.3371977116720033e-06
-1.8536666761953524e-05   3.065661066657048e-06   -1.3371977116720033e-06
-1.9190342463573678e-05   3.889789751978308e-06   8.783990458654384e-06
-1.9190342463573678e-05   3.889789751978308e-06   8.783990458654384e-06
-1.9190342463573678e-05   3.889789751978308e-06   8.783990458654384e-06
-1.9190342463573678e-05   3.889789751978308e-06   8.783990458654384e-06
-1.405397868232234e-05   2.896861751257437e-06   8.191409570015439e-07
-1.405397868232234e-05   2.896861751257437e-06   8.191409570015439e-07
-1.405397868232234e-05   2.896861751257437e-06   8.191409570015439e-07
-1.405397868232234e-05   2.896861751257437e-06   8.191409570015439e-07
-1.579739629168352e-05   3.395081326034669e-06   3.4259052277378632e-06
-1.579739629168352e-05   3.395081326034669e-06   3.4259052277378632e-06
-1.579739629168352e-05   3.395081326034669e-06   3.4259052277378632e-06
-1.579739629168352e-05   3.395081326034669e-06   3.4259052277378632e-06
-1.405397868232234e-05   3.8897897519782e-06   9.379747259086971e-06
-1.405397868232234e-05   3.8897897519782e-06   9.379747259086971e-06
-1.405397868232234e-05   3.8897897519782e-06   9.379747259086971e-06
-1.405397868232234e-05   3.8897897519782e-06   9.379747259086971e-06
-1.9190342463573678e-05   2.896861751257437e-06   2.2338415656903755e-07
-1.9190342463573678e-05   2.896861751257437e-06   2.2338415656903755e-07
-1.9190342463573678e-05   2.896861751257437e-06   2.2338415656903755e-07
-1.9190342463573678e-05   2.896861751257437e-06   2.2338415656903755e-07
-1.9752126128191248e-05   3.765574496994331e-06   1.039535327603848e-05
-1.9752126128191248e-05   3.765574496994331e-06   1.039535327603848e-05
-1.9752126128191248e-05   3.765574496994331e-06   1.039535327603848e-05
-1.9752126128191248e-05   3.765574496994331e-06   1.039535327603848e-05
-1.4355046217234135e-05   2.754357403755999e-06   2.0069503470530404e-06
-1.4355046217234135e-05   2.754357403755999e-06   2.0069503470530404e-06
-1.4355046217234135e-05   2.754357403755999e-06   2.0069503470530404e-06
-1.4355046217234135e-05   2.754357403755999e-06   2.0069503470530404e-06
-1.6427231809546327e-05   3.3522965949724093e-06   5.101829486176988e-06
-1.6427231809546327e-05   3.3522965949724093e-06   5.101829486176988e-06
-1.6427231809546327e-05   3.3522965949724093e-06   5.101829486176988e-06
-1.6427231809546327e-05   3.3522965949724093e-06   5.101829486176988e-06
-1.4355046217234162e-05   3.7655744969944394e-06   1.1002083531981436e-05
-1.4355046217234162e-05   3.7655744969944394e-06   1.1002083531981436e-05
-1.4355046217234162e-05   3.7655744969944394e-06   1.1002083531981436e-05
-1.4355046217234162e-05   3.7655744969944394e-06   1.1002083531981436e-05
-1.9752126128191248e-05   2.754357403755999e-06   1.400220091109976e-06
-1.9752126128191248e-05   2.754357403755999e-06   1.400220091109976e-06
-1.9752126128191248e-05   2.754357403755999e-06   1.400220091109976e-06
-1.9752126128191248e-05   2.754357403755999e-06   1.400220091109976e-06
-2.0423356370304757e-05   3.346184660362947e-06   1.3243715187412136e-05
-2.0423356370304757e-05   3.346184660362947e-06   1.3243715187412136e-05
-2.0423356370304757e-05   3.346184660362947e-06   1.3243715187412136e-05
-2.0423356370304757e-05   3.346184660362947e-06   1.3243715187412136e-05
-1.4612837571465202e-05   2.36436880437054e-06   4.148606702941834e-06
-1.4612837571465202e-05   2.36436880437054e-06   4.148606702941834e-06
-1.4612837571465202e-05   2.36436880437054e-06   4.148606702941834e-06
-1.4612837571465202e-05   2.36436880437054e-06   4.148606702941834e-06
-1.657957343659124e-05   3.1749396882652364e-06   6.940157281148701e-06
-1.657957343659124e-05   3.1749396882652364e-06   6.940157281148701e-06
-1.657957343659124e-05   3.1749396882652364e-06   6.940157281148701e-06
-1.657957343659124e-05   3.1749396882652364e-06   6.940157281148701e-06
1.7713464295591324e-06   -1.0911520727761859e-09   8.526719342189187e-06
1.7713464295591324e-06   -1.0911520727761859e-09   8.526719342189187e-06
1.7713464295591324e-06   -1.0911520727761859e-09   8.526719342189187e-06
1.7713464295591324e-06   -1.0911520727761859e-09   8.526719342189187e-06
-1.6771270699264256e-06   8.957942232898884e-07   3.3173947349309624e-06
-1.6771270699264256e-06   8.957942232898884e-07   3.3173947349309624e-06
-1.6771270699264256e-06   8.957942232898884e-07   3.3173947349309624e-06
-1.6771270699264256e-06   8.957942232898884e-07   3.3173947349309624e-06
-1.8747451297782485e-06   -3.1959373680248877e-07   8.39160794970388e-06
-1.8747451297782485e-06   -3.1959373680248877e-07   8.39160794970388e-06
-1.8747451297782485e-06   -3.1959373680248877e-07   8.39160794970388e-06
-1.8747451297782485e-06   -3.1959373680248877e-07   8.39160794970388e-06
1.1717496274332538e-06   5.985192303094473e-07   2.7632489074176268e-06
1.1717496274332538e-06   5.985192303094473e-07   2.7632489074176268e-06
1.1717496274332538e-06   5.985192303094473e-07   2.7632489074176268e-06
1.1717496274332538e-06   5.985192303094473e-07   2.7632489074176268e-06
-2.370658936114236e-07   2.4197179377435755e-07   5.325203237746491e-06
-2.370658936114236e-07   2.4197179377435755e-07   5.325203237746491e-06
-2.370658936114236e-07   2.4197179377435755e-07   5.325203237746491e-06
-2.370658936114236e-07   2.4197179377435755e-07   5.325203237746491e-06
1.1717496274332538e-06   -3.1959373680248877e-07   7.840740169436815e-06
1.1717496274332538e-06   -3.1959373680248877e-07   7.840740169436815e-06
1.1717496274332538e-06   -3.1959373680248877e-07   7.840740169436815e-06
1.1717496274332538e-06   -3.1959373680248877e-07   7.840740169436815e-06
-1.8747451297782485e-06   5.985192303094473e-07   3.314116687684718e-06
-1.8747451297782485e-06   5.985192303094473e-07   3.314116687684718e-06
-1.8747451297782485e-06   5.985192303094473e-07   3.314116687684718e-06
-1.8747451297782485e-06   5.985192303094473e-07   3.314116687684718e-06
-2.1192413272493484e-06   -4.5580251378687757e-07   8.160319893033127e-06
-2.1192413272493484e-06   -4.5580251378687757e-07   8.160319893033127e-06
-2.1192413272493484e-06   -4.5580251378687757e-07   8.160319893033127e-06
-2.1192413272493484e-06   -4.5580251378687757e-07   8.160319893033127e-06
6.504732142524467e-07   4.364611794791884e-07   3.008770774570426e-06
6.504732142524467e-07   4.364611794791884e-07   3.008770774570426e-06
6.504732142524467e-07   4.364611794791884e-07   3.008770774570426e-06
6.504732142524467e-07   4.364611794791884e-07   3.008770774570426e-06
-5.58995314994436e-07   1.1542238072010259e-07   5.217174935904129e-06
-5.58995314994436e-07   1.1542238072010259e-07   5.217174935904129e-06
-5.58995314994436e-07   1.1542238072010259e-07   5.217174935904129e-06
-5.58995314994436e-07   1.1542238072010259e-07   5.217174935904129e-06
6.504732142524535e-07   -4.55802513786986e-07   7.62496167707339e-06
6.504732142524535e-07   -4.55802513786986e-07   7.62496167707339e-06
6.504732142524535e-07   -4.55802513786986e-07   7.62496167707339e-06
6.504732142524535e-07   -4.55802513786986e-07   7.62496167707339e-06
-2.119241327249345e-06   4.364611794791884e-07   3.5441289905300817e-06
-2.119241327249345e-06   4.364611794791884e-07   3.5441289905300817e-06
-2.119241327249345e-06   4.364611794791884e-07   3.5441289905300817e-06
-2.119241327249345e-06   4.364611794791884e-07   3.5441289905300817e-06
-2.324215432726124e-06   -6.805756454876305e-07   8.060762393078086e-06
-2.324215432726124e-06   -6.805756454876305e-07   8.060762393078086e-06
-2.324215432726124e-06   -6.805756454876305e-07   8.060762393078086e-06
-2.324215432726124e-06   -6.805756454876305e-07   8.060762393078086e-06
-4.274752384264124e-09   9.42734450706936e-08   3.729285138173453e-06
-4.274752384264124e-09   9.42734450706936e-08   3.729285138173453e-06
-4.274752384264124e-09   9.42734450706936e-08   3.729285138173453e-06
-4.274752384264124e-09   9.42734450706936e-08   3.729285138173453e-06
-9.113048057762028e-07   1.7384518648851793e-09   5.296522889750092e-06
-9.113048057762028e-07   1.7384518648851793e-09   5.296522889750092e-06
-9.113048057762028e-07   1.7384518648851793e-09   5.296522889750092e-06
-9.113048057762028e-07   1.7384518648851793e-09   5.296522889750092e-06
-1.6771270699264256e-06   8.845740211881536e-07   1.3589201989291499e-05
-1.6771270699264256e-06   8.845740211881536e-07   1.3589201989291499e-05
-1.6771270699264256e-06   8.845740211881536e-07   1.3589201989291499e-05
-1.6771270699264256e-06   8.845740211881536e-07   1.3589201989291499e-05
-4.560414361967817e-06   1.0645422399467933e-06   8.89170410047765e-06
-4.560414361967817e-06   1.0645422399467933e-06   8.89170410047765e-06
-4.560414361967817e-06   1.0645422399467933e-06   8.89170410047765e-06
-4.560414361967817e-06   1.0645422399467933e-06   8.89170410047765e-06
-4.710235358548325e-06   5.261505043924111e-07   1.3549274195105547e-05
-4.710235358548325e-06   5.261505043924111e-07   1.3549274195105547e-05
-4.710235358548325e-06   5.261505043924111e-07   1.3549274195105547e-05
-4.710235358548325e-06   5.261505043924111e-07   1.3549274195105547e-05
-1.8747451297782485e-06   7.334153819249772e-07   8.699098220635817e-06
-1.8747451297782485e-06   7.334153819249772e-07   8.699098220635817e-06
-1.8747451297782485e-06   7.334153819249772e-07   8.699098220635817e-06
-1.8747451297782485e-06   7.334153819249772e-07   8.699098220635817e-06
-3.2263609886400084e-06   7.628662520870605e-07   1.0934120796641503e-05
-3.2263609886400084e-06   7.628662520870605e-07   1.0934120796641503e-05
-3.2263609886400084e-06   7.628662520870605e-07   1.0934120796641503e-05
-3.2263609886400084e-06   7.628662520870605e-07   1.0934120796641503e-05
-1.8747451297782502e-06   5.261505043924111e-07   1.3424915268585855e-05
-1.8747451297782502e-06   5.261505043924111e-07   1.3424915268585855e-05
-1.8747451297782502e-06   5.261505043924111e-07   1.3424915268585855e-05
-1.8747451297782502e-06   5.261505043924111e-07   1.3424915268585855e-05
-4.710235358548325e-06   7.334153819249772e-07   8.823457147155397e-06
-4.710235358548325e-06   7.334153819249772e-07   8.823457147155397e-06
-4.710235358548325e-06   7.334153819249772e-07   8.823457147155397e-06
-4.710235358548325e-06   7.334153819249772e-07   8.823457147155397e-06
-4.864880012962728e-06   2.2348984910110226e-07   1.3568635714188257e-05
-4.864880012962728e-06   2.2348984910110226e-07   1.3568635714188257e-05
-4.864880012962728e-06   2.2348984910110226e-07   1.3568635714188257e-05
-4.864880012962728e-06   2.2348984910110226e-07   1.3568635714188257e-05
-2.119241327249345e-06   4.291713375595158e-07   8.869162344924206e-06
-2.119241327249345e-06   4.291713375595158e-07   8.869162344924206e-06
-2.119241327249345e-06   4.291713375595158e-07   8.869162344924206e-06
-2.119241327249345e-06   4.291713375595158e-07   8.869162344924206e-06
-3.3795821536974416e-06   5.217249434347811e-07   1.0914198225479458e-05
-3.3795821536974416e-06   5.217249434347811e-07   1.0914198225479458e-05
-3.3795821536974416e-06   5.217249434347811e-07   1.0914198225479458e-05
-3.3795821536974416e-06   5.217249434347811e-07   1.0914198225479458e-05
-2.1192413272493484e-06   2.2348984910110226e-07   1.3445226821113166e-05
-2.1192413272493484e-06   2.2348984910110226e-07   1.3445226821113166e-05
-2.1192413272493484e-06   2.2348984910110226e-07   1.3445226821113166e-05
-2.1192413272493484e-06   2.2348984910110226e-07   1.3445226821113166e-05
-4.864880012962728e-06   4.291713375595158e-07   8.99257123799927e-06
-4.864880012962728e-06   4.291713375595158e-07   8.99257123799927e-06
-4.864880012962728e-06   4.291713375595158e-07   8.99257123799927e-06
-4.864880012962728e-06   4.291713375595158e-07   8.99257123799927e-06
-5.0168754739173134e-06   -8.445668580432057e-08   1.3824907708315476e-05
-5.0168754739173134e-06   -8.445668580432057e-08   1.3824907708315476e-05
-5.0168754739173134e-06   -8.445668580432057e-08   1.3824907708315476e-05
-5.0168754739173134e-06   -8.445668580432057e-08   1.3824907708315476e-05
-2.324215432726124e-06   1.0106311368676679e-07   9.225829093302212e-06
-2.324215432726124e-06   1.0106311368676679e-07   9.225829093302212e-06
-2.324215432726124e-06   1.0106311368676679e-07   9.225829093302212e-06
-2.324215432726124e-06   1.0106311368676679e-07   9.225829093302212e-06
-3.5321141448838968e-06   2.8607216626314914e-07   1.1127988182019384e-05
-3.5321141448838968e-06   2.8607216626314914e-07   1.1127988182019384e-05
-3.5321141448838968e-06   2.8607216626314914e-07   1.1127988182019384e-05
-3.5321141448838968e-06   2.8607216626314914e-07   1.1127988182019384e-05
-4.560414361967817e-06   1.6658146164745145e-06   1.5283025258434283e-05
-4.560414361967817e-06   1.6658146164745145e-06   1.5283025258434283e-05
-4.560414361967817e-06   1.6658146164745145e-06   1.5283025258434283e-05
-4.560414361967817e-06   1.6658146164745145e-06   1.5283025258434283e-05
-7.425906196023362e-06   1.285962375923485e-06   1.0279294190677788e-05
-7.425906196023362e-06   1.285962375923485e-06   1.0279294190677788e-05
-7.425906196023362e-06   1.285962375923485e-06   1.0279294190677788e-05
-7.425906196023362e-06   1.285962375923485e-06   1.0279294190677788e-05
-7.5532258500733305e-06   1.3364995384302627e-06   1.499956985587616e-05
-7.5532258500733305e-06   1.3364995384302627e-06   1.499956985587616e-05
-7.5532258500733305e-06   1.3364995384302627e-06   1.499956985587616e-05
-7.5532258500733305e-06   1.3364995384302627e-06   1.499956985587616e-05
-4.710235358548325e-06   9.802309037063462e-07   1.0475013550835473e-05
-4.710235358548325e-06   9.802309037063462e-07   1.0475013550835473e-05
-4.710235358548325e-06   9.802309037063462e-07   1.0475013550835473e-05
-4.710235358548325e-06   9.802309037063462e-07   1.0475013550835473e-05
-6.066035529308024e-06   1.290542640007943e-06   1.2548493460320676e-05
-6.066035529308024e-06   1.290542640007943e-06   1.2548493460320676e-05
-6.066035529308024e-06   1.290542640007943e-06   1.2548493460320676e-05
-6.066035529308024e-06   1.290542640007943e-06   1.2548493460320676e-05
-4.710235358548325e-06   1.3364995384302627e-06   1.52133310367105e-05
-4.710235358548325e-06   1.3364995384302627e-06   1.52133310367105e-05
-4.710235358548325e-06   1.3364995384302627e-06   1.52133310367105e-05
-4.710235358548325e-06   1.3364995384302627e-06   1.52133310367105e-05
-7.5532258500733305e-06   9.802309037063462e-07   1.0261252370001106e-05
-7.5532258500733305e-06   9.802309037063462e-07   1.0261252370001106e-05
-7.5532258500733305e-06   9.802309037063462e-07   1.0261252370001106e-05
-7.5532258500733305e-06   9.802309037063462e-07   1.0261252370001106e-05
-7.689456192047937e-06   1.0089038397660937e-06   1.5145003271257985e-05
-7.689456192047937e-06   1.0089038397660937e-06   1.5145003271257985e-05
-7.689456192047937e-06   1.0089038397660937e-06   1.5145003271257985e-05
-7.689456192047937e-06   1.0089038397660937e-06   1.5145003271257985e-05
-4.864880012962728e-06   6.696186595194636e-07   1.0640947414263896e-05
-4.864880012962728e-06   6.696186595194636e-07   1.0640947414263896e-05
-4.864880012962728e-06   6.696186595194636e-07   1.0640947414263896e-05
-4.864880012962728e-06   6.696186595194636e-07   1.0640947414263896e-05
-6.174850810541315e-06   1.0463314268965504e-06   1.25982044164687e-05
-6.174850810541315e-06   1.0463314268965504e-06   1.25982044164687e-05
-6.174850810541315e-06   1.0463314268965504e-06   1.25982044164687e-05
-6.174850810541315e-06   1.0463314268965504e-06   1.25982044164687e-05
-4.864880012962728e-06   1.0089038397662021e-06   1.5348574379405843e-05
-4.864880012962728e-06   1.0089038397662021e-06   1.5348574379405843e-05
-4.864880012962728e-06   1.0089038397662021e-06   1.5348574379405843e-05
-4.864880012962728e-06   1.0089038397662021e-06   1.5348574379405843e-05
-7.68945619204791e-06   6.696186595194636e-07   1.0437376306115929e-05
-7.68945619204791e-06   6.696186595194636e-07   1.0437376306115929e-05
-7.68945619204791e-06   6.696186595194636e-07   1.0437376306115929e-05
-7.68945619204791e-06   6.696186595194636e-07   1.0437376306115929e-05
-7.822886122009422e-06   6.955149069541979e-07   1.5452604631397793e-05
-7.822886122009422e-06   6.955149069541979e-07   1.5452604631397793e-05
-7.822886122009422e-06   6.955149069541979e-07   1.5452604631397793e-05
-7.822886122009422e-06   6.955149069541979e-07   1.5452604631397793e-05
-5.0168754739173134e-06   3.757185656219847e-07   1.0967798022710459e-05
-5.0168754739173134e-06   3.757185656219847e-07   1.0967798022710459e-05
-5.0168754739173134e-06   3.757185656219847e-07   1.0967798022710459e-05
-5.0168754739173134e-06   3.757185656219847e-07   1.0967798022710459e-05
-6.296047992987414e-06   8.060260430793739e-07   1.2841567734686067e-05
-6.296047992987414e-06   8.060260430793739e-07   1.2841567734686067e-05
-6.296047992987414e-06   8.060260430793739e-07   1.2841567734686067e-05
-6.296047992987414e-06   8.060260430793739e-07   1.2841567734686067e-05
-7.4259061960233895e-06   2.4821801350773673e-06   1.322368092048252e-05
-7.4259061960233895e-06   2.4821801350773673e-06   1.322368092048252e-05
-7.4259061960233895e-06   2.4821801350773673e-06   1.322368092048252e-05
-7.4259061960233895e-06   2.4821801350773673e-06   1.322368092048252e-05
-1.0247966374135267e-05   1.7445690827280194e-06   8.077680658886456e-06
-1.0247966374135267e-05   1.7445690827280194e-06   8.077680658886456e-06
-1.0247966374135267e-05   1.7445690827280194e-06   8.077680658886456e-06
-1.0247966374135267e-05   1.7445690827280194e-06   8.077680658886456e-06
-1.0388039677637433e-05   2.1505821133401947e-06   1.2835934082176077e-05
-1.0388039677637433e-05   2.1505821133401947e-06   1.2835934082176077e-05
-1.0388039677637433e-05   2.1505821133401947e-06   1.2835934082176077e-05
-1.0388039677637433e-05   2.1505821133401947e-06   1.2835934082176077e-05
-7.5532258500733305e-06   1.4230504369516696e-06   8.547763375402358e-06
-7.5532258500733305e-06   1.4230504369516696e-06   8.547763375402358e-06
-7.5532258500733305e-06   1.4230504369516696e-06   8.547763375402358e-06
-7.5532258500733305e-06   1.4230504369516696e-06   8.547763375402358e-06
-8.884893492391543e-06   1.9319269688455876e-06   1.046188352679645e-05
-8.884893492391543e-06   1.9319269688455876e-06   1.046188352679645e-05
-8.884893492391543e-06   1.9319269688455876e-06   1.046188352679645e-05
-8.884893492391543e-06   1.9319269688455876e-06   1.046188352679645e-05
-7.5532258500733305e-06   2.1505821133401947e-06   1.3272453088009214e-05
-7.5532258500733305e-06   2.1505821133401947e-06   1.3272453088009214e-05
-7.5532258500733305e-06   2.1505821133401947e-06   1.3272453088009214e-05
-7.5532258500733305e-06   2.1505821133401947e-06   1.3272453088009214e-05
-1.0388039677637406e-05   1.4230504369516696e-06   8.111244369569235e-06
-1.0388039677637406e-05   1.4230504369516696e-06   8.111244369569235e-06
-1.0388039677637406e-05   1.4230504369516696e-06   8.111244369569235e-06
-1.0388039677637406e-05   1.4230504369516696e-06   8.111244369569235e-06
-1.0580545869977987e-05   1.8483834276063291e-06   1.3260519845963007e-05
-1.0580545869977987e-05   1.8483834276063291e-06   1.3260519845963007e-05
-1.0580545869977987e-05   1.8483834276063291e-06   1.3260519845963007e-05
-1.0580545869977987e-05   1.8483834276063291e-06   1.3260519845963007e-05
-7.689456192047937e-06   1.1364589216216218e-06   8.86919175300372e-06
-7.689456192047937e-06   1.1364589216216218e-06   8.86919175300372e-06
-7.689456192047937e-06   1.1364589216216218e-06   8.86919175300372e-06
-7.689456192047937e-06   1.1364589216216218e-06   8.86919175300372e-06
-8.96095448141999e-06   1.695284572641293e-06   1.0653060178012104e-05
-8.96095448141999e-06   1.695284572641293e-06   1.0653060178012104e-05
-8.96095448141999e-06   1.695284572641293e-06   1.0653060178012104e-05
-8.96095448141999e-06   1.695284572641293e-06   1.0653060178012104e-05
-7.68945619204791e-06   1.8483834276063291e-06   1.3687674549553658e-05
-7.68945619204791e-06   1.8483834276063291e-06   1.3687674549553658e-05
-7.68945619204791e-06   1.8483834276063291e-06   1.3687674549553658e-05
-7.68945619204791e-06   1.8483834276063291e-06   1.3687674549553658e-05
-1.0580545869977933e-05   1.1364589216216218e-06   8.442037049412947e-06
-1.0580545869977933e-05   1.1364589216216218e-06   8.442037049412947e-06
-1.0580545869977933e-05   1.1364589216216218e-06   8.442037049412947e-06
-1.0580545869977933e-05   1.1364589216216218e-06   8.442037049412947e-06
-1.073462417028483e-05   1.5246738058608596e-06   1.3730858089474685e-05
-1.073462417028483e-05   1.5246738058608596e-06   1.3730858089474685e-05
-1.073462417028483e-05   1.5246738058608596e-06   1.3730858089474685e-05
-1.073462417028483e-05   1.5246738058608596e-06   1.3730858089474685e-05
-7.822886122009395e-06   8.439109051022612e-07   9.286419082804218e-06
-7.822886122009395e-06   8.439109051022612e-07   9.286419082804218e-06
-7.822886122009395e-06   8.439109051022612e-07   9.286419082804218e-06
-7.822886122009395e-06   8.439109051022612e-07   9.286419082804218e-06
-9.120993130596838e-06   1.4696064261969467e-06   1.1074513451126691e-05
-9.120993130596838e-06   1.4696064261969467e-06   1.1074513451126691e-05
-9.120993130596838e-06   1.4696064261969467e-06   1.1074513451126691e-05
-9.120993130596838e-06   1.4696064261969467e-06   1.1074513451126691e-05
-1.0247966374135267e-05   3.065661066657048e-06   5.855142201494534e-06
-1.0247966374135267e-05   3.065661066657048e-06   5.855142201494534e-06
-1.0247966374135267e-05   3.065661066657048e-06   5.855142201494534e-06
-1.0247966374135267e-05   3.065661066657048e-06   5.855142201494534e-06
-1.2491078569969296e-05   2.071697683954962e-06   1.5202438454832552e-06
-1.2491078569969296e-05   2.071697683954962e-06   1.5202438454832552e-06
-1.2491078569969296e-05   2.071697683954962e-06   1.5202438454832552e-06
-1.2491078569969296e-05   2.071697683954962e-06   1.5202438454832552e-06
-1.3019043167498701e-05   2.896861751257437e-06   6.872746855611208e-06
-1.3019043167498701e-05   2.896861751257437e-06   6.872746855611208e-06
-1.3019043167498701e-05   2.896861751257437e-06   6.872746855611208e-06
-1.3019043167498701e-05   2.896861751257437e-06   6.872746855611208e-06
-1.0388039677637433e-05   1.8579088195266533e-06   3.111112798214106e-06
-1.0388039677637433e-05   1.8579088195266533e-06   3.111112798214106e-06
-1.0388039677637433e-05   1.8579088195266533e-06   3.111112798214106e-06
-1.0388039677637433e-05   1.8579088195266533e-06   3.111112798214106e-06
-1.1135578340362587e-05   2.446136313903331e-06   4.004074072796776e-06
-1.1135578340362587e-05   2.446136313903331e-06   4.004074072796776e-06
-1.1135578340362587e-05   2.446136313903331e-06   4.004074072796776e-06
-1.1135578340362587e-05   2.446136313903331e-06   4.004074072796776e-06
-1.0388039677637406e-05   2.896861751257437e-06   7.496118614649472e-06
-1.0388039677637406e-05   2.896861751257437e-06   7.496118614649472e-06
-1.0388039677637406e-05   2.896861751257437e-06   7.496118614649472e-06
-1.0388039677637406e-05   2.896861751257437e-06   7.496118614649472e-06
-1.3019043167498729e-05   1.8579088195267617e-06   2.4877410391756825e-06
-1.3019043167498729e-05   1.8579088195267617e-06   2.4877410391756825e-06
-1.3019043167498729e-05   1.8579088195267617e-06   2.4877410391756825e-06
-1.3019043167498729e-05   1.8579088195267617e-06   2.4877410391756825e-06
-1.3471516042108737e-05   2.7543574037561074e-06   8.092878956096508e-06
-1.3471516042108737e-05   2.7543574037561074e-06   8.092878956096508e-06
-1.3471516042108737e-05   2.7543574037561074e-06   8.092878956096508e-06
-1.3471516042108737e-05   2.7543574037561074e-06   8.092878956096508e-06
-1.0580545869977987e-05   1.7105864095679673e-06   3.900857932391348e-06
-1.0580545869977987e-05   1.7105864095679673e-06   3.900857932391348e-06
-1.0580545869977987e-05   1.7105864095679673e-06   3.900857932391348e-06
-1.0580545869977987e-05   1.7105864095679673e-06   3.900857932391348e-06
-1.1584315329015479e-05   2.363291720774833e-06   5.182183844063242e-06
-1.1584315329015479e-05   2.363291720774833e-06   5.182183844063242e-06
-1.1584315329015479e-05   2.363291720774833e-06   5.182183844063242e-06
-1.1584315329015479e-05   2.363291720774833e-06   5.182183844063242e-06
-1.0580545869977987e-05   2.7543574037561074e-06   8.71914155260923e-06
-1.0580545869977987e-05   2.7543574037561074e-06   8.71914155260923e-06
-1.0580545869977987e-05   2.7543574037561074e-06   8.71914155260923e-06
-1.0580545869977987e-05   2.7543574037561074e-06   8.71914155260923e-06
-1.3471516042108818e-05   1.7105864095678588e-06   3.2745953358784457e-06
-1.3471516042108818e-05   1.7105864095678588e-06   3.2745953358784457e-06
-1.3471516042108818e-05   1.7105864095678588e-06   3.2745953358784457e-06
-1.3471516042108818e-05   1.7105864095678588e-06   3.2745953358784457e-06
-1.4045882368908481e-05   2.36436880437054e-06   1.0298964429602967e-05
-1.4045882368908481e-05   2.36436880437054e-06   1.0298964429602967e-05
-1.4045882368908481e-05   2.36436880437054e-06   1.0298964429602967e-05
-1.4045882368908481e-05   2.36436880437054e-06   1.0298964429602967e-05
-1.0734624170284803e-05   1.369835623132084e-06   5.376920673973444e-06
-1.0734624170284803e-05   1.369835623132084e-06   5.376920673973444e-06
-1.0734624170284803e-05   1.369835623132084e-06   5.376920673973444e-06
-1.0734624170284803e-05   1.369835623132084e-06   5.376920673973444e-06
-1.1710305706206248e-05   2.2011365758997474e-06   6.504275995515075e-06
-1.1710305706206248e-05   2.2011365758997474e-06   6.504275995515075e-06
-1.1710305706206248e-05   2.2011365758997474e-06   6.504275995515075e-06
-1.1710305706206248e-05   2.2011365758997474e-06   6.504275995515075e-06
-4.868228215728841e-06   8.957942232898884e-07   6.132633079515516e-06
-4.868228215728841e-06   8.957942232898884e-07   6.132633079515516e-06
-4.868228215728841e-06   8.957942232898884e-07   6.132633079515516e-06
-4.868228215728841e-06   8.957942232898884e-07   6.132633079515516e-06
-5.430929609287071e-06   1.711449174936013e-06   5.684190394572716e-06
-5.430929609287071e-06   1.711449174936013e-06   5.684190394572716e-06
-5.430929609287071e-06   1.711449174936013e-06   5.684190394572716e-06
-5.430929609287071e-06   1.711449174936013e-06   5.684190394572716e-06
-5.575988416371071e-06   5.985192303094473e-07   6.558480307122675e-06
-5.575988416371071e-06   5.985192303094473e-07   6.558480307122675e-06
-5.575988416371071e-06   5.985192303094473e-07   6.558480307122675e-06
-5.575988416371071e-06   5.985192303094473e-07   6.558480307122675e-06
-5.4681000995976536e-06   1.3332124829210784e-06   5.937850494266614e-06
-5.4681000995976536e-06   1.3332124829210784e-06   5.937850494266614e-06
-5.4681000995976536e-06   1.3332124829210784e-06   5.937850494266614e-06
-5.4681000995976536e-06   1.3332124829210784e-06   5.937850494266614e-06
-5.206485488414794e-06   1.0586326730413053e-06   5.666574028223022e-06
-5.206485488414794e-06   1.0586326730413053e-06   5.666574028223022e-06
-5.206485488414794e-06   1.0586326730413053e-06   5.666574028223022e-06
-5.206485488414794e-06   1.0586326730413053e-06   5.666574028223022e-06
-5.468100099597667e-06   5.985192303093389e-07   6.117664355555577e-06
-5.468100099597667e-06   5.985192303093389e-07   6.117664355555577e-06
-5.468100099597667e-06   5.985192303093389e-07   6.117664355555577e-06
-5.468100099597667e-06   5.985192303093389e-07   6.117664355555577e-06
-5.575988416371071e-06   1.3332124829210784e-06   6.378666445833658e-06
-5.575988416371071e-06   1.3332124829210784e-06   6.378666445833658e-06
-5.575988416371071e-06   1.3332124829210784e-06   6.378666445833658e-06
-5.575988416371071e-06   1.3332124829210784e-06   6.378666445833658e-06
-5.7640533896480605e-06   4.364611794791884e-07   6.74895059570935e-06
-5.7640533896480605e-06   4.364611794791884e-07   6.74895059570935e-06
-5.7640533896480605e-06   4.364611794791884e-07   6.74895059570935e-06
-5.7640533896480605e-06   4.364611794791884e-07   6.74895059570935e-06
-6.052774705570327e-06   1.0732738414204407e-06   6.848065191748294e-06
-6.052774705570327e-06   1.0732738414204407e-06   6.848065191748294e-06
-6.052774705570327e-06   1.0732738414204407e-06   6.848065191748294e-06
-6.052774705570327e-06   1.0732738414204407e-06   6.848065191748294e-06
-5.562936101854405e-06   8.959491751096013e-07   6.138062318674758e-06
-5.562936101854405e-06   8.959491751096013e-07   6.138062318674758e-06
-5.562936101854405e-06   8.959491751096013e-07   6.138062318674758e-06
-5.562936101854405e-06   8.959491751096013e-07   6.138062318674758e-06
-6.0527747055703335e-06   4.364611794791884e-07   6.366862998544479e-06
-6.0527747055703335e-06   4.364611794791884e-07   6.366862998544479e-06
-6.0527747055703335e-06   4.364611794791884e-07   6.366862998544479e-06
-6.0527747055703335e-06   4.364611794791884e-07   6.366862998544479e-06
-5.7640533896480605e-06   1.0732738414204407e-06   7.230152788913083e-06
-5.7640533896480605e-06   1.0732738414204407e-06   7.230152788913083e-06
-5.7640533896480605e-06   1.0732738414204407e-06   7.230152788913083e-06
-5.7640533896480605e-06   1.0732738414204407e-06   7.230152788913083e-06
-5.885703923755235e-06   9.427344507058517e-08   7.387800867743896e-06
-5.885703923755235e-06   9.427344507058517e-08   7.387800867743896e-06
-5.885703923755235e-06   9.427344507058517e-08   7.387800867743896e-06
-5.885703923755235e-06   9.427344507058517e-08   7.387800867743896e-06
-6.676078405478008e-06   4.3478053119968066e-07   8.50078741893766e-06
-6.676078405478008e-06   4.3478053119968066e-07   8.50078741893766e-06
-6.676078405478008e-06   4.3478053119968066e-07   8.50078741893766e-06
-6.676078405478008e-06   4.3478053119968066e-07   8.50078741893766e-06
-5.818786080622176e-06   6.982232198278612e-07   6.913901264334179e-06
-5.818786080622176e-06   6.982232198278612e-07   6.913901264334179e-06
-5.818786080622176e-06   6.982232198278612e-07   6.913901264334179e-06
-5.818786080622176e-06   6.982232198278612e-07   6.913901264334179e-06
-5.430929609287062e-06   1.0645422399466848e-06   1.2088354484794759e-05
-5.430929609287062e-06   1.0645422399466848e-06   1.2088354484794759e-05
-5.430929609287062e-06   1.0645422399466848e-06   1.2088354484794759e-05
-5.430929609287062e-06   1.0645422399466848e-06   1.2088354484794759e-05
-5.570509247539919e-06   4.439840105534688e-07   1.148338681673729e-05
-5.570509247539919e-06   4.439840105534688e-07   1.148338681673729e-05
-5.570509247539919e-06   4.439840105534688e-07   1.148338681673729e-05
-5.570509247539919e-06   4.439840105534688e-07   1.148338681673729e-05
-5.618242901888571e-06   7.334153819250856e-07   1.16293091867182e-05
-5.618242901888571e-06   7.334153819250856e-07   1.16293091867182e-05
-5.618242901888571e-06   7.334153819250856e-07   1.16293091867182e-05
-5.618242901888571e-06   7.334153819250856e-07   1.16293091867182e-05
-5.575988416371071e-06   2.09827626332414e-07   1.1873037697544637e-05
-5.575988416371071e-06   2.09827626332414e-07   1.1873037697544637e-05
-5.575988416371071e-06   2.09827626332414e-07   1.1873037697544637e-05
-5.575988416371071e-06   2.09827626332414e-07   1.1873037697544637e-05
-5.533367498354794e-06   5.408334035581245e-07   1.1603399367848705e-05
-5.533367498354794e-06   5.408334035581245e-07   1.1603399367848705e-05
-5.533367498354794e-06   5.408334035581245e-07   1.1603399367848705e-05
-5.533367498354794e-06   5.408334035581245e-07   1.1603399367848705e-05
-5.575988416371067e-06   7.334153819250856e-07   1.1943461840073554e-05
-5.575988416371067e-06   7.334153819250856e-07   1.1943461840073554e-05
-5.575988416371067e-06   7.334153819250856e-07   1.1943461840073554e-05
-5.575988416371067e-06   7.334153819250856e-07   1.1943461840073554e-05
-5.618242901888544e-06   2.09827626332414e-07   1.1558885044189032e-05
-5.618242901888544e-06   2.09827626332414e-07   1.1558885044189032e-05
-5.618242901888544e-06   2.09827626332414e-07   1.1558885044189032e-05
-5.618242901888544e-06   2.09827626332414e-07   1.1558885044189032e-05
-5.6768227524647136e-06   4.2917133755962424e-07   1.1781126369389495e-05
-5.6768227524647136e-06   4.2917133755962424e-07   1.1781126369389495e-05
-5.6768227524647136e-06   4.2917133755962424e-07   1.1781126369389495e-05
-5.6768227524647136e-06   4.2917133755962424e-07   1.1781126369389495e-05
-5.7640533896480605e-06   -5.8924630297069874e-08   1.2219368345408943e-05
-5.7640533896480605e-06   -5.8924630297069874e-08   1.2219368345408943e-05
-5.7640533896480605e-06   -5.8924630297069874e-08   1.2219368345408943e-05
-5.7640533896480605e-06   -5.8924630297069874e-08   1.2219368345408943e-05
-5.591249395216492e-06   3.4835771972336737e-07   1.1686992278010596e-05
-5.591249395216492e-06   3.4835771972336737e-07   1.1686992278010596e-05
-5.591249395216492e-06   3.4835771972336737e-07   1.1686992278010596e-05
-5.591249395216492e-06   3.4835771972336737e-07   1.1686992278010596e-05
-5.7640533896480605e-06   4.2917133755962424e-07   1.2073983950103284e-05
-5.7640533896480605e-06   4.2917133755962424e-07   1.2073983950103284e-05
-5.7640533896480605e-06   4.2917133755962424e-07   1.2073983950103284e-05
-5.7640533896480605e-06   4.2917133755962424e-07   1.2073983950103284e-05
-5.6768227524647e-06   -5.8924630297015664e-08   1.1926510764694964e-05
-5.6768227524647e-06   -5.8924630297015664e-08   1.1926510764694964e-05
-5.6768227524647e-06   -5.8924630297015664e-08   1.1926510764694964e-05
-5.6768227524647e-06   -5.8924630297015664e-08   1.1926510764694964e-05
-5.7210804922653815e-06   1.0106311368676679e-07   1.2112567022233252e-05
-5.7210804922653815e-06   1.0106311368676679e-07   1.2112567022233252e-05
-5.7210804922653815e-06   1.0106311368676679e-07   1.2112567022233252e-05
-5.7210804922653815e-06   1.0106311368676679e-07   1.2112567022233252e-05
-5.885703923755228e-06   -4.1038413015406783e-07   1.2693807754354034e-05
-5.885703923755228e-06   -4.1038413015406783e-07   1.2693807754354034e-05
-5.885703923755228e-06   -4.1038413015406783e-07   1.2693807754354034e-05
-5.885703923755228e-06   -4.1038413015406783e-07   1.2693807754354034e-05
-5.68013336299619e-06   1.2384318028501803e-07   1.203065376682524e-05
-5.68013336299619e-06   1.2384318028501803e-07   1.203065376682524e-05
-5.68013336299619e-06   1.2384318028501803e-07   1.203065376682524e-05
-5.68013336299619e-06   1.2384318028501803e-07   1.203065376682524e-05
-5.570509247539932e-06   1.285962375923485e-06   1.3331520981689536e-05
-5.570509247539932e-06   1.285962375923485e-06   1.3331520981689536e-05
-5.570509247539932e-06   1.285962375923485e-06   1.3331520981689536e-05
-5.570509247539932e-06   1.285962375923485e-06   1.3331520981689536e-05
-6.051836627264185e-06   1.249413872207272e-07   1.183269608892743e-05
-6.051836627264185e-06   1.249413872207272e-07   1.183269608892743e-05
-6.051836627264185e-06   1.249413872207272e-07   1.183269608892743e-05
-6.051836627264185e-06   1.249413872207272e-07   1.183269608892743e-05
-6.070716063917743e-06   9.802309037063462e-07   1.2650044493021744e-05
-6.070716063917743e-06   9.802309037063462e-07   1.2650044493021744e-05
-6.070716063917743e-06   9.802309037063462e-07   1.2650044493021744e-05
-6.070716063917743e-06   9.802309037063462e-07   1.2650044493021744e-05
-5.618242901888544e-06   -7.113759192128866e-08   1.252674365368294e-05
-5.618242901888544e-06   -7.113759192128866e-08   1.252674365368294e-05
-5.618242901888544e-06   -7.113759192128866e-08   1.252674365368294e-05
-5.618242901888544e-06   -7.113759192128866e-08   1.252674365368294e-05
-5.818577407751018e-06   5.595460993200268e-07   1.2482224282042286e-05
-5.818577407751018e-06   5.595460993200268e-07   1.2482224282042286e-05
-5.818577407751018e-06   5.595460993200268e-07   1.2482224282042286e-05
-5.818577407751018e-06   5.595460993200268e-07   1.2482224282042286e-05
-5.618242901888571e-06   9.802309037063462e-07   1.3280865590398249e-05
-5.618242901888571e-06   9.802309037063462e-07   1.3280865590398249e-05
-5.618242901888571e-06   9.802309037063462e-07   1.3280865590398249e-05
-5.618242901888571e-06   9.802309037063462e-07   1.3280865590398249e-05
-6.070716063917743e-06   -7.113759192128866e-08   1.189592255630638e-05
-6.070716063917743e-06   -7.113759192128866e-08   1.189592255630638e-05
-6.070716063917743e-06   -7.113759192128866e-08   1.189592255630638e-05
-6.070716063917743e-06   -7.113759192128866e-08   1.189592255630638e-05
-6.101758640572158e-06   6.696186595194636e-07   1.284424740648335e-05
-6.101758640572158e-06   6.696186595194636e-07   1.284424740648335e-05
-6.101758640572158e-06   6.696186595194636e-07   1.284424740648335e-05
-6.101758640572158e-06   6.696186595194636e-07   1.284424740648335e-05
-5.6768227524647e-06   -3.0580657243186845e-07   1.2721276065474966e-05
-5.6768227524647e-06   -3.0580657243186845e-07   1.2721276065474966e-05
-5.6768227524647e-06   -3.0580657243186845e-07   1.2721276065474966e-05
-5.6768227524647e-06   -3.0580657243186845e-07   1.2721276065474966e-05
-5.825798650253623e-06   3.6607040341466845e-07   1.2566443042948182e-05
-5.825798650253623e-06   3.6607040341466845e-07   1.2566443042948182e-05
-5.825798650253623e-06   3.6607040341466845e-07   1.2566443042948182e-05
-5.825798650253623e-06   3.6607040341466845e-07   1.2566443042948182e-05
-5.6768227524647136e-06   6.696186595194636e-07   1.3429502545653986e-05
-5.6768227524647136e-06   6.696186595194636e-07   1.3429502545653986e-05
-5.6768227524647136e-06   6.696186595194636e-07   1.3429502545653986e-05
-5.6768227524647136e-06   6.696186595194636e-07   1.3429502545653986e-05
-6.101758640572131e-06   -3.0580657243186845e-07   1.213602092630414e-05
-6.101758640572131e-06   -3.0580657243186845e-07   1.213602092630414e-05
-6.101758640572131e-06   -3.0580657243186845e-07   1.213602092630414e-05
-6.101758640572131e-06   -3.0580657243186845e-07   1.213602092630414e-05
-6.123260357293635e-06   3.757185656219847e-07   1.3193567737448085e-05
-6.123260357293635e-06   3.757185656219847e-07   1.3193567737448085e-05
-6.123260357293635e-06   3.757185656219847e-07   1.3193567737448085e-05
-6.123260357293635e-06   3.757185656219847e-07   1.3193567737448085e-05
-5.721080492265368e-06   -5.403753252092715e-07   1.3072924296899556e-05
-5.721080492265368e-06   -5.403753252092715e-07   1.3072924296899556e-05
-5.721080492265368e-06   -5.403753252092715e-07   1.3072924296899556e-05
-5.721080492265368e-06   -5.403753252092715e-07   1.3072924296899556e-05
-5.842923714883957e-06   1.6739560574523856e-07   1.2851333776024102e-05
-5.842923714883957e-06   1.6739560574523856e-07   1.2851333776024102e-05
-5.842923714883957e-06   1.6739560574523856e-07   1.2851333776024102e-05
-5.842923714883957e-06   1.6739560574523856e-07   1.2851333776024102e-05
-6.051836627264185e-06   1.7445690827280194e-06   1.0875861488086034e-05
-6.051836627264185e-06   1.7445690827280194e-06   1.0875861488086034e-05
-6.051836627264185e-06   1.7445690827280194e-06   1.0875861488086034e-05
-6.051836627264185e-06   1.7445690827280194e-06   1.0875861488086034e-05
-6.724104183335026e-06   5.758200363386928e-07   9.054166133467726e-06
-6.724104183335026e-06   5.758200363386928e-07   9.054166133467726e-06
-6.724104183335026e-06   5.758200363386928e-07   9.054166133467726e-06
-6.724104183335026e-06   5.758200363386928e-07   9.054166133467726e-06
-6.739413260216457e-06   1.4230504369516696e-06   1.0272868510587856e-05
-6.739413260216457e-06   1.4230504369516696e-06   1.0272868510587856e-05
-6.739413260216457e-06   1.4230504369516696e-06   1.0272868510587856e-05
-6.739413260216457e-06   1.4230504369516696e-06   1.0272868510587856e-05
-6.070716063917743e-06   3.16905457226329e-07   9.822060171258535e-06
-6.070716063917743e-06   3.16905457226329e-07   9.822060171258535e-06
-6.070716063917743e-06   3.16905457226329e-07   9.822060171258535e-06
-6.070716063917743e-06   3.16905457226329e-07   9.822060171258535e-06
-6.379922324027551e-06   1.0376972238336914e-06   9.904928878143814e-06
-6.379922324027551e-06   1.0376972238336914e-06   9.904928878143814e-06
-6.379922324027551e-06   1.0376972238336914e-06   9.904928878143814e-06
-6.379922324027551e-06   1.0376972238336914e-06   9.904928878143814e-06
-6.070716063917743e-06   1.4230504369516696e-06   1.0936555498422887e-05
-6.070716063917743e-06   1.4230504369516696e-06   1.0936555498422887e-05
-6.070716063917743e-06   1.4230504369516696e-06   1.0936555498422887e-05
-6.070716063917743e-06   1.4230504369516696e-06   1.0936555498422887e-05
-6.739413260216457e-06   3.169054572263832e-07   9.158373183423382e-06
-6.739413260216457e-06   3.169054572263832e-07   9.158373183423382e-06
-6.739413260216457e-06   3.169054572263832e-07   9.158373183423382e-06
-6.739413260216457e-06   3.169054572263832e-07   9.158373183423382e-06
-6.815952146566962e-06   1.1364589216216218e-06   1.0651113621994819e-05
-6.815952146566962e-06   1.1364589216216218e-06   1.0651113621994819e-05
-6.815952146566962e-06   1.1364589216216218e-06   1.0651113621994819e-05
-6.815952146566962e-06   1.1364589216216218e-06   1.0651113621994819e-05
-6.101758640572131e-06   9.48768693277615e-08   1.008574034337971e-05
-6.101758640572131e-06   9.48768693277615e-08   1.008574034337971e-05
-6.101758640572131e-06   9.48768693277615e-08   1.008574034337971e-05
-6.101758640572131e-06   9.48768693277615e-08   1.008574034337971e-05
-6.365540651819644e-06   8.257935227552965e-07   1.0086827036735345e-05
-6.365540651819644e-06   8.257935227552965e-07   1.0086827036735345e-05
-6.365540651819644e-06   8.257935227552965e-07   1.0086827036735345e-05
-6.365540651819644e-06   8.257935227552965e-07   1.0086827036735345e-05
-6.101758640572131e-06   1.1364589216216218e-06   1.1276062853370896e-05
-6.101758640572131e-06   1.1364589216216218e-06   1.1276062853370896e-05
-6.101758640572131e-06   1.1364589216216218e-06   1.1276062853370896e-05
-6.101758640572131e-06   1.1364589216216218e-06   1.1276062853370896e-05
-6.815952146566962e-06   9.48768693277615e-08   9.460791112003422e-06
-6.815952146566962e-06   9.48768693277615e-08   9.460791112003422e-06
-6.815952146566962e-06   9.48768693277615e-08   9.460791112003422e-06
-6.815952146566962e-06   9.48768693277615e-08   9.460791112003422e-06
-6.862748161021528e-06   8.439109051022612e-07   1.1120226989530784e-05
-6.862748161021528e-06   8.439109051022612e-07   1.1120226989530784e-05
-6.862748161021528e-06   8.439109051022612e-07   1.1120226989530784e-05
-6.862748161021528e-06   8.439109051022612e-07   1.1120226989530784e-05
-6.123260357293635e-06   -1.2915511624821347e-07   1.0471586929461266e-05
-6.123260357293635e-06   -1.2915511624821347e-07   1.0471586929461266e-05
-6.123260357293635e-06   -1.2915511624821347e-07   1.0471586929461266e-05
-6.123260357293635e-06   -1.2915511624821347e-07   1.0471586929461266e-05
-6.4015305353999765e-06   6.360915118369388e-07   1.0476222582787148e-05
-6.4015305353999765e-06   6.360915118369388e-07   1.0476222582787148e-05
-6.4015305353999765e-06   6.360915118369388e-07   1.0476222582787148e-05
-6.4015305353999765e-06   6.360915118369388e-07   1.0476222582787148e-05
-6.724104183334999e-06   2.071697683954962e-06   4.213553276470573e-06
-6.724104183334999e-06   2.071697683954962e-06   4.213553276470573e-06
-6.724104183334999e-06   2.071697683954962e-06   4.213553276470573e-06
-6.724104183334999e-06   2.071697683954962e-06   4.213553276470573e-06
-6.701303120924319e-06   9.562274573935597e-07   3.5822729112182356e-06
-6.701303120924319e-06   9.562274573935597e-07   3.5822729112182356e-06
-6.701303120924319e-06   9.562274573935597e-07   3.5822729112182356e-06
-6.701303120924319e-06   9.562274573935597e-07   3.5822729112182356e-06
-7.0461971719000364e-06   1.8579088195266533e-06   4.621243192167151e-06
-7.0461971719000364e-06   1.8579088195266533e-06   4.621243192167151e-06
-7.0461971719000364e-06   1.8579088195266533e-06   4.621243192167151e-06
-7.0461971719000364e-06   1.8579088195266533e-06   4.621243192167151e-06
-6.73941326021643e-06   7.720859077509773e-07   4.761430419759883e-06
-6.73941326021643e-06   7.720859077509773e-07   4.761430419759883e-06
-6.73941326021643e-06   7.720859077509773e-07   4.761430419759883e-06
-6.73941326021643e-06   7.720859077509773e-07   4.761430419759883e-06
-6.581169894176781e-06   1.4601537830414256e-06   4.084850751186143e-06
-6.581169894176781e-06   1.4601537830414256e-06   4.084850751186143e-06
-6.581169894176781e-06   1.4601537830414256e-06   4.084850751186143e-06
-6.581169894176781e-06   1.4601537830414256e-06   4.084850751186143e-06
-6.73941326021643e-06   1.8579088195266533e-06   5.27273693923247e-06
-6.73941326021643e-06   1.8579088195266533e-06   5.27273693923247e-06
-6.73941326021643e-06   1.8579088195266533e-06   5.27273693923247e-06
-6.73941326021643e-06   1.8579088195266533e-06   5.27273693923247e-06
-7.046197171900091e-06   7.720859077509773e-07   4.109936672694428e-06
-7.046197171900091e-06   7.720859077509773e-07   4.109936672694428e-06
-7.046197171900091e-06   7.720859077509773e-07   4.109936672694428e-06
-7.046197171900091e-06   7.720859077509773e-07   4.109936672694428e-06
-7.3485847682912015e-06   1.7105864095678588e-06   5.474727906024514e-06
-7.3485847682912015e-06   1.7105864095678588e-06   5.474727906024514e-06
-7.3485847682912015e-06   1.7105864095678588e-06   5.474727906024514e-06
-7.3485847682912015e-06   1.7105864095678588e-06   5.474727906024514e-06
-6.815952146566935e-06   6.519087446533165e-07   5.222213468766032e-06
-6.815952146566935e-06   6.519087446533165e-07   5.222213468766032e-06
-6.815952146566935e-06   6.519087446533165e-07   5.222213468766032e-06
-6.815952146566935e-06   6.519087446533165e-07   5.222213468766032e-06
-6.828519824530937e-06   1.3540201154213331e-06   4.821892776245035e-06
-6.828519824530937e-06   1.3540201154213331e-06   4.821892776245035e-06
-6.828519824530937e-06   1.3540201154213331e-06   4.821892776245035e-06
-6.828519824530937e-06   1.3540201154213331e-06   4.821892776245035e-06
-6.815952146566935e-06   1.7105864095679673e-06   6.109934504973044e-06
-6.815952146566935e-06   1.7105864095679673e-06   6.109934504973044e-06
-6.815952146566935e-06   1.7105864095679673e-06   6.109934504973044e-06
-6.815952146566935e-06   1.7105864095679673e-06   6.109934504973044e-06
-7.3485847682912015e-06   6.519087446533165e-07   4.587006869817285e-06
-7.3485847682912015e-06   6.519087446533165e-07   4.587006869817285e-06
-7.3485847682912015e-06   6.519087446533165e-07   4.587006869817285e-06
-7.3485847682912015e-06   6.519087446533165e-07   4.587006869817285e-06
-7.794579774700891e-06   1.369835623132084e-06   7.041814349363607e-06
-7.794579774700891e-06   1.369835623132084e-06   7.041814349363607e-06
-7.794579774700891e-06   1.369835623132084e-06   7.041814349363607e-06
-7.794579774700891e-06   1.369835623132084e-06   7.041814349363607e-06
-6.862748161021528e-06   4.0754900347957047e-07   6.066133631689365e-06
-6.862748161021528e-06   4.0754900347957047e-07   6.066133631689365e-06
-6.862748161021528e-06   4.0754900347957047e-07   6.066133631689365e-06
-6.862748161021528e-06   4.0754900347957047e-07   6.066133631689365e-06
-6.912501560643391e-06   1.2257653311456692e-06   5.658126167792162e-06
-6.912501560643391e-06   1.2257653311456692e-06   5.658126167792162e-06
-6.912501560643391e-06   1.2257653311456692e-06   5.658126167792162e-06
-6.912501560643391e-06   1.2257653311456692e-06   5.658126167792162e-06
-1.29150631779174e-05   1.711449174936013e-06   5.1686655607596104e-06
-1.29150631779174e-05   1.711449174936013e-06   5.1686655607596104e-06
-1.29150631779174e-05   1.711449174936013e-06   5.1686655607596104e-06
-1.29150631779174e-05   1.711449174936013e-06   5.1686655607596104e-06
-8.76739823789118e-06   2.3638961562748295e-06   1.2472908649606619e-05
-8.76739823789118e-06   2.3638961562748295e-06   1.2472908649606619e-05
-8.76739823789118e-06   2.3638961562748295e-06   1.2472908649606619e-05
-8.76739823789118e-06   2.3638961562748295e-06   1.2472908649606619e-05
-8.766546515807555e-06   1.3332124829210784e-06   5.826326048168317e-06
-8.766546515807555e-06   1.3332124829210784e-06   5.826326048168317e-06
-8.766546515807555e-06   1.3332124829210784e-06   5.826326048168317e-06
-8.766546515807555e-06   1.3332124829210784e-06   5.826326048168317e-06
-1.4252849830745467e-05   9.339044979943516e-07   1.5209749697354323e-05
-1.4252849830745467e-05   9.339044979943516e-07   1.5209749697354323e-05
-1.4252849830745467e-05   9.339044979943516e-07   1.5209749697354323e-05
-1.4252849830745467e-05   9.339044979943516e-07   1.5209749697354323e-05
-1.0597775480834928e-05   1.3952996628038036e-06   8.84112201528441e-06
-1.0597775480834928e-05   1.3952996628038036e-06   8.84112201528441e-06
-1.0597775480834928e-05   1.3952996628038036e-06   8.84112201528441e-06
-1.0597775480834928e-05   1.3952996628038036e-06   8.84112201528441e-06
-1.4252849830745494e-05   1.3332124829210784e-06   6.065910839124397e-06
-1.4252849830745494e-05   1.3332124829210784e-06   6.065910839124397e-06
-1.4252849830745494e-05   1.3332124829210784e-06   6.065910839124397e-06
-1.4252849830745494e-05   1.3332124829210784e-06   6.065910839124397e-06
-8.766546515807555e-06   9.339044979943516e-07   1.497016490639827e-05
-8.766546515807555e-06   9.339044979943516e-07   1.497016490639827e-05
-8.766546515807555e-06   9.339044979943516e-07   1.497016490639827e-05
-8.766546515807555e-06   9.339044979943516e-07   1.497016490639827e-05
-8.894607924204063e-06   1.0732738414204407e-06   6.495740254558739e-06
-8.894607924204063e-06   1.0732738414204407e-06   6.495740254558739e-06
-8.894607924204063e-06   1.0732738414204407e-06   6.495740254558739e-06
-8.894607924204063e-06   1.0732738414204407e-06   6.495740254558739e-06
-1.431069646588384e-05   6.617285313820578e-07   1.5769481676714666e-05
-1.431069646588384e-05   6.617285313820578e-07   1.5769481676714666e-05
-1.431069646588384e-05   6.617285313820578e-07   1.5769481676714666e-05
-1.431069646588384e-05   6.617285313820578e-07   1.5769481676714666e-05
-1.1322283418358472e-05   8.629747330426724e-07   1.066804554317588e-05
-1.1322283418358472e-05   8.629747330426724e-07   1.066804554317588e-05
-1.1322283418358472e-05   8.629747330426724e-07   1.066804554317588e-05
-1.1322283418358472e-05   8.629747330426724e-07   1.066804554317588e-05
-1.431069646588386e-05   1.0732738414204407e-06   6.742667440581764e-06
-1.431069646588386e-05   1.0732738414204407e-06   6.742667440581764e-06
-1.431069646588386e-05   1.0732738414204407e-06   6.742667440581764e-06
-1.431069646588386e-05   1.0732738414204407e-06   6.742667440581764e-06
-8.894607924204046e-06   6.617285313820578e-07   1.5522554490691635e-05
-8.894607924204046e-06   6.617285313820578e-07   1.5522554490691635e-05
-8.894607924204046e-06   6.617285313820578e-07   1.5522554490691635e-05
-8.894607924204046e-06   6.617285313820578e-07   1.5522554490691635e-05
-8.80800916896938e-06   4.3478053119968066e-07   7.664964993256662e-06
-8.80800916896938e-06   4.3478053119968066e-07   7.664964993256662e-06
-8.80800916896938e-06   4.3478053119968066e-07   7.664964993256662e-06
-8.80800916896938e-06   4.3478053119968066e-07   7.664964993256662e-06
-1.4478830384516457e-05   -5.00710768835727e-07   1.767762846585633e-05
-1.4478830384516457e-05   -5.00710768835727e-07   1.767762846585633e-05
-1.4478830384516457e-05   -5.00710768835727e-07   1.767762846585633e-05
-1.4478830384516457e-05   -5.00710768835727e-07   1.767762846585633e-05
-1.1158073000485762e-05   4.0794232203681877e-07   1.1597840971281685e-05
-1.1158073000485762e-05   4.0794232203681877e-07   1.1597840971281685e-05
-1.1158073000485762e-05   4.0794232203681877e-07   1.1597840971281685e-05
-1.1158073000485762e-05   4.0794232203681877e-07   1.1597840971281685e-05
-8.767398237891197e-06   4.439840105534146e-07   1.1731665109363432e-05
-8.767398237891197e-06   4.439840105534146e-07   1.1731665109363432e-05
-8.767398237891197e-06   4.439840105534146e-07   1.1731665109363432e-05
-8.767398237891197e-06   4.439840105534146e-07   1.1731665109363432e-05
-5.4027779808439586e-06   -2.7456519981071577e-06   1.542558393257914e-05
-5.4027779808439586e-06   -2.7456519981071577e-06   1.542558393257914e-05
-5.4027779808439586e-06   -2.7456519981071577e-06   1.542558393257914e-05
-5.4027779808439586e-06   -2.7456519981071577e-06   1.542558393257914e-05
-5.419174456318935e-06   2.0982762633235978e-07   9.841093583570814e-06
-5.419174456318935e-06   2.0982762633235978e-07   9.841093583570814e-06
-5.419174456318935e-06   2.0982762633235978e-07   9.841093583570814e-06
-5.419174456318935e-06   2.0982762633235978e-07   9.841093583570814e-06
-8.766546515807555e-06   -2.256178567515199e-06   1.689965073236046e-05
-8.766546515807555e-06   -2.256178567515199e-06   1.689965073236046e-05
-8.766546515807555e-06   -2.256178567515199e-06   1.689965073236046e-05
-8.766546515807555e-06   -2.256178567515199e-06   1.689965073236046e-05
-7.0534050135043475e-06   -1.3593519352750154e-06   1.3506318915844419e-05
-7.0534050135043475e-06   -1.3593519352750154e-06   1.3506318915844419e-05
-7.0534050135043475e-06   -1.3593519352750154e-06   1.3506318915844419e-05
-7.0534050135043475e-06   -1.3593519352750154e-06   1.3506318915844419e-05
-8.766546515807561e-06   2.0982762633235978e-07   1.1320697299879235e-05
-8.766546515807561e-06   2.0982762633235978e-07   1.1320697299879235e-05
-8.766546515807561e-06   2.0982762633235978e-07   1.1320697299879235e-05
-8.766546515807561e-06   2.0982762633235978e-07   1.1320697299879235e-05
-5.419174456318922e-06   -2.256178567515199e-06   1.542004701605194e-05
-5.419174456318922e-06   -2.256178567515199e-06   1.542004701605194e-05
-5.419174456318922e-06   -2.256178567515199e-06   1.542004701605194e-05
-5.419174456318922e-06   -2.256178567515199e-06   1.542004701605194e-05
-5.448236777090657e-06   -5.8924630297069874e-08   1.0137508245560399e-05
-5.448236777090657e-06   -5.8924630297069874e-08   1.0137508245560399e-05
-5.448236777090657e-06   -5.8924630297069874e-08   1.0137508245560399e-05
-5.448236777090657e-06   -5.8924630297069874e-08   1.0137508245560399e-05
-8.894607924204046e-06   -2.3046705727874396e-06   1.7228907722910202e-05
-8.894607924204046e-06   -2.3046705727874396e-06   1.7228907722910202e-05
-8.894607924204046e-06   -2.3046705727874396e-06   1.7228907722910202e-05
-8.894607924204046e-06   -2.3046705727874396e-06   1.7228907722910202e-05
-7.007492895897304e-06   -1.188035909892196e-06   1.3413735211328424e-05
-7.007492895897304e-06   -1.188035909892196e-06   1.3413735211328424e-05
-7.007492895897304e-06   -1.188035909892196e-06   1.3413735211328424e-05
-7.007492895897304e-06   -1.188035909892196e-06   1.3413735211328424e-05
-8.894607924204063e-06   -5.8924630297069874e-08   1.1484955811054599e-05
-8.894607924204063e-06   -5.8924630297069874e-08   1.1484955811054599e-05
-8.894607924204063e-06   -5.8924630297069874e-08   1.1484955811054599e-05
-8.894607924204063e-06   -5.8924630297069874e-08   1.1484955811054599e-05
-5.448236777090643e-06   -2.3046705727874396e-06   1.588146015741599e-05
-5.448236777090643e-06   -2.3046705727874396e-06   1.588146015741599e-05
-5.448236777090643e-06   -2.3046705727874396e-06   1.588146015741599e-05
-5.448236777090643e-06   -2.3046705727874396e-06   1.588146015741599e-05
-5.404384065776433e-06   -4.1038413015406783e-07   1.0509040391160811e-05
-5.404384065776433e-06   -4.1038413015406783e-07   1.0509040391160811e-05
-5.404384065776433e-06   -4.1038413015406783e-07   1.0509040391160811e-05
-5.404384065776433e-06   -4.1038413015406783e-07   1.0509040391160811e-05
-8.808009168969357e-06   -2.318118606545416e-06   1.7326389582317107e-05
-8.808009168969357e-06   -2.318118606545416e-06   1.7326389582317107e-05
-8.808009168969357e-06   -2.318118606545416e-06   1.7326389582317107e-05
-8.808009168969357e-06   -2.318118606545416e-06   1.7326389582317107e-05
-7.048366019876464e-06   -1.3288338276753477e-06   1.3800080133173626e-05
-7.048366019876464e-06   -1.3288338276753477e-06   1.3800080133173626e-05
-7.048366019876464e-06   -1.3288338276753477e-06   1.3800080133173626e-05
-7.048366019876464e-06   -1.3288338276753477e-06   1.3800080133173626e-05
-5.4027779808439586e-06   1.249413872207272e-07   1.0863805369578842e-05
-5.4027779808439586e-06   1.249413872207272e-07   1.0863805369578842e-05
-5.4027779808439586e-06   1.249413872207272e-07   1.0863805369578842e-05
-5.4027779808439586e-06   1.249413872207272e-07   1.0863805369578842e-05
-4.003683257823511e-06   -2.145765841214529e-06   1.183320557088513e-05
-4.003683257823511e-06   -2.145765841214529e-06   1.183320557088513e-05
-4.003683257823511e-06   -2.145765841214529e-06   1.183320557088513e-05
-4.003683257823511e-06   -2.145765841214529e-06   1.183320557088513e-05
-3.974236901960762e-06   -7.113759192128866e-08   9.587177066656125e-06
-3.974236901960762e-06   -7.113759192128866e-08   9.587177066656125e-06
-3.974236901960762e-06   -7.113759192128866e-08   9.587177066656125e-06
-3.974236901960762e-06   -7.113759192128866e-08   9.587177066656125e-06
-5.419174456318922e-06   -2.107429469268903e-06   1.3217181450328415e-05
-5.419174456318922e-06   -2.107429469268903e-06   1.3217181450328415e-05
-5.419174456318922e-06   -2.107429469268903e-06   1.3217181450328415e-05
-5.419174456318922e-06   -2.107429469268903e-06   1.3217181450328415e-05
-4.672045084577014e-06   -1.0826837904117314e-06   1.1357118423444316e-05
-4.672045084577014e-06   -1.0826837904117314e-06   1.1357118423444316e-05
-4.672045084577014e-06   -1.0826837904117314e-06   1.1357118423444316e-05
-4.672045084577014e-06   -1.0826837904117314e-06   1.1357118423444316e-05
-5.419174456318922e-06   -7.113759192128866e-08   1.0808952193064667e-05
-5.419174456318922e-06   -7.113759192128866e-08   1.0808952193064667e-05
-5.419174456318922e-06   -7.113759192128866e-08   1.0808952193064667e-05
-5.419174456318922e-06   -7.113759192128866e-08   1.0808952193064667e-05
-3.974236901960762e-06   -2.10742946926893e-06   1.1995406323919812e-05
-3.974236901960762e-06   -2.10742946926893e-06   1.1995406323919812e-05
-3.974236901960762e-06   -2.10742946926893e-06   1.1995406323919812e-05
-3.974236901960762e-06   -2.10742946926893e-06   1.1995406323919812e-05
-3.951110212205332e-06   -3.0580657243186845e-07   9.813617276305112e-06
-3.951110212205332e-06   -3.0580657243186845e-07   9.813617276305112e-06
-3.951110212205332e-06   -3.0580657243186845e-07   9.813617276305112e-06
-3.951110212205332e-06   -3.0580657243186845e-07   9.813617276305112e-06
-5.448236777090643e-06   -2.1702336891573683e-06   1.3427484487815825e-05
-5.448236777090643e-06   -2.1702336891573683e-06   1.3427484487815825e-05
-5.448236777090643e-06   -2.1702336891573683e-06   1.3427484487815825e-05
-5.448236777090643e-06   -2.1702336891573683e-06   1.3427484487815825e-05
-4.637171576324535e-06   -1.1511699515254171e-06   1.1464270910626218e-05
-4.637171576324535e-06   -1.1511699515254171e-06   1.1464270910626218e-05
-4.637171576324535e-06   -1.1511699515254171e-06   1.1464270910626218e-05
-4.637171576324535e-06   -1.1511699515254171e-06   1.1464270910626218e-05
-5.448236777090643e-06   -3.0580657243186845e-07   1.0932273546340347e-05
-5.448236777090643e-06   -3.0580657243186845e-07   1.0932273546340347e-05
-5.448236777090643e-06   -3.0580657243186845e-07   1.0932273546340347e-05
-5.448236777090643e-06   -3.0580657243186845e-07   1.0932273546340347e-05
-3.951110212205332e-06   -2.1702336891573683e-06   1.2308828217780532e-05
-3.951110212205332e-06   -2.1702336891573683e-06   1.2308828217780532e-05
-3.951110212205332e-06   -2.1702336891573683e-06   1.2308828217780532e-05
-3.951110212205332e-06   -2.1702336891573683e-06   1.2308828217780532e-05
-3.882519277848722e-06   -5.403753252092715e-07   1.0165242544696751e-05
-3.882519277848722e-06   -5.403753252092715e-07   1.0165242544696751e-05
-3.882519277848722e-06   -5.403753252092715e-07   1.0165242544696751e-05
-3.882519277848722e-06   -5.403753252092715e-07   1.0165242544696751e-05
-5.40438406577642e-06   -2.256679884066079e-06   1.3731466593223566e-05
-5.40438406577642e-06   -2.256679884066079e-06   1.3731466593223566e-05
-5.40438406577642e-06   -2.256679884066079e-06   1.3731466593223566e-05
-5.40438406577642e-06   -2.256679884066079e-06   1.3731466593223566e-05
-4.596882175934897e-06   -1.2525497044535948e-06   1.1783152002386933e-05
-4.596882175934897e-06   -1.2525497044535948e-06   1.1783152002386933e-05
-4.596882175934897e-06   -1.2525497044535948e-06   1.1783152002386933e-05
-4.596882175934897e-06   -1.2525497044535948e-06   1.1783152002386933e-05
-4.003683257823511e-06   5.75820036338747e-07   7.424100504891561e-06
-4.003683257823511e-06   5.75820036338747e-07   7.424100504891561e-06
-4.003683257823511e-06   5.75820036338747e-07   7.424100504891561e-06
-4.003683257823511e-06   5.75820036338747e-07   7.424100504891561e-06
-3.372016889096344e-06   -8.833950560689109e-07   7.601348730658944e-06
-3.372016889096344e-06   -8.833950560689109e-07   7.601348730658944e-06
-3.372016889096344e-06   -8.833950560689109e-07   7.601348730658944e-06
-3.372016889096344e-06   -8.833950560689109e-07   7.601348730658944e-06
-3.306871587138141e-06   3.16905457226329e-07   6.704349548992245e-06
-3.306871587138141e-06   3.16905457226329e-07   6.704349548992245e-06
-3.306871587138141e-06   3.16905457226329e-07   6.704349548992245e-06
-3.306871587138141e-06   3.16905457226329e-07   6.704349548992245e-06
-3.974236901960762e-06   -1.0313697638003323e-06   8.625590206312703e-06
-3.974236901960762e-06   -1.0313697638003323e-06   8.625590206312703e-06
-3.974236901960762e-06   -1.0313697638003323e-06   8.625590206312703e-06
-3.974236901960762e-06   -1.0313697638003323e-06   8.625590206312703e-06
-3.6377896228820196e-06   -2.0200693757462885e-07   7.567227045446182e-06
-3.6377896228820196e-06   -2.0200693757462885e-07   7.567227045446182e-06
-3.6377896228820196e-06   -2.0200693757462885e-07   7.567227045446182e-06
-3.6377896228820196e-06   -2.0200693757462885e-07   7.567227045446182e-06
-3.974236901960762e-06   3.16905457226329e-07   7.51331468160828e-06
-3.974236901960762e-06   3.16905457226329e-07   7.51331468160828e-06
-3.974236901960762e-06   3.16905457226329e-07   7.51331468160828e-06
-3.974236901960762e-06   3.16905457226329e-07   7.51331468160828e-06
-3.306871587138141e-06   -1.0313697638003323e-06   7.816625073696682e-06
-3.306871587138141e-06   -1.0313697638003323e-06   7.816625073696682e-06
-3.306871587138141e-06   -1.0313697638003323e-06   7.816625073696682e-06
-3.306871587138141e-06   -1.0313697638003323e-06   7.816625073696682e-06
-3.2817555619205085e-06   9.48768693277615e-08   7.019308767709732e-06
-3.2817555619205085e-06   9.48768693277615e-08   7.019308767709732e-06
-3.2817555619205085e-06   9.48768693277615e-08   7.019308767709732e-06
-3.2817555619205085e-06   9.48768693277615e-08   7.019308767709732e-06
-3.951110212205332e-06   -1.1451696734571183e-06   8.878927777188604e-06
-3.951110212205332e-06   -1.1451696734571183e-06   8.878927777188604e-06
-3.951110212205332e-06   -1.1451696734571183e-06   8.878927777188604e-06
-3.951110212205332e-06   -1.1451696734571183e-06   8.878927777188604e-06
-3.572950933365999e-06   -3.5868403879045323e-07   7.776770931655999e-06
-3.572950933365999e-06   -3.5868403879045323e-07   7.776770931655999e-06
-3.572950933365999e-06   -3.5868403879045323e-07   7.776770931655999e-06
-3.572950933365999e-06   -3.5868403879045323e-07   7.776770931655999e-06
-3.951110212205332e-06   9.48768693277615e-08   7.763336693380573e-06
-3.951110212205332e-06   9.48768693277615e-08   7.763336693380573e-06
-3.951110212205332e-06   9.48768693277615e-08   7.763336693380573e-06
-3.951110212205332e-06   9.48768693277615e-08   7.763336693380573e-06
-3.2817555619205085e-06   -1.1451696734571454e-06   8.134899851517668e-06
-3.2817555619205085e-06   -1.1451696734571454e-06   8.134899851517668e-06
-3.2817555619205085e-06   -1.1451696734571454e-06   8.134899851517668e-06
-3.2817555619205085e-06   -1.1451696734571454e-06   8.134899851517668e-06
-3.2356460804772093e-06   -1.2915511624826768e-07   7.4148134244579654e-06
-3.2356460804772093e-06   -1.2915511624826768e-07   7.4148134244579654e-06
-3.2356460804772093e-06   -1.2915511624826768e-07   7.4148134244579654e-06
-3.2356460804772093e-06   -1.2915511624826768e-07   7.4148134244579654e-06
-3.882519277848722e-06   -1.2937352617468348e-06   9.191683507376241e-06
-3.882519277848722e-06   -1.2937352617468348e-06   9.191683507376241e-06
-3.882519277848722e-06   -1.2937352617468348e-06   9.191683507376241e-06
-3.882519277848722e-06   -1.2937352617468348e-06   9.191683507376241e-06
-3.5253024298109487e-06   -4.966743934798116e-07   8.118085573019962e-06
-3.5253024298109487e-06   -4.966743934798116e-07   8.118085573019962e-06
-3.5253024298109487e-06   -4.966743934798116e-07   8.118085573019962e-06
-3.5253024298109487e-06   -4.966743934798116e-07   8.118085573019962e-06
-3.372016889096344e-06   9.562274573935597e-07   1.7459603631343583e-06
-3.372016889096344e-06   9.562274573935597e-07   1.7459603631343583e-06
-3.372016889096344e-06   9.562274573935597e-07   1.7459603631343583e-06
-3.372016889096344e-06   9.562274573935597e-07   1.7459603631343583e-06
-2.00273312934079e-06   -9.414407214442195e-08   3.3978770450042027e-06
-2.00273312934079e-06   -9.414407214442195e-08   3.3978770450042027e-06
-2.00273312934079e-06   -9.414407214442195e-08   3.3978770450042027e-06
-2.00273312934079e-06   -9.414407214442195e-08   3.3978770450042027e-06
-2.1222041736281634e-06   7.720859077509773e-07   1.7642160332814521e-06
-2.1222041736281634e-06   7.720859077509773e-07   1.7642160332814521e-06
-2.1222041736281634e-06   7.720859077509773e-07   1.7642160332814521e-06
-2.1222041736281634e-06   7.720859077509773e-07   1.7642160332814521e-06
-3.306871587138141e-06   -1.3323201232789527e-07   4.281852474512281e-06
-3.306871587138141e-06   -1.3323201232789527e-07   4.281852474512281e-06
-3.306871587138141e-06   -1.3323201232789527e-07   4.281852474512281e-06
-3.306871587138141e-06   -1.3323201232789527e-07   4.281852474512281e-06
-2.6079222349686737e-06   4.927355843794808e-07   2.7413563295387985e-06
-2.6079222349686737e-06   4.927355843794808e-07   2.7413563295387985e-06
-2.6079222349686737e-06   4.927355843794808e-07   2.7413563295387985e-06
-2.6079222349686737e-06   4.927355843794808e-07   2.7413563295387985e-06
-3.306871587138168e-06   7.720859077509773e-07   2.307406785328705e-06
-3.306871587138168e-06   7.720859077509773e-07   2.307406785328705e-06
-3.306871587138168e-06   7.720859077509773e-07   2.307406785328705e-06
-3.306871587138168e-06   7.720859077509773e-07   2.307406785328705e-06
-2.1222041736281634e-06   -1.3323201232792238e-07   3.7386617224648925e-06
-2.1222041736281634e-06   -1.3323201232792238e-07   3.7386617224648925e-06
-2.1222041736281634e-06   -1.3323201232792238e-07   3.7386617224648925e-06
-2.1222041736281634e-06   -1.3323201232792238e-07   3.7386617224648925e-06
-2.221204995483917e-06   6.519087446533165e-07   2.27829078281957e-06
-2.221204995483917e-06   6.519087446533165e-07   2.27829078281957e-06
-2.221204995483917e-06   6.519087446533165e-07   2.27829078281957e-06
-2.221204995483917e-06   6.519087446533165e-07   2.27829078281957e-06
-3.2817555619205085e-06   -1.8549182476807185e-07   4.5483154018665685e-06
-3.2817555619205085e-06   -1.8549182476807185e-07   4.5483154018665685e-06
-3.2817555619205085e-06   -1.8549182476807185e-07   4.5483154018665685e-06
-3.2817555619205085e-06   -1.8549182476807185e-07   4.5483154018665685e-06
-2.661483456608467e-06   4.02859449937312e-07   3.161517794856531e-06
-2.661483456608467e-06   4.02859449937312e-07   3.161517794856531e-06
-2.661483456608467e-06   4.02859449937312e-07   3.161517794856531e-06
-2.661483456608467e-06   4.02859449937312e-07   3.161517794856531e-06
-3.2817555619205085e-06   6.519087446533165e-07   2.780731124472349e-06
-3.2817555619205085e-06   6.519087446533165e-07   2.780731124472349e-06
-3.2817555619205085e-06   6.519087446533165e-07   2.780731124472349e-06
-3.2817555619205085e-06   6.519087446533165e-07   2.780731124472349e-06
-2.221204995483917e-06   -1.8549182476804474e-07   4.04587506021379e-06
-2.221204995483917e-06   -1.8549182476804474e-07   4.04587506021379e-06
-2.221204995483917e-06   -1.8549182476804474e-07   4.04587506021379e-06
-2.221204995483917e-06   -1.8549182476804474e-07   4.04587506021379e-06
-2.4523394731915376e-06   4.0754900347957047e-07   3.197991984184279e-06
-2.4523394731915376e-06   4.0754900347957047e-07   3.197991984184279e-06
-2.4523394731915376e-06   4.0754900347957047e-07   3.197991984184279e-06
-2.4523394731915376e-06   4.0754900347957047e-07   3.197991984184279e-06
-3.2356460804772093e-06   -2.5113058870740424e-07   4.898710751639163e-06
-3.2356460804772093e-06   -2.5113058870740424e-07   4.898710751639163e-06
-3.2356460804772093e-06   -2.5113058870740424e-07   4.898710751639163e-06
-3.2356460804772093e-06   -2.5113058870740424e-07   4.898710751639163e-06
-2.673882613543049e-06   3.4087707934582403e-07   3.6072337059169044e-06
-2.673882613543049e-06   3.4087707934582403e-07   3.6072337059169044e-06
-2.673882613543049e-06   3.4087707934582403e-07   3.6072337059169044e-06
-2.673882613543049e-06   3.4087707934582403e-07   3.6072337059169044e-06
-3.052097683304486e-05   2.3638961562748566e-06   1.3389542854865813e-05
-3.052097683304486e-05   2.3638961562748566e-06   1.3389542854865813e-05
-3.052097683304486e-05   2.3638961562748566e-06   1.3389542854865813e-05
-3.052097683304486e-05   2.3638961562748566e-06   1.3389542854865813e-05
-7.139392473985573e-06   -1.529473270802338e-05   4.176367280138573e-05
-7.139392473985573e-06   -1.529473270802338e-05   4.176367280138573e-05
-7.139392473985573e-06   -1.529473270802338e-05   4.176367280138573e-05
-7.139392473985573e-06   -1.529473270802338e-05   4.176367280138573e-05
-8.404291337183202e-06   9.339044979943516e-07   7.318730233612429e-06
-8.404291337183202e-06   9.339044979943516e-07   7.318730233612429e-06
-8.404291337183202e-06   9.339044979943516e-07   7.318730233612429e-06
-8.404291337183202e-06   9.339044979943516e-07   7.318730233612429e-06
-2.7836264414888746e-05   -1.194530145999879e-05   4.743287560458415e-05
-2.7836264414888746e-05   -1.194530145999879e-05   4.743287560458415e-05
-2.7836264414888746e-05   -1.194530145999879e-05   4.743287560458415e-05
-2.7836264414888746e-05   -1.194530145999879e-05   4.743287560458415e-05
-1.855028553163059e-05   -5.944411728030544e-06   2.835571029330627e-05
-1.855028553163059e-05   -5.944411728030544e-06   2.835571029330627e-05
-1.855028553163059e-05   -5.944411728030544e-06   2.835571029330627e-05
-1.855028553163059e-05   -5.944411728030544e-06   2.835571029330627e-05
-2.7836264414888696e-05   9.339044979943516e-07   1.5046253808408282e-05
-2.7836264414888696e-05   9.339044979943516e-07   1.5046253808408282e-05
-2.7836264414888696e-05   9.339044979943516e-07   1.5046253808408282e-05
-2.7836264414888696e-05   9.339044979943516e-07   1.5046253808408282e-05
-8.404291337183219e-06   -1.194530145999879e-05   3.9705352029788275e-05
-8.404291337183219e-06   -1.194530145999879e-05   3.9705352029788275e-05
-8.404291337183219e-06   -1.194530145999879e-05   3.9705352029788275e-05
-8.404291337183219e-06   -1.194530145999879e-05   3.9705352029788275e-05
-8.606559063887207e-06   6.617285313820578e-07   8.044623880382258e-06
-8.606559063887207e-06   6.617285313820578e-07   8.044623880382258e-06
-8.606559063887207e-06   6.617285313820578e-07   8.044623880382258e-06
-8.606559063887207e-06   6.617285313820578e-07   8.044623880382258e-06
-2.6266982329299036e-05   -1.033902792962139e-05   4.407911653267065e-05
-2.6266982329299036e-05   -1.033902792962139e-05   4.407911653267065e-05
-2.6266982329299036e-05   -1.033902792962139e-05   4.407911653267065e-05
-2.6266982329299036e-05   -1.033902792962139e-05   4.407911653267065e-05
-1.8005073666900706e-05   -5.637814182242514e-06   2.7488540513579466e-05
-1.8005073666900706e-05   -5.637814182242514e-06   2.7488540513579466e-05
-1.8005073666900706e-05   -5.637814182242514e-06   2.7488540513579466e-05
-1.8005073666900706e-05   -5.637814182242514e-06   2.7488540513579466e-05
-2.626698232929899e-05   6.617285313820578e-07   1.4645077756984316e-05
-2.626698232929899e-05   6.617285313820578e-07   1.4645077756984316e-05
-2.626698232929899e-05   6.617285313820578e-07   1.4645077756984316e-05
-2.626698232929899e-05   6.617285313820578e-07   1.4645077756984316e-05
-8.606559063887224e-06   -1.033902792962139e-05   3.747866265606857e-05
-8.606559063887224e-06   -1.033902792962139e-05   3.747866265606857e-05
-8.606559063887224e-06   -1.033902792962139e-05   3.747866265606857e-05
-8.606559063887224e-06   -1.033902792962139e-05   3.747866265606857e-05
-9.45248484464172e-06   -5.007107688356999e-07   1.0062313585415094e-05
-9.45248484464172e-06   -5.007107688356999e-07   1.0062313585415094e-05
-9.45248484464172e-06   -5.007107688356999e-07   1.0062313585415094e-05
-9.45248484464172e-06   -5.007107688356999e-07   1.0062313585415094e-05
-2.4251322237579595e-05   -8.2009897380029e-06   3.9347209955145135e-05
-2.4251322237579595e-05   -8.2009897380029e-06   3.9347209955145135e-05
-2.4251322237579595e-05   -8.2009897380029e-06   3.9347209955145135e-05
-2.4251322237579595e-05   -8.2009897380029e-06   3.9347209955145135e-05
-1.7331087433095846e-05   -5.206922800241471e-06   2.6017045118348726e-05
-1.7331087433095846e-05   -5.206922800241471e-06   2.6017045118348726e-05
-1.7331087433095846e-05   -5.206922800241471e-06   2.6017045118348726e-05
-1.7331087433095846e-05   -5.206922800241471e-06   2.6017045118348726e-05
-7.139392473985552e-06   -2.7456519981071577e-06   7.660822424455745e-06
-7.139392473985552e-06   -2.7456519981071577e-06   7.660822424455745e-06
-7.139392473985552e-06   -2.7456519981071577e-06   7.660822424455745e-06
-7.139392473985552e-06   -2.7456519981071577e-06   7.660822424455745e-06
-2.4764831856786913e-06   -4.846465503001333e-06   1.4171849802030696e-05
-2.4764831856786913e-06   -4.846465503001333e-06   1.4171849802030696e-05
-2.4764831856786913e-06   -4.846465503001333e-06   1.4171849802030696e-05
-2.4764831856786913e-06   -4.846465503001333e-06   1.4171849802030696e-05
-2.7808705347972265e-06   -2.256178567515199e-06   6.7729348753498724e-06
-2.7808705347972265e-06   -2.256178567515199e-06   6.7729348753498724e-06
-2.7808705347972265e-06   -2.256178567515199e-06   6.7729348753498724e-06
-2.7808705347972265e-06   -2.256178567515199e-06   6.7729348753498724e-06
-8.404291337183219e-06   -6.381647207889817e-06   1.862058406355122e-05
-8.404291337183219e-06   -6.381647207889817e-06   1.862058406355122e-05
-8.404291337183219e-06   -6.381647207889817e-06   1.862058406355122e-05
-8.404291337183219e-06   -6.381647207889817e-06   1.862058406355122e-05
-4.928874269569972e-06   -3.3276472260145267e-06   1.0995822295070603e-05
-4.928874269569972e-06   -3.3276472260145267e-06   1.0995822295070603e-05
-4.928874269569972e-06   -3.3276472260145267e-06   1.0995822295070603e-05
-4.928874269569972e-06   -3.3276472260145267e-06   1.0995822295070603e-05
-8.404291337183195e-06   -2.256178567515199e-06   9.248216059574559e-06
-8.404291337183195e-06   -2.256178567515199e-06   9.248216059574559e-06
-8.404291337183195e-06   -2.256178567515199e-06   9.248216059574559e-06
-8.404291337183195e-06   -2.256178567515199e-06   9.248216059574559e-06
-2.7808705347972265e-06   -6.381647207889817e-06   1.6145302879326446e-05
-2.7808705347972265e-06   -6.381647207889817e-06   1.6145302879326446e-05
-2.7808705347972265e-06   -6.381647207889817e-06   1.6145302879326446e-05
-2.7808705347972265e-06   -6.381647207889817e-06   1.6145302879326446e-05
-3.042759306021598e-06   -2.3046705727874396e-06   7.617279314469169e-06
-3.042759306021598e-06   -2.3046705727874396e-06   7.617279314469169e-06
-3.042759306021598e-06   -2.3046705727874396e-06   7.617279314469169e-06
-3.042759306021598e-06   -2.3046705727874396e-06   7.617279314469169e-06
-8.606559063887224e-06   -5.860833569673583e-06   1.90239767090435e-05
-8.606559063887224e-06   -5.860833569673583e-06   1.90239767090435e-05
-8.606559063887224e-06   -5.860833569673583e-06   1.90239767090435e-05
-8.606559063887224e-06   -5.860833569673583e-06   1.90239767090435e-05
-5.574127027238198e-06   -4.054533786528554e-06   1.2886143444741543e-05
-5.574127027238198e-06   -4.054533786528554e-06   1.2886143444741543e-05
-5.574127027238198e-06   -4.054533786528554e-06   1.2886143444741543e-05
-5.574127027238198e-06   -4.054533786528554e-06   1.2886143444741543e-05
-8.606559063887207e-06   -2.3046705727874396e-06   9.750977112600839e-06
-8.606559063887207e-06   -2.3046705727874396e-06   9.750977112600839e-06
-8.606559063887207e-06   -2.3046705727874396e-06   9.750977112600839e-06
-8.606559063887207e-06   -2.3046705727874396e-06   9.750977112600839e-06
-3.042759306021598e-06   -5.860833569673583e-06   1.689027891091184e-05
-3.042759306021598e-06   -5.860833569673583e-06   1.689027891091184e-05
-3.042759306021598e-06   -5.860833569673583e-06   1.689027891091184e-05
-3.042759306021598e-06   -5.860833569673583e-06   1.689027891091184e-05
-3.4711725348640892e-06   -2.3181186065454704e-06   8.345387906877533e-06
-3.4711725348640892e-06   -2.3181186065454704e-06   8.345387906877533e-06
-3.4711725348640892e-06   -2.3181186065454704e-06   8.345387906877533e-06
-3.4711725348640892e-06   -2.3181186065454704e-06   8.345387906877533e-06
-9.452484844641727e-06   -5.529754564911567e-06   2.024122333152653e-05
-9.452484844641727e-06   -5.529754564911567e-06   2.024122333152653e-05
-9.452484844641727e-06   -5.529754564911567e-06   2.024122333152653e-05
-9.452484844641727e-06   -5.529754564911567e-06   2.024122333152653e-05
-5.959108846222083e-06   -3.7042660198624328e-06   1.3323636873797671e-05
-5.959108846222083e-06   -3.7042660198624328e-06   1.3323636873797671e-05
-5.959108846222083e-06   -3.7042660198624328e-06   1.3323636873797671e-05
-5.959108846222083e-06   -3.7042660198624328e-06   1.3323636873797671e-05
-2.4764831856786913e-06   -2.145765841214529e-06   4.170380296886385e-06
-2.4764831856786913e-06   -2.145765841214529e-06   4.170380296886385e-06
-2.4764831856786913e-06   -2.145765841214529e-06   4.170380296886385e-06
-2.4764831856786913e-06   -2.145765841214529e-06   4.170380296886385e-06
-1.3881650938997133e-06   -1.4134651304292878e-06   6.423624209655836e-06
-1.3881650938997133e-06   -1.4134651304292878e-06   6.423624209655836e-06
-1.3881650938997133e-06   -1.4134651304292878e-06   6.423624209655836e-06
-1.3881650938997133e-06   -1.4134651304292878e-06   6.423624209655836e-06
-1.3417924726711163e-06   -2.10742946926893e-06   4.736140957743175e-06
-1.3417924726711163e-06   -2.10742946926893e-06   4.736140957743175e-06
-1.3417924726711163e-06   -2.10742946926893e-06   4.736140957743175e-06
-1.3417924726711163e-06   -2.10742946926893e-06   4.736140957743175e-06
-2.7808705347972265e-06   -1.8306433890741963e-06   6.9685327465031e-06
-2.7808705347972265e-06   -1.8306433890741963e-06   6.9685327465031e-06
-2.7808705347972265e-06   -1.8306433890741963e-06   6.9685327465031e-06
-2.7808705347972265e-06   -1.8306433890741963e-06   6.9685327465031e-06
-1.8697540566806948e-06   -1.7645298059006266e-06   5.410337133071315e-06
-1.8697540566806948e-06   -1.7645298059006266e-06   5.410337133071315e-06
-1.8697540566806948e-06   -1.7645298059006266e-06   5.410337133071315e-06
-1.8697540566806948e-06   -1.7645298059006266e-06   5.410337133071315e-06
-2.7808705347972265e-06   -2.10742946926893e-06   4.570069309626335e-06
-2.7808705347972265e-06   -2.10742946926893e-06   4.570069309626335e-06
-2.7808705347972265e-06   -2.10742946926893e-06   4.570069309626335e-06
-2.7808705347972265e-06   -2.10742946926893e-06   4.570069309626335e-06
-1.3417924726711163e-06   -1.8306433890741963e-06   7.13460439461994e-06
-1.3417924726711163e-06   -1.8306433890741963e-06   7.13460439461994e-06
-1.3417924726711163e-06   -1.8306433890741963e-06   7.13460439461994e-06
-1.3417924726711163e-06   -1.8306433890741963e-06   7.13460439461994e-06
-1.3519218617827594e-06   -2.1702336891573683e-06   5.068986509542837e-06
-1.3519218617827594e-06   -2.1702336891573683e-06   5.068986509542837e-06
-1.3519218617827594e-06   -2.1702336891573683e-06   5.068986509542837e-06
-1.3519218617827594e-06   -2.1702336891573683e-06   5.068986509542837e-06
-3.042759306021598e-06   -2.3274289147010176e-06   7.981366051933668e-06
-3.042759306021598e-06   -2.3274289147010176e-06   7.981366051933668e-06
-3.042759306021598e-06   -2.3274289147010176e-06   7.981366051933668e-06
-3.042759306021598e-06   -2.3274289147010176e-06   7.981366051933668e-06
-1.9923309350888187e-06   -1.9288040881748815e-06   5.991477204463395e-06
-1.9923309350888187e-06   -1.9288040881748815e-06   5.991477204463395e-06
-1.9923309350888187e-06   -1.9288040881748815e-06   5.991477204463395e-06
-1.9923309350888187e-06   -1.9288040881748815e-06   5.991477204463395e-06
-3.042759306021598e-06   -2.1702336891573683e-06   5.163303644868992e-06
-3.042759306021598e-06   -2.1702336891573683e-06   5.163303644868992e-06
-3.042759306021598e-06   -2.1702336891573683e-06   5.163303644868992e-06
-3.042759306021598e-06   -2.1702336891573683e-06   5.163303644868992e-06
-1.3519218617827594e-06   -2.3274289147010176e-06   7.88704891660746e-06
-1.3519218617827594e-06   -2.3274289147010176e-06   7.88704891660746e-06
-1.3519218617827594e-06   -2.3274289147010176e-06   7.88704891660746e-06
-1.3519218617827594e-06   -2.3274289147010176e-06   7.88704891660746e-06
-1.386678084870375e-06   -2.256679884066079e-06   5.570090142850584e-06
-1.386678084870375e-06   -2.256679884066079e-06   5.570090142850584e-06
-1.386678084870375e-06   -2.256679884066079e-06   5.570090142850584e-06
-1.386678084870375e-06   -2.256679884066079e-06   5.570090142850584e-06
-3.4711725348640757e-06   -2.7983723186797074e-06   9.369263020274896e-06
-3.4711725348640757e-06   -2.7983723186797074e-06   9.369263020274896e-06
-3.4711725348640757e-06   -2.7983723186797074e-06   9.369263020274896e-06
-3.4711725348640757e-06   -2.7983723186797074e-06   9.369263020274896e-06
-2.1338537323899938e-06   -2.0990929356714416e-06   6.72083071967983e-06
-2.1338537323899938e-06   -2.0990929356714416e-06   6.72083071967983e-06
-2.1338537323899938e-06   -2.0990929356714416e-06   6.72083071967983e-06
-2.1338537323899938e-06   -2.0990929356714416e-06   6.72083071967983e-06
-1.3881650938997133e-06   -8.833950560688838e-07   1.2534329385759362e-06
-1.3881650938997133e-06   -8.833950560688838e-07   1.2534329385759362e-06
-1.3881650938997133e-06   -8.833950560688838e-07   1.2534329385759362e-06
-1.3881650938997133e-06   -8.833950560688838e-07   1.2534329385759362e-06
-1.0457651590726048e-06   1.7533801164840602e-07   2.4593393372515063e-06
-1.0457651590726048e-06   1.7533801164840602e-07   2.4593393372515063e-06
-1.0457651590726048e-06   1.7533801164840602e-07   2.4593393372515063e-06
-1.0457651590726048e-06   1.7533801164840602e-07   2.4593393372515063e-06
-8.528161150546843e-07   -1.0313697638003052e-06   1.9974485279450923e-06
-8.528161150546843e-07   -1.0313697638003052e-06   1.9974485279450923e-06
-8.528161150546843e-07   -1.0313697638003052e-06   1.9974485279450923e-06
-8.528161150546843e-07   -1.0313697638003052e-06   1.9974485279450923e-06
-1.3417924726711163e-06   2.0503049214832544e-08   2.1812854361633104e-06
-1.3417924726711163e-06   2.0503049214832544e-08   2.1812854361633104e-06
-1.3417924726711163e-06   2.0503049214832544e-08   2.1812854361633104e-06
-1.3417924726711163e-06   2.0503049214832544e-08   2.1812854361633104e-06
-1.0851533318306518e-06   -4.3552850947856374e-07   2.0271724699784974e-06
-1.0851533318306518e-06   -4.3552850947856374e-07   2.0271724699784974e-06
-1.0851533318306518e-06   -4.3552850947856374e-07   2.0271724699784974e-06
-1.0851533318306518e-06   -4.3552850947856374e-07   2.0271724699784974e-06
-1.3417924726711163e-06   -1.0313697638003052e-06   1.366324840136005e-06
-1.3417924726711163e-06   -1.0313697638003052e-06   1.366324840136005e-06
-1.3417924726711163e-06   -1.0313697638003052e-06   1.366324840136005e-06
-1.3417924726711163e-06   -1.0313697638003052e-06   1.366324840136005e-06
-8.528161150546843e-07   2.0503049214832544e-08   2.8124091239723978e-06
-8.528161150546843e-07   2.0503049214832544e-08   2.8124091239723978e-06
-8.528161150546843e-07   2.0503049214832544e-08   2.8124091239723978e-06
-8.528161150546843e-07   2.0503049214832544e-08   2.8124091239723978e-06
-7.497976093502059e-07   -1.1451696734571454e-06   2.194997437118861e-06
-7.497976093502059e-07   -1.1451696734571454e-06   2.194997437118861e-06
-7.497976093502059e-07   -1.1451696734571454e-06   2.194997437118861e-06
-7.497976093502059e-07   -1.1451696734571454e-06   2.194997437118861e-06
-1.3519218617827594e-06   -2.186507265105452e-07   2.6426264896717646e-06
-1.3519218617827594e-06   -2.186507265105452e-07   2.6426264896717646e-06
-1.3519218617827594e-06   -2.186507265105452e-07   2.6426264896717646e-06
-1.3519218617827594e-06   -2.186507265105452e-07   2.6426264896717646e-06
-9.897550747049098e-07   -5.533757942145464e-07   2.2398502184977818e-06
-9.897550747049098e-07   -5.533757942145464e-07   2.2398502184977818e-06
-9.897550747049098e-07   -5.533757942145464e-07   2.2398502184977818e-06
-9.897550747049098e-07   -5.533757942145464e-07   2.2398502184977818e-06
-1.3519218617827323e-06   -1.1451696734571454e-06   1.6390860689508105e-06
-1.3519218617827323e-06   -1.1451696734571454e-06   1.6390860689508105e-06
-1.3519218617827323e-06   -1.1451696734571454e-06   1.6390860689508105e-06
-1.3519218617827323e-06   -1.1451696734571454e-06   1.6390860689508105e-06
-7.497976093502059e-07   -2.186507265105452e-07   3.198537857839747e-06
-7.497976093502059e-07   -2.186507265105452e-07   3.198537857839747e-06
-7.497976093502059e-07   -2.186507265105452e-07   3.198537857839747e-06
-7.497976093502059e-07   -2.186507265105452e-07   3.198537857839747e-06
-5.921917762740573e-07   -1.2937352617468348e-06   2.4151581118008023e-06
-5.921917762740573e-07   -1.2937352617468348e-06   2.4151581118008023e-06
-5.921917762740573e-07   -1.2937352617468348e-06   2.4151581118008023e-06
-5.921917762740573e-07   -1.2937352617468348e-06   2.4151581118008023e-06
-1.386678084870375e-06   -7.01954729274441e-07   3.3842336399777465e-06
-1.386678084870375e-06   -7.01954729274441e-07   3.3842336399777465e-06
-1.386678084870375e-06   -7.01954729274441e-07   3.3842336399777465e-06
-1.386678084870375e-06   -7.01954729274441e-07   3.3842336399777465e-06
-9.152218289547418e-07   -7.306007376537018e-07   2.6156608184795004e-06
-9.152218289547418e-07   -7.306007376537018e-07   2.6156608184795004e-06
-9.152218289547418e-07   -7.306007376537018e-07   2.6156608184795004e-06
-9.152218289547418e-07   -7.306007376537018e-07   2.6156608184795004e-06
-1.0457651590726048e-06   -9.414407214444905e-08   -1.6845759887256883e-06
-1.0457651590726048e-06   -9.414407214444905e-08   -1.6845759887256883e-06
-1.0457651590726048e-06   -9.414407214444905e-08   -1.6845759887256883e-06
-1.0457651590726048e-06   -9.414407214444905e-08   -1.6845759887256883e-06
-2.102889355830328e-07   1.4340106794302542e-07   -1.4958853219060753e-07
-2.102889355830328e-07   1.4340106794302542e-07   -1.4958853219060753e-07
-2.102889355830328e-07   1.4340106794302542e-07   -1.4958853219060753e-07
-2.102889355830328e-07   1.4340106794302542e-07   -1.4958853219060753e-07
-2.139831299446341e-08   -1.3323201232792238e-07   -1.3100347037301504e-06
-2.139831299446341e-08   -1.3323201232792238e-07   -1.3100347037301504e-06
-2.139831299446341e-08   -1.3323201232792238e-07   -1.3100347037301504e-06
-2.139831299446341e-08   -1.3323201232792238e-07   -1.3100347037301504e-06
-8.528161150546843e-07   2.4558360018744123e-07   -1.5162773447241354e-07
-8.528161150546843e-07   2.4558360018744123e-07   -1.5162773447241354e-07
-8.528161150546843e-07   2.4558360018744123e-07   -1.5162773447241354e-07
-8.528161150546843e-07   2.4558360018744123e-07   -1.5162773447241354e-07
-4.867016127627289e-07   6.820713061891752e-08   -6.55392689884746e-07
-4.867016127627289e-07   6.820713061891752e-08   -6.55392689884746e-07
-4.867016127627289e-07   6.820713061891752e-08   -6.55392689884746e-07
-4.867016127627289e-07   6.820713061891752e-08   -6.55392689884746e-07
-8.528161150546843e-07   -1.3323201232792238e-07   -1.5373240712394438e-06
-8.528161150546843e-07   -1.3323201232792238e-07   -1.5373240712394438e-06
-8.528161150546843e-07   -1.3323201232792238e-07   -1.5373240712394438e-06
-8.528161150546843e-07   -1.3323201232792238e-07   -1.5373240712394438e-06
-2.139831299451762e-08   2.4558360018744123e-07   7.566163303675787e-08
-2.139831299451762e-08   2.4558360018744123e-07   7.566163303675787e-08
-2.139831299451762e-08   2.4558360018744123e-07   7.566163303675787e-08
-2.139831299451762e-08   2.4558360018744123e-07   7.566163303675787e-08
7.455221285267415e-08   -1.8549182476807185e-07   -1.158332385860824e-06
7.455221285267415e-08   -1.8549182476807185e-07   -1.158332385860824e-06
7.455221285267415e-08   -1.8549182476807185e-07   -1.158332385860824e-06
7.455221285267415e-08   -1.8549182476807185e-07   -1.158332385860824e-06
-7.497976093502059e-07   2.0326588635096254e-07   -1.7670642194172852e-08
-7.497976093502059e-07   2.0326588635096254e-07   -1.7670642194172852e-08
-7.497976093502059e-07   2.0326588635096254e-07   -1.7670642194172852e-08
-7.497976093502059e-07   2.0326588635096254e-07   -1.7670642194172852e-08
-3.48635539935136e-07   4.3974454918136916e-08   -5.906992323593705e-07
-3.48635539935136e-07   4.3974454918136916e-08   -5.906992323593705e-07
-3.48635539935136e-07   4.3974454918136916e-08   -5.906992323593705e-07
-3.48635539935136e-07   4.3974454918136916e-08   -5.906992323593705e-07
-7.497976093502059e-07   -1.8549182476807185e-07   -1.391587012532252e-06
-7.497976093502059e-07   -1.8549182476807185e-07   -1.391587012532252e-06
-7.497976093502059e-07   -1.8549182476807185e-07   -1.391587012532252e-06
-7.497976093502059e-07   -1.8549182476807185e-07   -1.391587012532252e-06
7.455221285267415e-08   2.0326588635096254e-07   2.1558398447722813e-07
7.455221285267415e-08   2.0326588635096254e-07   2.1558398447722813e-07
7.455221285267415e-08   2.0326588635096254e-07   2.1558398447722813e-07
7.455221285267415e-08   2.0326588635096254e-07   2.1558398447722813e-07
1.919765788577373e-07   -2.5113058870737713e-07   -9.318455692205129e-07
1.919765788577373e-07   -2.5113058870737713e-07   -9.318455692205129e-07
1.919765788577373e-07   -2.5113058870737713e-07   -9.318455692205129e-07
1.919765788577373e-07   -2.5113058870737713e-07   -9.318455692205129e-07
-5.921917762740573e-07   1.6090439032036274e-07   1.278807019157403e-07
-5.921917762740573e-07   1.6090439032036274e-07   1.278807019157403e-07
-5.921917762740573e-07   1.6090439032036274e-07   1.278807019157403e-07
-5.921917762740573e-07   1.6090439032036274e-07   1.278807019157403e-07
-2.2436759080872025e-07   1.329853925112858e-08   -3.965960965516234e-07
-2.2436759080872025e-07   1.329853925112858e-08   -3.965960965516234e-07
-2.2436759080872025e-07   1.329853925112858e-08   -3.965960965516234e-07
-2.2436759080872025e-07   1.329853925112858e-08   -3.965960965516234e-07
              </DataArray>   
             <DataArray type="Float64" NumberOfComponents="3" Name="Stress" format="ascii">   
-1.5899297929681555   -0.3974824482420389   -0.3974824482420389
-1.5899297929681555   -0.3974824482420389   -0.3974824482420389
-1.5899297929681555   -0.3974824482420389   -0.3974824482420389
-1.5899297929681555   -0.3974824482420389   -0.3974824482420389
-0.9198453352214795   -0.029633153454248606   -0.018634735687192677
-0.9198453352214795   -0.029633153454248606   -0.018634735687192677
-0.9198453352214795   -0.029633153454248606   -0.018634735687192677
-0.9198453352214795   -0.029633153454248606   -0.018634735687192677
-0.9910641818186248   -0.2477660454546562   -0.2477660454546562
-0.9910641818186248   -0.2477660454546562   -0.2477660454546562
-0.9910641818186248   -0.2477660454546562   -0.2477660454546562
-0.9910641818186248   -0.2477660454546562   -0.2477660454546562
-1.532174300067418   -0.12621071421425903   -0.04838808834175518
-1.532174300067418   -0.12621071421425903   -0.04838808834175518
-1.532174300067418   -0.12621071421425903   -0.04838808834175518
-1.532174300067418   -0.12621071421425903   -0.04838808834175518
-1.201559722345   -0.19721752976629928   -0.0033446386884552013
-1.201559722345   -0.19721752976629928   -0.0033446386884552013
-1.201559722345   -0.19721752976629928   -0.0033446386884552013
-1.201559722345   -0.19721752976629928   -0.0033446386884552013
-1.663616155062464   -0.415904038765616   -0.415904038765616
-1.663616155062464   -0.415904038765616   -0.415904038765616
-1.663616155062464   -0.415904038765616   -0.415904038765616
-1.663616155062464   -0.415904038765616   -0.415904038765616
-0.8908337028217269   0.010715903098554747   -0.005095599023378208
-0.8908337028217269   0.010715903098554747   -0.005095599023378208
-0.8908337028217269   0.010715903098554747   -0.005095599023378208
-0.8908337028217269   0.010715903098554747   -0.005095599023378208
-0.9935787982481784   -0.2483946995620446   -0.2483946995620446
-0.9935787982481784   -0.2483946995620446   -0.2483946995620446
-0.9935787982481784   -0.2483946995620446   -0.2483946995620446
-0.9935787982481784   -0.2483946995620446   -0.2483946995620446
-1.5833528825957115   -0.12733325114074986   -0.07086620315291559
-1.5833528825957115   -0.12733325114074986   -0.07086620315291559
-1.5833528825957115   -0.12733325114074986   -0.07086620315291559
-1.5833528825957115   -0.12733325114074986   -0.07086620315291559
-1.246074356810993   -0.18558216890081222   -0.06610097020521863
-1.246074356810993   -0.18558216890081222   -0.06610097020521863
-1.246074356810993   -0.18558216890081222   -0.06610097020521863
-1.246074356810993   -0.18558216890081222   -0.06610097020521863
-1.7152366574855347   -0.42880916437138367   -0.42880916437138367
-1.7152366574855347   -0.42880916437138367   -0.42880916437138367
-1.7152366574855347   -0.42880916437138367   -0.42880916437138367
-1.7152366574855347   -0.42880916437138367   -0.42880916437138367
-0.8879830414989692   0.026793195527977876   0.004396189093978944
-0.8879830414989692   0.026793195527977876   0.004396189093978944
-0.8879830414989692   0.026793195527977876   0.004396189093978944
-0.8879830414989692   0.026793195527977876   0.004396189093978944
-0.9927405073341673   -0.24818512683354182   -0.24818512683354182
-0.9927405073341673   -0.24818512683354182   -0.24818512683354182
-0.9927405073341673   -0.24818512683354182   -0.24818512683354182
-0.9927405073341673   -0.24818512683354182   -0.24818512683354182
-1.6748773654024225   -0.1114827121688326   -0.042665611617668256
-1.6748773654024225   -0.1114827121688326   -0.042665611617668256
-1.6748773654024225   -0.1114827121688326   -0.042665611617668256
-1.6748773654024225   -0.1114827121688326   -0.042665611617668256
-1.2789931469893538   -0.18260865582385197   -0.11940845827859875
-1.2789931469893538   -0.18260865582385197   -0.11940845827859875
-1.2789931469893538   -0.18260865582385197   -0.11940845827859875
-1.2789931469893538   -0.18260865582385197   -0.11940845827859875
-1.0113241748813253   -0.2528310437203313   -0.2528310437203313
-1.0113241748813253   -0.2528310437203313   -0.2528310437203313
-1.0113241748813253   -0.2528310437203313   -0.2528310437203313
-1.0113241748813253   -0.2528310437203313   -0.2528310437203313
-0.4223242823064665   -0.02842343776279392   -0.00920776126260215
-0.4223242823064665   -0.02842343776279392   -0.00920776126260215
-0.4223242823064665   -0.02842343776279392   -0.00920776126260215
-0.4223242823064665   -0.02842343776279392   -0.00920776126260215
-0.44300107159599894   -0.11075026789899974   -0.11075026789899974
-0.44300107159599894   -0.11075026789899974   -0.11075026789899974
-0.44300107159599894   -0.11075026789899974   -0.11075026789899974
-0.44300107159599894   -0.11075026789899974   -0.11075026789899974
-0.920558877801479   -0.10846229775936748   -0.0345432730642162
-0.920558877801479   -0.10846229775936748   -0.0345432730642162
-0.920558877801479   -0.10846229775936748   -0.0345432730642162
-0.920558877801479   -0.10846229775936748   -0.0345432730642162
-0.6791477045685819   -0.12876658856997414   0.005259870301038647
-0.6791477045685819   -0.12876658856997414   0.005259870301038647
-0.6791477045685819   -0.12876658856997414   0.005259870301038647
-0.6791477045685819   -0.12876658856997414   0.005259870301038647
-0.9910641818186239   -0.24776604545465597   -0.24776604545465597
-0.9910641818186239   -0.24776604545465597   -0.24776604545465597
-0.9910641818186239   -0.24776604545465597   -0.24776604545465597
-0.9910641818186239   -0.24776604545465597   -0.24776604545465597
-0.39819519747555276   0.0028540498995893865   -0.00032521509535804113
-0.39819519747555276   0.0028540498995893865   -0.00032521509535804113
-0.39819519747555276   0.0028540498995893865   -0.00032521509535804113
-0.39819519747555276   0.0028540498995893865   -0.00032521509535804113
-0.4328413400996865   -0.10821033502492163   -0.10821033502492163
-0.4328413400996865   -0.10821033502492163   -0.10821033502492163
-0.4328413400996865   -0.10821033502492163   -0.10821033502492163
-0.4328413400996865   -0.10821033502492163   -0.10821033502492163
-0.9179720465953872   -0.08840766038525971   -0.03034798047487313
-0.9179720465953872   -0.08840766038525971   -0.03034798047487313
-0.9179720465953872   -0.08840766038525971   -0.03034798047487313
-0.9179720465953872   -0.08840766038525971   -0.03034798047487313
-0.6694211102931182   -0.10834805017122065   -0.03497007697817699
-0.6694211102931182   -0.10834805017122065   -0.03497007697817699
-0.6694211102931182   -0.10834805017122065   -0.03497007697817699
-0.6694211102931182   -0.10834805017122065   -0.03497007697817699
-0.9935787982481784   -0.2483946995620446   -0.2483946995620446
-0.9935787982481784   -0.2483946995620446   -0.2483946995620446
-0.9935787982481784   -0.2483946995620446   -0.2483946995620446
-0.9935787982481784   -0.2483946995620446   -0.2483946995620446
-0.38212643425719306   0.0268848583415654   0.010269000821058367
-0.38212643425719306   0.0268848583415654   0.010269000821058367
-0.38212643425719306   0.0268848583415654   0.010269000821058367
-0.38212643425719306   0.0268848583415654   0.010269000821058367
-0.4235437948938204   -0.1058859487234551   -0.1058859487234551
-0.4235437948938204   -0.1058859487234551   -0.1058859487234551
-0.4235437948938204   -0.1058859487234551   -0.1058859487234551
-0.4235437948938204   -0.1058859487234551   -0.1058859487234551
-0.9109300672417016   -0.06813849837050245   -0.019179554834263972
-0.9109300672417016   -0.06813849837050245   -0.019179554834263972
-0.9109300672417016   -0.06813849837050245   -0.019179554834263972
-0.9109300672417016   -0.06813849837050245   -0.019179554834263972
-0.6724400388199572   -0.09580398701871087   -0.07787037251157863
-0.6724400388199572   -0.09580398701871087   -0.07787037251157863
-0.6724400388199572   -0.09580398701871087   -0.07787037251157863
-0.6724400388199572   -0.09580398701871087   -0.07787037251157863
-0.4608867138904311   -0.11522167847260778   -0.11522167847260778
-0.4608867138904311   -0.11522167847260778   -0.11522167847260778
-0.4608867138904311   -0.11522167847260778   -0.11522167847260778
-0.4608867138904311   -0.11522167847260778   -0.11522167847260778
0.053804904751169155   0.003369565210436909   0.0004534029002272351
0.053804904751169155   0.003369565210436909   0.0004534029002272351
0.053804904751169155   0.003369565210436909   0.0004534029002272351
0.053804904751169155   0.003369565210436909   0.0004534029002272351
0.07048001752389939   0.017620004380974847   0.017620004380974847
0.07048001752389939   0.017620004380974847   0.017620004380974847
0.07048001752389939   0.017620004380974847   0.017620004380974847
0.07048001752389939   0.017620004380974847   0.017620004380974847
-0.41644348143389837   -0.07197139287663924   -0.016741192110857398
-0.41644348143389837   -0.07197139287663924   -0.016741192110857398
-0.41644348143389837   -0.07197139287663924   -0.016741192110857398
-0.41644348143389837   -0.07197139287663924   -0.016741192110857398
-0.17872404609353967   -0.045319648519273475   0.03011448487626944
-0.17872404609353967   -0.045319648519273475   0.03011448487626944
-0.17872404609353967   -0.045319648519273475   0.03011448487626944
-0.17872404609353967   -0.045319648519273475   0.03011448487626944
-0.44300107159599894   -0.11075026789899974   -0.11075026789899974
-0.44300107159599894   -0.11075026789899974   -0.11075026789899974
-0.44300107159599894   -0.11075026789899974   -0.11075026789899974
-0.44300107159599894   -0.11075026789899974   -0.11075026789899974
0.07177799702352008   0.031139268740855375   0.010590637519197253
0.07177799702352008   0.031139268740855375   0.010590637519197253
0.07177799702352008   0.031139268740855375   0.010590637519197253
0.07177799702352008   0.031139268740855375   0.010590637519197253
0.07963017615493606   0.019907544038734015   0.019907544038734015
0.07963017615493606   0.019907544038734015   0.019907544038734015
0.07963017615493606   0.019907544038734015   0.019907544038734015
0.07963017615493606   0.019907544038734015   0.019907544038734015
-0.40147417717254696   -0.04836086199956181   -0.011223993414587227
-0.40147417717254696   -0.04836086199956181   -0.011223993414587227
-0.40147417717254696   -0.04836086199956181   -0.011223993414587227
-0.40147417717254696   -0.04836086199956181   -0.011223993414587227
-0.1711864389034609   -0.027971930500491255   -0.010375749274422148
-0.1711864389034609   -0.027971930500491255   -0.010375749274422148
-0.1711864389034609   -0.027971930500491255   -0.010375749274422148
-0.1711864389034609   -0.027971930500491255   -0.010375749274422148
-0.4328413400996865   -0.10821033502492163   -0.10821033502492163
-0.4328413400996865   -0.10821033502492163   -0.10821033502492163
-0.4328413400996865   -0.10821033502492163   -0.10821033502492163
-0.4328413400996865   -0.10821033502492163   -0.10821033502492163
0.08624677899192988   0.055006456973948584   0.017891645288487905
0.08624677899192988   0.055006456973948584   0.017891645288487905
0.08624677899192988   0.055006456973948584   0.017891645288487905
0.08624677899192988   0.055006456973948584   0.017891645288487905
0.09184869111727637   0.02296217277931909   0.02296217277931909
0.09184869111727637   0.02296217277931909   0.02296217277931909
0.09184869111727637   0.02296217277931909   0.02296217277931909
0.09184869111727637   0.02296217277931909   0.02296217277931909
-0.38518757831880623   -0.02022551242688618   0.0002346978550451448
-0.38518757831880623   -0.02022551242688618   0.0002346978550451448
-0.38518757831880623   -0.02022551242688618   0.0002346978550451448
-0.38518757831880623   -0.02022551242688618   0.0002346978550451448
-0.16579705476613804   -0.011247765925956964   -0.05050404769431203
-0.16579705476613804   -0.011247765925956964   -0.05050404769431203
-0.16579705476613804   -0.011247765925956964   -0.05050404769431203
-0.16579705476613804   -0.011247765925956964   -0.05050404769431203
0.05893367903226268   0.01473341975806567   0.01473341975806567
0.05893367903226268   0.01473341975806567   0.01473341975806567
0.05893367903226268   0.01473341975806567   0.01473341975806567
0.05893367903226268   0.01473341975806567   0.01473341975806567
0.5752284603006083   0.05281389890651886   0.01789622161476375
0.5752284603006083   0.05281389890651886   0.01789622161476375
0.5752284603006083   0.05281389890651886   0.01789622161476375
0.5752284603006083   0.05281389890651886   0.01789622161476375
0.6248805939121701   0.15622014847804253   0.15622014847804253
0.6248805939121701   0.15622014847804253   0.15622014847804253
0.6248805939121701   0.15622014847804253   0.15622014847804253
0.6248805939121701   0.15622014847804253   0.15622014847804253
0.05366802262677253   -0.04047673263078845   -0.00834323309289716
0.05366802262677253   -0.04047673263078845   -0.00834323309289716
0.05366802262677253   -0.04047673263078845   -0.00834323309289716
0.05366802262677253   -0.04047673263078845   -0.00834323309289716
0.32777774042863383   0.04082444358723818   0.05948214443095716
0.32777774042863383   0.04082444358723818   0.05948214443095716
0.32777774042863383   0.04082444358723818   0.05948214443095716
0.32777774042863383   0.04082444358723818   0.05948214443095716
0.07048001752389962   0.017620004380974906   0.017620004380974906
0.07048001752389962   0.017620004380974906   0.017620004380974906
0.07048001752389962   0.017620004380974906   0.017620004380974906
0.07048001752389962   0.017620004380974906   0.017620004380974906
0.5823857954828704   0.07244060793410652   0.027525696875479847
0.5823857954828704   0.07244060793410652   0.027525696875479847
0.5823857954828704   0.07244060793410652   0.027525696875479847
0.5823857954828704   0.07244060793410652   0.027525696875479847
0.6224996171476943   0.15562490428692358   0.15562490428692358
0.6224996171476943   0.15562490428692358   0.15562490428692358
0.6224996171476943   0.15562490428692358   0.15562490428692358
0.6224996171476943   0.15562490428692358   0.15562490428692358
0.06822692177587186   -0.017378127116125103   0.00017694329827151224
0.06822692177587186   -0.017378127116125103   0.00017694329827151224
0.06822692177587186   -0.017378127116125103   0.00017694329827151224
0.06822692177587186   -0.017378127116125103   0.00017694329827151224
0.325659524953387   0.05369073374608301   0.015402713009765893
0.325659524953387   0.05369073374608301   0.015402713009765893
0.325659524953387   0.05369073374608301   0.015402713009765893
0.325659524953387   0.05369073374608301   0.015402713009765893
0.07963017615493613   0.019907544038734033   0.019907544038734033
0.07963017615493613   0.019907544038734033   0.019907544038734033
0.07963017615493613   0.019907544038734033   0.019907544038734033
0.07963017615493613   0.019907544038734033   0.019907544038734033
0.5856620548461449   0.09290492520957933   0.03415707185652065
0.5856620548461449   0.09290492520957933   0.03415707185652065
0.5856620548461449   0.09290492520957933   0.03415707185652065
0.5856620548461449   0.09290492520957933   0.03415707185652065
0.6348393020371553   0.15870982550928883   0.15870982550928883
0.6348393020371553   0.15870982550928883   0.15870982550928883
0.6348393020371553   0.15870982550928883   0.15870982550928883
0.6348393020371553   0.15870982550928883   0.15870982550928883
0.08723831501046227   0.013153169939302016   0.00971929508526497
0.08723831501046227   0.013153169939302016   0.00971929508526497
0.08723831501046227   0.013153169939302016   0.00971929508526497
0.08723831501046227   0.013153169939302016   0.00971929508526497
0.3309999611729003   0.07291048390693189   -0.025467003974634944
0.3309999611729003   0.07291048390693189   -0.025467003974634944
0.3309999611729003   0.07291048390693189   -0.025467003974634944
0.3309999611729003   0.07291048390693189   -0.025467003974634944
0.6234293735515019   0.15585734338787546   0.15585734338787546
0.6234293735515019   0.15585734338787546   0.15585734338787546
0.6234293735515019   0.15585734338787546   0.15585734338787546
0.6234293735515019   0.15585734338787546   0.15585734338787546
1.2949732345061038   0.09880533071612435   0.03424413664041402
1.2949732345061038   0.09880533071612435   0.03424413664041402
1.2949732345061038   0.09880533071612435   0.03424413664041402
1.2949732345061038   0.09880533071612435   0.03424413664041402
1.3239982699966086   0.33099956749915216   0.33099956749915216
1.3239982699966086   0.33099956749915216   0.33099956749915216
1.3239982699966086   0.33099956749915216   0.33099956749915216
1.3239982699966086   0.33099956749915216   0.33099956749915216
0.5555271924280906   -0.031433248936057645   -0.0028934615282550785
0.5555271924280906   -0.031433248936057645   -0.0028934615282550785
0.5555271924280906   -0.031433248936057645   -0.0028934615282550785
0.5555271924280906   -0.031433248936057645   -0.0028934615282550785
0.9233217729028979   0.13078472973534427   0.10411193679589696
0.9233217729028979   0.13078472973534427   0.10411193679589696
0.9233217729028979   0.13078472973534427   0.10411193679589696
0.9233217729028979   0.13078472973534427   0.10411193679589696
0.6248805939121697   0.15622014847804241   0.15622014847804241
0.6248805939121697   0.15622014847804241   0.15622014847804241
0.6248805939121697   0.15622014847804241   0.15622014847804241
0.6248805939121697   0.15622014847804241   0.15622014847804241
1.227105953988798   0.11580725556132485   0.061730299397947795
1.227105953988798   0.11580725556132485   0.061730299397947795
1.227105953988798   0.11580725556132485   0.061730299397947795
1.227105953988798   0.11580725556132485   0.061730299397947795
1.2847990257541626   0.32119975643854065   0.32119975643854065
1.2847990257541626   0.32119975643854065   0.32119975643854065
1.2847990257541626   0.32119975643854065   0.32119975643854065
1.2847990257541626   0.32119975643854065   0.32119975643854065
0.5577492626224554   -0.017176860640768787   0.004674896588421615
0.5577492626224554   -0.017176860640768787   0.004674896588421615
0.5577492626224554   -0.017176860640768787   0.004674896588421615
0.5577492626224554   -0.017176860640768787   0.004674896588421615
0.8962672751960277   0.13465265547178829   0.049904576259103814
0.8962672751960277   0.13465265547178829   0.049904576259103814
0.8962672751960277   0.13465265547178829   0.049904576259103814
0.8962672751960277   0.13465265547178829   0.049904576259103814
0.6224996171476943   0.15562490428692358   0.15562490428692358
0.6224996171476943   0.15562490428692358   0.15562490428692358
0.6224996171476943   0.15562490428692358   0.15562490428692358
0.6224996171476943   0.15562490428692358   0.15562490428692358
1.1879247123236736   0.1162740326056016   0.04175391311905452
1.1879247123236736   0.1162740326056016   0.04175391311905452
1.1879247123236736   0.1162740326056016   0.04175391311905452
1.1879247123236736   0.1162740326056016   0.04175391311905452
1.2262359816875266   0.30655899542188164   0.30655899542188164
1.2262359816875266   0.30655899542188164   0.30655899542188164
1.2262359816875266   0.30655899542188164   0.30655899542188164
1.2262359816875266   0.30655899542188164   0.30655899542188164
0.5786890071272865   0.018738915998667033   0.01792926047056652
0.5786890071272865   0.018738915998667033   0.01792926047056652
0.5786890071272865   0.018738915998667033   0.01792926047056652
0.5786890071272865   0.018738915998667033   0.01792926047056652
0.8585173654921674   0.14610899407254552   -0.013177263990959458
0.8585173654921674   0.14610899407254552   -0.013177263990959458
0.8585173654921674   0.14610899407254552   -0.013177263990959458
0.8585173654921674   0.14610899407254552   -0.013177263990959458
-1.2540562487503353   -0.08984672507258223   0.014508319749996113
-1.2540562487503353   -0.08984672507258223   0.014508319749996113
-1.2540562487503353   -0.08984672507258223   0.014508319749996113
-1.2540562487503353   -0.08984672507258223   0.014508319749996113
-0.7986106891618092   -0.01879380268858097   -0.005301727087681181
-0.7986106891618092   -0.01879380268858097   -0.005301727087681181
-0.7986106891618092   -0.01879380268858097   -0.005301727087681181
-0.7986106891618092   -0.01879380268858097   -0.005301727087681181
-0.8037106585549393   0.032566039399979735   0.01703203821696083
-0.8037106585549393   0.032566039399979735   0.01703203821696083
-0.8037106585549393   0.032566039399979735   0.01703203821696083
-0.8037106585549393   0.032566039399979735   0.01703203821696083
-1.2725701722678866   -0.08700300726295909   -0.015241433400226288
-1.2725701722678866   -0.08700300726295909   -0.015241433400226288
-1.2725701722678866   -0.08700300726295909   -0.015241433400226288
-1.2725701722678866   -0.08700300726295909   -0.015241433400226288
-0.9916565533786263   -0.03398324905532757   -0.004131712530700549
-0.9916565533786263   -0.03398324905532757   -0.004131712530700549
-0.9916565533786263   -0.03398324905532757   -0.004131712530700549
-0.9916565533786263   -0.03398324905532757   -0.004131712530700549
-1.2631423192997349   -0.06145644629738092   0.006351270474953145
-1.2631423192997349   -0.06145644629738092   0.006351270474953145
-1.2631423192997349   -0.06145644629738092   0.006351270474953145
-1.2631423192997349   -0.06145644629738092   0.006351270474953145
-0.8144549955396021   0.0057029944178932646   -0.009826601724252572
-0.8144549955396021   0.0057029944178932646   -0.009826601724252572
-0.8144549955396021   0.0057029944178932646   -0.009826601724252572
-0.8144549955396021   0.0057029944178932646   -0.009826601724252572
-0.8044842707910109   0.04647909708685799   0.01932692618042508
-0.8044842707910109   0.04647909708685799   0.01932692618042508
-0.8044842707910109   0.04647909708685799   0.01932692618042508
-0.8044842707910109   0.04647909708685799   0.01932692618042508
-1.280025596719276   -0.07656601124738796   -0.020101781976062612
-1.280025596719276   -0.07656601124738796   -0.020101781976062612
-1.280025596719276   -0.07656601124738796   -0.020101781976062612
-1.280025596719276   -0.07656601124738796   -0.020101781976062612
-1.0192734317681496   -0.022675328124670407   -0.009763175252189192
-1.0192734317681496   -0.022675328124670407   -0.009763175252189192
-1.0192734317681496   -0.022675328124670407   -0.009763175252189192
-1.0192734317681496   -0.022675328124670407   -0.009763175252189192
-1.2568475506646601   -0.03667871392836122   0.055901150977978036
-1.2568475506646601   -0.03667871392836122   0.055901150977978036
-1.2568475506646601   -0.03667871392836122   0.055901150977978036
-1.2568475506646601   -0.03667871392836122   0.055901150977978036
-0.818054551806167   0.0161995648072904   -0.01824494661577967
-0.818054551806167   0.0161995648072904   -0.01824494661577967
-0.818054551806167   0.0161995648072904   -0.01824494661577967
-0.818054551806167   0.0161995648072904   -0.01824494661577967
-0.7896438706331694   0.08108144368839573   0.034921672899222
-0.7896438706331694   0.08108144368839573   0.034921672899222
-0.7896438706331694   0.08108144368839573   0.034921672899222
-0.7896438706331694   0.08108144368839573   0.034921672899222
-1.2442633138732455   -0.06161856273004879   -0.032793278454699995
-1.2442633138732455   -0.06161856273004879   -0.032793278454699995
-1.2442633138732455   -0.06161856273004879   -0.032793278454699995
-1.2442633138732455   -0.06161856273004879   -0.032793278454699995
-0.9800047067814566   0.009312714073269002   0.021782155255763568
-0.9800047067814566   0.009312714073269002   0.021782155255763568
-0.9800047067814566   0.009312714073269002   0.021782155255763568
-0.9800047067814566   0.009312714073269002   0.021782155255763568
-0.8183395555075709   -0.10861076037625711   -0.014129101128812847
-0.8183395555075709   -0.10861076037625711   -0.014129101128812847
-0.8183395555075709   -0.10861076037625711   -0.014129101128812847
-0.8183395555075709   -0.10861076037625711   -0.014129101128812847
-0.3774900322804304   -0.008633852266974412   0.003948922086324004
-0.3774900322804304   -0.008633852266974412   0.003948922086324004
-0.3774900322804304   -0.008633852266974412   0.003948922086324004
-0.3774900322804304   -0.008633852266974412   0.003948922086324004
-0.3828138831028038   0.0071574552284877635   0.005810497176386813
-0.3828138831028038   0.0071574552284877635   0.005810497176386813
-0.3828138831028038   0.0071574552284877635   0.005810497176386813
-0.3828138831028038   0.0071574552284877635   0.005810497176386813
-0.83444397511751   -0.0794657345456734   -0.024602770650239823
-0.83444397511751   -0.0794657345456734   -0.024602770650239823
-0.83444397511751   -0.0794657345456734   -0.024602770650239823
-0.83444397511751   -0.0794657345456734   -0.024602770650239823
-0.6032731813799793   -0.04909779710295517   -0.013928178592493727
-0.6032731813799793   -0.04909779710295517   -0.013928178592493727
-0.6032731813799793   -0.04909779710295517   -0.013928178592493727
-0.6032731813799793   -0.04909779710295517   -0.013928178592493727
-0.8336208341606333   -0.0867971620838851   -0.01315563832764801
-0.8336208341606333   -0.0867971620838851   -0.01315563832764801
-0.8336208341606333   -0.0867971620838851   -0.01315563832764801
-0.8336208341606333   -0.0867971620838851   -0.01315563832764801
-0.3821539689121831   0.015971937914196807   0.0002955854437843783
-0.3821539689121831   0.015971937914196807   0.0002955854437843783
-0.3821539689121831   0.015971937914196807   0.0002955854437843783
-0.3821539689121831   0.015971937914196807   0.0002955854437843783
-0.38120715973178904   0.026578364142843397   0.007817255302045321
-0.38120715973178904   0.026578364142843397   0.007817255302045321
-0.38120715973178904   0.026578364142843397   0.007817255302045321
-0.38120715973178904   0.026578364142843397   0.007817255302045321
-0.8345982006113305   -0.05813982017678107   -0.026623805657533688
-0.8345982006113305   -0.05813982017678107   -0.026623805657533688
-0.8345982006113305   -0.05813982017678107   -0.026623805657533688
-0.8345982006113305   -0.05813982017678107   -0.026623805657533688
-0.6019376007436346   -0.027284907103744774   -0.00662898519988744
-0.6019376007436346   -0.027284907103744774   -0.00662898519988744
-0.6019376007436346   -0.027284907103744774   -0.00662898519988744
-0.6019376007436346   -0.027284907103744774   -0.00662898519988744
-0.8313031662391392   -0.0655516491780895   -0.0027368047952690197
-0.8313031662391392   -0.0655516491780895   -0.0027368047952690197
-0.8313031662391392   -0.0655516491780895   -0.0027368047952690197
-0.8313031662391392   -0.0655516491780895   -0.0027368047952690197
-0.38174604678721147   0.036746340460921734   -0.005045156293138613
-0.38174604678721147   0.036746340460921734   -0.005045156293138613
-0.38174604678721147   0.036746340460921734   -0.005045156293138613
-0.38174604678721147   0.036746340460921734   -0.005045156293138613
-0.3746667150765943   0.04606966419494245   0.01559790582785333
-0.3746667150765943   0.04606966419494245   0.01559790582785333
-0.3746667150765943   0.04606966419494245   0.01559790582785333
-0.3746667150765943   0.04606966419494245   0.01559790582785333
-0.8254775107165668   -0.03349636039171289   -0.029668723437660506
-0.8254775107165668   -0.03349636039171289   -0.029668723437660506
-0.8254775107165668   -0.03349636039171289   -0.029668723437660506
-0.8254775107165668   -0.03349636039171289   -0.029668723437660506
-0.5992441676492207   -0.006639705915542693   0.0029998068268221045
-0.5992441676492207   -0.006639705915542693   0.0029998068268221045
-0.5992441676492207   -0.006639705915542693   0.0029998068268221045
-0.5992441676492207   -0.006639705915542693   0.0029998068268221045
-0.39798680515160856   -0.09042768021456087   -0.01674111432198386
-0.39798680515160856   -0.09042768021456087   -0.01674111432198386
-0.39798680515160856   -0.09042768021456087   -0.01674111432198386
-0.39798680515160856   -0.09042768021456087   -0.01674111432198386
0.04033012856085121   0.009157806282138666   0.015502998849783444
0.04033012856085121   0.009157806282138666   0.015502998849783444
0.04033012856085121   0.009157806282138666   0.015502998849783444
0.04033012856085121   0.009157806282138666   0.015502998849783444
0.038619185962150276   0.022643591921676226   0.0012710644846713227
0.038619185962150276   0.022643591921676226   0.0012710644846713227
0.038619185962150276   0.022643591921676226   0.0012710644846713227
0.038619185962150276   0.022643591921676226   0.0012710644846713227
-0.399514961358689   -0.059840121332182035   -0.010697317542369448
-0.399514961358689   -0.059840121332182035   -0.010697317542369448
-0.399514961358689   -0.059840121332182035   -0.010697317542369448
-0.399514961358689   -0.059840121332182035   -0.010697317542369448
-0.18137841912152125   -0.03004723132502877   -0.005789451817740949
-0.18137841912152125   -0.03004723132502877   -0.005789451817740949
-0.18137841912152125   -0.03004723132502877   -0.005789451817740949
-0.18137841912152125   -0.03004723132502877   -0.005789451817740949
-0.4022837050230468   -0.06888952550963778   -0.015491631686702567
-0.4022837050230468   -0.06888952550963778   -0.015491631686702567
-0.4022837050230468   -0.06888952550963778   -0.015491631686702567
-0.4022837050230468   -0.06888952550963778   -0.015491631686702567
0.04291230427220297   0.03321737074482704   0.012162877211783957
0.04291230427220297   0.03321737074482704   0.012162877211783957
0.04291230427220297   0.03321737074482704   0.012162877211783957
0.04291230427220297   0.03321737074482704   0.012162877211783957
0.04191198563211201   0.043999047440454526   0.007189390980835467
0.04191198563211201   0.043999047440454526   0.007189390980835467
0.04191198563211201   0.043999047440454526   0.007189390980835467
0.04191198563211201   0.043999047440454526   0.007189390980835467
-0.3980415876358433   -0.03641682849299624   -0.013359691582386257
-0.3980415876358433   -0.03641682849299624   -0.013359691582386257
-0.3980415876358433   -0.03641682849299624   -0.013359691582386257
-0.3980415876358433   -0.03641682849299624   -0.013359691582386257
-0.1783753097048389   -0.007363800983636867   0.0020917304961248035
-0.1783753097048389   -0.007363800983636867   0.0020917304961248035
-0.1783753097048389   -0.007363800983636867   0.0020917304961248035
-0.1783753097048389   -0.007363800983636867   0.0020917304961248035
-0.3991247351002829   -0.04723718865142307   -0.007955068746157576
-0.3991247351002829   -0.04723718865142307   -0.007955068746157576
-0.3991247351002829   -0.04723718865142307   -0.007955068746157576
-0.3991247351002829   -0.04723718865142307   -0.007955068746157576
0.04463710962459207   0.05646138412692173   0.008352674256768257
0.04463710962459207   0.05646138412692173   0.008352674256768257
0.04463710962459207   0.05646138412692173   0.008352674256768257
0.04463710962459207   0.05646138412692173   0.008352674256768257
0.04307090952507604   0.06773987663640284   0.011803155327607987
0.04307090952507604   0.06773987663640284   0.011803155327607987
0.04307090952507604   0.06773987663640284   0.011803155327607987
0.04307090952507604   0.06773987663640284   0.011803155327607987
-0.39264890538707437   -0.011390321186922472   -0.016853060342680217
-0.39264890538707437   -0.011390321186922472   -0.016853060342680217
-0.39264890538707437   -0.011390321186922472   -0.016853060342680217
-0.39264890538707437   -0.011390321186922472   -0.016853060342680217
-0.17373208897347125   0.016357193176841645   0.010720131224966732
-0.17373208897347125   0.016357193176841645   0.010720131224966732
-0.17373208897347125   0.016357193176841645   0.010720131224966732
-0.17373208897347125   0.016357193176841645   0.010720131224966732
0.017999817102560545   -0.06634102040662454   -0.02064973175290668
0.017999817102560545   -0.06634102040662454   -0.02064973175290668
0.017999817102560545   -0.06634102040662454   -0.02064973175290668
0.017999817102560545   -0.06634102040662454   -0.02064973175290668
0.47211089257917777   0.03247671860166533   0.028512767047802066
0.47211089257917777   0.03247671860166533   0.028512767047802066
0.47211089257917777   0.03247671860166533   0.028512767047802066
0.47211089257917777   0.03247671860166533   0.028512767047802066
0.47170043820800683   0.04387912977815206   -0.0045963366294297925
0.47170043820800683   0.04387912977815206   -0.0045963366294297925
0.47170043820800683   0.04387912977815206   -0.0045963366294297925
0.47170043820800683   0.04387912977815206   -0.0045963366294297925
0.02648037342610638   -0.039734077366899045   0.0029546710930271284
0.02648037342610638   -0.039734077366899045   0.0029546710930271284
0.02648037342610638   -0.039734077366899045   0.0029546710930271284
0.02648037342610638   -0.039734077366899045   0.0029546710930271284
0.24401692559066593   -0.00576324167967341   0.00045726764585761297
0.24401692559066593   -0.00576324167967341   0.00045726764585761297
0.24401692559066593   -0.00576324167967341   0.00045726764585761297
0.24401692559066593   -0.00576324167967341   0.00045726764585761297
0.021058475708967076   -0.048423145306403126   -0.01546574955316505
0.021058475708967076   -0.048423145306403126   -0.01546574955316505
0.021058475708967076   -0.048423145306403126   -0.01546574955316505
0.021058475708967076   -0.048423145306403126   -0.01546574955316505
0.4798731433146367   0.055319005107145915   0.0248273135747216
0.4798731433146367   0.055319005107145915   0.0248273135747216
0.4798731433146367   0.055319005107145915   0.0248273135747216
0.4798731433146367   0.055319005107145915   0.0248273135747216
0.4756614980883225   0.06501244025902159   0.004695203861553287
0.4756614980883225   0.06501244025902159   0.004695203861553287
0.4756614980883225   0.06501244025902159   0.004695203861553287
0.4756614980883225   0.06501244025902159   0.004695203861553287
0.02765876888943497   -0.018788617731966946   -0.0012890275601282475
0.02765876888943497   -0.018788617731966946   -0.0012890275601282475
0.02765876888943497   -0.018788617731966946   -0.0012890275601282475
0.02765876888943497   -0.018788617731966946   -0.0012890275601282475
0.24750406156957191   0.014430005121987527   0.010144797503052673
0.24750406156957191   0.014430005121987527   0.010144797503052673
0.24750406156957191   0.014430005121987527   0.010144797503052673
0.24750406156957191   0.014430005121987527   0.010144797503052673
0.02368869159882621   -0.028588973466846922   -0.011339058278291932
0.02368869159882621   -0.028588973466846922   -0.011339058278291932
0.02368869159882621   -0.028588973466846922   -0.011339058278291932
0.02368869159882621   -0.028588973466846922   -0.011339058278291932
0.48162399759287455   0.0768052182078427   0.022714923435484247
0.48162399759287455   0.0768052182078427   0.022714923435484247
0.48162399759287455   0.0768052182078427   0.022714923435484247
0.48162399759287455   0.0768052182078427   0.022714923435484247
0.46821432842578226   0.08939773115772864   0.009966087762078094
0.46821432842578226   0.08939773115772864   0.009966087762078094
0.46821432842578226   0.08939773115772864   0.009966087762078094
0.46821432842578226   0.08939773115772864   0.009966087762078094
0.027600681241788595   0.007115648993958634   -0.004923758446385057
0.027600681241788595   0.007115648993958634   -0.004923758446385057
0.027600681241788595   0.007115648993958634   -0.004923758446385057
0.027600681241788595   0.007115648993958634   -0.004923758446385057
0.2513889434911809   0.037508579831351474   0.019123848814342558
0.2513889434911809   0.037508579831351474   0.019123848814342558
0.2513889434911809   0.037508579831351474   0.019123848814342558
0.2513889434911809   0.037508579831351474   0.019123848814342558
0.4346948855714713   -0.08776439689724827   -0.03832615249181677
0.4346948855714713   -0.08776439689724827   -0.03832615249181677
0.4346948855714713   -0.08776439689724827   -0.03832615249181677
0.4346948855714713   -0.08776439689724827   -0.03832615249181677
0.8960190066481717   0.05919473067635861   0.02795771275289015
0.8960190066481717   0.05919473067635861   0.02795771275289015
0.8960190066481717   0.05919473067635861   0.02795771275289015
0.8960190066481717   0.05919473067635861   0.02795771275289015
0.9064027172841622   0.02778577265767504   -0.05767387841566446
0.9064027172841622   0.02778577265767504   -0.05767387841566446
0.9064027172841622   0.02778577265767504   -0.05767387841566446
0.9064027172841622   0.02778577265767504   -0.05767387841566446
0.4636553604662262   -0.01772409372089062   0.016781498160700556
0.4636553604662262   -0.01772409372089062   0.016781498160700556
0.4636553604662262   -0.01772409372089062   0.016781498160700556
0.4636553604662262   -0.01772409372089062   0.016781498160700556
0.6415882891422728   -0.01141104555552272   -0.01620335253959152
0.6415882891422728   -0.01141104555552272   -0.01620335253959152
0.6415882891422728   -0.01141104555552272   -0.01620335253959152
0.6415882891422728   -0.01141104555552272   -0.01620335253959152
0.4472155387191977   -0.05762102352604165   -0.025520680769284217
0.4472155387191977   -0.05762102352604165   -0.025520680769284217
0.4472155387191977   -0.05762102352604165   -0.025520680769284217
0.4472155387191977   -0.05762102352604165   -0.025520680769284217
0.9311135118538285   0.07595367528546515   0.017712191804876917
0.9311135118538285   0.07595367528546515   0.017712191804876917
0.9311135118538285   0.07595367528546515   0.017712191804876917
0.9311135118538285   0.07595367528546515   0.017712191804876917
0.9167406929696179   0.05102667221598822   -0.013298869474955927
0.9167406929696179   0.05102667221598822   -0.013298869474955927
0.9167406929696179   0.05102667221598822   -0.013298869474955927
0.9167406929696179   0.05102667221598822   -0.013298869474955927
0.462016672073353   -0.007257253549430159   0.008740767595149461
0.462016672073353   -0.007257253549430159   0.008740767595149461
0.462016672073353   -0.007257253549430159   0.008740767595149461
0.462016672073353   -0.007257253549430159   0.008740767595149461
0.6755583196032043   0.016895463414848738   0.0111397064274198
0.6755583196032043   0.016895463414848738   0.0111397064274198
0.6755583196032043   0.016895463414848738   0.0111397064274198
0.6755583196032043   0.016895463414848738   0.0111397064274198
0.4487949612275737   -0.04402309022838638   -0.02060194995478655
0.4487949612275737   -0.04402309022838638   -0.02060194995478655
0.4487949612275737   -0.04402309022838638   -0.02060194995478655
0.4487949612275737   -0.04402309022838638   -0.02060194995478655
0.9288897585093899   0.0867198635889381   0.011753266850953799
0.9288897585093899   0.0867198635889381   0.011753266850953799
0.9288897585093899   0.0867198635889381   0.011753266850953799
0.9288897585093899   0.0867198635889381   0.011753266850953799
0.9156069022098988   0.07848307482928353   -0.020267840458964227
0.9156069022098988   0.07848307482928353   -0.020267840458964227
0.9156069022098988   0.07848307482928353   -0.020267840458964227
0.9156069022098988   0.07848307482928353   -0.020267840458964227
0.45268462696332396   0.016791088282918032   0.004924223324589205
0.45268462696332396   0.016791088282918032   0.004924223324589205
0.45268462696332396   0.016791088282918032   0.004924223324589205
0.45268462696332396   0.016791088282918032   0.004924223324589205
0.6585614496201092   0.02974862379552523   0.008380202956124315
0.6585614496201092   0.02974862379552523   0.008380202956124315
0.6585614496201092   0.02974862379552523   0.008380202956124315
0.6585614496201092   0.02974862379552523   0.008380202956124315
-0.983557264385606   -0.044510856656290565   0.051059578297563704
-0.983557264385606   -0.044510856656290565   0.051059578297563704
-0.983557264385606   -0.044510856656290565   0.051059578297563704
-0.983557264385606   -0.044510856656290565   0.051059578297563704
-0.6538579763611557   -0.025117331053948172   -0.013285655937219872
-0.6538579763611557   -0.025117331053948172   -0.013285655937219872
-0.6538579763611557   -0.025117331053948172   -0.013285655937219872
-0.6538579763611557   -0.025117331053948172   -0.013285655937219872
-0.6300435714656404   0.05310905309936367   0.04279226760914152
-0.6300435714656404   0.05310905309936367   0.04279226760914152
-0.6300435714656404   0.05310905309936367   0.04279226760914152
-0.6300435714656404   0.05310905309936367   0.04279226760914152
-0.9880021742191292   -0.07063419946685787   -0.020791178840405843
-0.9880021742191292   -0.07063419946685787   -0.020791178840405843
-0.9880021742191292   -0.07063419946685787   -0.020791178840405843
-0.9880021742191292   -0.07063419946685787   -0.020791178840405843
-0.7808627003029892   -0.012068075891218083   -0.001632677868138338
-0.7808627003029892   -0.012068075891218083   -0.001632677868138338
-0.7808627003029892   -0.012068075891218083   -0.001632677868138338
-0.7808627003029892   -0.012068075891218083   -0.001632677868138338
-0.9603034835396589   -0.010073139849375717   0.05714121493946304
-0.9603034835396589   -0.010073139849375717   0.05714121493946304
-0.9603034835396589   -0.010073139849375717   0.05714121493946304
-0.9603034835396589   -0.010073139849375717   0.05714121493946304
-0.6533839854938503   -0.00309372986685702   -0.017707019565687862
-0.6533839854938503   -0.00309372986685702   -0.017707019565687862
-0.6533839854938503   -0.00309372986685702   -0.017707019565687862
-0.6533839854938503   -0.00309372986685702   -0.017707019565687862
-0.6273755056526048   0.06591052378653367   0.03963080212687441
-0.6273755056526048   0.06591052378653367   0.03963080212687441
-0.6273755056526048   0.06591052378653367   0.03963080212687441
-0.6273755056526048   0.06591052378653367   0.03963080212687441
-0.972484607771936   -0.0590193084244435   -0.028436097611581314
-0.972484607771936   -0.0590193084244435   -0.028436097611581314
-0.972484607771936   -0.0590193084244435   -0.028436097611581314
-0.972484607771936   -0.0590193084244435   -0.028436097611581314
-0.7823464659676292   0.002969697147014866   0.008923021578847432
-0.7823464659676292   0.002969697147014866   0.008923021578847432
-0.7823464659676292   0.002969697147014866   0.008923021578847432
-0.7823464659676292   0.002969697147014866   0.008923021578847432
-0.9467032069170238   0.002007618963318497   0.03944397927521758
-0.9467032069170238   0.002007618963318497   0.03944397927521758
-0.9467032069170238   0.002007618963318497   0.03944397927521758
-0.9467032069170238   0.002007618963318497   0.03944397927521758
-0.6517217583194556   0.006318744586835373   -0.02250868200767496
-0.6517217583194556   0.006318744586835373   -0.02250868200767496
-0.6517217583194556   0.006318744586835373   -0.02250868200767496
-0.6517217583194556   0.006318744586835373   -0.02250868200767496
-0.627893556575615   0.0745036586606164   0.03144807120099556
-0.627893556575615   0.0745036586606164   0.03144807120099556
-0.627893556575615   0.0745036586606164   0.03144807120099556
-0.627893556575615   0.0745036586606164   0.03144807120099556
-0.9524007728891342   -0.04662287852323674   -0.0362352199681019
-0.9524007728891342   -0.04662287852323674   -0.0362352199681019
-0.9524007728891342   -0.04662287852323674   -0.0362352199681019
-0.9524007728891342   -0.04662287852323674   -0.0362352199681019
-0.7597103424369256   0.016462197947790524   0.01873201318365545
-0.7597103424369256   0.016462197947790524   0.01873201318365545
-0.7597103424369256   0.016462197947790524   0.01873201318365545
-0.7597103424369256   0.016462197947790524   0.01873201318365545
-0.6556822152215125   -0.06213909127587161   0.01461490998292004
-0.6556822152215125   -0.06213909127587161   0.01461490998292004
-0.6556822152215125   -0.06213909127587161   0.01461490998292004
-0.6556822152215125   -0.06213909127587161   0.01461490998292004
-0.3317411523027492   -0.012150676395775425   0.0006060596097177268
-0.3317411523027492   -0.012150676395775425   0.0006060596097177268
-0.3317411523027492   -0.012150676395775425   0.0006060596097177268
-0.3317411523027492   -0.012150676395775425   0.0006060596097177268
-0.3222122512067786   0.03254938970563609   0.023241126695576257
-0.3222122512067786   0.03254938970563609   0.023241126695576257
-0.3222122512067786   0.03254938970563609   0.023241126695576257
-0.3222122512067786   0.03254938970563609   0.023241126695576257
-0.6660717847500217   -0.06127899525767101   -0.022960750455737634
-0.6660717847500217   -0.06127899525767101   -0.022960750455737634
-0.6660717847500217   -0.06127899525767101   -0.022960750455737634
-0.6660717847500217   -0.06127899525767101   -0.022960750455737634
-0.4921942927849194   -0.024155310545733527   -0.010065189356130596
-0.4921942927849194   -0.024155310545733527   -0.010065189356130596
-0.4921942927849194   -0.024155310545733527   -0.010065189356130596
-0.4921942927849194   -0.024155310545733527   -0.010065189356130596
-0.6535077581448324   -0.035534882965484876   0.014115270278025178
-0.6535077581448324   -0.035534882965484876   0.014115270278025178
-0.6535077581448324   -0.035534882965484876   0.014115270278025178
-0.6535077581448324   -0.035534882965484876   0.014115270278025178
-0.3322374528557676   0.009344102369651178   -0.0036795942133808664
-0.3322374528557676   0.009344102369651178   -0.0036795942133808664
-0.3322374528557676   0.009344102369651178   -0.0036795942133808664
-0.3322374528557676   0.009344102369651178   -0.0036795942133808664
-0.32110361620181127   0.05390219949711811   0.020091708302443008
-0.32110361620181127   0.05390219949711811   0.020091708302443008
-0.32110361620181127   0.05390219949711811   0.020091708302443008
-0.32110361620181127   0.05390219949711811   0.020091708302443008
-0.6621808774405763   -0.04136490087065675   -0.02712063215579299
-0.6621808774405763   -0.04136490087065675   -0.02712063215579299
-0.6621808774405763   -0.04136490087065675   -0.02712063215579299
-0.6621808774405763   -0.04136490087065675   -0.02712063215579299
-0.4867248098742917   -0.0025803178009835698   -8.640930389265666e-05
-0.4867248098742917   -0.0025803178009835698   -8.640930389265666e-05
-0.4867248098742917   -0.0025803178009835698   -8.640930389265666e-05
-0.4867248098742917   -0.0025803178009835698   -8.640930389265666e-05
-0.6493623476333773   -0.013872054373145565   0.0094791703826907
-0.6493623476333773   -0.013872054373145565   0.0094791703826907
-0.6493623476333773   -0.013872054373145565   0.0094791703826907
-0.6493623476333773   -0.013872054373145565   0.0094791703826907
-0.3318554335129549   0.028476065495662006   -0.00824124425181295
-0.3318554335129549   0.028476065495662006   -0.00824124425181295
-0.3318554335129549   0.028476065495662006   -0.00824124425181295
-0.3318554335129549   0.028476065495662006   -0.00824124425181295
-0.3209225713002754   0.0763566940848866   0.015041609529041572
-0.3209225713002754   0.0763566940848866   0.015041609529041572
-0.3209225713002754   0.0763566940848866   0.015041609529041572
-0.3209225713002754   0.0763566940848866   0.015041609529041572
-0.658890073501401   -0.019853967338242795   -0.029176887429079694
-0.658890073501401   -0.019853967338242795   -0.029176887429079694
-0.658890073501401   -0.019853967338242795   -0.029176887429079694
-0.658890073501401   -0.019853967338242795   -0.029176887429079694
-0.4869359529468464   0.01723477458805729   0.007554463052307191
-0.4869359529468464   0.01723477458805729   0.007554463052307191
-0.4869359529468464   0.01723477458805729   0.007554463052307191
-0.4869359529468464   0.01723477458805729   0.007554463052307191
-0.34404556555175875   -0.07119272409713476   -0.0018739589339737423
-0.34404556555175875   -0.07119272409713476   -0.0018739589339737423
-0.34404556555175875   -0.07119272409713476   -0.0018739589339737423
-0.34404556555175875   -0.07119272409713476   -0.0018739589339737423
-0.01256233729389663   0.0033171538244736527   0.014685337180349343
-0.01256233729389663   0.0033171538244736527   0.014685337180349343
-0.01256233729389663   0.0033171538244736527   0.014685337180349343
-0.01256233729389663   0.0033171538244736527   0.014685337180349343
-0.013736388249347054   0.020861128796274435   0.007030359990570943
-0.013736388249347054   0.020861128796274435   0.007030359990570943
-0.013736388249347054   0.020861128796274435   0.007030359990570943
-0.013736388249347054   0.020861128796274435   0.007030359990570943
-0.34419012073450017   -0.04553769369993147   -0.008561137537463676
-0.34419012073450017   -0.04553769369993147   -0.008561137537463676
-0.34419012073450017   -0.04553769369993147   -0.008561137537463676
-0.34419012073450017   -0.04553769369993147   -0.008561137537463676
-0.17918636324930823   -0.0223794767253105   -0.005653404799040633
-0.17918636324930823   -0.0223794767253105   -0.005653404799040633
-0.17918636324930823   -0.0223794767253105   -0.005653404799040633
-0.17918636324930823   -0.0223794767253105   -0.005653404799040633
-0.34381863662685364   -0.04750806251431134   -0.00473334818485135
-0.34381863662685364   -0.04750806251431134   -0.00473334818485135
-0.34381863662685364   -0.04750806251431134   -0.00473334818485135
-0.34381863662685364   -0.04750806251431134   -0.00473334818485135
-0.012216838321874672   0.024722531645773208   0.010766706778434255
-0.012216838321874672   0.024722531645773208   0.010766706778434255
-0.012216838321874672   0.024722531645773208   0.010766706778434255
-0.012216838321874672   0.024722531645773208   0.010766706778434255
-0.01207791831381562   0.044116786871884944   0.003344715919992013
-0.01207791831381562   0.044116786871884944   0.003344715919992013
-0.01207791831381562   0.044116786871884944   0.003344715919992013
-0.01207791831381562   0.044116786871884944   0.003344715919992013
-0.3432338376119495   -0.024091256343816217   -0.01256594290731071
-0.3432338376119495   -0.024091256343816217   -0.01256594290731071
-0.3432338376119495   -0.024091256343816217   -0.01256594290731071
-0.3432338376119495   -0.024091256343816217   -0.01256594290731071
-0.1773610139167919   -0.0008880434789172234   0.0024138129799554185
-0.1773610139167919   -0.0008880434789172234   0.0024138129799554185
-0.1773610139167919   -0.0008880434789172234   0.0024138129799554185
-0.1773610139167919   -0.0008880434789172234   0.0024138129799554185
-0.3427198274233687   -0.02458163982972396   -0.009505508478499389
-0.3427198274233687   -0.02458163982972396   -0.009505508478499389
-0.3427198274233687   -0.02458163982972396   -0.009505508478499389
-0.3427198274233687   -0.02458163982972396   -0.009505508478499389
-0.011031166458285542   0.046167932401904796   0.00652732966762279
-0.011031166458285542   0.046167932401904796   0.00652732966762279
-0.011031166458285542   0.046167932401904796   0.00652732966762279
-0.011031166458285542   0.046167932401904796   0.00652732966762279
-0.011654777454833332   0.06806200049079328   -0.0005855798863425125
-0.011654777454833332   0.06806200049079328   -0.0005855798863425125
-0.011654777454833332   0.06806200049079328   -0.0005855798863425125
-0.011654777454833332   0.06806200049079328   -0.0005855798863425125
-0.34298304147518094   -0.0022850569310085694   -0.01661899032959228
-0.34298304147518094   -0.0022850569310085694   -0.01661899032959228
-0.34298304147518094   -0.0022850569310085694   -0.01661899032959228
-0.34298304147518094   -0.0022850569310085694   -0.01661899032959228
-0.17592332179770612   0.020624290843373964   0.00981318994762948
-0.17592332179770612   0.020624290843373964   0.00981318994762948
-0.17592332179770612   0.020624290843373964   0.00981318994762948
-0.17592332179770612   0.020624290843373964   0.00981318994762948
-0.035192762061663954   -0.0780970769190551   -0.017052555914958342
-0.035192762061663954   -0.0780970769190551   -0.017052555914958342
-0.035192762061663954   -0.0780970769190551   -0.017052555914958342
-0.035192762061663954   -0.0780970769190551   -0.017052555914958342
0.30526227451677546   0.021397383369237452   0.027930910863860396
0.30526227451677546   0.021397383369237452   0.027930910863860396
0.30526227451677546   0.021397383369237452   0.027930910863860396
0.30526227451677546   0.021397383369237452   0.027930910863860396
0.295251356834414   0.011206550345687814   -0.011113173752346195
0.295251356834414   0.011206550345687814   -0.011113173752346195
0.295251356834414   0.011206550345687814   -0.011113173752346195
0.295251356834414   0.011206550345687814   -0.011113173752346195
-0.023794768018970323   -0.028479858609758893   0.0060794485484880955
-0.023794768018970323   -0.028479858609758893   0.0060794485484880955
-0.023794768018970323   -0.028479858609758893   0.0060794485484880955
-0.023794768018970323   -0.028479858609758893   0.0060794485484880955
0.13345574056326198   -0.01820241745818158   -0.0032109714394516157
0.13345574056326198   -0.01820241745818158   -0.0032109714394516157
0.13345574056326198   -0.01820241745818158   -0.0032109714394516157
0.13345574056326198   -0.01820241745818158   -0.0032109714394516157
-0.03498413558033674   -0.05690613580034472   -0.021441112067758145
-0.03498413558033674   -0.05690613580034472   -0.021441112067758145
-0.03498413558033674   -0.05690613580034472   -0.021441112067758145
-0.03498413558033674   -0.05690613580034472   -0.021441112067758145
0.30859213063296553   0.041784233773458745   0.02501301181264045
0.30859213063296553   0.041784233773458745   0.02501301181264045
0.30859213063296553   0.041784233773458745   0.02501301181264045
0.30859213063296553   0.041784233773458745   0.02501301181264045
0.3001718063915617   0.032850462827311175   -0.015606662265860532
0.3001718063915617   0.032850462827311175   -0.015606662265860532
0.3001718063915617   0.032850462827311175   -0.015606662265860532
0.3001718063915617   0.032850462827311175   -0.015606662265860532
-0.023062471953746357   -0.009261949275567994   0.001800683867791678
-0.023062471953746357   -0.009261949275567994   0.001800683867791678
-0.023062471953746357   -0.009261949275567994   0.001800683867791678
-0.023062471953746357   -0.009261949275567994   0.001800683867791678
0.1347488138691498   0.0012603744304502465   0.004812732826385409
0.1347488138691498   0.0012603744304502465   0.004812732826385409
0.1347488138691498   0.0012603744304502465   0.004812732826385409
0.1347488138691498   0.0012603744304502465   0.004812732826385409
-0.033947351661146596   -0.03602430759917827   -0.025861356345599475
-0.033947351661146596   -0.03602430759917827   -0.025861356345599475
-0.033947351661146596   -0.03602430759917827   -0.025861356345599475
-0.033947351661146596   -0.03602430759917827   -0.025861356345599475
0.3134018898381428   0.061958024890102326   0.021436192904254074
0.3134018898381428   0.061958024890102326   0.021436192904254074
0.3134018898381428   0.061958024890102326   0.021436192904254074
0.3134018898381428   0.061958024890102326   0.021436192904254074
0.30324348312170585   0.05996303795745363   -0.016329615508827302
0.30324348312170585   0.05996303795745363   -0.016329615508827302
0.30324348312170585   0.05996303795745363   -0.016329615508827302
0.30324348312170585   0.05996303795745363   -0.016329615508827302
-0.023010040591568887   0.013168447133490233   -0.002468342212716983
-0.023010040591568887   0.013168447133490233   -0.002468342212716983
-0.023010040591568887   0.013168447133490233   -0.002468342212716983
-0.023010040591568887   0.013168447133490233   -0.002468342212716983
0.13954678274274634   0.02293269837476299   0.014328158120492714
0.13954678274274634   0.02293269837476299   0.014328158120492714
0.13954678274274634   0.02293269837476299   0.014328158120492714
0.13954678274274634   0.02293269837476299   0.014328158120492714
0.2732169706356672   -0.07761405342600636   -0.0332841717464342
0.2732169706356672   -0.07761405342600636   -0.0332841717464342
0.2732169706356672   -0.07761405342600636   -0.0332841717464342
0.2732169706356672   -0.07761405342600636   -0.0332841717464342
0.6017913397889831   0.044727561057878465   0.03119277622141523
0.6017913397889831   0.044727561057878465   0.03119277622141523
0.6017913397889831   0.044727561057878465   0.03119277622141523
0.6017913397889831   0.044727561057878465   0.03119277622141523
0.5971303333721178   -0.0032470753951779063   -0.044308383116627534
0.5971303333721178   -0.0032470753951779063   -0.044308383116627534
0.5971303333721178   -0.0032470753951779063   -0.044308383116627534
0.5971303333721178   -0.0032470753951779063   -0.044308383116627534
0.29816843518249697   -0.00629491499116476   0.02097368332492426
0.29816843518249697   -0.00629491499116476   0.02097368332492426
0.29816843518249697   -0.00629491499116476   0.02097368332492426
0.29816843518249697   -0.00629491499116476   0.02097368332492426
0.4210865866541979   -0.01524355301722359   -0.013893465528385145
0.4210865866541979   -0.01524355301722359   -0.013893465528385145
0.4210865866541979   -0.01524355301722359   -0.013893465528385145
0.4210865866541979   -0.01524355301722359   -0.013893465528385145
0.27358559569640817   -0.06728452677194194   -0.04095090232474186
0.27358559569640817   -0.06728452677194194   -0.04095090232474186
0.27358559569640817   -0.06728452677194194   -0.04095090232474186
0.27358559569640817   -0.06728452677194194   -0.04095090232474186
0.6234763610613525   0.059505724588747186   0.024668955345620736
0.6234763610613525   0.059505724588747186   0.024668955345620736
0.6234763610613525   0.059505724588747186   0.024668955345620736
0.6234763610613525   0.059505724588747186   0.024668955345620736
0.6120137495614334   0.009098238840642744   -0.05947884794256641
0.6120137495614334   0.009098238840642744   -0.05947884794256641
0.6120137495614334   0.009098238840642744   -0.05947884794256641
0.6120137495614334   0.009098238840642744   -0.05947884794256641
0.30048005362623836   0.0031260725651963694   0.015658964169642544
0.30048005362623836   0.0031260725651963694   0.015658964169642544
0.30048005362623836   0.0031260725651963694   0.015658964169642544
0.30048005362623836   0.0031260725651963694   0.015658964169642544
0.44034790185334194   -0.0018781489846464022   -0.004194382916379292
0.44034790185334194   -0.0018781489846464022   -0.004194382916379292
0.44034790185334194   -0.0018781489846464022   -0.004194382916379292
0.44034790185334194   -0.0018781489846464022   -0.004194382916379292
0.2768090344192484   -0.05496745538275295   -0.04460260391735992
0.2768090344192484   -0.05496745538275295   -0.04460260391735992
0.2768090344192484   -0.05496745538275295   -0.04460260391735992
0.2768090344192484   -0.05496745538275295   -0.04460260391735992
0.6395829237730922   0.07108992179326167   0.016375340163115145
0.6395829237730922   0.07108992179326167   0.016375340163115145
0.6395829237730922   0.07108992179326167   0.016375340163115145
0.6395829237730922   0.07108992179326167   0.016375340163115145
0.6356333401490531   0.04119540452850612   -0.056002908633199566
0.6356333401490531   0.04119540452850612   -0.056002908633199566
0.6356333401490531   0.04119540452850612   -0.056002908633199566
0.6356333401490531   0.04119540452850612   -0.056002908633199566
0.3015819851993554   0.02387110486533576   0.011454827971543279
0.3015819851993554   0.02387110486533576   0.011454827971543279
0.3015819851993554   0.02387110486533576   0.011454827971543279
0.3015819851993554   0.02387110486533576   0.011454827971543279
0.4438148158770384   0.013376144897940978   0.006566537673283166
0.4438148158770384   0.013376144897940978   0.006566537673283166
0.4438148158770384   0.013376144897940978   0.006566537673283166
0.4438148158770384   0.013376144897940978   0.006566537673283166
-0.7012439399592891   -0.022708261463691787   0.04614565561219535
-0.7012439399592891   -0.022708261463691787   0.04614565561219535
-0.7012439399592891   -0.022708261463691787   0.04614565561219535
-0.7012439399592891   -0.022708261463691787   0.04614565561219535
-0.4914575211697683   -0.03303941388564506   -0.017378632967082124
-0.4914575211697683   -0.03303941388564506   -0.017378632967082124
-0.4914575211697683   -0.03303941388564506   -0.017378632967082124
-0.4914575211697683   -0.03303941388564506   -0.017378632967082124
-0.46244365722594527   0.04649986929164836   0.03932064795894153
-0.46244365722594527   0.04649986929164836   0.03932064795894153
-0.46244365722594527   0.04649986929164836   0.03932064795894153
-0.46244365722594527   0.04649986929164836   0.03932064795894153
-0.7012890667744245   -0.057772368807401095   -0.025431436452940884
-0.7012890667744245   -0.057772368807401095   -0.025431436452940884
-0.7012890667744245   -0.057772368807401095   -0.025431436452940884
-0.7012890667744245   -0.057772368807401095   -0.025431436452940884
-0.5650192712467363   -0.008957304076274694   -0.00141454954068616
-0.5650192712467363   -0.008957304076274694   -0.00141454954068616
-0.5650192712467363   -0.008957304076274694   -0.00141454954068616
-0.5650192712467363   -0.008957304076274694   -0.00141454954068616
-0.6748900183657447   0.004920629023759698   0.04387080775929759
-0.6748900183657447   0.004920629023759698   0.04387080775929759
-0.6748900183657447   0.004920629023759698   0.04387080775929759
-0.6748900183657447   0.004920629023759698   0.04387080775929759
-0.486690982573851   -0.014041405478737237   -0.02137470401019519
-0.486690982573851   -0.014041405478737237   -0.02137470401019519
-0.486690982573851   -0.014041405478737237   -0.02137470401019519
-0.486690982573851   -0.014041405478737237   -0.02137470401019519
-0.4580808687869966   0.05619075921320105   0.0332105015916945
-0.4580808687869966   0.05619075921320105   0.0332105015916945
-0.4580808687869966   0.05619075921320105   0.0332105015916945
-0.4580808687869966   0.05619075921320105   0.0332105015916945
-0.6845863215204026   -0.04696566944078456   -0.03212360796808934
-0.6845863215204026   -0.04696566944078456   -0.03212360796808934
-0.6845863215204026   -0.04696566944078456   -0.03212360796808934
-0.6845863215204026   -0.04696566944078456   -0.03212360796808934
-0.5609946969477814   0.0038139978558331677   0.005817727214922339
-0.5609946969477814   0.0038139978558331677   0.005817727214922339
-0.5609946969477814   0.0038139978558331677   0.005817727214922339
-0.5609946969477814   0.0038139978558331677   0.005817727214922339
-0.6584276447744104   0.01651677080133057   0.03518733551975592
-0.6584276447744104   0.01651677080133057   0.03518733551975592
-0.6584276447744104   0.01651677080133057   0.03518733551975592
-0.6584276447744104   0.01651677080133057   0.03518733551975592
-0.4822979100441742   -0.00535004554009888   -0.02633389994088925
-0.4822979100441742   -0.00535004554009888   -0.02633389994088925
-0.4822979100441742   -0.00535004554009888   -0.02633389994088925
-0.4822979100441742   -0.00535004554009888   -0.02633389994088925
-0.45566866535342615   0.06568565053245465   0.028575317774654586
-0.45566866535342615   0.06568565053245465   0.028575317774654586
-0.45566866535342615   0.06568565053245465   0.028575317774654586
-0.45566866535342615   0.06568565053245465   0.028575317774654586
-0.6622452193827799   -0.03265218655666939   -0.03844529950028787
-0.6622452193827799   -0.03265218655666939   -0.03844529950028787
-0.6622452193827799   -0.03265218655666939   -0.03844529950028787
-0.6622452193827799   -0.03265218655666939   -0.03844529950028787
-0.5398899874248655   0.015805146109877405   0.015931842650181965
-0.5398899874248655   0.015805146109877405   0.015931842650181965
-0.5398899874248655   0.015805146109877405   0.015931842650181965
-0.5398899874248655   0.015805146109877405   0.015931842650181965
-0.48580830541895986   -0.03959976046724929   0.017427792368559084
-0.48580830541895986   -0.03959976046724929   0.017427792368559084
-0.48580830541895986   -0.03959976046724929   0.017427792368559084
-0.48580830541895986   -0.03959976046724929   0.017427792368559084
-0.28245556578675934   -0.021403828676708862   -0.002808021157435595
-0.28245556578675934   -0.021403828676708862   -0.002808021157435595
-0.28245556578675934   -0.021403828676708862   -0.002808021157435595
-0.28245556578675934   -0.021403828676708862   -0.002808021157435595
-0.26808543808358914   0.027149887201358344   0.021197315172976485
-0.26808543808358914   0.027149887201358344   0.021197315172976485
-0.26808543808358914   0.027149887201358344   0.021197315172976485
-0.26808543808358914   0.027149887201358344   0.021197315172976485
-0.4931528802781419   -0.04717981333230458   -0.020545784678088742
-0.4931528802781419   -0.04717981333230458   -0.020545784678088742
-0.4931528802781419   -0.04717981333230458   -0.020545784678088742
-0.4931528802781419   -0.04717981333230458   -0.020545784678088742
-0.38086032334257236   -0.01852032113785912   -0.007848517040268028
-0.38086032334257236   -0.01852032113785912   -0.007848517040268028
-0.38086032334257236   -0.01852032113785912   -0.007848517040268028
-0.38086032334257236   -0.01852032113785912   -0.007848517040268028
-0.4800875020595329   -0.01664144167657948   0.01424273475923114
-0.4800875020595329   -0.01664144167657948   0.01424273475923114
-0.4800875020595329   -0.01664144167657948   0.01424273475923114
-0.4800875020595329   -0.01664144167657948   0.01424273475923114
-0.27947369325417254   -0.0017113614063398591   -0.006882712072242187
-0.27947369325417254   -0.0017113614063398591   -0.006882712072242187
-0.27947369325417254   -0.0017113614063398591   -0.006882712072242187
-0.27947369325417254   -0.0017113614063398591   -0.006882712072242187
-0.2646786097258822   0.047033697803304506   0.017370093499326885
-0.2646786097258822   0.047033697803304506   0.017370093499326885
-0.2646786097258822   0.047033697803304506   0.017370093499326885
-0.2646786097258822   0.047033697803304506   0.017370093499326885
-0.4864917739969922   -0.028438903371671376   -0.024214361873410646
-0.4864917739969922   -0.028438903371671376   -0.024214361873410646
-0.4864917739969922   -0.028438903371671376   -0.024214361873410646
-0.4864917739969922   -0.028438903371671376   -0.024214361873410646
-0.37354150105587397   0.0009951601721114312   0.0005371651655109132
-0.37354150105587397   0.0009951601721114312   0.0005371651655109132
-0.37354150105587397   0.0009951601721114312   0.0005371651655109132
-0.37354150105587397   0.0009951601721114312   0.0005371651655109132
-0.4724381005567885   0.004609001107037616   0.013006100848898718
-0.4724381005567885   0.004609001107037616   0.013006100848898718
-0.4724381005567885   0.004609001107037616   0.013006100848898718
-0.4724381005567885   0.004609001107037616   0.013006100848898718
-0.27664967314202643   0.016068403348655447   -0.011519929126742254
-0.27664967314202643   0.016068403348655447   -0.011519929126742254
-0.27664967314202643   0.016068403348655447   -0.011519929126742254
-0.27664967314202643   0.016068403348655447   -0.011519929126742254
-0.2613861040322174   0.06824342265672063   0.013806093076546073
-0.2613861040322174   0.06824342265672063   0.013806093076546073
-0.2613861040322174   0.06824342265672063   0.013806093076546073
-0.2613861040322174   0.06824342265672063   0.013806093076546073
-0.4815149068291609   -0.00821912406807973   -0.02675111500348277
-0.4815149068291609   -0.00821912406807973   -0.02675111500348277
-0.4815149068291609   -0.00821912406807973   -0.02675111500348277
-0.4815149068291609   -0.00821912406807973   -0.02675111500348277
-0.37069459129519167   0.01938908526255556   0.008534030179044381
-0.37069459129519167   0.01938908526255556   0.008534030179044381
-0.37069459129519167   0.01938908526255556   0.008534030179044381
-0.37069459129519167   0.01938908526255556   0.008534030179044381
-0.28838216780086506   -0.05462737641160422   0.0007825165069284082
-0.28838216780086506   -0.05462737641160422   0.0007825165069284082
-0.28838216780086506   -0.05462737641160422   0.0007825165069284082
-0.28838216780086506   -0.05462737641160422   0.0007825165069284082
-0.07553838437499925   -0.006549466664417405   0.011740936870923615
-0.07553838437499925   -0.006549466664417405   0.011740936870923615
-0.07553838437499925   -0.006549466664417405   0.011740936870923615
-0.07553838437499925   -0.006549466664417405   0.011740936870923615
-0.0737187304968676   0.01106972646881231   0.00400457306862269
-0.0737187304968676   0.01106972646881231   0.00400457306862269
-0.0737187304968676   0.01106972646881231   0.00400457306862269
-0.0737187304968676   0.01106972646881231   0.00400457306862269
-0.285222427178392   -0.03188092949938437   -0.005456813600297229
-0.285222427178392   -0.03188092949938437   -0.005456813600297229
-0.285222427178392   -0.03188092949938437   -0.005456813600297229
-0.285222427178392   -0.03188092949938437   -0.005456813600297229
-0.18102723707502016   -0.01961593040142911   -0.005587329645476473
-0.18102723707502016   -0.01961593040142911   -0.005587329645476473
-0.18102723707502016   -0.01961593040142911   -0.005587329645476473
-0.18102723707502016   -0.01961593040142911   -0.005587329645476473
-0.2847521889987553   -0.03244599190465781   -0.0025405602968401973
-0.2847521889987553   -0.03244599190465781   -0.0025405602968401973
-0.2847521889987553   -0.03244599190465781   -0.0025405602968401973
-0.2847521889987553   -0.03244599190465781   -0.0025405602968401973
-0.07250746787705811   0.013316289673531951   0.007814322962950433
-0.07250746787705811   0.013316289673531951   0.007814322962950433
-0.07250746787705811   0.013316289673531951   0.007814322962950433
-0.07250746787705811   0.013316289673531951   0.007814322962950433
-0.06960283628425419   0.03335117986932001   0.0010152368306675184
-0.06960283628425419   0.03335117986932001   0.0010152368306675184
-0.06960283628425419   0.03335117986932001   0.0010152368306675184
-0.06960283628425419   0.03335117986932001   0.0010152368306675184
-0.28181079756451566   -0.011874406031243803   -0.009382741859291988
-0.28181079756451566   -0.011874406031243803   -0.009382741859291988
-0.28181079756451566   -0.011874406031243803   -0.009382741859291988
-0.28181079756451566   -0.011874406031243803   -0.009382741859291988
-0.17662991608536696   0.0003950188517398631   0.002321025842091302
-0.17662991608536696   0.0003950188517398631   0.002321025842091302
-0.17662991608536696   0.0003950188517398631   0.002321025842091302
-0.17662991608536696   0.0003950188517398631   0.002321025842091302
-0.280759484120542   -0.010236094331837135   -0.005764486338830399
-0.280759484120542   -0.010236094331837135   -0.005764486338830399
-0.280759484120542   -0.010236094331837135   -0.005764486338830399
-0.280759484120542   -0.010236094331837135   -0.005764486338830399
-0.0691014779750647   0.033265539923077875   0.0036076683228577714
-0.0691014779750647   0.033265539923077875   0.0036076683228577714
-0.0691014779750647   0.033265539923077875   0.0036076683228577714
-0.0691014779750647   0.033265539923077875   0.0036076683228577714
-0.06590692413478033   0.055955919722269314   -0.0024902244036034554
-0.06590692413478033   0.055955919722269314   -0.0024902244036034554
-0.06590692413478033   0.055955919722269314   -0.0024902244036034554
-0.06590692413478033   0.055955919722269314   -0.0024902244036034554
-0.2788229002648697   0.008361491492538384   -0.013495956922534334
-0.2788229002648697   0.008361491492538384   -0.013495956922534334
-0.2788229002648697   0.008361491492538384   -0.013495956922534334
-0.2788229002648697   0.008361491492538384   -0.013495956922534334
-0.1726158648479932   0.020502145657359985   0.00994007060638304
-0.1726158648479932   0.020502145657359985   0.00994007060638304
-0.1726158648479932   0.020502145657359985   0.00994007060638304
-0.1726158648479932   0.020502145657359985   0.00994007060638304
-0.09305933152718256   -0.06694647760267369   -0.01546678795173731
-0.09305933152718256   -0.06694647760267369   -0.01546678795173731
-0.09305933152718256   -0.06694647760267369   -0.01546678795173731
-0.09305933152718256   -0.06694647760267369   -0.01546678795173731
0.12847661152888543   0.010092728313609696   0.025450993948595846
0.12847661152888543   0.010092728313609696   0.025450993948595846
0.12847661152888543   0.010092728313609696   0.025450993948595846
0.12847661152888543   0.010092728313609696   0.025450993948595846
0.1193262782496754   -0.003936137581675783   -0.014322992579742073
0.1193262782496754   -0.003936137581675783   -0.014322992579742073
0.1193262782496754   -0.003936137581675783   -0.014322992579742073
0.1193262782496754   -0.003936137581675783   -0.014322992579742073
-0.07793396735524781   -0.015477998635185897   0.009476113880719826
-0.07793396735524781   -0.015477998635185897   0.009476113880719826
-0.07793396735524781   -0.015477998635185897   0.009476113880719826
-0.07793396735524781   -0.015477998635185897   0.009476113880719826
0.018394191031262094   -0.018536071235606202   -0.003983805827575482
0.018394191031262094   -0.018536071235606202   -0.003983805827575482
0.018394191031262094   -0.018536071235606202   -0.003983805827575482
0.018394191031262094   -0.018536071235606202   -0.003983805827575482
-0.08989044117206285   -0.046726444764819394   -0.019057809073721902
-0.08989044117206285   -0.046726444764819394   -0.019057809073721902
-0.08989044117206285   -0.046726444764819394   -0.019057809073721902
-0.08989044117206285   -0.046726444764819394   -0.019057809073721902
0.13328310483236383   0.029312661313832034   0.022212341438190203
0.13328310483236383   0.029312661313832034   0.022212341438190203
0.13328310483236383   0.029312661313832034   0.022212341438190203
0.13328310483236383   0.029312661313832034   0.022212341438190203
0.1269968031901216   0.01714290509742005   -0.016234319411136067
0.1269968031901216   0.01714290509742005   -0.016234319411136067
0.1269968031901216   0.01714290509742005   -0.016234319411136067
0.1269968031901216   0.01714290509742005   -0.016234319411136067
-0.07496496950332136   0.002413488251384103   0.005142262353268214
-0.07496496950332136   0.002413488251384103   0.005142262353268214
-0.07496496950332136   0.002413488251384103   0.005142262353268214
-0.07496496950332136   0.002413488251384103   0.005142262353268214
0.022482123902214747   -0.0003746292187812167   0.00406670412855055
0.022482123902214747   -0.0003746292187812167   0.00406670412855055
0.022482123902214747   -0.0003746292187812167   0.00406670412855055
0.022482123902214747   -0.0003746292187812167   0.00406670412855055
-0.08650391491013482   -0.026948474938572567   -0.023190501490842726
-0.08650391491013482   -0.026948474938572567   -0.023190501490842726
-0.08650391491013482   -0.026948474938572567   -0.023190501490842726
-0.08650391491013482   -0.026948474938572567   -0.023190501490842726
0.1402710677888794   0.04824018747931941   0.019039721200751637
0.1402710677888794   0.04824018747931941   0.019039721200751637
0.1402710677888794   0.04824018747931941   0.019039721200751637
0.1402710677888794   0.04824018747931941   0.019039721200751637
0.1331785789417643   0.0411456506584274   -0.01877094412135662
0.1331785789417643   0.0411456506584274   -0.01877094412135662
0.1331785789417643   0.0411456506584274   -0.01877094412135662
0.1331785789417643   0.0411456506584274   -0.01877094412135662
-0.07179315357458245   0.02301526908443006   0.0010192790352246597
-0.07179315357458245   0.02301526908443006   0.0010192790352246597
-0.07179315357458245   0.02301526908443006   0.0010192790352246597
-0.07179315357458245   0.02301526908443006   0.0010192790352246597
0.02877055476559935   0.019350410543884276   0.012392972799260056
0.02877055476559935   0.019350410543884276   0.012392972799260056
0.02877055476559935   0.019350410543884276   0.012392972799260056
0.02877055476559935   0.019350410543884276   0.012392972799260056
0.10172255151339814   -0.06764172283713964   -0.030584854978090294
0.10172255151339814   -0.06764172283713964   -0.030584854978090294
0.10172255151339814   -0.06764172283713964   -0.030584854978090294
0.10172255151339814   -0.06764172283713964   -0.030584854978090294
0.30927765668837465   0.030593597127272977   0.033066414410513265
0.30927765668837465   0.030593597127272977   0.033066414410513265
0.30927765668837465   0.030593597127272977   0.033066414410513265
0.30927765668837465   0.030593597127272977   0.033066414410513265
0.306129601719941   -0.01695253653068189   -0.040275590910105456
0.306129601719941   -0.01695253653068189   -0.040275590910105456
0.306129601719941   -0.01695253653068189   -0.040275590910105456
0.306129601719941   -0.01695253653068189   -0.040275590910105456
0.12905937087684646   0.005714444015808624   0.024691888958627832
0.12905937087684646   0.005714444015808624   0.024691888958627832
0.12905937087684646   0.005714444015808624   0.024691888958627832
0.12905937087684646   0.005714444015808624   0.024691888958627832
0.20050862517874501   -0.014092583284977644   -0.01069209372707719
0.20050862517874501   -0.014092583284977644   -0.01069209372707719
0.20050862517874501   -0.014092583284977644   -0.01069209372707719
0.20050862517874501   -0.014092583284977644   -0.01069209372707719
0.1046463381573729   -0.05627153098813374   -0.03538729963479657
0.1046463381573729   -0.05627153098813374   -0.03538729963479657
0.1046463381573729   -0.05627153098813374   -0.03538729963479657
0.1046463381573729   -0.05627153098813374   -0.03538729963479657
0.33258204771472916   0.04707285174857494   0.0279612507845843
0.33258204771472916   0.04707285174857494   0.0279612507845843
0.33258204771472916   0.04707285174857494   0.0279612507845843
0.33258204771472916   0.04707285174857494   0.0279612507845843
0.3230912196767832   -0.005151386071283043   -0.04833949506329936
0.3230912196767832   -0.005151386071283043   -0.04833949506329936
0.3230912196767832   -0.005151386071283043   -0.04833949506329936
0.3230912196767832   -0.005151386071283043   -0.04833949506329936
0.13354210894483812   0.014361253718288274   0.019273860741576308
0.13354210894483812   0.014361253718288274   0.019273860741576308
0.13354210894483812   0.014361253718288274   0.019273860741576308
0.13354210894483812   0.014361253718288274   0.019273860741576308
0.21758397441841995   -0.002176814857355311   -0.001222926298047964
0.21758397441841995   -0.002176814857355311   -0.001222926298047964
0.21758397441841995   -0.002176814857355311   -0.001222926298047964
0.21758397441841995   -0.002176814857355311   -0.001222926298047964
0.10931189532669033   -0.04645211887901367   -0.041063834751859624
0.10931189532669033   -0.04645211887901367   -0.041063834751859624
0.10931189532669033   -0.04645211887901367   -0.041063834751859624
0.10931189532669033   -0.04645211887901367   -0.041063834751859624
0.3494497144949427   0.057790267726031755   0.020511325230189094
0.3494497144949427   0.057790267726031755   0.020511325230189094
0.3494497144949427   0.057790267726031755   0.020511325230189094
0.3494497144949427   0.057790267726031755   0.020511325230189094
0.3491689653435154   0.020742133462050512   -0.051777009189042864
0.3491689653435154   0.020742133462050512   -0.051777009189042864
0.3491689653435154   0.020742133462050512   -0.051777009189042864
0.3491689653435154   0.020742133462050512   -0.051777009189042864
0.13812755636137047   0.03179717684642891   0.01532241678867175
0.13812755636137047   0.03179717684642891   0.01532241678867175
0.13812755636137047   0.03179717684642891   0.01532241678867175
0.13812755636137047   0.03179717684642891   0.01532241678867175
0.22619437011421126   0.01092845038710926   0.00695111205002673
0.22619437011421126   0.01092845038710926   0.00695111205002673
0.22619437011421126   0.01092845038710926   0.00695111205002673
0.22619437011421126   0.01092845038710926   0.00695111205002673
-0.41880310210667143   -0.006779955657490996   0.041264239110591336
-0.41880310210667143   -0.006779955657490996   0.041264239110591336
-0.41880310210667143   -0.006779955657490996   0.041264239110591336
-0.41880310210667143   -0.006779955657490996   0.041264239110591336
-0.3277173637689067   -0.041770206517739134   -0.020334466455238703
-0.3277173637689067   -0.041770206517739134   -0.020334466455238703
-0.3277173637689067   -0.041770206517739134   -0.020334466455238703
-0.3277173637689067   -0.041770206517739134   -0.020334466455238703
-0.2965996521958255   0.035304131374869055   0.035261649879810814
-0.2965996521958255   0.035304131374869055   0.035261649879810814
-0.2965996521958255   0.035304131374869055   0.035261649879810814
-0.2965996521958255   0.035304131374869055   0.035261649879810814
-0.417085863071461   -0.04547356136145594   -0.02770993694533648
-0.417085863071461   -0.04547356136145594   -0.02770993694533648
-0.417085863071461   -0.04547356136145594   -0.02770993694533648
-0.417085863071461   -0.04547356136145594   -0.02770993694533648
-0.3511288351844144   -0.009610849190825763   -0.005332449808336873
-0.3511288351844144   -0.009610849190825763   -0.005332449808336873
-0.3511288351844144   -0.009610849190825763   -0.005332449808336873
-0.3511288351844144   -0.009610849190825763   -0.005332449808336873
-0.3911217032161639   0.017229042823981522   0.0394082581457116
-0.3911217032161639   0.017229042823981522   0.0394082581457116
-0.3911217032161639   0.017229042823981522   0.0394082581457116
-0.3911217032161639   0.017229042823981522   0.0394082581457116
-0.3207504301546381   -0.02558509091408364   -0.02460301762529791
-0.3207504301546381   -0.02558509091408364   -0.02460301762529791
-0.3207504301546381   -0.02558509091408364   -0.02460301762529791
-0.3207504301546381   -0.02558509091408364   -0.02460301762529791
-0.2892970779545459   0.04447851298738449   0.029808060606891697
-0.2892970779545459   0.04447851298738449   0.029808060606891697
-0.2892970779545459   0.04447851298738449   0.029808060606891697
-0.2892970779545459   0.04447851298738449   0.029808060606891697
-0.39788475358621533   -0.03507484738478869   -0.03459366444468087
-0.39788475358621533   -0.03507484738478869   -0.03459366444468087
-0.39788475358621533   -0.03507484738478869   -0.03459366444468087
-0.39788475358621533   -0.03507484738478869   -0.03459366444468087
-0.34108980360072944   0.002385751223171681   0.002338764004873324
-0.34108980360072944   0.002385751223171681   0.002338764004873324
-0.34108980360072944   0.002385751223171681   0.002338764004873324
-0.34108980360072944   0.002385751223171681   0.002338764004873324
-0.3719149185379912   0.02835788785970611   0.031822775551945
-0.3719149185379912   0.02835788785970611   0.031822775551945
-0.3719149185379912   0.02835788785970611   0.031822775551945
-0.3719149185379912   0.02835788785970611   0.031822775551945
-0.3135539934610161   -0.01724130271535597   -0.029756701222716495
-0.3135539934610161   -0.01724130271535597   -0.029756701222716495
-0.3135539934610161   -0.01724130271535597   -0.029756701222716495
-0.3135539934610161   -0.01724130271535597   -0.029756701222716495
-0.283399056381041   0.05594716867050813   0.02570531363386071
-0.283399056381041   0.05594716867050813   0.02570531363386071
-0.283399056381041   0.05594716867050813   0.02570531363386071
-0.283399056381041   0.05594716867050813   0.02570531363386071
-0.3720965085827253   -0.018418443266492487   -0.040023470281532844
-0.3720965085827253   -0.018418443266492487   -0.040023470281532844
-0.3720965085827253   -0.018418443266492487   -0.040023470281532844
-0.3720965085827253   -0.018418443266492487   -0.040023470281532844
-0.32086914711457737   0.01423882703004356   0.011836765638637097
-0.32086914711457737   0.01423882703004356   0.011836765638637097
-0.32086914711457737   0.01423882703004356   0.011836765638637097
-0.32086914711457737   0.01423882703004356   0.011836765638637097
-0.3161155760947539   -0.023661144522719564   0.01956540992050549
-0.3161155760947539   -0.023661144522719564   0.01956540992050549
-0.3161155760947539   -0.023661144522719564   0.01956540992050549
-0.3161155760947539   -0.023661144522719564   0.01956540992050549
-0.23300734442737628   -0.03165698197543081   -0.0060145644323672445
-0.23300734442737628   -0.03165698197543081   -0.0060145644323672445
-0.23300734442737628   -0.03165698197543081   -0.0060145644323672445
-0.23300734442737628   -0.03165698197543081   -0.0060145644323672445
-0.21569776827883594   0.016026277936535563   0.01802955966679835
-0.21569776827883594   0.016026277936535563   0.01802955966679835
-0.21569776827883594   0.016026277936535563   0.01802955966679835
-0.21569776827883594   0.016026277936535563   0.01802955966679835
-0.32088451696603304   -0.03353723900436505   -0.017321303591989162
-0.32088451696603304   -0.03353723900436505   -0.017321303591989162
-0.32088451696603304   -0.03353723900436505   -0.017321303591989162
-0.32088451696603304   -0.03353723900436505   -0.017321303591989162
-0.2706995386048533   -0.016757347787618886   -0.007346545507363383
-0.2706995386048533   -0.016757347787618886   -0.007346545507363383
-0.2706995386048533   -0.016757347787618886   -0.007346545507363383
-0.2706995386048533   -0.016757347787618886   -0.007346545507363383
-0.30792209459104974   -0.00269482116962963   0.016648390448186185
-0.30792209459104974   -0.00269482116962963   0.016648390448186185
-0.30792209459104974   -0.00269482116962963   0.016648390448186185
-0.30792209459104974   -0.00269482116962963   0.016648390448186185
-0.22719793161297336   -0.013353880857354943   -0.01009109820999828
-0.22719793161297336   -0.013353880857354943   -0.01009109820999828
-0.22719793161297336   -0.013353880857354943   -0.01009109820999828
-0.22719793161297336   -0.013353880857354943   -0.01009109820999828
-0.20940681383840637   0.03470369609704554   0.014413675311588124
-0.20940681383840637   0.03470369609704554   0.014413675311588124
-0.20940681383840637   0.03470369609704554   0.014413675311588124
-0.20940681383840637   0.03470369609704554   0.014413675311588124
-0.31142425037079435   -0.015607104167707914   -0.02074218431925401
-0.31142425037079435   -0.015607104167707914   -0.02074218431925401
-0.31142425037079435   -0.015607104167707914   -0.02074218431925401
-0.31142425037079435   -0.015607104167707914   -0.02074218431925401
-0.2615753077117537   0.001224331839234781   0.0007067028701481324
-0.2615753077117537   0.001224331839234781   0.0007067028701481324
-0.2615753077117537   0.001224331839234781   0.0007067028701481324
-0.2615753077117537   0.001224331839234781   0.0007067028701481324
-0.2976998765875643   0.01718072047560966   0.015091859953574423
-0.2976998765875643   0.01718072047560966   0.015091859953574423
-0.2976998765875643   0.01718072047560966   0.015091859953574423
-0.2976998765875643   0.01718072047560966   0.015091859953574423
-0.22144322557907956   0.0036038334962850693   -0.014668520791019208
-0.22144322557907956   0.0036038334962850693   -0.014668520791019208
-0.22144322557907956   0.0036038334962850693   -0.014668520791019208
-0.22144322557907956   0.0036038334962850693   -0.014668520791019208
-0.20313486716953705   0.055001017858487544   0.010969554969722035
-0.20313486716953705   0.055001017858487544   0.010969554969722035
-0.20313486716953705   0.055001017858487544   0.010969554969722035
-0.20313486716953705   0.055001017858487544   0.010969554969722035
-0.3036342772648124   0.004000729438266681   -0.023524351552751236
-0.3036342772648124   0.004000729438266681   -0.023524351552751236
-0.3036342772648124   0.004000729438266681   -0.023524351552751236
-0.3036342772648124   0.004000729438266681   -0.023524351552751236
-0.25498572403355185   0.018881029461306167   0.008594290806801536
-0.25498572403355185   0.018881029461306167   0.008594290806801536
-0.25498572403355185   0.018881029461306167   0.008594290806801536
-0.25498572403355185   0.018881029461306167   0.008594290806801536
-0.2326995166698914   -0.039630301684714646   0.0034978940643372175
-0.2326995166698914   -0.039630301684714646   0.0034978940643372175
-0.2326995166698914   -0.039630301684714646   0.0034978940643372175
-0.2326995166698914   -0.039630301684714646   0.0034978940643372175
-0.13950581429592265   -0.016834010200325343   0.008520406175604964
-0.13950581429592265   -0.016834010200325343   0.008520406175604964
-0.13950581429592265   -0.016834010200325343   0.008520406175604964
-0.13950581429592265   -0.016834010200325343   0.008520406175604964
-0.1348443211689598   -0.0004958510504552982   0.001090472634923548
-0.1348443211689598   -0.0004958510504552982   0.001090472634923548
-0.1348443211689598   -0.0004958510504552982   0.001090472634923548
-0.1348443211689598   -0.0004958510504552982   0.001090472634923548
-0.22651019146032278   -0.018018784050191625   -0.001987494253908711
-0.22651019146032278   -0.018018784050191625   -0.001987494253908711
-0.22651019146032278   -0.018018784050191625   -0.001987494253908711
-0.22651019146032278   -0.018018784050191625   -0.001987494253908711
-0.18368362673651464   -0.01786483993174978   -0.005358559280342759
-0.18368362673651464   -0.01786483993174978   -0.005358559280342759
-0.18368362673651464   -0.01786483993174978   -0.005358559280342759
-0.18368362673651464   -0.01786483993174978   -0.005358559280342759
-0.22622959046716598   -0.018926378420620733   0.0003231050823025595
-0.22622959046716598   -0.018926378420620733   0.0003231050823025595
-0.22622959046716598   -0.018926378420620733   0.0003231050823025595
-0.22622959046716598   -0.018926378420620733   0.0003231050823025595
-0.13367002166709072   0.0018666438149968212   0.004599475278816791
-0.13367002166709072   0.0018666438149968212   0.004599475278816791
-0.13367002166709072   0.0018666438149968212   0.004599475278816791
-0.13367002166709072   0.0018666438149968212   0.004599475278816791
-0.1280031027381683   0.020389655121967228   -0.0018701309195841703
-0.1280031027381683   0.020389655121967228   -0.0018701309195841703
-0.1280031027381683   0.020389655121967228   -0.0018701309195841703
-0.1280031027381683   0.020389655121967228   -0.0018701309195841703
-0.22020674793012227   0.0009498218766744657   -0.005832120926622178
-0.22020674793012227   0.0009498218766744657   -0.005832120926622178
-0.22020674793012227   0.0009498218766744657   -0.005832120926622178
-0.22020674793012227   0.0009498218766744657   -0.005832120926622178
-0.1764631471172295   0.000900022068390488   0.0024573299345895007
-0.1764631471172295   0.000900022068390488   0.0024573299345895007
-0.1764631471172295   0.000900022068390488   0.0024573299345895007
-0.1764631471172295   0.000900022068390488   0.0024573299345895007
-0.2194334793875215   0.0018953455905213468   -0.0029113019274680935
-0.2194334793875215   0.0018953455905213468   -0.0029113019274680935
-0.2194334793875215   0.0018953455905213468   -0.0029113019274680935
-0.2194334793875215   0.0018953455905213468   -0.0029113019274680935
-0.1274601644021221   0.020760338286770888   0.0004738775958444321
-0.1274601644021221   0.020760338286770888   0.0004738775958444321
-0.1274601644021221   0.020760338286770888   0.0004738775958444321
-0.1274601644021221   0.020760338286770888   0.0004738775958444321
-0.1215401818892245   0.04146936506589036   -0.005239307431412078
-0.1215401818892245   0.04146936506589036   -0.005239307431412078
-0.1215401818892245   0.04146936506589036   -0.005239307431412078
-0.1215401818892245   0.04146936506589036   -0.005239307431412078
-0.21430604617556687   0.020063774506362604   -0.009949096708301162
-0.21430604617556687   0.020063774506362604   -0.009949096708301162
-0.21430604617556687   0.020063774506362604   -0.009949096708301162
-0.21430604617556687   0.020063774506362604   -0.009949096708301162
-0.1696383548618612   0.01973266389473509   0.009957989132493674
-0.1696383548618612   0.01973266389473509   0.009957989132493674
-0.1696383548618612   0.01973266389473509   0.009957989132493674
-0.1696383548618612   0.01973266389473509   0.009957989132493674
-0.1510851832408309   -0.05345993264992001   -0.012750516099343995
-0.1510851832408309   -0.05345993264992001   -0.012750516099343995
-0.1510851832408309   -0.05345993264992001   -0.012750516099343995
-0.1510851832408309   -0.05345993264992001   -0.012750516099343995
-0.04881212355849954   -0.0010996697935525025   0.02232542087591641
-0.04881212355849954   -0.0010996697935525025   0.02232542087591641
-0.04881212355849954   -0.0010996697935525025   0.02232542087591641
-0.04881212355849954   -0.0010996697935525025   0.02232542087591641
-0.05525317247842624   -0.016145587644876773   -0.01654262604456378
-0.05525317247842624   -0.016145587644876773   -0.01654262604456378
-0.05525317247842624   -0.016145587644876773   -0.01654262604456378
-0.05525317247842624   -0.016145587644876773   -0.01654262604456378
-0.1328058700616907   -0.0020335999514197976   0.012820477072232463
-0.1328058700616907   -0.0020335999514197976   0.012820477072232463
-0.1328058700616907   -0.0020335999514197976   0.012820477072232463
-0.1328058700616907   -0.0020335999514197976   0.012820477072232463
-0.09695103025389809   -0.017394173027418625   -0.00386956070254906
-0.09695103025389809   -0.017394173027418625   -0.00386956070254906
-0.09695103025389809   -0.017394173027418625   -0.00386956070254906
-0.09695103025389809   -0.017394173027418625   -0.00386956070254906
-0.14499634757778737   -0.034015666289808885   -0.016149844169863203
-0.14499634757778737   -0.034015666289808885   -0.016149844169863203
-0.14499634757778737   -0.034015666289808885   -0.016149844169863203
-0.14499634757778737   -0.034015666289808885   -0.016149844169863203
-0.041433718298878534   0.01746545535696583   0.018943601851333106
-0.041433718298878534   0.01746545535696583   0.018943601851333106
-0.041433718298878534   0.01746545535696583   0.018943601851333106
-0.041433718298878534   0.01746545535696583   0.018943601851333106
-0.045209309815450655   0.0036108676744533823   -0.018626500219248422
-0.045209309815450655   0.0036108676744533823   -0.018626500219248422
-0.045209309815450655   0.0036108676744533823   -0.018626500219248422
-0.045209309815450655   0.0036108676744533823   -0.018626500219248422
-0.1269957532193035   0.01499605965944352   0.008560212137263571
-0.1269957532193035   0.01499605965944352   0.008560212137263571
-0.1269957532193035   0.01499605965944352   0.008560212137263571
-0.1269957532193035   0.01499605965944352   0.008560212137263571
-0.08925259035319934   9.6597817120566e-05   0.004100439440708877
-0.08925259035319934   9.6597817120566e-05   0.004100439440708877
-0.08925259035319934   9.6597817120566e-05   0.004100439440708877
-0.08925259035319934   9.6597817120566e-05   0.004100439440708877
-0.13879865130553629   -0.015394453588838081   -0.020063765045620123
-0.13879865130553629   -0.015394453588838081   -0.020063765045620123
-0.13879865130553629   -0.015394453588838081   -0.020063765045620123
-0.13879865130553629   -0.015394453588838081   -0.020063765045620123
-0.03188959468964737   0.03551819796230271   0.01606474512191868
-0.03188959468964737   0.03551819796230271   0.01606474512191868
-0.03188959468964737   0.03551819796230271   0.01606474512191868
-0.03188959468964737   0.03551819796230271   0.01606474512191868
-0.03671688755697808   0.02565154688338464   -0.02087559798760681
-0.03671688755697808   0.02565154688338464   -0.02087559798760681
-0.03671688755697808   0.02565154688338464   -0.02087559798760681
-0.03671688755697808   0.02565154688338464   -0.02087559798760681
-0.12104726833662685   0.03424186353823065   0.0044527618592358174
-0.12104726833662685   0.03424186353823065   0.0044527618592358174
-0.12104726833662685   0.03424186353823065   0.0044527618592358174
-0.12104726833662685   0.03424186353823065   0.0044527618592358174
-0.08130335820057938   0.018298209130033438   0.012060878805043326
-0.08130335820057938   0.018298209130033438   0.012060878805043326
-0.08130335820057938   0.018298209130033438   0.012060878805043326
-0.08130335820057938   0.018298209130033438   0.012060878805043326
-0.0701019961700823   -0.05745028226802602   -0.027773329707524844
-0.0701019961700823   -0.05745028226802602   -0.027773329707524844
-0.0701019961700823   -0.05745028226802602   -0.027773329707524844
-0.0701019961700823   -0.05745028226802602   -0.027773329707524844
0.019012195797438795   0.016670921276403496   0.03414609540277743
0.019012195797438795   0.016670921276403496   0.03414609540277743
0.019012195797438795   0.016670921276403496   0.03414609540277743
0.019012195797438795   0.016670921276403496   0.03414609540277743
0.01909036366187495   -0.028578841607251073   -0.03680553194169148
0.01909036366187495   -0.028578841607251073   -0.03680553194169148
0.01909036366187495   -0.028578841607251073   -0.03680553194169148
0.01909036366187495   -0.028578841607251073   -0.03680553194169148
-0.03956822788800227   0.017785312744960757   0.02795119651771851
-0.03956822788800227   0.017785312744960757   0.02795119651771851
-0.03956822788800227   0.017785312744960757   0.02795119651771851
-0.03956822788800227   0.017785312744960757   0.02795119651771851
-0.018484598550231372   -0.01229925590217244   -0.006417054589549912
-0.018484598550231372   -0.01229925590217244   -0.006417054589549912
-0.018484598550231372   -0.01229925590217244   -0.006417054589549912
-0.018484598550231372   -0.01229925590217244   -0.006417054589549912
-0.0639457607512468   -0.04421265926020499   -0.03193849579333933
-0.0639457607512468   -0.04421265926020499   -0.03193849579333933
-0.0639457607512468   -0.04421265926020499   -0.03193849579333933
-0.0639457607512468   -0.04421265926020499   -0.03193849579333933
0.04520788857571635   0.035159122448511396   0.030044128571753065
0.04520788857571635   0.035159122448511396   0.030044128571753065
0.04520788857571635   0.035159122448511396   0.030044128571753065
0.04520788857571635   0.035159122448511396   0.030044128571753065
0.03838439374111166   -0.01727461619035901   -0.04374777359792599
0.03838439374111166   -0.01727461619035901   -0.04374777359792599
0.03838439374111166   -0.01727461619035901   -0.04374777359792599
0.03838439374111166   -0.01727461619035901   -0.04374777359792599
-0.0325223129061443   0.02598880011937461   0.022430551882362093
-0.0325223129061443   0.02598880011937461   0.022430551882362093
-0.0325223129061443   0.02598880011937461   0.022430551882362093
-0.0325223129061443   0.02598880011937461   0.022430551882362093
-0.002684612220374658   -0.0006541880337304275   0.002203941941183634
-0.002684612220374658   -0.0006541880337304275   0.002203941941183634
-0.002684612220374658   -0.0006541880337304275   0.002203941941183634
-0.002684612220374658   -0.0006541880337304275   0.002203941941183634
-0.05658033424940301   -0.0349101316764901   -0.03696062303806674
-0.05658033424940301   -0.0349101316764901   -0.03696062303806674
-0.05658033424940301   -0.0349101316764901   -0.03696062303806674
-0.05658033424940301   -0.0349101316764901   -0.03696062303806674
0.06418658931046968   0.045368489831605005   0.02262009822690008
0.06418658931046968   0.045368489831605005   0.02262009822690008
0.06418658931046968   0.045368489831605005   0.02262009822690008
0.06418658931046968   0.045368489831605005   0.02262009822690008
0.06548184865643958   0.0048286371366300035   -0.04687457405539189
0.06548184865643958   0.0048286371366300035   -0.04687457405539189
0.06548184865643958   0.0048286371366300035   -0.04687457405539189
0.06548184865643958   0.0048286371366300035   -0.04687457405539189
-0.025944878563066237   0.040404954258802986   0.01823103960653496
-0.025944878563066237   0.040404954258802986   0.01823103960653496
-0.025944878563066237   0.040404954258802986   0.01823103960653496
-0.025944878563066237   0.040404954258802986   0.01823103960653496
0.01165602069112243   0.01155487299613122   0.01065339433643433
0.01165602069112243   0.01155487299613122   0.01065339433643433
0.01165602069112243   0.01155487299613122   0.01065339433643433
0.01165602069112243   0.01155487299613122   0.01065339433643433
-0.1371084524652548   0.008223458878831438   0.03902494922396224
-0.1371084524652548   0.008223458878831438   0.03902494922396224
-0.1371084524652548   0.008223458878831438   0.03902494922396224
-0.1371084524652548   0.008223458878831438   0.03902494922396224
-0.16494783114583544   -0.05077558601659477   -0.022907958953367207
-0.16494783114583544   -0.05077558601659477   -0.022907958953367207
-0.16494783114583544   -0.05077558601659477   -0.022907958953367207
-0.16494783114583544   -0.05077558601659477   -0.022907958953367207
-0.13169233839412822   0.023533382237219666   0.03193125637070875
-0.13169233839412822   0.023533382237219666   0.03193125637070875
-0.13169233839412822   0.023533382237219666   0.03193125637070875
-0.13169233839412822   0.023533382237219666   0.03193125637070875
-0.13319767837428034   -0.03313294613488122   -0.02956218554508205
-0.13319767837428034   -0.03313294613488122   -0.02956218554508205
-0.13319767837428034   -0.03313294613488122   -0.02956218554508205
-0.13319767837428034   -0.03313294613488122   -0.02956218554508205
-0.1382159514022969   -0.010620569635763657   -0.010763791410025928
-0.1382159514022969   -0.010620569635763657   -0.010763791410025928
-0.1382159514022969   -0.010620569635763657   -0.010763791410025928
-0.1382159514022969   -0.010620569635763657   -0.010763791410025928
-0.10754187604492425   0.0292449995219018   0.036338880444915435
-0.10754187604492425   0.0292449995219018   0.036338880444915435
-0.10754187604492425   0.0292449995219018   0.036338880444915435
-0.10754187604492425   0.0292449995219018   0.036338880444915435
-0.15572680019447677   -0.0372232228905555   -0.027484447503257025
-0.15572680019447677   -0.0372232228905555   -0.027484447503257025
-0.15572680019447677   -0.0372232228905555   -0.027484447503257025
-0.15572680019447677   -0.0372232228905555   -0.027484447503257025
-0.12152934485582317   0.03248605288925236   0.02685542819513228
-0.12152934485582317   0.03248605288925236   0.02685542819513228
-0.12152934485582317   0.03248605288925236   0.02685542819513228
-0.12152934485582317   0.03248605288925236   0.02685542819513228
-0.11125949087834479   -0.023015263421921908   -0.03679161536972858
-0.11125949087834479   -0.023015263421921908   -0.03679161536972858
-0.11125949087834479   -0.023015263421921908   -0.03679161536972858
-0.11125949087834479   -0.023015263421921908   -0.03679161536972858
-0.12203500076076851   0.0008039061999711161   -0.0023242931623589794
-0.12203500076076851   0.0008039061999711161   -0.0023242931623589794
-0.12203500076076851   0.0008039061999711161   -0.0023242931623589794
-0.12203500076076851   0.0008039061999711161   -0.0023242931623589794
-0.08547002893620956   0.04012909718162748   0.029011333737394288
-0.08547002893620956   0.04012909718162748   0.029011333737394288
-0.08547002893620956   0.04012909718162748   0.029011333737394288
-0.08547002893620956   0.04012909718162748   0.029011333737394288
-0.14579405518865013   -0.02913355610499161   -0.03284851447475644
-0.14579405518865013   -0.02913355610499161   -0.03284851447475644
-0.14579405518865013   -0.02913355610499161   -0.03284851447475644
-0.14579405518865013   -0.02913355610499161   -0.03284851447475644
-0.11224541568743009   0.0461949211915494   0.02319225911338139
-0.11224541568743009   0.0461949211915494   0.02319225911338139
-0.11224541568743009   0.0461949211915494   0.02319225911338139
-0.11224541568743009   0.0461949211915494   0.02319225911338139
-0.08196918454981315   -0.003786371285174419   -0.04143637268402937
-0.08196918454981315   -0.003786371285174419   -0.04143637268402937
-0.08196918454981315   -0.003786371285174419   -0.04143637268402937
-0.08196918454981315   -0.003786371285174419   -0.04143637268402937
-0.10262167894281067   0.012764092895244154   0.006694961437042712
-0.10262167894281067   0.012764092895244154   0.006694961437042712
-0.10262167894281067   0.012764092895244154   0.006694961437042712
-0.10262167894281067   0.012764092895244154   0.006694961437042712
-0.14753723366910065   -0.008905132045466849   0.02227457445917696
-0.14753723366910065   -0.008905132045466849   0.02227457445917696
-0.14753723366910065   -0.008905132045466849   0.02227457445917696
-0.14753723366910065   -0.008905132045466849   0.02227457445917696
-0.1844520838205415   -0.04142595637283934   -0.008947323941468254
-0.1844520838205415   -0.04142595637283934   -0.008947323941468254
-0.1844520838205415   -0.04142595637283934   -0.008947323941468254
-0.1844520838205415   -0.04142595637283934   -0.008947323941468254
-0.16462182632803385   0.004144111414736494   0.014822757865534702
-0.16462182632803385   0.004144111414736494   0.014822757865534702
-0.16462182632803385   0.004144111414736494   0.014822757865534702
-0.16462182632803385   0.004144111414736494   0.014822757865534702
-0.14936111825036164   -0.019369801251900777   -0.013509459421334025
-0.14936111825036164   -0.019369801251900777   -0.013509459421334025
-0.14936111825036164   -0.019369801251900777   -0.013509459421334025
-0.14936111825036164   -0.019369801251900777   -0.013509459421334025
-0.16162933838396557   -0.015121296749684213   -0.007530398582477363
-0.16162933838396557   -0.015121296749684213   -0.007530398582477363
-0.16162933838396557   -0.015121296749684213   -0.007530398582477363
-0.16162933838396557   -0.015121296749684213   -0.007530398582477363
-0.13677029243532493   0.01063736691713614   0.019437501484808682
-0.13677029243532493   0.01063736691713614   0.019437501484808682
-0.13677029243532493   0.01063736691713614   0.019437501484808682
-0.13677029243532493   0.01063736691713614   0.019437501484808682
-0.17594121076384822   -0.02459161537507651   -0.013038437523726111
-0.17594121076384822   -0.02459161537507651   -0.013038437523726111
-0.17594121076384822   -0.02459161537507651   -0.013038437523726111
-0.17594121076384822   -0.02459161537507651   -0.013038437523726111
-0.1555550264978876   0.021975863820439798   0.01130343174857782
-0.1555550264978876   0.021975863820439798   0.01130343174857782
-0.1555550264978876   0.021975863820439798   0.01130343174857782
-0.1555550264978876   0.021975863820439798   0.01130343174857782
-0.13719470566993794   -0.0022099491382892716   -0.016775373847896013
-0.13719470566993794   -0.0022099491382892716   -0.016775373847896013
-0.13719470566993794   -0.0022099491382892716   -0.016775373847896013
-0.13719470566993794   -0.0022099491382892716   -0.016775373847896013
-0.1507787646419479   0.0014943651635035207   0.0002514430311600403
-0.1507787646419479   0.0014943651635035207   0.0002514430311600403
-0.1507787646419479   0.0014943651635035207   0.0002514430311600403
-0.1507787646419479   0.0014943651635035207   0.0002514430311600403
-0.12398945097442723   0.029530402228076864   0.017510548263287455
-0.12398945097442723   0.029530402228076864   0.017510548263287455
-0.12398945097442723   0.029530402228076864   0.017510548263287455
-0.12398945097442723   0.029530402228076864   0.017510548263287455
-0.16740450481396976   -0.008408711166496191   -0.017559384844898794
-0.16740450481396976   -0.008408711166496191   -0.017559384844898794
-0.16740450481396976   -0.008408711166496191   -0.017559384844898794
-0.16740450481396976   -0.008408711166496191   -0.017559384844898794
-0.14644196598589107   0.04173568217737142   0.007958100863835759
-0.14644196598589107   0.04173568217737142   0.007958100863835759
-0.14644196598589107   0.04173568217737142   0.007958100863835759
-0.14644196598589107   0.04173568217737142   0.007958100863835759
-0.12671794035087106   0.016859281061608715   -0.019834724073880945
-0.12671794035087106   0.016859281061608715   -0.019834724073880945
-0.12671794035087106   0.016859281061608715   -0.019834724073880945
-0.12671794035087106   0.016859281061608715   -0.019834724073880945
-0.140517860489069   0.01867983036707023   0.008181114385416717
-0.140517860489069   0.01867983036707023   0.008181114385416717
-0.140517860489069   0.01867983036707023   0.008181114385416717
-0.140517860489069   0.01867983036707023   0.008181114385416717
-0.17811898298855158   -0.025001900337370243   0.00629412418300942
-0.17811898298855158   -0.025001900337370243   0.00629412418300942
-0.17811898298855158   -0.025001900337370243   0.00629412418300942
-0.17811898298855158   -0.025001900337370243   0.00629412418300942
-0.20382797647165782   -0.026300304676344845   0.0053955463859156234
-0.20382797647165782   -0.026300304676344845   0.0053955463859156234
-0.20382797647165782   -0.026300304676344845   0.0053955463859156234
-0.20382797647165782   -0.026300304676344845   0.0053955463859156234
-0.19658800909511615   -0.012023640495002388   -0.0019339588431691503
-0.19658800909511615   -0.012023640495002388   -0.0019339588431691503
-0.19658800909511615   -0.012023640495002388   -0.0019339588431691503
-0.19658800909511615   -0.012023640495002388   -0.0019339588431691503
-0.1687584709313028   -0.0034941197058507845   0.0017777659697772001
-0.1687584709313028   -0.0034941197058507845   0.0017777659697772001
-0.1687584709313028   -0.0034941197058507845   0.0017777659697772001
-0.1687584709313028   -0.0034941197058507845   0.0017777659697772001
-0.18710394552207588   -0.015758810024796104   -0.005011463878402852
-0.18710394552207588   -0.015758810024796104   -0.005011463878402852
-0.18710394552207588   -0.015758810024796104   -0.005011463878402852
-0.18710394552207588   -0.015758810024796104   -0.005011463878402852
-0.16887799537767442   -0.0054647009803892865   0.0031507250124546363
-0.16887799537767442   -0.0054647009803892865   0.0031507250124546363
-0.16887799537767442   -0.0054647009803892865   0.0031507250124546363
-0.16887799537767442   -0.0054647009803892865   0.0031507250124546363
-0.19526790178332756   -0.0088524763550471   0.001495413575820375
-0.19526790178332756   -0.0088524763550471   0.001495413575820375
-0.19526790178332756   -0.0088524763550471   0.001495413575820375
-0.19526790178332756   -0.0088524763550471   0.001495413575820375
-0.18705569963391738   0.007766935318469059   -0.004897602013854092
-0.18705569963391738   0.007766935318469059   -0.004897602013854092
-0.18705569963391738   0.007766935318469059   -0.004897602013854092
-0.18705569963391738   0.007766935318469059   -0.004897602013854092
-0.15972200196347774   0.014433909108086375   -0.0019894908670194406
-0.15972200196347774   0.014433909108086375   -0.0019894908670194406
-0.15972200196347774   0.014433909108086375   -0.0019894908670194406
-0.15972200196347774   0.014433909108086375   -0.0019894908670194406
-0.177140482801599   0.00192059661257174   0.0026781591509165825
-0.177140482801599   0.00192059661257174   0.0026781591509165825
-0.177140482801599   0.00192059661257174   0.0026781591509165825
-0.177140482801599   0.00192059661257174   0.0026781591509165825
-0.15938516365922223   0.014255237390539542   -0.00012662762819684592
-0.15938516365922223   0.014255237390539542   -0.00012662762819684592
-0.15938516365922223   0.014255237390539542   -0.00012662762819684592
-0.15938516365922223   0.014255237390539542   -0.00012662762819684592
-0.18634408816017126   0.008994056814017236   -0.0025666661406716206
-0.18634408816017126   0.008994056814017236   -0.0025666661406716206
-0.18634408816017126   0.008994056814017236   -0.0025666661406716206
-0.18634408816017126   0.008994056814017236   -0.0025666661406716206
-0.17792742060802008   0.0276822819801993   -0.008235184906649096
-0.17792742060802008   0.0276822819801993   -0.008235184906649096
-0.17792742060802008   0.0276822819801993   -0.008235184906649096
-0.17792742060802008   0.0276822819801993   -0.008235184906649096
-0.15112039328895197   0.032435389027082644   -0.006133742501179085
-0.15112039328895197   0.032435389027082644   -0.006133742501179085
-0.15112039328895197   0.032435389027082644   -0.006133742501179085
-0.15112039328895197   0.032435389027082644   -0.006133742501179085
-0.16764423444457238   0.019633414012464392   0.010007181902702673
-0.16764423444457238   0.019633414012464392   0.010007181902702673
-0.16764423444457238   0.019633414012464392   0.010007181902702673
-0.16764423444457238   0.019633414012464392   0.010007181902702673
-0.2096116826212408   -0.03974110299079461   -0.010082186047552903
-0.2096116826212408   -0.03974110299079461   -0.010082186047552903
-0.2096116826212408   -0.03974110299079461   -0.010082186047552903
-0.2096116826212408   -0.03974110299079461   -0.010082186047552903
-0.22493461466666068   -0.011480822647797415   0.019086854462634077
-0.22493461466666068   -0.011480822647797415   0.019086854462634077
-0.22493461466666068   -0.011480822647797415   0.019086854462634077
-0.22493461466666068   -0.011480822647797415   0.019086854462634077
-0.22864727984233205   -0.027552408965020227   -0.01893215821514364
-0.22864727984233205   -0.027552408965020227   -0.01893215821514364
-0.22864727984233205   -0.027552408965020227   -0.01893215821514364
-0.22864727984233205   -0.027552408965020227   -0.01893215821514364
-0.18819129756051767   0.011869179359506862   0.016156778975313993
-0.18819129756051767   0.011869179359506862   0.016156778975313993
-0.18819129756051767   0.011869179359506862   0.016156778975313993
-0.18819129756051767   0.011869179359506862   0.016156778975313993
-0.21194842200168112   -0.01565308780521442   -0.0031554247660534884
-0.21194842200168112   -0.01565308780521442   -0.0031554247660534884
-0.21194842200168112   -0.01565308780521442   -0.0031554247660534884
-0.21194842200168112   -0.01565308780521442   -0.0031554247660534884
-0.2006284242817274   -0.020828451053432933   -0.013331224217796495
-0.2006284242817274   -0.020828451053432933   -0.013331224217796495
-0.2006284242817274   -0.020828451053432933   -0.013331224217796495
-0.2006284242817274   -0.020828451053432933   -0.013331224217796495
-0.21495163111933685   0.006403743449704798   0.015589932985107456
-0.21495163111933685   0.006403743449704798   0.015589932985107456
-0.21495163111933685   0.006403743449704798   0.015589932985107456
-0.21495163111933685   0.006403743449704798   0.015589932985107456
-0.21611344787394626   -0.008788134089533738   -0.021243061952979973
-0.21611344787394626   -0.008788134089533738   -0.021243061952979973
-0.21611344787394626   -0.008788134089533738   -0.021243061952979973
-0.21611344787394626   -0.008788134089533738   -0.021243061952979973
-0.17962213137040084   0.02803509307731769   0.012002081544878293
-0.17962213137040084   0.02803509307731769   0.012002081544878293
-0.17962213137040084   0.02803509307731769   0.012002081544878293
-0.17962213137040084   0.02803509307731769   0.012002081544878293
-0.20059876440224655   0.0013821704407166943   0.004786898006232693
-0.20059876440224655   0.0013821704407166943   0.004786898006232693
-0.20059876440224655   0.0013821704407166943   0.004786898006232693
-0.20059876440224655   0.0013821704407166943   0.004786898006232693
-0.1916725706901653   -0.003078625547925304   -0.017136396428703446
-0.1916725706901653   -0.003078625547925304   -0.017136396428703446
-0.1916725706901653   -0.003078625547925304   -0.017136396428703446
-0.1916725706901653   -0.003078625547925304   -0.017136396428703446
-0.20279122433504584   0.0235973687548426   0.012982552897147837
-0.20279122433504584   0.0235973687548426   0.012982552897147837
-0.20279122433504584   0.0235973687548426   0.012982552897147837
-0.20279122433504584   0.0235973687548426   0.012982552897147837
-0.2051514330302937   0.011866901874915584   -0.023317881763688014
-0.2051514330302937   0.011866901874915584   -0.023317881763688014
-0.2051514330302937   0.011866901874915584   -0.023317881763688014
-0.2051514330302937   0.011866901874915584   -0.023317881763688014
-0.17102981667008027   0.04603144997392201   0.007903666789327145
-0.17102981667008027   0.04603144997392201   0.007903666789327145
-0.17102981667008027   0.04603144997392201   0.007903666789327145
-0.17102981667008027   0.04603144997392201   0.007903666789327145
-0.19099802359771959   0.018260003198210528   0.01237182431308295
-0.19099802359771959   0.018260003198210528   0.01237182431308295
-0.19099802359771959   0.018260003198210528   0.01237182431308295
-0.19099802359771959   0.018260003198210528   0.01237182431308295
-0.24096562264883922   -0.04721971926051646   -0.025329288835544323
-0.24096562264883922   -0.04721971926051646   -0.025329288835544323
-0.24096562264883922   -0.04721971926051646   -0.025329288835544323
-0.24096562264883922   -0.04721971926051646   -0.025329288835544323
-0.267834631959497   0.0033334738227207145   0.03446426438624305
-0.267834631959497   0.0033334738227207145   0.03446426438624305
-0.267834631959497   0.0033334738227207145   0.03446426438624305
-0.267834631959497   0.0033334738227207145   0.03446426438624305
-0.2644307501015819   -0.039534131883083704   -0.03378350440892415
-0.2644307501015819   -0.039534131883083704   -0.03378350440892415
-0.2644307501015819   -0.039534131883083704   -0.03378350440892415
-0.2644307501015819   -0.039534131883083704   -0.03378350440892415
-0.2072109888119442   0.029807619840531346   0.03088926813124313
-0.2072109888119442   0.029807619840531346   0.03088926813124313
-0.2072109888119442   0.029807619840531346   0.03088926813124313
-0.2072109888119442   0.029807619840531346   0.03088926813124313
-0.23526001667082985   -0.010246116017557552   -0.001456518592477491
-0.23526001667082985   -0.010246116017557552   -0.001456518592477491
-0.23526001667082985   -0.010246116017557552   -0.001456518592477491
-0.23526001667082985   -0.010246116017557552   -0.001456518592477491
-0.2315431922684622   -0.03199395441403474   -0.028970174896783746
-0.2315431922684622   -0.03199395441403474   -0.028970174896783746
-0.2315431922684622   -0.03199395441403474   -0.028970174896783746
-0.2315431922684622   -0.03199395441403474   -0.028970174896783746
-0.2387688391593767   0.02359714985716628   0.03139476856185028
-0.2387688391593767   0.02359714985716628   0.03139476856185028
-0.2387688391593767   0.02359714985716628   0.03139476856185028
-0.2387688391593767   0.02359714985716628   0.03139476856185028
-0.24269872390182876   -0.02858999597804828   -0.040287017609067895
-0.24269872390182876   -0.02858999597804828   -0.040287017609067895
-0.24269872390182876   -0.02858999597804828   -0.040287017609067895
-0.24269872390182876   -0.02858999597804828   -0.040287017609067895
-0.19754505789578541   0.03751687909034482   0.025293874757945742
-0.19754505789578541   0.03751687909034482   0.025293874757945742
-0.19754505789578541   0.03751687909034482   0.025293874757945742
-0.19754505789578541   0.03751687909034482   0.025293874757945742
-0.22064075563544436   0.0012048859828746455   0.006151007488923102
-0.22064075563544436   0.0012048859828746455   0.006151007488923102
-0.22064075563544436   0.0012048859828746455   0.006151007488923102
-0.22064075563544436   0.0012048859828746455   0.006151007488923102
-0.2214118494084039   -0.02298321525042537   -0.03353998846437824
-0.2214118494084039   -0.02298321525042537   -0.03353998846437824
-0.2214118494084039   -0.02298321525042537   -0.03353998846437824
-0.2214118494084039   -0.02298321525042537   -0.03353998846437824
-0.2174371850984192   0.0333048456535127   0.024125834776418956
-0.2174371850984192   0.0333048456535127   0.024125834776418956
-0.2174371850984192   0.0333048456535127   0.024125834776418956
-0.2174371850984192   0.0333048456535127   0.024125834776418956
-0.21411116528114651   -0.009684522018405098   -0.044050055061425175
-0.21411116528114651   -0.009684522018405098   -0.044050055061425175
-0.21411116528114651   -0.009684522018405098   -0.044050055061425175
-0.21411116528114651   -0.009684522018405098   -0.044050055061425175
-0.1889015554019071   0.0489644961002926   0.020833912152865206
-0.1889015554019071   0.0489644961002926   0.020833912152865206
-0.1889015554019071   0.0489644961002926   0.020833912152865206
-0.1889015554019071   0.0489644961002926   0.020833912152865206
-0.20045900352528653   0.012622377204887153   0.0149814012787806
-0.20045900352528653   0.012622377204887153   0.0149814012787806
-0.20045900352528653   0.012622377204887153   0.0149814012787806
-0.20045900352528653   0.012622377204887153   0.0149814012787806
0.14606055893133238   0.023532181268870397   0.03762248739679082
0.14606055893133238   0.023532181268870397   0.03762248739679082
0.14606055893133238   0.023532181268870397   0.03762248739679082
0.14606055893133238   0.023532181268870397   0.03762248739679082
-0.0029888054441954623   -0.06037784620212196   -0.02477497390290342
-0.0029888054441954623   -0.06037784620212196   -0.02477497390290342
-0.0029888054441954623   -0.06037784620212196   -0.02477497390290342
-0.0029888054441954623   -0.06037784620212196   -0.02477497390290342
0.03234778511756277   0.01169774997190635   0.029045831497012668
0.03234778511756277   0.01169774997190635   0.029045831497012668
0.03234778511756277   0.01169774997190635   0.029045831497012668
0.03234778511756277   0.01169774997190635   0.029045831497012668
0.15214064604286298   -0.02087716552483527   -0.031046962595140035
0.15214064604286298   -0.02087716552483527   -0.031046962595140035
0.15214064604286298   -0.02087716552483527   -0.031046962595140035
0.15214064604286298   -0.02087716552483527   -0.031046962595140035
0.0745899781156627   -0.011625782343776387   -0.017975101642488795
0.0745899781156627   -0.011625782343776387   -0.017975101642488795
0.0745899781156627   -0.011625782343776387   -0.017975101642488795
0.0745899781156627   -0.011625782343776387   -0.017975101642488795
0.17766229133520867   0.041740253820319054   0.0339438445214303
0.17766229133520867   0.041740253820319054   0.0339438445214303
0.17766229133520867   0.041740253820319054   0.0339438445214303
0.17766229133520867   0.041740253820319054   0.0339438445214303
0.008409484440186497   -0.04933632475827919   -0.02961159715968318
0.008409484440186497   -0.04933632475827919   -0.02961159715968318
0.008409484440186497   -0.04933632475827919   -0.02961159715968318
0.008409484440186497   -0.04933632475827919   -0.02961159715968318
0.04512890871513279   0.020465632647994295   0.024224465386374846
0.04512890871513279   0.020465632647994295   0.024224465386374846
0.04512890871513279   0.020465632647994295   0.024224465386374846
0.04512890871513279   0.020465632647994295   0.024224465386374846
0.1767655263087042   -0.010975997251644956   -0.03880011411528411
0.1767655263087042   -0.010975997251644956   -0.03880011411528411
0.1767655263087042   -0.010975997251644956   -0.03880011411528411
0.1767655263087042   -0.010975997251644956   -0.03880011411528411
0.09682790400570657   -0.0007107320569544988   -0.008494486100171835
0.09682790400570657   -0.0007107320569544988   -0.008494486100171835
0.09682790400570657   -0.0007107320569544988   -0.008494486100171835
0.09682790400570657   -0.0007107320569544988   -0.008494486100171835
0.20255352517750672   0.052448699548841675   0.02671518342823783
0.20255352517750672   0.052448699548841675   0.02671518342823783
0.20255352517750672   0.052448699548841675   0.02671518342823783
0.20255352517750672   0.052448699548841675   0.02671518342823783
0.02088366040721451   -0.04141631359160589   -0.03511982991361444
0.02088366040721451   -0.04141631359160589   -0.03511982991361444
0.02088366040721451   -0.04141631359160589   -0.03511982991361444
0.02088366040721451   -0.04141631359160589   -0.03511982991361444
0.05752673213857329   0.036592247324631226   0.020960803676612433
0.05752673213857329   0.036592247324631226   0.020960803676612433
0.05752673213857329   0.036592247324631226   0.020960803676612433
0.05752673213857329   0.036592247324631226   0.020960803676612433
0.2094703791276426   0.0111760033896851   -0.04277690658541326
0.2094703791276426   0.0111760033896851   -0.04277690658541326
0.2094703791276426   0.0111760033896851   -0.04277690658541326
0.2094703791276426   0.0111760033896851   -0.04277690658541326
0.11541510950318842   0.011544229807715712   0.0004508983818478419
0.11541510950318842   0.011544229807715712   0.0004508983818478419
0.11541510950318842   0.011544229807715712   0.0004508983818478419
0.11541510950318842   0.011544229807715712   0.0004508983818478419
0.020460467768311088   0.006470606603938585   0.025622939353568776
0.020460467768311088   0.006470606603938585   0.025622939353568776
0.020460467768311088   0.006470606603938585   0.025622939353568776
0.020460467768311088   0.006470606603938585   0.025622939353568776
-0.13753455951662355   -0.051300842429493565   -0.011373027232754924
-0.13753455951662355   -0.051300842429493565   -0.011373027232754924
-0.13753455951662355   -0.051300842429493565   -0.011373027232754924
-0.13753455951662355   -0.051300842429493565   -0.011373027232754924
-0.11529644933232855   -0.007522059101960472   0.011664582410349724
-0.11529644933232855   -0.007522059101960472   0.011664582410349724
-0.11529644933232855   -0.007522059101960472   0.011664582410349724
-0.11529644933232855   -0.007522059101960472   0.011664582410349724
0.021266251143214517   -0.005679745881521037   -0.008984342521301241
0.021266251143214517   -0.005679745881521037   -0.008984342521301241
0.021266251143214517   -0.005679745881521037   -0.008984342521301241
0.021266251143214517   -0.005679745881521037   -0.008984342521301241
-0.053921996978076966   -0.013194977744988184   -0.00861875669822504
-0.053921996978076966   -0.013194977744988184   -0.00861875669822504
-0.053921996978076966   -0.013194977744988184   -0.00861875669822504
-0.053921996978076966   -0.013194977744988184   -0.00861875669822504
0.03364059630313991   0.02447830085202273   0.02272933654478196
0.03364059630313991   0.02447830085202273   0.02272933654478196
0.03364059630313991   0.02447830085202273   0.02272933654478196
0.03364059630313991   0.02447830085202273   0.02272933654478196
-0.1265140287313872   -0.03652334007463494   -0.015422033612269048
-0.1265140287313872   -0.03652334007463494   -0.015422033612269048
-0.1265140287313872   -0.03652334007463494   -0.015422033612269048
-0.1265140287313872   -0.03652334007463494   -0.015422033612269048
-0.10364998746832015   0.009501765951762966   0.008238483400747395
-0.10364998746832015   0.009501765951762966   0.008238483400747395
-0.10364998746832015   0.009501765951762966   0.008238483400747395
-0.10364998746832015   0.009501765951762966   0.008238483400747395
0.035848325390040583   0.010453121189137219   -0.01216593978022908
0.035848325390040583   0.010453121189137219   -0.01216593978022908
0.035848325390040583   0.010453121189137219   -0.01216593978022908
0.035848325390040583   0.010453121189137219   -0.01216593978022908
-0.04157322424833236   0.0018055471184132872   -0.0010667188100372165
-0.04157322424833236   0.0018055471184132872   -0.0010667188100372165
-0.04157322424833236   0.0018055471184132872   -0.0010667188100372165
-0.04157322424833236   0.0018055471184132872   -0.0010667188100372165
0.048745730828412465   0.04240671220926126   0.020367496391506274
0.048745730828412465   0.04240671220926126   0.020367496391506274
0.048745730828412465   0.04240671220926126   0.020367496391506274
0.048745730828412465   0.04240671220926126   0.020367496391506274
-0.11543250712488595   -0.021336939286557572   -0.019835409643761143
-0.11543250712488595   -0.021336939286557572   -0.019835409643761143
-0.11543250712488595   -0.021336939286557572   -0.019835409643761143
-0.11543250712488595   -0.021336939286557572   -0.019835409643761143
-0.09193066729068804   0.02877823486148945   0.004972771865355059
-0.09193066729068804   0.02877823486148945   0.004972771865355059
-0.09193066729068804   0.02877823486148945   0.004972771865355059
-0.09193066729068804   0.02877823486148945   0.004972771865355059
0.048665261843531475   0.028771622028387036   -0.015525922502352456
0.048665261843531475   0.028771622028387036   -0.015525922502352456
0.048665261843531475   0.028771622028387036   -0.015525922502352456
0.048665261843531475   0.028771622028387036   -0.015525922502352456
-0.02789082294795972   0.018392742869709718   0.00699399500754924
-0.02789082294795972   0.018392742869709718   0.00699399500754924
-0.02789082294795972   0.018392742869709718   0.00699399500754924
-0.02789082294795972   0.018392742869709718   0.00699399500754924
-0.12510685469407926   -0.009785215589931083   0.009249870040405849
-0.12510685469407926   -0.009785215589931083   0.009249870040405849
-0.12510685469407926   -0.009785215589931083   0.009249870040405849
-0.12510685469407926   -0.009785215589931083   0.009249870040405849
-0.2696236292053446   -0.03659556603728385   0.0023255071929985894
-0.2696236292053446   -0.03659556603728385   0.0023255071929985894
-0.2696236292053446   -0.03659556603728385   0.0023255071929985894
-0.2696236292053446   -0.03659556603728385   0.0023255071929985894
-0.2594541931232754   -0.023002858895859853   -0.005070207788310887
-0.2594541931232754   -0.023002858895859853   -0.005070207788310887
-0.2594541931232754   -0.023002858895859853   -0.005070207788310887
-0.2594541931232754   -0.023002858895859853   -0.005070207788310887
-0.1130704171534508   0.009577262064167626   0.005695422138612245
-0.1130704171534508   0.009577262064167626   0.005695422138612245
-0.1130704171534508   0.009577262064167626   0.005695422138612245
-0.1130704171534508   0.009577262064167626   0.005695422138612245
-0.19209298956785537   -0.013736022467232573   -0.005036620732472387
-0.19209298956785537   -0.013736022467232573   -0.005036620732472387
-0.19209298956785537   -0.013736022467232573   -0.005036620732472387
-0.19209298956785537   -0.013736022467232573   -0.005036620732472387
-0.11320268527375386   0.008486460793297058   0.006124882807967469
-0.11320268527375386   0.008486460793297058   0.006124882807967469
-0.11320268527375386   0.008486460793297058   0.006124882807967469
-0.11320268527375386   0.008486460793297058   0.006124882807967469
-0.2583259739555012   -0.020916106577518183   -0.0015158642677817174
-0.2583259739555012   -0.020916106577518183   -0.0015158642677817174
-0.2583259739555012   -0.020916106577518183   -0.0015158642677817174
-0.2583259739555012   -0.020916106577518183   -0.0015158642677817174
-0.24720106983536458   -0.004258490880836074   -0.007972422939744829
-0.24720106983536458   -0.004258490880836074   -0.007972422939744829
-0.24720106983536458   -0.004258490880836074   -0.007972422939744829
-0.24720106983536458   -0.004258490880836074   -0.007972422939744829
-0.10154056825253699   0.02617501577749848   0.002112329653927679
-0.10154056825253699   0.02617501577749848   0.002112329653927679
-0.10154056825253699   0.02617501577749848   0.002112329653927679
-0.10154056825253699   0.02617501577749848   0.002112329653927679
-0.17943696282420032   0.0027191835171110484   0.0025783376985751318
-0.17943696282420032   0.0027191835171110484   0.0025783376985751318
-0.17943696282420032   0.0027191835171110484   0.0025783376985751318
-0.17943696282420032   0.0027191835171110484   0.0025783376985751318
-0.10122574536941896   0.02708612547475439   0.002775334372261863
-0.10122574536941896   0.02708612547475439   0.002775334372261863
-0.10122574536941896   0.02708612547475439   0.002775334372261863
-0.10122574536941896   0.02708612547475439   0.002775334372261863
-0.2467171635986347   -0.00437087145824188   -0.005440511178691742
-0.2467171635986347   -0.00437087145824188   -0.005440511178691742
-0.2467171635986347   -0.00437087145824188   -0.005440511178691742
-0.2467171635986347   -0.00437087145824188   -0.005440511178691742
-0.23544092408917322   0.014542773363978162   -0.011276290016480214
-0.23544092408917322   0.014542773363978162   -0.011276290016480214
-0.23544092408917322   0.014542773363978162   -0.011276290016480214
-0.23544092408917322   0.014542773363978162   -0.011276290016480214
-0.09052084969951543   0.042821487486737475   -0.0020213928040280285
-0.09052084969951543   0.042821487486737475   -0.0020213928040280285
-0.09052084969951543   0.042821487486737475   -0.0020213928040280285
-0.09052084969951543   0.042821487486737475   -0.0020213928040280285
-0.16744772101944752   0.01913168690855751   0.009696399153538812
-0.16744772101944752   0.01913168690855751   0.009696399153538812
-0.16744772101944752   0.01913168690855751   0.009696399153538812
-0.16744772101944752   0.01913168690855751   0.009696399153538812
-0.2694357049270632   -0.025720415902483272   -0.0076100215503927485
-0.2694357049270632   -0.025720415902483272   -0.0076100215503927485
-0.2694357049270632   -0.025720415902483272   -0.0076100215503927485
-0.2694357049270632   -0.025720415902483272   -0.0076100215503927485
-0.40055147005237174   -0.022767657533945176   0.01575842140990709
-0.40055147005237174   -0.022767657533945176   0.01575842140990709
-0.40055147005237174   -0.022767657533945176   0.01575842140990709
-0.40055147005237174   -0.022767657533945176   0.01575842140990709
-0.40085001300796674   -0.03818117881277008   -0.021436296438621674
-0.40085001300796674   -0.03818117881277008   -0.021436296438621674
-0.40085001300796674   -0.03818117881277008   -0.021436296438621674
-0.40085001300796674   -0.03818117881277008   -0.021436296438621674
-0.2451253376721498   0.024189109886969373   0.019382100684487803
-0.2451253376721498   0.024189109886969373   0.019382100684487803
-0.2451253376721498   0.024189109886969373   0.019382100684487803
-0.2451253376721498   0.024189109886969373   0.019382100684487803
-0.32714278706997646   -0.014035507768537334   -0.0021352673015424886
-0.32714278706997646   -0.014035507768537334   -0.0021352673015424886
-0.32714278706997646   -0.014035507768537334   -0.0021352673015424886
-0.32714278706997646   -0.014035507768537334   -0.0021352673015424886
-0.25743409635158915   -0.007337710632428815   -0.010634872193308288
-0.25743409635158915   -0.007337710632428815   -0.010634872193308288
-0.25743409635158915   -0.007337710632428815   -0.010634872193308288
-0.25743409635158915   -0.007337710632428815   -0.010634872193308288
-0.3877130829955473   -0.0058261869603907085   0.011893361771100147
-0.3877130829955473   -0.0058261869603907085   0.011893361771100147
-0.3877130829955473   -0.0058261869603907085   0.011893361771100147
-0.3877130829955473   -0.0058261869603907085   0.011893361771100147
-0.3854629053652957   -0.02030426264733541   -0.023853923083492365
-0.3854629053652957   -0.02030426264733541   -0.023853923083492365
-0.3854629053652957   -0.02030426264733541   -0.023853923083492365
-0.3854629053652957   -0.02030426264733541   -0.023853923083492365
-0.23381139197035594   0.03928933504975944   0.015428140454702859
-0.23381139197035594   0.03928933504975944   0.015428140454702859
-0.23381139197035594   0.03928933504975944   0.015428140454702859
-0.23381139197035594   0.03928933504975944   0.015428140454702859
-0.31192314847877367   0.0025566382963527756   0.00571779802904282
-0.31192314847877367   0.0025566382963527756   0.00571779802904282
-0.31192314847877367   0.0025566382963527756   0.00571779802904282
-0.31192314847877367   0.0025566382963527756   0.00571779802904282
-0.24571030697611435   0.009551351451944287   -0.014328450976275213
-0.24571030697611435   0.009551351451944287   -0.014328450976275213
-0.24571030697611435   0.009551351451944287   -0.014328450976275213
-0.24571030697611435   0.009551351451944287   -0.014328450976275213
-0.3726337430493043   0.010363968260709983   0.00962365758841928
-0.3726337430493043   0.010363968260709983   0.00962365758841928
-0.3726337430493043   0.010363968260709983   0.00962365758841928
-0.3726337430493043   0.010363968260709983   0.00962365758841928
-0.37170270958525287   -0.0008205266122399552   -0.02568332322631008
-0.37170270958525287   -0.0008205266122399552   -0.02568332322631008
-0.37170270958525287   -0.0008205266122399552   -0.02568332322631008
-0.37170270958525287   -0.0008205266122399552   -0.02568332322631008
-0.22261648221212077   0.055945744452084084   0.011442948280676237
-0.22261648221212077   0.055945744452084084   0.011442948280676237
-0.22261648221212077   0.055945744452084084   0.011442948280676237
-0.22261648221212077   0.055945744452084084   0.011442948280676237
-0.30058868849895104   0.018010533735433917   0.012749914271244025
-0.30058868849895104   0.018010533735433917   0.012749914271244025
-0.30058868849895104   0.018010533735433917   0.012749914271244025
-0.30058868849895104   0.018010533735433917   0.012749914271244025
-0.41117250056871174   -0.03687485876460128   -0.023239529941136913
-0.41117250056871174   -0.03687485876460128   -0.023239529941136913
-0.41117250056871174   -0.03687485876460128   -0.023239529941136913
-0.41117250056871174   -0.03687485876460128   -0.023239529941136913
-0.5499775455111753   -0.009919947403354779   0.034302118234157915
-0.5499775455111753   -0.009919947403354779   0.034302118234157915
-0.5499775455111753   -0.009919947403354779   0.034302118234157915
-0.5499775455111753   -0.009919947403354779   0.034302118234157915
-0.5425626453012682   -0.04965642884678452   -0.031079318816012214
-0.5425626453012682   -0.04965642884678452   -0.031079318816012214
-0.5425626453012682   -0.04965642884678452   -0.031079318816012214
-0.5425626453012682   -0.04965642884678452   -0.031079318816012214
-0.3739766144083206   0.04093549475111065   0.033814022995728485
-0.3739766144083206   0.04093549475111065   0.033814022995728485
-0.3739766144083206   0.04093549475111065   0.033814022995728485
-0.3739766144083206   0.04093549475111065   0.033814022995728485
-0.449167386749525   -0.00799726866712186   0.003809215135320426
-0.449167386749525   -0.00799726866712186   0.003809215135320426
-0.449167386749525   -0.00799726866712186   0.003809215135320426
-0.449167386749525   -0.00799726866712186   0.003809215135320426
-0.3981484992597359   -0.019816430981102376   -0.026293475529133793
-0.3981484992597359   -0.019816430981102376   -0.026293475529133793
-0.3981484992597359   -0.019816430981102376   -0.026293475529133793
-0.3981484992597359   -0.019816430981102376   -0.026293475529133793
-0.5176357694887334   0.01185048784654634   0.032048143553319655
-0.5176357694887334   0.01185048784654634   0.032048143553319655
-0.5176357694887334   0.01185048784654634   0.032048143553319655
-0.5176357694887334   0.01185048784654634   0.032048143553319655
-0.5181267375075723   -0.03905987499942304   -0.037008216079106704
-0.5181267375075723   -0.03905987499942304   -0.037008216079106704
-0.5181267375075723   -0.03905987499942304   -0.037008216079106704
-0.5181267375075723   -0.03905987499942304   -0.037008216079106704
-0.3614729011804015   0.047904333056193876   0.02788750213744623
-0.3614729011804015   0.047904333056193876   0.02788750213744623
-0.3614729011804015   0.047904333056193876   0.02788750213744623
-0.3614729011804015   0.047904333056193876   0.02788750213744623
-0.43543918116912517   0.0031362387007367737   0.010140541454983002
-0.43543918116912517   0.0031362387007367737   0.010140541454983002
-0.43543918116912517   0.0031362387007367737   0.010140541454983002
-0.43543918116912517   0.0031362387007367737   0.010140541454983002
-0.3849268425403943   -0.01109485592619186   -0.030383015680128744
-0.3849268425403943   -0.01109485592619186   -0.030383015680128744
-0.3849268425403943   -0.01109485592619186   -0.030383015680128744
-0.3849268425403943   -0.01109485592619186   -0.030383015680128744
-0.49375270110662367   0.020859409023918418   0.024942681902291083
-0.49375270110662367   0.020859409023918418   0.024942681902291083
-0.49375270110662367   0.020859409023918418   0.024942681902291083
-0.49375270110662367   0.020859409023918418   0.024942681902291083
-0.4879612922492741   -0.023273150892338293   -0.04129458596292222
-0.4879612922492741   -0.023273150892338293   -0.04129458596292222
-0.4879612922492741   -0.023273150892338293   -0.04129458596292222
-0.4879612922492741   -0.023273150892338293   -0.04129458596292222
-0.35050511524448247   0.05625627697338359   0.02322784489191837
-0.35050511524448247   0.05625627697338359   0.02322784489191837
-0.35050511524448247   0.05625627697338359   0.02322784489191837
-0.35050511524448247   0.05625627697338359   0.02322784489191837
-0.4094011850766985   0.01354328655881834   0.019085721318805097
-0.4094011850766985   0.01354328655881834   0.019085721318805097
-0.4094011850766985   0.01354328655881834   0.019085721318805097
-0.4094011850766985   0.01354328655881834   0.019085721318805097
0.43418850771493   0.039500228936595654   0.037438088631559174
0.43418850771493   0.039500228936595654   0.037438088631559174
0.43418850771493   0.039500228936595654   0.037438088631559174
0.43418850771493   0.039500228936595654   0.037438088631559174
0.1587489721061751   -0.07171862374870067   -0.024631311072516995
0.1587489721061751   -0.07171862374870067   -0.024631311072516995
0.1587489721061751   -0.07171862374870067   -0.024631311072516995
0.1587489721061751   -0.07171862374870067   -0.024631311072516995
0.19565685063475902   -0.000581861225797585   0.026913354308152348
0.19565685063475902   -0.000581861225797585   0.026913354308152348
0.19565685063475902   -0.000581861225797585   0.026913354308152348
0.19565685063475902   -0.000581861225797585   0.026913354308152348
0.4418510886085873   -0.009607700409875977   -0.03146253763828119
0.4418510886085873   -0.009607700409875977   -0.03146253763828119
0.4418510886085873   -0.009607700409875977   -0.03146253763828119
0.4418510886085873   -0.009607700409875977   -0.03146253763828119
0.2886946772254825   -0.012872202007848443   -0.027765601369113498
0.2886946772254825   -0.012872202007848443   -0.027765601369113498
0.2886946772254825   -0.012872202007848443   -0.027765601369113498
0.2886946772254825   -0.012872202007848443   -0.027765601369113498
0.46755739520327755   0.05492319650944537   0.03253809841584861
0.46755739520327755   0.05492319650944537   0.03253809841584861
0.46755739520327755   0.05492319650944537   0.03253809841584861
0.46755739520327755   0.05492319650944537   0.03253809841584861
0.1717811801436854   -0.06328212204150167   -0.02976473733150781
0.1717811801436854   -0.06328212204150167   -0.02976473733150781
0.1717811801436854   -0.06328212204150167   -0.02976473733150781
0.1717811801436854   -0.06328212204150167   -0.02976473733150781
0.21012207971959895   0.007890597524126922   0.022176306352680534
0.21012207971959895   0.007890597524126922   0.022176306352680534
0.21012207971959895   0.007890597524126922   0.022176306352680534
0.21012207971959895   0.007890597524126922   0.022176306352680534
0.4683621797103954   1.3776490555422738e-05   -0.03958300481363439
0.4683621797103954   1.3776490555422738e-05   -0.03958300481363439
0.4683621797103954   1.3776490555422738e-05   -0.03958300481363439
0.4683621797103954   1.3776490555422738e-05   -0.03958300481363439
0.3164276897596003   -0.0024932669207643893   -0.0168480668583617
0.3164276897596003   -0.0024932669207643893   -0.0168480668583617
0.3164276897596003   -0.0024932669207643893   -0.0168480668583617
0.3164276897596003   -0.0024932669207643893   -0.0168480668583617
0.4943413440891214   0.06530375653467124   0.02502283703587972
0.4943413440891214   0.06530375653467124   0.02502283703587972
0.4943413440891214   0.06530375653467124   0.02502283703587972
0.4943413440891214   0.06530375653467124   0.02502283703587972
0.18608064138190628   -0.05546165647895557   -0.034678631332700285
0.18608064138190628   -0.05546165647895557   -0.034678631332700285
0.18608064138190628   -0.05546165647895557   -0.034678631332700285
0.18608064138190628   -0.05546165647895557   -0.034678631332700285
0.2245695768088804   0.026595153604190937   0.019219646805878104
0.2245695768088804   0.026595153604190937   0.019219646805878104
0.2245695768088804   0.026595153604190937   0.019219646805878104
0.2245695768088804   0.026595153604190937   0.019219646805878104
0.5032007975066751   0.02510003800541792   -0.04268262538166827
0.5032007975066751   0.02510003800541792   -0.04268262538166827
0.5032007975066751   0.02510003800541792   -0.04268262538166827
0.5032007975066751   0.02510003800541792   -0.04268262538166827
0.3334117270745629   0.01015827676393069   -0.00743304378457018
0.3334117270745629   0.01015827676393069   -0.00743304378457018
0.3334117270745629   0.01015827676393069   -0.00743304378457018
0.3334117270745629   0.01015827676393069   -0.00743304378457018
0.18845968545233838   0.022177781993974317   0.030025849915622602
0.18845968545233838   0.022177781993974317   0.030025849915622602
0.18845968545233838   0.022177781993974317   0.030025849915622602
0.18845968545233838   0.022177781993974317   0.030025849915622602
-0.09233365699968299   -0.0669361587309527   -0.012921391961068816
-0.09233365699968299   -0.0669361587309527   -0.012921391961068816
-0.09233365699968299   -0.0669361587309527   -0.012921391961068816
-0.09233365699968299   -0.0669361587309527   -0.012921391961068816
-0.06701833784261003   -0.019730956309204503   0.009044194326105972
-0.06701833784261003   -0.019730956309204503   0.009044194326105972
-0.06701833784261003   -0.019730956309204503   0.009044194326105972
-0.06701833784261003   -0.019730956309204503   0.009044194326105972
0.18979024202050399   0.0008981519591606257   -0.0038997019480789576
0.18979024202050399   0.0008981519591606257   -0.0038997019480789576
0.18979024202050399   0.0008981519591606257   -0.0038997019480789576
0.18979024202050399   0.0008981519591606257   -0.0038997019480789576
0.05224179766700316   -0.014048805470218587   -0.011792681709651854
0.05224179766700316   -0.014048805470218587   -0.011792681709651854
0.05224179766700316   -0.014048805470218587   -0.011792681709651854
0.05224179766700316   -0.014048805470218587   -0.011792681709651854
0.20333329204755066   0.03789439236072451   0.026819307785590392
0.20333329204755066   0.03789439236072451   0.026819307785590392
0.20333329204755066   0.03789439236072451   0.026819307785590392
0.20333329204755066   0.03789439236072451   0.026819307785590392
-0.07944968454534092   -0.055615493386452636   -0.017228002110300338
-0.07944968454534092   -0.055615493386452636   -0.017228002110300338
-0.07944968454534092   -0.055615493386452636   -0.017228002110300338
-0.07944968454534092   -0.055615493386452636   -0.017228002110300338
-0.05354933265390427   -0.0038521955624739876   0.00570513450565973
-0.05354933265390427   -0.0038521955624739876   0.00570513450565973
-0.05354933265390427   -0.0038521955624739876   0.00570513450565973
-0.05354933265390427   -0.0038521955624739876   0.00570513450565973
0.20567325832955963   0.015127245177202826   -0.007304448250592066
0.20567325832955963   0.015127245177202826   -0.007304448250592066
0.20567325832955963   0.015127245177202826   -0.007304448250592066
0.20567325832955963   0.015127245177202826   -0.007304448250592066
0.06524220848377439   -0.001511647263616054   -0.0046841019212083505
0.06524220848377439   -0.001511647263616054   -0.0046841019212083505
0.06524220848377439   -0.001511647263616054   -0.0046841019212083505
0.06524220848377439   -0.001511647263616054   -0.0046841019212083505
0.21976059460205238   0.054433882204500274   0.023825596084574373
0.21976059460205238   0.054433882204500274   0.023825596084574373
0.21976059460205238   0.054433882204500274   0.023825596084574373
0.21976059460205238   0.054433882204500274   0.023825596084574373
-0.066523970486001   -0.04204613414938051   -0.02097411606791744
-0.066523970486001   -0.04204613414938051   -0.02097411606791744
-0.066523970486001   -0.04204613414938051   -0.02097411606791744
-0.066523970486001   -0.04204613414938051   -0.02097411606791744
-0.040243728478772195   0.01457182838849106   0.002384099620471338
-0.040243728478772195   0.01457182838849106   0.002384099620471338
-0.040243728478772195   0.01457182838849106   0.002384099620471338
-0.040243728478772195   0.01457182838849106   0.002384099620471338
0.21973844121718936   0.03209488543455547   -0.01043576298294146
0.21973844121718936   0.03209488543455547   -0.01043576298294146
0.21973844121718936   0.03209488543455547   -0.01043576298294146
0.21973844121718936   0.03209488543455547   -0.01043576298294146
0.08136160369425656   0.01388721388465745   0.0036224065432587252
0.08136160369425656   0.01388721388465745   0.0036224065432587252
0.08136160369425656   0.01388721388465745   0.0036224065432587252
0.08136160369425656   0.01388721388465745   0.0036224065432587252
-0.07283068775651681   0.004857816598869871   0.012799478924939493
-0.07283068775651681   0.004857816598869871   0.012799478924939493
-0.07283068775651681   0.004857816598869871   0.012799478924939493
-0.07283068775651681   0.004857816598869871   0.012799478924939493
-0.3384439418256057   -0.059167648981921256   -0.0017490155382438475
-0.3384439418256057   -0.059167648981921256   -0.0017490155382438475
-0.3384439418256057   -0.059167648981921256   -0.0017490155382438475
-0.3384439418256057   -0.059167648981921256   -0.0017490155382438475
-0.32250147555348224   -0.03503564980978702   -0.007938078831129573
-0.32250147555348224   -0.03503564980978702   -0.007938078831129573
-0.32250147555348224   -0.03503564980978702   -0.007938078831129573
-0.32250147555348224   -0.03503564980978702   -0.007938078831129573
-0.06136456880395736   0.009102021488248317   0.008480061721916513
-0.06136456880395736   0.009102021488248317   0.008480061721916513
-0.06136456880395736   0.009102021488248317   0.008480061721916513
-0.06136456880395736   0.009102021488248317   0.008480061721916513
-0.19913117638512937   -0.018156914883845313   -0.007370899262022576
-0.19913117638512937   -0.018156914883845313   -0.007370899262022576
-0.19913117638512937   -0.018156914883845313   -0.007370899262022576
-0.19913117638512937   -0.018156914883845313   -0.007370899262022576
-0.05869062237996961   0.02125374971430178   0.009698065615801815
-0.05869062237996961   0.02125374971430178   0.009698065615801815
-0.05869062237996961   0.02125374971430178   0.009698065615801815
-0.05869062237996961   0.02125374971430178   0.009698065615801815
-0.3244243505607419   -0.04643630661911244   -0.006151797058102725
-0.3244243505607419   -0.04643630661911244   -0.006151797058102725
-0.3244243505607419   -0.04643630661911244   -0.006151797058102725
-0.3244243505607419   -0.04643630661911244   -0.006151797058102725
-0.3076510835281394   -0.01761363143934247   -0.010720391154674599
-0.3076510835281394   -0.01761363143934247   -0.010720391154674599
-0.3076510835281394   -0.01761363143934247   -0.010720391154674599
-0.3076510835281394   -0.01761363143934247   -0.010720391154674599
-0.04825803953406424   0.02347998247761854   0.0048294220647692315
-0.04825803953406424   0.02347998247761854   0.0048294220647692315
-0.04825803953406424   0.02347998247761854   0.0048294220647692315
-0.04825803953406424   0.02347998247761854   0.0048294220647692315
-0.18414865123620633   -0.003583933178191785   -0.00010786934099680026
-0.18414865123620633   -0.003583933178191785   -0.00010786934099680026
-0.18414865123620633   -0.003583933178191785   -0.00010786934099680026
-0.18414865123620633   -0.003583933178191785   -0.00010786934099680026
-0.045027927398449796   0.03828922588468532   0.006170739335774668
-0.045027927398449796   0.03828922588468532   0.006170739335774668
-0.045027927398449796   0.03828922588468532   0.006170739335774668
-0.045027927398449796   0.03828922588468532   0.006170739335774668
-0.3101853540022947   -0.03172703318495007   -0.009278341779843317
-0.3101853540022947   -0.03172703318495007   -0.009278341779843317
-0.3101853540022947   -0.03172703318495007   -0.009278341779843317
-0.3101853540022947   -0.03172703318495007   -0.009278341779843317
-0.29382413319393497   -0.00024212167975148913   -0.014036155142053336
-0.29382413319393497   -0.00024212167975148913   -0.014036155142053336
-0.29382413319393497   -0.00024212167975148913   -0.014036155142053336
-0.29382413319393497   -0.00024212167975148913   -0.014036155142053336
-0.03575968736514763   0.03815680515912862   0.0012193284179546782
-0.03575968736514763   0.03815680515912862   0.0012193284179546782
-0.03575968736514763   0.03815680515912862   0.0012193284179546782
-0.03575968736514763   0.03815680515912862   0.0012193284179546782
-0.1703924755903635   0.010936043504254228   0.006799876115287498
-0.1703924755903635   0.010936043504254228   0.006799876115287498
-0.1703924755903635   0.010936043504254228   0.006799876115287498
-0.1703924755903635   0.010936043504254228   0.006799876115287498
-0.32980059368061687   -0.012757626083849408   -0.004942297711368976
-0.32980059368061687   -0.012757626083849408   -0.004942297711368976
-0.32980059368061687   -0.012757626083849408   -0.004942297711368976
-0.32980059368061687   -0.012757626083849408   -0.004942297711368976
-0.5792452986965075   -0.048056229703698855   0.01098065769595033
-0.5792452986965075   -0.048056229703698855   0.01098065769595033
-0.5792452986965075   -0.048056229703698855   0.01098065769595033
-0.5792452986965075   -0.048056229703698855   0.01098065769595033
-0.5716454581870034   -0.04976323259890096   -0.023859491230010393
-0.5716454581870034   -0.04976323259890096   -0.023859491230010393
-0.5716454581870034   -0.04976323259890096   -0.023859491230010393
-0.5716454581870034   -0.04976323259890096   -0.023859491230010393
-0.3051578935523197   0.022502047876750544   0.02124213348814772
-0.3051578935523197   0.022502047876750544   0.02124213348814772
-0.3051578935523197   0.022502047876750544   0.02124213348814772
-0.3051578935523197   0.022502047876750544   0.02124213348814772
-0.4433746376502622   -0.01927066562608802   -0.002578563023444367
-0.4433746376502622   -0.01927066562608802   -0.002578563023444367
-0.4433746376502622   -0.01927066562608802   -0.002578563023444367
-0.4433746376502622   -0.01927066562608802   -0.002578563023444367
-0.31443239171607607   0.004938014208758196   -0.007566323662641792
-0.31443239171607607   0.004938014208758196   -0.007566323662641792
-0.31443239171607607   0.004938014208758196   -0.007566323662641792
-0.31443239171607607   0.004938014208758196   -0.007566323662641792
-0.5623074689848312   -0.032135707892492024   0.005202930074446395
-0.5623074689848312   -0.032135707892492024   0.005202930074446395
-0.5623074689848312   -0.032135707892492024   0.005202930074446395
-0.5623074689848312   -0.032135707892492024   0.005202930074446395
-0.5522104893806967   -0.03275446765210374   -0.026391775644272343
-0.5522104893806967   -0.03275446765210374   -0.026391775644272343
-0.5522104893806967   -0.03275446765210374   -0.026391775644272343
-0.5522104893806967   -0.03275446765210374   -0.026391775644272343
-0.2913468301944488   0.03619689644621718   0.01699034762822183
-0.2913468301944488   0.03619689644621718   0.01699034762822183
-0.2913468301944488   0.03619689644621718   0.01699034762822183
-0.2913468301944488   0.03619689644621718   0.01699034762822183
-0.4235722054588063   -0.003170645991270385   0.004716211210960743
-0.4235722054588063   -0.003170645991270385   0.004716211210960743
-0.4235722054588063   -0.003170645991270385   0.004716211210960743
-0.4235722054588063   -0.003170645991270385   0.004716211210960743
-0.3000538985699364   0.02073798839858554   -0.011086086201586215
-0.3000538985699364   0.02073798839858554   -0.011086086201586215
-0.3000538985699364   0.02073798839858554   -0.011086086201586215
-0.3000538985699364   0.02073798839858554   -0.011086086201586215
-0.5430172241922595   -0.01680936279152284   0.0036294454373325055
-0.5430172241922595   -0.01680936279152284   0.0036294454373325055
-0.5430172241922595   -0.01680936279152284   0.0036294454373325055
-0.5430172241922595   -0.01680936279152284   0.0036294454373325055
-0.5348352652620639   -0.01433801032843203   -0.027757042571961068
-0.5348352652620639   -0.01433801032843203   -0.027757042571961068
-0.5348352652620639   -0.01433801032843203   -0.027757042571961068
-0.5348352652620639   -0.01433801032843203   -0.027757042571961068
-0.27797085542640815   0.05123178953625644   0.013756322479575287
-0.27797085542640815   0.05123178953625644   0.013756322479575287
-0.27797085542640815   0.05123178953625644   0.013756322479575287
-0.27797085542640815   0.05123178953625644   0.013756322479575287
-0.410262828584679   0.01057499109540666   0.01100236826643012
-0.410262828584679   0.01057499109540666   0.01100236826643012
-0.410262828584679   0.01057499109540666   0.01100236826643012
-0.410262828584679   0.01057499109540666   0.01100236826643012
-0.5815787089446132   -0.027374273655438458   -0.021368349592837926
-0.5815787089446132   -0.027374273655438458   -0.021368349592837926
-0.5815787089446132   -0.027374273655438458   -0.021368349592837926
-0.5815787089446132   -0.027374273655438458   -0.021368349592837926
-0.8295051964292847   -0.02999966924014033   0.0369931387671662
-0.8295051964292847   -0.02999966924014033   0.0369931387671662
-0.8295051964292847   -0.02999966924014033   0.0369931387671662
-0.8295051964292847   -0.02999966924014033   0.0369931387671662
-0.8139488856471614   -0.059503537664871736   -0.028408867845342703
-0.8139488856471614   -0.059503537664871736   -0.028408867845342703
-0.8139488856471614   -0.059503537664871736   -0.028408867845342703
-0.8139488856471614   -0.059503537664871736   -0.028408867845342703
-0.5401519180603603   0.046195330866987044   0.03764964593731697
-0.5401519180603603   0.046195330866987044   0.03764964593731697
-0.5401519180603603   0.046195330866987044   0.03764964593731697
-0.5401519180603603   0.046195330866987044   0.03764964593731697
-0.6606125648563083   -0.008157539909876582   0.007783823856780316
-0.6606125648563083   -0.008157539909876582   0.007783823856780316
-0.6606125648563083   -0.008157539909876582   0.007783823856780316
-0.6606125648563083   -0.008157539909876582   0.007783823856780316
-0.5633651180247133   -0.00845767931233779   -0.02376334370512094
-0.5633651180247133   -0.00845767931233779   -0.02376334370512094
-0.5633651180247133   -0.00845767931233779   -0.02376334370512094
-0.5633651180247133   -0.00845767931233779   -0.02376334370512094
-0.7903320995932365   -0.0044469413959755955   0.03461846615537999
-0.7903320995932365   -0.0044469413959755955   0.03461846615537999
-0.7903320995932365   -0.0044469413959755955   0.03461846615537999
-0.7903320995932365   -0.0044469413959755955   0.03461846615537999
-0.7844389249404461   -0.04896134285892778   -0.033474853678117325
-0.7844389249404461   -0.04896134285892778   -0.033474853678117325
-0.7844389249404461   -0.04896134285892778   -0.033474853678117325
-0.7844389249404461   -0.04896134285892778   -0.033474853678117325
-0.5238710320710795   0.052694736846678705   0.02985630640503087
-0.5238710320710795   0.052694736846678705   0.02985630640503087
-0.5238710320710795   0.052694736846678705   0.02985630640503087
-0.5238710320710795   0.052694736846678705   0.02985630640503087
-0.6455715865052372   0.003357798892512587   0.013821542248700039
-0.6455715865052372   0.003357798892512587   0.013821542248700039
-0.6455715865052372   0.003357798892512587   0.013821542248700039
-0.6455715865052372   0.003357798892512587   0.013821542248700039
-0.5457849826318781   5.056202329384307e-05   -0.027069271575577175
-0.5457849826318781   5.056202329384307e-05   -0.027069271575577175
-0.5457849826318781   5.056202329384307e-05   -0.027069271575577175
-0.5457849826318781   5.056202329384307e-05   -0.027069271575577175
-0.7621183591500117   0.004089447194095708   0.025077185221017435
-0.7621183591500117   0.004089447194095708   0.025077185221017435
-0.7621183591500117   0.004089447194095708   0.025077185221017435
-0.7621183591500117   0.004089447194095708   0.025077185221017435
-0.7521273048214174   -0.03634849380153876   -0.03817381940575837
-0.7521273048214174   -0.03634849380153876   -0.03817381940575837
-0.7521273048214174   -0.03634849380153876   -0.03817381940575837
-0.7521273048214174   -0.03634849380153876   -0.03817381940575837
-0.5095902565465521   0.05871106596032333   0.025418924716843226
-0.5095902565465521   0.05871106596032333   0.025418924716843226
-0.5095902565465521   0.05871106596032333   0.025418924716843226
-0.5095902565465521   0.05871106596032333   0.025418924716843226
-0.6128899038201606   0.012908123099738295   0.022999851040495338
-0.6128899038201606   0.012908123099738295   0.022999851040495338
-0.6128899038201606   0.012908123099738295   0.022999851040495338
-0.6128899038201606   0.012908123099738295   0.022999851040495338
0.7263071887320421   0.05436388154651359   0.038222998777687305
0.7263071887320421   0.05436388154651359   0.038222998777687305
0.7263071887320421   0.05436388154651359   0.038222998777687305
0.7263071887320421   0.05436388154651359   0.038222998777687305
0.3199596647255787   -0.0850571813301096   -0.017673836888379216
0.3199596647255787   -0.0850571813301096   -0.017673836888379216
0.3199596647255787   -0.0850571813301096   -0.017673836888379216
0.3199596647255787   -0.0850571813301096   -0.017673836888379216
0.3564108628083944   -0.01516070799867178   0.026212650217932645
0.3564108628083944   -0.01516070799867178   0.026212650217932645
0.3564108628083944   -0.01516070799867178   0.026212650217932645
0.3564108628083944   -0.01516070799867178   0.026212650217932645
0.734117379702179   -0.0008646813827721533   -0.02762618410612548
0.734117379702179   -0.0008646813827721533   -0.02762618410612548
0.734117379702179   -0.0008646813827721533   -0.02762618410612548
0.734117379702179   -0.0008646813827721533   -0.02762618410612548
0.5029313610626815   -0.015053998334930846   -0.03916586521379914
0.5029313610626815   -0.015053998334930846   -0.03916586521379914
0.5029313610626815   -0.015053998334930846   -0.03916586521379914
0.5029313610626815   -0.015053998334930846   -0.03916586521379914
0.7595329457061323   0.06661547620288512   0.03197148832797933
0.7595329457061323   0.06661547620288512   0.03197148832797933
0.7595329457061323   0.06661547620288512   0.03197148832797933
0.7595329457061323   0.06661547620288512   0.03197148832797933
0.3334403900578465   -0.08019577233092379   -0.023604649202551065
0.3334403900578465   -0.08019577233092379   -0.023604649202551065
0.3334403900578465   -0.08019577233092379   -0.023604649202551065
0.3334403900578465   -0.08019577233092379   -0.023604649202551065
0.3705870187069433   -0.007389670614082591   0.021174920666627593
0.3705870187069433   -0.007389670614082591   0.021174920666627593
0.3705870187069433   -0.007389670614082591   0.021174920666627593
0.3705870187069433   -0.007389670614082591   0.021174920666627593
0.7590078003330595   0.007696337356210198   -0.03446784349036002
0.7590078003330595   0.007696337356210198   -0.03446784349036002
0.7590078003330595   0.007696337356210198   -0.03446784349036002
0.7590078003330595   0.007696337356210198   -0.03446784349036002
0.5342668549112065   -0.005921724464877376   -0.02667114381395414
0.5342668549112065   -0.005921724464877376   -0.02667114381395414
0.5342668549112065   -0.005921724464877376   -0.02667114381395414
0.5342668549112065   -0.005921724464877376   -0.02667114381395414
0.7842676542407427   0.07584752086683763   0.023680242537429202
0.7842676542407427   0.07584752086683763   0.023680242537429202
0.7842676542407427   0.07584752086683763   0.023680242537429202
0.7842676542407427   0.07584752086683763   0.023680242537429202
0.34746271944502877   -0.07340529947893609   -0.028430946778091583
0.34746271944502877   -0.07340529947893609   -0.028430946778091583
0.34746271944502877   -0.07340529947893609   -0.028430946778091583
0.34746271944502877   -0.07340529947893609   -0.028430946778091583
0.3834395896908533   0.013397311920378463   0.018564952008956307
0.3834395896908533   0.013397311920378463   0.018564952008956307
0.3834395896908533   0.013397311920378463   0.018564952008956307
0.3834395896908533   0.013397311920378463   0.018564952008956307
0.7896685366856332   0.03276164965638795   -0.036077239799406025
0.7896685366856332   0.03276164965638795   -0.036077239799406025
0.7896685366856332   0.03276164965638795   -0.036077239799406025
0.7896685366856332   0.03276164965638795   -0.036077239799406025
0.5458288879377817   0.0064028082516233015   -0.018049832302958212
0.5458288879377817   0.0064028082516233015   -0.018049832302958212
0.5458288879377817   0.0064028082516233015   -0.018049832302958212
0.5458288879377817   0.0064028082516233015   -0.018049832302958212
0.3539169288317485   0.031924414408348895   0.035130887904007604
0.3539169288317485   0.031924414408348895   0.035130887904007604
0.3539169288317485   0.031924414408348895   0.035130887904007604
0.3539169288317485   0.031924414408348895   0.035130887904007604
-0.044599760084683   -0.10460774988671152   -0.010093234272158896
-0.044599760084683   -0.10460774988671152   -0.010093234272158896
-0.044599760084683   -0.10460774988671152   -0.010093234272158896
-0.044599760084683   -0.10460774988671152   -0.010093234272158896
-0.013291008042415457   -0.03717008723801295   0.00884035212897264
-0.013291008042415457   -0.03717008723801295   0.00884035212897264
-0.013291008042415457   -0.03717008723801295   0.00884035212897264
-0.013291008042415457   -0.03717008723801295   0.00884035212897264
0.35084735722917954   -0.018567269629313807   0.0018016839525001084
0.35084735722917954   -0.018567269629313807   0.0018016839525001084
0.35084735722917954   -0.018567269629313807   0.0018016839525001084
0.35084735722917954   -0.018567269629313807   0.0018016839525001084
0.15733182286328937   -0.028947034099216375   -0.01857533257837513
0.15733182286328937   -0.028947034099216375   -0.01857533257837513
0.15733182286328937   -0.028947034099216375   -0.01857533257837513
0.15733182286328937   -0.028947034099216375   -0.01857533257837513
0.36918260901413846   0.043782250330916594   0.031128422917066457
0.36918260901413846   0.043782250330916594   0.031128422917066457
0.36918260901413846   0.043782250330916594   0.031128422917066457
0.36918260901413846   0.043782250330916594   0.031128422917066457
-0.030328975832117713   -0.09822232320298632   -0.015297250854565266
-0.030328975832117713   -0.09822232320298632   -0.015297250854565266
-0.030328975832117713   -0.09822232320298632   -0.015297250854565266
-0.030328975832117713   -0.09822232320298632   -0.015297250854565266
0.0011601726753620823   -0.02324069656385226   0.005368928698360721
0.0011601726753620823   -0.02324069656385226   0.005368928698360721
0.0011601726753620823   -0.02324069656385226   0.005368928698360721
0.0011601726753620823   -0.02324069656385226   0.005368928698360721
0.3656713965027732   -0.008061306267437257   -0.002731554700868416
0.3656713965027732   -0.008061306267437257   -0.002731554700868416
0.3656713965027732   -0.008061306267437257   -0.002731554700868416
0.3656713965027732   -0.008061306267437257   -0.002731554700868416
0.16985273217839775   -0.02038726316212422   -0.012024085336472175
0.16985273217839775   -0.02038726316212422   -0.012024085336472175
0.16985273217839775   -0.02038726316212422   -0.012024085336472175
0.16985273217839775   -0.02038726316212422   -0.012024085336472175
0.38499192489829165   0.05801152028576573   0.02779826072352105
0.38499192489829165   0.05801152028576573   0.02779826072352105
0.38499192489829165   0.05801152028576573   0.02779826072352105
0.38499192489829165   0.05801152028576573   0.02779826072352105
-0.017380975403916074   -0.08853414280081459   -0.022043365461065827
-0.017380975403916074   -0.08853414280081459   -0.022043365461065827
-0.017380975403916074   -0.08853414280081459   -0.022043365461065827
-0.017380975403916074   -0.08853414280081459   -0.022043365461065827
0.012508998271915537   -0.00689115589083613   0.0018634733353743607
0.012508998271915537   -0.00689115589083613   0.0018634733353743607
0.012508998271915537   -0.00689115589083613   0.0018634733353743607
0.012508998271915537   -0.00689115589083613   0.0018634733353743607
0.3767558773184613   0.005362464479155407   -0.006818762411786406
0.3767558773184613   0.005362464479155407   -0.006818762411786406
0.3767558773184613   0.005362464479155407   -0.006818762411786406
0.3767558773184613   0.005362464479155407   -0.006818762411786406
0.18528025636796355   -0.007569492412035722   -0.004972141779307751
0.18528025636796355   -0.007569492412035722   -0.004972141779307751
0.18528025636796355   -0.007569492412035722   -0.004972141779307751
0.18528025636796355   -0.007569492412035722   -0.004972141779307751
-0.016342983148813526   0.009099104970984458   0.017483795549492507
-0.016342983148813526   0.009099104970984458   0.017483795549492507
-0.016342983148813526   0.009099104970984458   0.017483795549492507
-0.016342983148813526   0.009099104970984458   0.017483795549492507
-0.40630701116265777   -0.13108246098989093   -0.008062441301006354
-0.40630701116265777   -0.13108246098989093   -0.008062441301006354
-0.40630701116265777   -0.13108246098989093   -0.008062441301006354
-0.40630701116265777   -0.13108246098989093   -0.008062441301006354
-0.3747418844808518   -0.05698382171468294   -0.008571838615845394
-0.3747418844808518   -0.05698382171468294   -0.008571838615845394
-0.3747418844808518   -0.05698382171468294   -0.008571838615845394
-0.3747418844808518   -0.05698382171468294   -0.008571838615845394
-0.014873894865863303   -0.04418138164602241   0.007937212419742866
-0.014873894865863303   -0.04418138164602241   0.007937212419742866
-0.014873894865863303   -0.04418138164602241   0.007937212419742866
-0.014873894865863303   -0.04418138164602241   0.007937212419742866
-0.20397238512150254   -0.05279351491136053   -0.01656853966614469
-0.20397238512150254   -0.05279351491136053   -0.01656853966614469
-0.20397238512150254   -0.05279351491136053   -0.01656853966614469
-0.20397238512150254   -0.05279351491136053   -0.01656853966614469
-0.0002878576949207562   0.022465462242799147   0.014220554385634049
-0.0002878576949207562   0.022465462242799147   0.014220554385634049
-0.0002878576949207562   0.022465462242799147   0.014220554385634049
-0.0002878576949207562   0.022465462242799147   0.014220554385634049
-0.3883877116589523   -0.12269045561065736   -0.011094340610373567
-0.3883877116589523   -0.12269045561065736   -0.011094340610373567
-0.3883877116589523   -0.12269045561065736   -0.011094340610373567
-0.3883877116589523   -0.12269045561065736   -0.011094340610373567
-0.35680972965726704   -0.04152558569863854   -0.011646728693313353
-0.35680972965726704   -0.04152558569863854   -0.011646728693313353
-0.35680972965726704   -0.04152558569863854   -0.011646728693313353
-0.35680972965726704   -0.04152558569863854   -0.011646728693313353
-0.001418475721429389   -0.03407860304801387   0.0033135931985668905
-0.001418475721429389   -0.03407860304801387   0.0033135931985668905
-0.001418475721429389   -0.03407860304801387   0.0033135931985668905
-0.001418475721429389   -0.03407860304801387   0.0033135931985668905
-0.18656445740638802   -0.04166730532270881   -0.009169334218278858
-0.18656445740638802   -0.04166730532270881   -0.009169334218278858
-0.18656445740638802   -0.04166730532270881   -0.009169334218278858
-0.18656445740638802   -0.04166730532270881   -0.009169334218278858
0.014401032173465675   0.03726034860931362   0.011072181015714722
0.014401032173465675   0.03726034860931362   0.011072181015714722
0.014401032173465675   0.03726034860931362   0.011072181015714722
0.014401032173465675   0.03726034860931362   0.011072181015714722
-0.3726156247300644   -0.11285092453386272   -0.019350865222073084
-0.3726156247300644   -0.11285092453386272   -0.019350865222073084
-0.3726156247300644   -0.11285092453386272   -0.019350865222073084
-0.3726156247300644   -0.11285092453386272   -0.019350865222073084
-0.34413325084607677   -0.02677737096142717   -0.015077988703895154
-0.34413325084607677   -0.02677737096142717   -0.015077988703895154
-0.34413325084607677   -0.02677737096142717   -0.015077988703895154
-0.34413325084607677   -0.02677737096142717   -0.015077988703895154
0.007405169692799139   -0.025972931307901653   -0.004573894143140195
0.007405169692799139   -0.025972931307901653   -0.004573894143140195
0.007405169692799139   -0.025972931307901653   -0.004573894143140195
0.007405169692799139   -0.025972931307901653   -0.004573894143140195
-0.17380123025887995   -0.03127331678495837   -0.004513388001453208
-0.17380123025887995   -0.03127331678495837   -0.004513388001453208
-0.17380123025887995   -0.03127331678495837   -0.004513388001453208
-0.17380123025887995   -0.03127331678495837   -0.004513388001453208
-0.38070614491617666   -0.010643870582101561   -0.0004967004763940935
-0.38070614491617666   -0.010643870582101561   -0.0004967004763940935
-0.38070614491617666   -0.010643870582101561   -0.0004967004763940935
-0.38070614491617666   -0.010643870582101561   -0.0004967004763940935
-0.7698728572368598   -0.14092923663006898   -0.006430628137914378
-0.7698728572368598   -0.14092923663006898   -0.006430628137914378
-0.7698728572368598   -0.14092923663006898   -0.006430628137914378
-0.7698728572368598   -0.14092923663006898   -0.006430628137914378
-0.7360832990959759   -0.07300687418568447   -0.025377071280340453
-0.7360832990959759   -0.07300687418568447   -0.025377071280340453
-0.7360832990959759   -0.07300687418568447   -0.025377071280340453
-0.7360832990959759   -0.07300687418568447   -0.025377071280340453
-0.3674705305298995   -0.04593353133274404   0.01673464075697429
-0.3674705305298995   -0.04593353133274404   0.01673464075697429
-0.3674705305298995   -0.04593353133274404   0.01673464075697429
-0.3674705305298995   -0.04593353133274404   0.01673464075697429
-0.558626135886169   -0.06357340954000935   -0.011664243821579646
-0.558626135886169   -0.06357340954000935   -0.011664243821579646
-0.558626135886169   -0.06357340954000935   -0.011664243821579646
-0.558626135886169   -0.06357340954000935   -0.011664243821579646
-0.36089374316431533   0.006536217089288282   -0.0028511708371372554
-0.36089374316431533   0.006536217089288282   -0.0028511708371372554
-0.36089374316431533   0.006536217089288282   -0.0028511708371372554
-0.36089374316431533   0.006536217089288282   -0.0028511708371372554
-0.7429250416006331   -0.1257415777467939   -0.006851080242510899
-0.7429250416006331   -0.1257415777467939   -0.006851080242510899
-0.7429250416006331   -0.1257415777467939   -0.006851080242510899
-0.7429250416006331   -0.1257415777467939   -0.006851080242510899
-0.7104195858817104   -0.056889786002256026   -0.029370308926882617
-0.7104195858817104   -0.056889786002256026   -0.029370308926882617
-0.7104195858817104   -0.056889786002256026   -0.029370308926882617
-0.7104195858817104   -0.056889786002256026   -0.029370308926882617
-0.3500784704356978   -0.033851347533759894   0.014335329249656819
-0.3500784704356978   -0.033851347533759894   0.014335329249656819
-0.3500784704356978   -0.033851347533759894   0.014335329249656819
-0.3500784704356978   -0.033851347533759894   0.014335329249656819
-0.5322021996851078   -0.048108245656626455   -0.0037633430550169968
-0.5322021996851078   -0.048108245656626455   -0.0037633430550169968
-0.5322021996851078   -0.048108245656626455   -0.0037633430550169968
-0.5322021996851078   -0.048108245656626455   -0.0037633430550169968
-0.34292464958289937   0.02144490019904985   -0.005191814219164266
-0.34292464958289937   0.02144490019904985   -0.005191814219164266
-0.34292464958289937   0.02144490019904985   -0.005191814219164266
-0.34292464958289937   0.02144490019904985   -0.005191814219164266
-0.7187828294499047   -0.11339545645046128   -0.014680856319643302
-0.7187828294499047   -0.11339545645046128   -0.014680856319643302
-0.7187828294499047   -0.11339545645046128   -0.014680856319643302
-0.7187828294499047   -0.11339545645046128   -0.014680856319643302
-0.6896504404576974   -0.039919226059804885   -0.030319170469411467
-0.6896504404576974   -0.039919226059804885   -0.030319170469411467
-0.6896504404576974   -0.039919226059804885   -0.030319170469411467
-0.6896504404576974   -0.039919226059804885   -0.030319170469411467
-0.34009839125885644   -0.026169856756799642   0.004488795027581115
-0.34009839125885644   -0.026169856756799642   0.004488795027581115
-0.34009839125885644   -0.026169856756799642   0.004488795027581115
-0.34009839125885644   -0.026169856756799642   0.004488795027581115
-0.5177644239091737   -0.03869062012923702   -0.001169223682063826
-0.5177644239091737   -0.03869062012923702   -0.001169223682063826
-0.5177644239091737   -0.03869062012923702   -0.001169223682063826
-0.5177644239091737   -0.03869062012923702   -0.001169223682063826
-0.7490721754068799   -0.02498581992725271   -0.01837063569083105
-0.7490721754068799   -0.02498581992725271   -0.01837063569083105
-0.7490721754068799   -0.02498581992725271   -0.01837063569083105
-0.7490721754068799   -0.02498581992725271   -0.01837063569083105
-1.1296273977773414   -0.09576606412870092   0.042180292026191946
-1.1296273977773414   -0.09576606412870092   0.042180292026191946
-1.1296273977773414   -0.09576606412870092   0.042180292026191946
-1.1296273977773414   -0.09576606412870092   0.042180292026191946
-1.091475986366922   -0.07654128026693252   -0.024709341425719275
-1.091475986366922   -0.07654128026693252   -0.024709341425719275
-1.091475986366922   -0.07654128026693252   -0.024709341425719275
-1.091475986366922   -0.07654128026693252   -0.024709341425719275
-0.7045445319209127   0.02040750513166323   0.03890238527762108
-0.7045445319209127   0.02040750513166323   0.03890238527762108
-0.7045445319209127   0.02040750513166323   0.03890238527762108
-0.7045445319209127   0.02040750513166323   0.03890238527762108
-0.8775220772731266   -0.02991002099465065   0.004493599246820738
-0.8775220772731266   -0.02991002099465065   0.004493599246820738
-0.8775220772731266   -0.02991002099465065   0.004493599246820738
-0.8775220772731266   -0.02991002099465065   0.004493599246820738
-0.7207885247971044   -0.0015366120517983917   -0.020373461919866068
-0.7207885247971044   -0.0015366120517983917   -0.020373461919866068
-0.7207885247971044   -0.0015366120517983917   -0.020373461919866068
-0.7207885247971044   -0.0015366120517983917   -0.020373461919866068
-1.0726142856534688   -0.05197945524620792   0.045037337120821364
-1.0726142856534688   -0.05197945524620792   0.045037337120821364
-1.0726142856534688   -0.05197945524620792   0.045037337120821364
-1.0726142856534688   -0.05197945524620792   0.045037337120821364
-1.0505128678082927   -0.06449015773276146   -0.02942633075498762
-1.0505128678082927   -0.06449015773276146   -0.02942633075498762
-1.0505128678082927   -0.06449015773276146   -0.02942633075498762
-1.0505128678082927   -0.06449015773276146   -0.02942633075498762
-0.6791881349110281   0.03237711939958704   0.037520040524685896
-0.6791881349110281   0.03237711939958704   0.037520040524685896
-0.6791881349110281   0.03237711939958704   0.037520040524685896
-0.6791881349110281   0.03237711939958704   0.037520040524685896
-0.8536021085376235   -0.012061377669344564   0.017559195766054567
-0.8536021085376235   -0.012061377669344564   0.017559195766054567
-0.8536021085376235   -0.012061377669344564   0.017559195766054567
-0.8536021085376235   -0.012061377669344564   0.017559195766054567
-0.6959938396582095   0.007893867738267335   -0.022025231549895996
-0.6959938396582095   0.007893867738267335   -0.022025231549895996
-0.6959938396582095   0.007893867738267335   -0.022025231549895996
-0.6959938396582095   0.007893867738267335   -0.022025231549895996
-1.0331600807683359   -0.03945982377866683   0.03230727049069346
-1.0331600807683359   -0.03945982377866683   0.03230727049069346
-1.0331600807683359   -0.03945982377866683   0.03230727049069346
-1.0331600807683359   -0.03945982377866683   0.03230727049069346
-1.0081210779699843   -0.053194930066761514   -0.03558023399514874
-1.0081210779699843   -0.053194930066761514   -0.03558023399514874
-1.0081210779699843   -0.053194930066761514   -0.03558023399514874
-1.0081210779699843   -0.053194930066761514   -0.03558023399514874
-0.6604972686770147   0.04656009604097486   0.02896736633322191
-0.6604972686770147   0.04656009604097486   0.02896736633322191
-0.6604972686770147   0.04656009604097486   0.02896736633322191
-0.6604972686770147   0.04656009604097486   0.02896736633322191
-0.8078746379766757   0.003163974303932199   0.030734508399892536
-0.8078746379766757   0.003163974303932199   0.030734508399892536
-0.8078746379766757   0.003163974303932199   0.030734508399892536
-0.8078746379766757   0.003163974303932199   0.030734508399892536
0.9897901317395532   0.059562437464522805   0.03559379007080833
0.9897901317395532   0.059562437464522805   0.03559379007080833
0.9897901317395532   0.059562437464522805   0.03559379007080833
0.9897901317395532   0.059562437464522805   0.03559379007080833
0.47128121608013107   -0.0879254377105529   0.007670914763791337
0.47128121608013107   -0.0879254377105529   0.007670914763791337
0.47128121608013107   -0.0879254377105529   0.007670914763791337
0.47128121608013107   -0.0879254377105529   0.007670914763791337
0.49702836801998246   -0.037298936344460076   0.027291552767631455
0.49702836801998246   -0.037298936344460076   0.027291552767631455
0.49702836801998246   -0.037298936344460076   0.027291552767631455
0.49702836801998246   -0.037298936344460076   0.027291552767631455
0.9948487418291114   0.00902241484922528   -0.00816740715089874
0.9948487418291114   0.00902241484922528   -0.00816740715089874
0.9948487418291114   0.00902241484922528   -0.00816740715089874
0.9948487418291114   0.00902241484922528   -0.00816740715089874
0.6955594329324951   -0.018721861455416544   -0.046025917240745964
0.6955594329324951   -0.018721861455416544   -0.046025917240745964
0.6955594329324951   -0.018721861455416544   -0.046025917240745964
0.6955594329324951   -0.018721861455416544   -0.046025917240745964
1.013538713785441   0.06617149645925019   0.028133371020724288
1.013538713785441   0.06617149645925019   0.028133371020724288
1.013538713785441   0.06617149645925019   0.028133371020724288
1.013538713785441   0.06617149645925019   0.028133371020724288
0.4828034798737535   -0.08998293414438438   0.008851109836410784
0.4828034798737535   -0.08998293414438438   0.008851109836410784
0.4828034798737535   -0.08998293414438438   0.008851109836410784
0.4828034798737535   -0.08998293414438438   0.008851109836410784
0.5067178749025374   -0.03171883185968927   0.020746235860634017
0.5067178749025374   -0.03171883185968927   0.020746235860634017
0.5067178749025374   -0.03171883185968927   0.020746235860634017
0.5067178749025374   -0.03171883185968927   0.020746235860634017
1.0120776311969881   0.015302696650114994   -0.002729106095528233
1.0120776311969881   0.015302696650114994   -0.002729106095528233
1.0120776311969881   0.015302696650114994   -0.002729106095528233
1.0120776311969881   0.015302696650114994   -0.002729106095528233
0.7240465627811781   -0.014763547479696715   -0.031499677617684324
0.7240465627811781   -0.014763547479696715   -0.031499677617684324
0.7240465627811781   -0.014763547479696715   -0.031499677617684324
0.7240465627811781   -0.014763547479696715   -0.031499677617684324
1.0279102003511524   0.0722647277691573   0.01947170855625171
1.0279102003511524   0.0722647277691573   0.01947170855625171
1.0279102003511524   0.0722647277691573   0.01947170855625171
1.0279102003511524   0.0722647277691573   0.01947170855625171
0.4939907626297081   -0.08557540609739639   0.010967248734194787
0.4939907626297081   -0.08557540609739639   0.010967248734194787
0.4939907626297081   -0.08557540609739639   0.010967248734194787
0.4939907626297081   -0.08557540609739639   0.010967248734194787
0.5210076314032708   -0.009961733685765042   0.0189667487721914
0.5210076314032708   -0.009961733685765042   0.0189667487721914
0.5210076314032708   -0.009961733685765042   0.0189667487721914
0.5210076314032708   -0.009961733685765042   0.0189667487721914
1.030041989308792   0.029798943020982044   -0.0006999651018283412
1.030041989308792   0.029798943020982044   -0.0006999651018283412
1.030041989308792   0.029798943020982044   -0.0006999651018283412
1.030041989308792   0.029798943020982044   -0.0006999651018283412
0.7273998569748331   -0.006687905935770622   -0.02362406808376477
0.7273998569748331   -0.006687905935770622   -0.02362406808376477
0.7273998569748331   -0.006687905935770622   -0.02362406808376477
0.7273998569748331   -0.006687905935770622   -0.02362406808376477
0.49750138835975305   0.013333661955725898   0.037512676495622774
0.49750138835975305   0.013333661955725898   0.037512676495622774
0.49750138835975305   0.013333661955725898   0.037512676495622774
0.49750138835975305   0.013333661955725898   0.037512676495622774
0.024799176378113713   -0.17431969870643454   0.017619847241386377
0.024799176378113713   -0.17431969870643454   0.017619847241386377
0.024799176378113713   -0.17431969870643454   0.017619847241386377
0.024799176378113713   -0.17431969870643454   0.017619847241386377
0.05823959784196313   -0.07413533420745268   0.0165691204490221
0.05823959784196313   -0.07413533420745268   0.0165691204490221
0.05823959784196313   -0.07413533420745268   0.0165691204490221
0.05823959784196313   -0.07413533420745268   0.0165691204490221
0.4848155509635395   -0.08252861511802605   0.011457146258978396
0.4848155509635395   -0.08252861511802605   0.011457146258978396
0.4848155509635395   -0.08252861511802605   0.011457146258978396
0.4848155509635395   -0.08252861511802605   0.011457146258978396
0.257720155085573   -0.07771621696993208   -0.02922461397498964
0.257720155085573   -0.07771621696993208   -0.02922461397498964
0.257720155085573   -0.07771621696993208   -0.02922461397498964
0.257720155085573   -0.07771621696993208   -0.02922461397498964
0.5091024245355017   0.01899665570133703   0.031366243299432134
0.5091024245355017   0.01899665570133703   0.031366243299432134
0.5091024245355017   0.01899665570133703   0.031366243299432134
0.5091024245355017   0.01899665570133703   0.031366243299432134
0.040367579805922815   -0.1692457494908929   0.022319445552260744
0.040367579805922815   -0.1692457494908929   0.022319445552260744
0.040367579805922815   -0.1692457494908929   0.022319445552260744
0.040367579805922815   -0.1692457494908929   0.022319445552260744
0.07164429739530619   -0.06392920985672251   0.011956026460172277
0.07164429739530619   -0.06392920985672251   0.011956026460172277
0.07164429739530619   -0.06392920985672251   0.011956026460172277
0.07164429739530619   -0.06392920985672251   0.011956026460172277
0.4963068766827   -0.07714663593776575   0.014119048839523814
0.4963068766827   -0.07714663593776575   0.014119048839523814
0.4963068766827   -0.07714663593776575   0.014119048839523814
0.4963068766827   -0.07714663593776575   0.014119048839523814
0.26908735200842593   -0.07378061329335849   -0.014617313890442414
0.26908735200842593   -0.07378061329335849   -0.014617313890442414
0.26908735200842593   -0.07378061329335849   -0.014617313890442414
0.26908735200842593   -0.07378061329335849   -0.014617313890442414
0.5199327419472961   0.028631351338823843   0.02647038788591423
0.5199327419472961   0.028631351338823843   0.02647038788591423
0.5199327419472961   0.028631351338823843   0.02647038788591423
0.5199327419472961   0.028631351338823843   0.02647038788591423
0.054186386289459605   -0.16353924297456268   0.024276504048779575
0.054186386289459605   -0.16353924297456268   0.024276504048779575
0.054186386289459605   -0.16353924297456268   0.024276504048779575
0.054186386289459605   -0.16353924297456268   0.024276504048779575
0.09224572412390852   -0.048602138621318194   0.007868375280398375
0.09224572412390852   -0.048602138621318194   0.007868375280398375
0.09224572412390852   -0.048602138621318194   0.007868375280398375
0.09224572412390852   -0.048602138621318194   0.007868375280398375
0.5088622027082397   -0.06898228863175576   0.01726016024302885
0.5088622027082397   -0.06898228863175576   0.01726016024302885
0.5088622027082397   -0.06898228863175576   0.01726016024302885
0.5088622027082397   -0.06898228863175576   0.01726016024302885
0.2891708698793983   -0.06429534651235486   0.0023987605257013572
0.2891708698793983   -0.06429534651235486   0.0023987605257013572
0.2891708698793983   -0.06429534651235486   0.0023987605257013572
0.2891708698793983   -0.06429534651235486   0.0023987605257013572
0.05447118997485039   -0.03248524099871236   0.02414545751734761
0.05447118997485039   -0.03248524099871236   0.02414545751734761
0.05447118997485039   -0.03248524099871236   0.02414545751734761
0.05447118997485039   -0.03248524099871236   0.02414545751734761
-0.4251413863529061   -0.29881368918231954   0.0257326139570661
-0.4251413863529061   -0.29881368918231954   0.0257326139570661
-0.4251413863529061   -0.29881368918231954   0.0257326139570661
-0.4251413863529061   -0.29881368918231954   0.0257326139570661
-0.3723839578878435   -0.11696156710831268   0.0015463481302717564
-0.3723839578878435   -0.11696156710831268   0.0015463481302717564
-0.3723839578878435   -0.11696156710831268   0.0015463481302717564
-0.3723839578878435   -0.11696156710831268   0.0015463481302717564
0.02857979218614512   -0.2159209601515002   0.01005571811397954
0.02857979218614512   -0.2159209601515002   0.01005571811397954
0.02857979218614512   -0.2159209601515002   0.01005571811397954
0.02857979218614512   -0.2159209601515002   0.01005571811397954
-0.18408479972367064   -0.16722149876064898   -0.03505593958762917
-0.18408479972367064   -0.16722149876064898   -0.03505593958762917
-0.18408479972367064   -0.16722149876064898   -0.03505593958762917
-0.18408479972367064   -0.16722149876064898   -0.03505593958762917
0.06850842393618173   -0.025280647522524582   0.019058564235186967
0.06850842393618173   -0.025280647522524582   0.019058564235186967
0.06850842393618173   -0.025280647522524582   0.019058564235186967
0.06850842393618173   -0.025280647522524582   0.019058564235186967
-0.40299517339786295   -0.29828446349727067   0.02981316696913515
-0.40299517339786295   -0.29828446349727067   0.02981316696913515
-0.40299517339786295   -0.29828446349727067   0.02981316696913515
-0.40299517339786295   -0.29828446349727067   0.02981316696913515
-0.3520272898658004   -0.10491658077345589   -0.00026748128430289543
-0.3520272898658004   -0.10491658077345589   -0.00026748128430289543
-0.3520272898658004   -0.10491658077345589   -0.00026748128430289543
-0.3520272898658004   -0.10491658077345589   -0.00026748128430289543
0.04272238015500811   -0.21101860426524785   0.014435834667207187
0.04272238015500811   -0.21101860426524785   0.014435834667207187
0.04272238015500811   -0.21101860426524785   0.014435834667207187
0.04272238015500811   -0.21101860426524785   0.014435834667207187
-0.1634375618208733   -0.16136482654560003   -0.012983808332028161
-0.1634375618208733   -0.16136482654560003   -0.012983808332028161
-0.1634375618208733   -0.16136482654560003   -0.012983808332028161
-0.1634375618208733   -0.16136482654560003   -0.012983808332028161
0.08134382442636218   -0.015736642755352484   0.01226109451408225
0.08134382442636218   -0.015736642755352484   0.01226109451408225
0.08134382442636218   -0.015736642755352484   0.01226109451408225
0.08134382442636218   -0.015736642755352484   0.01226109451408225
-0.38226966328024115   -0.29181947142644227   0.035423542296484506
-0.38226966328024115   -0.29181947142644227   0.035423542296484506
-0.38226966328024115   -0.29181947142644227   0.035423542296484506
-0.38226966328024115   -0.29181947142644227   0.035423542296484506
-0.3184269766804276   -0.09105538739061841   -0.004154028183497254
-0.3184269766804276   -0.09105538739061841   -0.004154028183497254
-0.3184269766804276   -0.09105538739061841   -0.004154028183497254
-0.3184269766804276   -0.09105538739061841   -0.004154028183497254
0.0647901465901471   -0.19759729642796373   0.01958564541823686
0.0647901465901471   -0.19759729642796373   0.01958564541823686
0.0647901465901471   -0.19759729642796373   0.01958564541823686
0.0647901465901471   -0.19759729642796373   0.01958564541823686
-0.1366759274501782   -0.1484753611656526   0.01002873916054934
-0.1366759274501782   -0.1484753611656526   0.01002873916054934
-0.1366759274501782   -0.1484753611656526   0.01002873916054934
-0.1366759274501782   -0.1484753611656526   0.01002873916054934
-0.3800982699047322   -0.059384410110786906   0.011518917126399165
-0.3800982699047322   -0.059384410110786906   0.011518917126399165
-0.3800982699047322   -0.059384410110786906   0.011518917126399165
-0.3800982699047322   -0.059384410110786906   0.011518917126399165
-0.9429981061531333   -0.46426198657991546   -0.021215003964544135
-0.9429981061531333   -0.46426198657991546   -0.021215003964544135
-0.9429981061531333   -0.46426198657991546   -0.021215003964544135
-0.9429981061531333   -0.46426198657991546   -0.021215003964544135
-0.8560519653604953   -0.15218006972664957   -0.025916616381957587
-0.8560519653604953   -0.15218006972664957   -0.025916616381957587
-0.8560519653604953   -0.15218006972664957   -0.025916616381957587
-0.8560519653604953   -0.15218006972664957   -0.025916616381957587
-0.425106118123967   -0.3871070213316465   0.008081001172988128
-0.425106118123967   -0.3871070213316465   0.008081001172988128
-0.425106118123967   -0.3871070213316465   0.008081001172988128
-0.425106118123967   -0.3871070213316465   0.008081001172988128
-0.6503530934249019   -0.27466471269868914   -0.036892321485015145
-0.6503530934249019   -0.27466471269868914   -0.036892321485015145
-0.6503530934249019   -0.27466471269868914   -0.036892321485015145
-0.6503530934249019   -0.27466471269868914   -0.036892321485015145
-0.35607464358431995   -0.04481250965592304   0.01094386219549976
-0.35607464358431995   -0.04481250965592304   0.01094386219549976
-0.35607464358431995   -0.04481250965592304   0.01094386219549976
-0.35607464358431995   -0.04481250965592304   0.01094386219549976
-0.9228115527969379   -0.49220269429916874   -0.019691928991651994
-0.9228115527969379   -0.49220269429916874   -0.019691928991651994
-0.9228115527969379   -0.49220269429916874   -0.019691928991651994
-0.9228115527969379   -0.49220269429916874   -0.019691928991651994
-0.8288733945688869   -0.13776654715384345   -0.026445744717571967
-0.8288733945688869   -0.13776654715384345   -0.026445744717571967
-0.8288733945688869   -0.13776654715384345   -0.026445744717571967
-0.8288733945688869   -0.13776654715384345   -0.026445744717571967
-0.4053155408443757   -0.3838594192749334   0.012234102324300056
-0.4053155408443757   -0.3838594192749334   0.012234102324300056
-0.4053155408443757   -0.3838594192749334   0.012234102324300056
-0.4053155408443757   -0.3838594192749334   0.012234102324300056
-0.6217093024633622   -0.2669922457272791   -0.02553967311265745
-0.6217093024633622   -0.2669922457272791   -0.02553967311265745
-0.6217093024633622   -0.2669922457272791   -0.02553967311265745
-0.6217093024633622   -0.2669922457272791   -0.02553967311265745
-0.3369228290230094   -0.033349697224928636   0.003687939381124718
-0.3369228290230094   -0.033349697224928636   0.003687939381124718
-0.3369228290230094   -0.033349697224928636   0.003687939381124718
-0.3369228290230094   -0.033349697224928636   0.003687939381124718
-0.8971022653084796   -0.4881124281220739   -0.01724421744729837
-0.8971022653084796   -0.4881124281220739   -0.01724421744729837
-0.8971022653084796   -0.4881124281220739   -0.01724421744729837
-0.8971022653084796   -0.4881124281220739   -0.01724421744729837
-0.7864026827737209   -0.12232668875431828   -0.02999107344517816
-0.7864026827737209   -0.12232668875431828   -0.02999107344517816
-0.7864026827737209   -0.12232668875431828   -0.02999107344517816
-0.7864026827737209   -0.12232668875431828   -0.02999107344517816
-0.36248696776434575   -0.34437778889887793   0.02886841790517647
-0.36248696776434575   -0.34437778889887793   0.02886841790517647
-0.36248696776434575   -0.34437778889887793   0.02886841790517647
-0.36248696776434575   -0.34437778889887793   0.02886841790517647
-0.5898621110747488   -0.24155979412412823   -0.013788830567110236
-0.5898621110747488   -0.24155979412412823   -0.013788830567110236
-0.5898621110747488   -0.24155979412412823   -0.013788830567110236
-0.5898621110747488   -0.24155979412412823   -0.013788830567110236
-0.8572660234777683   -0.05091096925629279   -0.0059056079113408155
-0.8572660234777683   -0.05091096925629279   -0.0059056079113408155
-0.8572660234777683   -0.05091096925629279   -0.0059056079113408155
-0.8572660234777683   -0.05091096925629279   -0.0059056079113408155
-1.5096004861139907   -0.29882984289422065   0.015451271642887343
-1.5096004861139907   -0.29882984289422065   0.015451271642887343
-1.5096004861139907   -0.29882984289422065   0.015451271642887343
-1.5096004861139907   -0.29882984289422065   0.015451271642887343
-1.450635732313948   -0.14288004626411016   -0.03144417130821048
-1.450635732313948   -0.14288004626411016   -0.03144417130821048
-1.450635732313948   -0.14288004626411016   -0.03144417130821048
-1.450635732313948   -0.14288004626411016   -0.03144417130821048
-0.8393037494369512   -0.15560989265464087   0.06125428616374687
-0.8393037494369512   -0.15560989265464087   0.06125428616374687
-0.8393037494369512   -0.15560989265464087   0.06125428616374687
-0.8393037494369512   -0.15560989265464087   0.06125428616374687
-1.1171157069364734   -0.1730606049140172   0.015568143559730754
-1.1171157069364734   -0.1730606049140172   0.015568143559730754
-1.1171157069364734   -0.1730606049140172   0.015568143559730754
-1.1171157069364734   -0.1730606049140172   0.015568143559730754
-0.8225867595743879   -0.010946290741808973   0.0001756335637351225
-0.8225867595743879   -0.010946290741808973   0.0001756335637351225
-0.8225867595743879   -0.010946290741808973   0.0001756335637351225
-0.8225867595743879   -0.010946290741808973   0.0001756335637351225
-1.472872635007375   -0.2930635610078072   0.007554829968339005
-1.472872635007375   -0.2930635610078072   0.007554829968339005
-1.472872635007375   -0.2930635610078072   0.007554829968339005
-1.472872635007375   -0.2930635610078072   0.007554829968339005
-1.4184453336184502   -0.13096346326189057   -0.03992567407531103
-1.4184453336184502   -0.13096346326189057   -0.03992567407531103
-1.4184453336184502   -0.13096346326189057   -0.03992567407531103
-1.4184453336184502   -0.13096346326189057   -0.03992567407531103
-0.8113368956530143   -0.14797778215750995   0.0714479848654645
-0.8113368956530143   -0.14797778215750995   0.0714479848654645
-0.8113368956530143   -0.14797778215750995   0.0714479848654645
-0.8113368956530143   -0.14797778215750995   0.0714479848654645
-1.1003679614687556   -0.14263221140475685   0.015067528259567899
-1.1003679614687556   -0.14263221140475685   0.015067528259567899
-1.1003679614687556   -0.14263221140475685   0.015067528259567899
-1.1003679614687556   -0.14263221140475685   0.015067528259567899
-0.7976828349003137   -0.0003981061740913061   -0.007861387354451105
-0.7976828349003137   -0.0003981061740913061   -0.007861387354451105
-0.7976828349003137   -0.0003981061740913061   -0.007861387354451105
-0.7976828349003137   -0.0003981061740913061   -0.007861387354451105
-1.4340408996142733   -0.2804846444884339   0.03161767717210362
-1.4340408996142733   -0.2804846444884339   0.03161767717210362
-1.4340408996142733   -0.2804846444884339   0.03161767717210362
-1.4340408996142733   -0.2804846444884339   0.03161767717210362
-1.3515699358093278   -0.10640047687967338   -0.044762831137705884
-1.3515699358093278   -0.10640047687967338   -0.044762831137705884
-1.3515699358093278   -0.10640047687967338   -0.044762831137705884
-1.3515699358093278   -0.10640047687967338   -0.044762831137705884
-0.7677660555823554   -0.13781678030416958   0.07868215406150753
-0.7677660555823554   -0.13781678030416958   0.07868215406150753
-0.7677660555823554   -0.13781678030416958   0.07868215406150753
-0.7677660555823554   -0.13781678030416958   0.07868215406150753
-1.035234706962621   -0.10911506365447957   0.031302899273224744
-1.035234706962621   -0.10911506365447957   0.031302899273224744
-1.035234706962621   -0.10911506365447957   0.031302899273224744
-1.035234706962621   -0.10911506365447957   0.031302899273224744
1.084190210399925   0.036147353040970165   0.015125874201612932
1.084190210399925   0.036147353040970165   0.015125874201612932
1.084190210399925   0.036147353040970165   0.015125874201612932
1.084190210399925   0.036147353040970165   0.015125874201612932
0.5526517779559936   -0.02949508029424719   0.010878861231724074
0.5526517779559936   -0.02949508029424719   0.010878861231724074
0.5526517779559936   -0.02949508029424719   0.010878861231724074
0.5526517779559936   -0.02949508029424719   0.010878861231724074
0.5313518013839492   -0.0776973624336399   0.021730646879937573
0.5313518013839492   -0.0776973624336399   0.021730646879937573
0.5313518013839492   -0.0776973624336399   0.021730646879937573
0.5313518013839492   -0.0776973624336399   0.021730646879937573
1.0763576019343117   0.060601255953217914   0.007781346626169139
1.0763576019343117   0.060601255953217914   0.007781346626169139
1.0763576019343117   0.060601255953217914   0.007781346626169139
1.0763576019343117   0.060601255953217914   0.007781346626169139
0.767913400027336   -0.010743680507784903   -0.02841138393209465
0.767913400027336   -0.010743680507784903   -0.02841138393209465
0.767913400027336   -0.010743680507784903   -0.02841138393209465
0.767913400027336   -0.010743680507784903   -0.02841138393209465
1.0706125838673255   0.028116805946615725   0.01154070629783939
1.0706125838673255   0.028116805946615725   0.01154070629783939
1.0706125838673255   0.028116805946615725   0.01154070629783939
1.0706125838673255   0.028116805946615725   0.01154070629783939
0.5353704411483767   -0.04693929072959657   0.011065773998031853
0.5353704411483767   -0.04693929072959657   0.011065773998031853
0.5353704411483767   -0.04693929072959657   0.011065773998031853
0.5353704411483767   -0.04693929072959657   0.011065773998031853
0.5177206784975681   -0.07943400561734712   0.017944335266581152
0.5177206784975681   -0.07943400561734712   0.017944335266581152
0.5177206784975681   -0.07943400561734712   0.017944335266581152
0.5177206784975681   -0.07943400561734712   0.017944335266581152
1.063939634413213   0.05804505107903957   0.013629935882411584
1.063939634413213   0.05804505107903957   0.013629935882411584
1.063939634413213   0.05804505107903957   0.013629935882411584
1.063939634413213   0.05804505107903957   0.013629935882411584
0.7658416182069382   -0.01480900270099958   -0.03274628567942311
0.7658416182069382   -0.01480900270099958   -0.03274628567942311
0.7658416182069382   -0.01480900270099958   -0.03274628567942311
0.7658416182069382   -0.01480900270099958   -0.03274628567942311
1.0553287189293719   0.025185681103453816   0.0034347284387820087
1.0553287189293719   0.025185681103453816   0.0034347284387820087
1.0553287189293719   0.025185681103453816   0.0034347284387820087
1.0553287189293719   0.025185681103453816   0.0034347284387820087
0.5232103131092344   -0.049695916513937816   0.015654419221503374
0.5232103131092344   -0.049695916513937816   0.015654419221503374
0.5232103131092344   -0.049695916513937816   0.015654419221503374
0.5232103131092344   -0.049695916513937816   0.015654419221503374
0.503367899563915   -0.07229617754117143   0.015498521832281169
0.503367899563915   -0.07229617754117143   0.015498521832281169
0.503367899563915   -0.07229617754117143   0.015498521832281169
0.503367899563915   -0.07229617754117143   0.015498521832281169
1.0448359402800391   0.05889451121376693   0.0197321054528344
1.0448359402800391   0.05889451121376693   0.0197321054528344
1.0448359402800391   0.05889451121376693   0.0197321054528344
1.0448359402800391   0.05889451121376693   0.0197321054528344
0.7372745459288566   -0.014846686527440645   -0.04408554247024618
0.7372745459288566   -0.014846686527440645   -0.04408554247024618
0.7372745459288566   -0.014846686527440645   -0.04408554247024618
0.7372745459288566   -0.014846686527440645   -0.04408554247024618
0.5482489840926486   -0.06773312023971217   0.027102931860463378
0.5482489840926486   -0.06773312023971217   0.027102931860463378
0.5482489840926486   -0.06773312023971217   0.027102931860463378
0.5482489840926486   -0.06773312023971217   0.027102931860463378
0.10424874104120821   -0.06524417981201455   0.0055277552748575105
0.10424874104120821   -0.06524417981201455   0.0055277552748575105
0.10424874104120821   -0.06524417981201455   0.0055277552748575105
0.10424874104120821   -0.06524417981201455   0.0055277552748575105
0.06749254289613064   -0.16258349367296682   0.028505761551683315
0.06749254289613064   -0.16258349367296682   0.028505761551683315
0.06749254289613064   -0.16258349367296682   0.028505761551683315
0.06749254289613064   -0.16258349367296682   0.028505761551683315
0.5511087503896729   0.021957298081339158   0.020860731393577185
0.5511087503896729   0.021957298081339158   0.020860731393577185
0.5511087503896729   0.021957298081339158   0.020860731393577185
0.5511087503896729   0.021957298081339158   0.020860731393577185
0.31287998093796865   -0.06868000705063343   -0.0012469938383455892
0.31287998093796865   -0.06868000705063343   -0.0012469938383455892
0.31287998093796865   -0.06868000705063343   -0.0012469938383455892
0.31287998093796865   -0.06868000705063343   -0.0012469938383455892
0.5329678955852133   -0.07063902029580307   0.0227527757484194
0.5329678955852133   -0.07063902029580307   0.0227527757484194
0.5329678955852133   -0.07063902029580307   0.0227527757484194
0.5329678955852133   -0.07063902029580307   0.0227527757484194
0.08104650435576491   -0.07457406864065028   0.008266143817538034
0.08104650435576491   -0.07457406864065028   0.008266143817538034
0.08104650435576491   -0.07457406864065028   0.008266143817538034
0.08104650435576491   -0.07457406864065028   0.008266143817538034
0.05099184271339493   -0.16393204468035916   0.025507039095861918
0.05099184271339493   -0.16393204468035916   0.025507039095861918
0.05099184271339493   -0.16393204468035916   0.025507039095861918
0.05099184271339493   -0.16393204468035916   0.025507039095861918
0.5385425462246777   0.01794301260464229   0.024676655680139818
0.5385425462246777   0.01794301260464229   0.024676655680139818
0.5385425462246777   0.01794301260464229   0.024676655680139818
0.5385425462246777   0.01794301260464229   0.024676655680139818
0.2904346030807821   -0.07316423322845056   -0.014889322666032934
0.2904346030807821   -0.07316423322845056   -0.014889322666032934
0.2904346030807821   -0.07316423322845056   -0.014889322666032934
0.2904346030807821   -0.07316423322845056   -0.014889322666032934
0.5194796685156695   -0.07156235949260772   0.01886763923234442
0.5194796685156695   -0.07156235949260772   0.01886763923234442
0.5194796685156695   -0.07156235949260772   0.01886763923234442
0.5194796685156695   -0.07156235949260772   0.01886763923234442
0.06506540426863117   -0.07941598873688181   0.011358790928565794
0.06506540426863117   -0.07941598873688181   0.011358790928565794
0.06506540426863117   -0.07941598873688181   0.011358790928565794
0.06506540426863117   -0.07941598873688181   0.011358790928565794
0.0325380042893049   -0.16371690116189194   0.019911296011282782
0.0325380042893049   -0.16371690116189194   0.019911296011282782
0.0325380042893049   -0.16371690116189194   0.019911296011282782
0.0325380042893049   -0.16371690116189194   0.019911296011282782
0.5242807541101477   0.01829910524816873   0.029467511774107346
0.5242807541101477   0.01829910524816873   0.029467511774107346
0.5242807541101477   0.01829910524816873   0.029467511774107346
0.5242807541101477   0.01829910524816873   0.029467511774107346
0.2767956733728771   -0.07248998003909245   -0.02646302704653381
0.2767956733728771   -0.07248998003909245   -0.02646302704653381
0.2767956733728771   -0.07248998003909245   -0.02646302704653381
0.2767956733728771   -0.07248998003909245   -0.02646302704653381
0.08148892244401643   -0.19778104476580985   0.02426552724269187
0.08148892244401643   -0.19778104476580985   0.02426552724269187
0.08148892244401643   -0.19778104476580985   0.02426552724269187
0.08148892244401643   -0.19778104476580985   0.02426552724269187
-0.32698318654153236   -0.10091687141108623   0.00012754821720444356
-0.32698318654153236   -0.10091687141108623   0.00012754821720444356
-0.32698318654153236   -0.10091687141108623   0.00012754821720444356
-0.32698318654153236   -0.10091687141108623   0.00012754821720444356
-0.39347804417789095   -0.29581048645978825   0.03266592293657539
-0.39347804417789095   -0.29581048645978825   0.03266592293657539
-0.39347804417789095   -0.29581048645978825   0.03266592293657539
-0.39347804417789095   -0.29581048645978825   0.03266592293657539
0.09373902116000615   -0.016099990052439967   0.013254649250532014
0.09373902116000615   -0.016099990052439967   0.013254649250532014
0.09373902116000615   -0.016099990052439967   0.013254649250532014
0.09373902116000615   -0.016099990052439967   0.013254649250532014
-0.13452858201720613   -0.15049434669329725   0.005709933903349174
-0.13452858201720613   -0.15049434669329725   0.005709933903349174
-0.13452858201720613   -0.15049434669329725   0.005709933903349174
-0.13452858201720613   -0.15049434669329725   0.005709933903349174
0.05602204848868873   -0.20894141112123832   0.017511206962745218
0.05602204848868873   -0.20894141112123832   0.017511206962745218
0.05602204848868873   -0.20894141112123832   0.017511206962745218
0.05602204848868873   -0.20894141112123832   0.017511206962745218
-0.36220104966913047   -0.1094090435535468   0.002649452574134537
-0.36220104966913047   -0.1094090435535468   0.002649452574134537
-0.36220104966913047   -0.1094090435535468   0.002649452574134537
-0.36220104966913047   -0.1094090435535468   0.002649452574134537
-0.41642496567915566   -0.3003941876281832   0.02670526368669411
-0.41642496567915566   -0.3003941876281832   0.02670526368669411
-0.41642496567915566   -0.3003941876281832   0.02670526368669411
-0.41642496567915566   -0.3003941876281832   0.02670526368669411
0.07826967958765613   -0.0205511781710313   0.01851535695784008
0.07826967958765613   -0.0205511781710313   0.01851535695784008
0.07826967958765613   -0.0205511781710313   0.01851535695784008
0.07826967958765613   -0.0205511781710313   0.01851535695784008
-0.16322227973130973   -0.15954795712855777   -0.01343148841912608
-0.16322227973130973   -0.15954795712855777   -0.01343148841912608
-0.16322227973130973   -0.15954795712855777   -0.01343148841912608
-0.16322227973130973   -0.15954795712855777   -0.01343148841912608
0.03844561207702537   -0.21249363047295694   0.011337471706613873
0.03844561207702537   -0.21249363047295694   0.011337471706613873
0.03844561207702537   -0.21249363047295694   0.011337471706613873
0.03844561207702537   -0.21249363047295694   0.011337471706613873
-0.38429243694573395   -0.11614327410346187   0.00311699382907738
-0.38429243694573395   -0.11614327410346187   0.00311699382907738
-0.38429243694573395   -0.11614327410346187   0.00311699382907738
-0.38429243694573395   -0.11614327410346187   0.00311699382907738
-0.4413365782253359   -0.2982759997459968   0.022318853643554667
-0.4413365782253359   -0.2982759997459968   0.022318853643554667
-0.4413365782253359   -0.2982759997459968   0.022318853643554667
-0.4413365782253359   -0.2982759997459968   0.022318853643554667
0.061068082477923086   -0.02299811543776568   0.021842901230247402
0.061068082477923086   -0.02299811543776568   0.021842901230247402
0.061068082477923086   -0.02299811543776568   0.021842901230247402
0.061068082477923086   -0.02299811543776568   0.021842901230247402
-0.18653534071591424   -0.16294887338623332   -0.032619053666562224
-0.18653534071591424   -0.16294887338623332   -0.032619053666562224
-0.18653534071591424   -0.16294887338623332   -0.032619053666562224
-0.18653534071591424   -0.16294887338623332   -0.032619053666562224
-0.368943617528693   -0.3394386530733793   0.028847174943696374
-0.368943617528693   -0.3394386530733793   0.028847174943696374
-0.368943617528693   -0.3394386530733793   0.028847174943696374
-0.368943617528693   -0.3394386530733793   0.028847174943696374
-0.816124252116351   -0.1255415642522267   -0.018736396091484656
-0.816124252116351   -0.1255415642522267   -0.018736396091484656
-0.816124252116351   -0.1255415642522267   -0.018736396091484656
-0.816124252116351   -0.1255415642522267   -0.018736396091484656
-0.9324212580146661   -0.4952455176547474   -0.02529634055181708
-0.9324212580146661   -0.4952455176547474   -0.02529634055181708
-0.9324212580146661   -0.4952455176547474   -0.02529634055181708
-0.9324212580146661   -0.4952455176547474   -0.02529634055181708
-0.3440113282058856   -0.02726356485811552   0.01145258119492794
-0.3440113282058856   -0.02726356485811552   0.01145258119492794
-0.3440113282058856   -0.02726356485811552   0.01145258119492794
-0.3440113282058856   -0.02726356485811552   0.01145258119492794
-0.6094213771527208   -0.23709664751924298   -0.01996533995446915
-0.6094213771527208   -0.23709664751924298   -0.01996533995446915
-0.6094213771527208   -0.23709664751924298   -0.01996533995446915
-0.6094213771527208   -0.23709664751924298   -0.01996533995446915
-0.415841508190634   -0.3848855635808026   0.009923679993874557
-0.415841508190634   -0.3848855635808026   0.009923679993874557
-0.415841508190634   -0.3848855635808026   0.009923679993874557
-0.415841508190634   -0.3848855635808026   0.009923679993874557
-0.8588370340658031   -0.13586947496794544   -0.016751263494304044
-0.8588370340658031   -0.13586947496794544   -0.016751263494304044
-0.8588370340658031   -0.13586947496794544   -0.016751263494304044
-0.8588370340658031   -0.13586947496794544   -0.016751263494304044
-0.9597570382054335   -0.503044413181988   -0.02924936984991494
-0.9597570382054335   -0.503044413181988   -0.02924936984991494
-0.9597570382054335   -0.503044413181988   -0.02924936984991494
-0.9597570382054335   -0.503044413181988   -0.02924936984991494
-0.36520945480765254   -0.03461745820093089   0.0170060886169533
-0.36520945480765254   -0.03461745820093089   0.0170060886169533
-0.36520945480765254   -0.03461745820093089   0.0170060886169533
-0.36520945480765254   -0.03461745820093089   0.0170060886169533
-0.6428741263592209   -0.2628883237204334   -0.028656945900600563
-0.6428741263592209   -0.2628883237204334   -0.028656945900600563
-0.6428741263592209   -0.2628883237204334   -0.028656945900600563
-0.6428741263592209   -0.2628883237204334   -0.028656945900600563
-0.439375134971257   -0.3923384272046415   0.0038986568026407042
-0.439375134971257   -0.3923384272046415   0.0038986568026407042
-0.439375134971257   -0.3923384272046415   0.0038986568026407042
-0.439375134971257   -0.3923384272046415   0.0038986568026407042
-0.885849098436005   -0.1455811845724545   -0.017172899612312328
-0.885849098436005   -0.1455811845724545   -0.017172899612312328
-0.885849098436005   -0.1455811845724545   -0.017172899612312328
-0.885849098436005   -0.1455811845724545   -0.017172899612312328
-0.9830212471699056   -0.4808535770833947   -0.03297624361184774
-0.9830212471699056   -0.4808535770833947   -0.03297624361184774
-0.9830212471699056   -0.4808535770833947   -0.03297624361184774
-0.9830212471699056   -0.4808535770833947   -0.03297624361184774
-0.39198974774519546   -0.045024316826354514   0.015801323124606546
-0.39198974774519546   -0.045024316826354514   0.015801323124606546
-0.39198974774519546   -0.045024316826354514   0.015801323124606546
-0.39198974774519546   -0.045024316826354514   0.015801323124606546
-0.6737870437651777   -0.2716095044936664   -0.037047698245958216
-0.6737870437651777   -0.2716095044936664   -0.037047698245958216
-0.6737870437651777   -0.2716095044936664   -0.037047698245958216
-0.6737870437651777   -0.2716095044936664   -0.037047698245958216
-0.8024548960023219   -0.14639767929598355   0.07046649952240419
-0.8024548960023219   -0.14639767929598355   0.07046649952240419
-0.8024548960023219   -0.14639767929598355   0.07046649952240419
-0.8024548960023219   -0.14639767929598355   0.07046649952240419
-1.4086934862641467   -0.10490345927058994   -0.024544407241138662
-1.4086934862641467   -0.10490345927058994   -0.024544407241138662
-1.4086934862641467   -0.10490345927058994   -0.024544407241138662
-1.4086934862641467   -0.10490345927058994   -0.024544407241138662
-1.4942502233373283   -0.29499227720005505   0.019288837337052944
-1.4942502233373283   -0.29499227720005505   0.019288837337052944
-1.4942502233373283   -0.29499227720005505   0.019288837337052944
-1.4942502233373283   -0.29499227720005505   0.019288837337052944
-0.8244125623896484   0.012322804345179739   0.007178815573337154
-0.8244125623896484   0.012322804345179739   0.007178815573337154
-0.8244125623896484   0.012322804345179739   0.007178815573337154
-0.8244125623896484   0.012322804345179739   0.007178815573337154
-1.0785310995381991   -0.10359043170236258   0.02157299586404571
-1.0785310995381991   -0.10359043170236258   0.02157299586404571
-1.0785310995381991   -0.10359043170236258   0.02157299586404571
-1.0785310995381991   -0.10359043170236258   0.02157299586404571
-0.8472057291849541   -0.1569449905404949   0.062480776482479544
-0.8472057291849541   -0.1569449905404949   0.062480776482479544
-0.8472057291849541   -0.1569449905404949   0.062480776482479544
-0.8472057291849541   -0.1569449905404949   0.062480776482479544
-1.4677974771841775   -0.12206490295653386   -0.02137480614070173
-1.4677974771841775   -0.12206490295653386   -0.02137480614070173
-1.4677974771841775   -0.12206490295653386   -0.02137480614070173
-1.4677974771841775   -0.12206490295653386   -0.02137480614070173
-1.530271799114685   -0.3074133520346347   -0.00679496105848848
-1.530271799114685   -0.3074133520346347   -0.00679496105848848
-1.530271799114685   -0.3074133520346347   -0.00679496105848848
-1.530271799114685   -0.3074133520346347   -0.00679496105848848
-0.8498912259021536   0.004019571127062915   0.013015707357426763
-0.8498912259021536   0.004019571127062915   0.013015707357426763
-0.8498912259021536   0.004019571127062915   0.013015707357426763
-0.8498912259021536   0.004019571127062915   0.013015707357426763
-1.1423903468028576   -0.13660840893591272   0.008784793808528674
-1.1423903468028576   -0.13660840893591272   0.008784793808528674
-1.1423903468028576   -0.13660840893591272   0.008784793808528674
-1.1423903468028576   -0.13660840893591272   0.008784793808528674
-0.8759428903214985   -0.16486098898895551   0.05163794537672098
-0.8759428903214985   -0.16486098898895551   0.05163794537672098
-0.8759428903214985   -0.16486098898895551   0.05163794537672098
-0.8759428903214985   -0.16486098898895551   0.05163794537672098
-1.4967797444349011   -0.1310924016581733   -0.01565563803600676
-1.4967797444349011   -0.1310924016581733   -0.01565563803600676
-1.4967797444349011   -0.1310924016581733   -0.01565563803600676
-1.4967797444349011   -0.1310924016581733   -0.01565563803600676
-1.5613284434990138   -0.31230653045961904   -0.0002042087990815067
-1.5613284434990138   -0.31230653045961904   -0.0002042087990815067
-1.5613284434990138   -0.31230653045961904   -0.0002042087990815067
-1.5613284434990138   -0.31230653045961904   -0.0002042087990815067
-0.8857269621297307   -0.03277180004816749   0.005413404553799933
-0.8857269621297307   -0.03277180004816749   0.005413404553799933
-0.8857269621297307   -0.03277180004816749   0.005413404553799933
-0.8857269621297307   -0.03277180004816749   0.005413404553799933
-1.1558414996823343   -0.16488351963724596   0.01383224356116607
-1.1558414996823343   -0.16488351963724596   0.01383224356116607
-1.1558414996823343   -0.16488351963724596   0.01383224356116607
-1.1558414996823343   -0.16488351963724596   0.01383224356116607
0.9521036993558366   0.04414749450347555   -0.020360186179474563
0.9521036993558366   0.04414749450347555   -0.020360186179474563
0.9521036993558366   0.04414749450347555   -0.020360186179474563
0.9521036993558366   0.04414749450347555   -0.020360186179474563
0.47851233521687225   -0.010088897936405272   0.009886964589474107
0.47851233521687225   -0.010088897936405272   0.009886964589474107
0.47851233521687225   -0.010088897936405272   0.009886964589474107
0.47851233521687225   -0.010088897936405272   0.009886964589474107
0.4484336565173227   -0.07015932484879138   -0.018097611966918788
0.4484336565173227   -0.07015932484879138   -0.018097611966918788
0.4484336565173227   -0.07015932484879138   -0.018097611966918788
0.4484336565173227   -0.07015932484879138   -0.018097611966918788
0.9411800995715003   0.06854534599067971   0.011567556065913039
0.9411800995715003   0.06854534599067971   0.011567556065913039
0.9411800995715003   0.06854534599067971   0.011567556065913039
0.9411800995715003   0.06854534599067971   0.011567556065913039
0.6681023616357208   0.0016478312291794972   -0.025796033588558122
0.6681023616357208   0.0016478312291794972   -0.025796033588558122
0.6681023616357208   0.0016478312291794972   -0.025796033588558122
0.6681023616357208   0.0016478312291794972   -0.025796033588558122
0.926010150462725   0.02485677303018133   -0.020593616517457523
0.926010150462725   0.02485677303018133   -0.020593616517457523
0.926010150462725   0.02485677303018133   -0.020593616517457523
0.926010150462725   0.02485677303018133   -0.020593616517457523
0.4627716560701654   -0.027302701444225017   0.010735762392724384
0.4627716560701654   -0.027302701444225017   0.010735762392724384
0.4627716560701654   -0.027302701444225017   0.010735762392724384
0.4627716560701654   -0.027302701444225017   0.010735762392724384
0.43222277950666915   -0.07402029907878092   -0.01497996000014691
0.43222277950666915   -0.07402029907878092   -0.01497996000014691
0.43222277950666915   -0.07402029907878092   -0.01497996000014691
0.43222277950666915   -0.07402029907878092   -0.01497996000014691
0.9186918772645789   0.06304996248976572   0.016991524292068433
0.9186918772645789   0.06304996248976572   0.016991524292068433
0.9186918772645789   0.06304996248976572   0.016991524292068433
0.9186918772645789   0.06304996248976572   0.016991524292068433
0.6594194537219464   -0.006569035504256998   -0.03067349771867734
0.6594194537219464   -0.006569035504256998   -0.03067349771867734
0.6594194537219464   -0.006569035504256998   -0.03067349771867734
0.6594194537219464   -0.006569035504256998   -0.03067349771867734
0.9034031866130101   0.01994281753942892   -0.016344784015438665
0.9034031866130101   0.01994281753942892   -0.016344784015438665
0.9034031866130101   0.01994281753942892   -0.016344784015438665
0.9034031866130101   0.01994281753942892   -0.016344784015438665
0.44634482229411365   -0.03207980199256841   0.013689756850863072
0.44634482229411365   -0.03207980199256841   0.013689756850863072
0.44634482229411365   -0.03207980199256841   0.013689756850863072
0.44634482229411365   -0.03207980199256841   0.013689756850863072
0.4165462367007312   -0.07276843035848281   -0.010292898829106258
0.4165462367007312   -0.07276843035848281   -0.010292898829106258
0.4165462367007312   -0.07276843035848281   -0.010292898829106258
0.4165462367007312   -0.07276843035848281   -0.010292898829106258
0.8908696328231895   0.05945779870298207   0.02218603019414931
0.8908696328231895   0.05945779870298207   0.02218603019414931
0.8908696328231895   0.05945779870298207   0.02218603019414931
0.8908696328231895   0.05945779870298207   0.02218603019414931
0.6270892498698373   -0.011429286732641264   -0.040211554890199924
0.6270892498698373   -0.011429286732641264   -0.040211554890199924
0.6270892498698373   -0.011429286732641264   -0.040211554890199924
0.6270892498698373   -0.011429286732641264   -0.040211554890199924
0.4814608139358859   0.010000646467985388   0.004539813780148824
0.4814608139358859   0.010000646467985388   0.004539813780148824
0.4814608139358859   0.010000646467985388   0.004539813780148824
0.4814608139358859   0.010000646467985388   0.004539813780148824
0.045005942361473095   -0.029090584005775418   -0.0012392769280941181
0.045005942361473095   -0.029090584005775418   -0.0012392769280941181
0.045005942361473095   -0.029090584005775418   -0.0012392769280941181
0.045005942361473095   -0.029090584005775418   -0.0012392769280941181
0.01665877299839838   -0.09259700432280366   -0.017460803235862278
0.01665877299839838   -0.09259700432280366   -0.017460803235862278
0.01665877299839838   -0.09259700432280366   -0.017460803235862278
0.01665877299839838   -0.09259700432280366   -0.017460803235862278
0.4819670891802093   0.05567877627441366   0.023731450224305308
0.4819670891802093   0.05567877627441366   0.023731450224305308
0.4819670891802093   0.05567877627441366   0.023731450224305308
0.4819670891802093   0.05567877627441366   0.023731450224305308
0.25157279497524243   -0.012805803345701347   -0.009871842239558348
0.25157279497524243   -0.012805803345701347   -0.009871842239558348
0.25157279497524243   -0.012805803345701347   -0.009871842239558348
0.25157279497524243   -0.012805803345701347   -0.009871842239558348
0.4681342003224513   0.0026994985259714555   0.007546283683960368
0.4681342003224513   0.0026994985259714555   0.007546283683960368
0.4681342003224513   0.0026994985259714555   0.007546283683960368
0.4681342003224513   0.0026994985259714555   0.007546283683960368
0.031025335476934337   -0.039084052953583026   0.0008590577875968973
0.031025335476934337   -0.039084052953583026   0.0008590577875968973
0.031025335476934337   -0.039084052953583026   0.0008590577875968973
0.031025335476934337   -0.039084052953583026   0.0008590577875968973
0.0010273870276236788   -0.09693742036957136   -0.012210349993874423
0.0010273870276236788   -0.09693742036957136   -0.012210349993874423
0.0010273870276236788   -0.09693742036957136   -0.012210349993874423
0.0010273870276236788   -0.09693742036957136   -0.012210349993874423
0.4648118415608657   0.04778392617695451   0.02616112501510035
0.4648118415608657   0.04778392617695451   0.02616112501510035
0.4648118415608657   0.04778392617695451   0.02616112501510035
0.4648118415608657   0.04778392617695451   0.02616112501510035
0.23353940550631794   -0.020092503793063834   -0.013975247705414647
0.23353940550631794   -0.020092503793063834   -0.013975247705414647
0.23353940550631794   -0.020092503793063834   -0.013975247705414647
0.23353940550631794   -0.020092503793063834   -0.013975247705414647
0.45176167705998294   -0.0021747055223295952   0.01086893420997511
0.45176167705998294   -0.0021747055223295952   0.01086893420997511
0.45176167705998294   -0.0021747055223295952   0.01086893420997511
0.45176167705998294   -0.0021747055223295952   0.01086893420997511
0.014008713913041336   -0.04704762628575161   0.002806490349394116
0.014008713913041336   -0.04704762628575161   0.002806490349394116
0.014008713913041336   -0.04704762628575161   0.002806490349394116
0.014008713913041336   -0.04704762628575161   0.002806490349394116
-0.015739240941539785   -0.09727310853146734   -0.008373562072385501
-0.015739240941539785   -0.09727310853146734   -0.008373562072385501
-0.015739240941539785   -0.09727310853146734   -0.008373562072385501
-0.015739240941539785   -0.09727310853146734   -0.008373562072385501
0.44750144482026993   0.0428147247129149   0.02889998669719117
0.44750144482026993   0.0428147247129149   0.02889998669719117
0.44750144482026993   0.0428147247129149   0.02889998669719117
0.44750144482026993   0.0428147247129149   0.02889998669719117
0.21951076411129852   -0.022927329478435107   -0.01747184882932839
0.21951076411129852   -0.022927329478435107   -0.01747184882932839
0.21951076411129852   -0.022927329478435107   -0.01747184882932839
0.21951076411129852   -0.022927329478435107   -0.01747184882932839
0.046241321521051704   -0.025940060391004667   0.001787095255028185
0.046241321521051704   -0.025940060391004667   0.001787095255028185
0.046241321521051704   -0.025940060391004667   0.001787095255028185
0.046241321521051704   -0.025940060391004667   0.001787095255028185
-0.3741791667963711   -0.04315722756953058   -0.011748098642836727
-0.3741791667963711   -0.04315722756953058   -0.011748098642836727
-0.3741791667963711   -0.04315722756953058   -0.011748098642836727
-0.3741791667963711   -0.04315722756953058   -0.011748098642836727
-0.4056951682861919   -0.12262922141842503   -0.019957318133195227
-0.4056951682861919   -0.12262922141842503   -0.019957318133195227
-0.4056951682861919   -0.12262922141842503   -0.019957318133195227
-0.4056951682861919   -0.12262922141842503   -0.019957318133195227
0.04958815010024181   0.04091149710811377   0.013677580842437463
0.04958815010024181   0.04091149710811377   0.013677580842437463
0.04958815010024181   0.04091149710811377   0.013677580842437463
0.04958815010024181   0.04091149710811377   0.013677580842437463
-0.17150012730338757   -0.03590294108707692   -0.009767415020650663
-0.17150012730338757   -0.03590294108707692   -0.009767415020650663
-0.17150012730338757   -0.03590294108707692   -0.009767415020650663
-0.17150012730338757   -0.03590294108707692   -0.009767415020650663
0.03448729738347049   -0.028986918153762142   0.008071732520456782
0.03448729738347049   -0.028986918153762142   0.008071732520456782
0.03448729738347049   -0.028986918153762142   0.008071732520456782
0.03448729738347049   -0.028986918153762142   0.008071732520456782
-0.3894303668485626   -0.051566857435696244   -0.009695674927777521
-0.3894303668485626   -0.051566857435696244   -0.009695674927777521
-0.3894303668485626   -0.051566857435696244   -0.009695674927777521
-0.3894303668485626   -0.051566857435696244   -0.009695674927777521
-0.4240155940520778   -0.12737253521759279   -0.01330615463526413
-0.4240155940520778   -0.12737253521759279   -0.01330615463526413
-0.4240155940520778   -0.12737253521759279   -0.01330615463526413
-0.4240155940520778   -0.12737253521759279   -0.01330615463526413
0.032440642557001756   0.032466314574264674   0.015452192709179921
0.032440642557001756   0.032466314574264674   0.015452192709179921
0.032440642557001756   0.032466314574264674   0.015452192709179921
0.032440642557001756   0.032466314574264674   0.015452192709179921
-0.18666712998820528   -0.04090457697371577   -0.011706035037394546
-0.18666712998820528   -0.04090457697371577   -0.011706035037394546
-0.18666712998820528   -0.04090457697371577   -0.011706035037394546
-0.18666712998820528   -0.04090457697371577   -0.011706035037394546
0.01826346853981576   -0.03404080361055373   0.01107344080806833
0.01826346853981576   -0.03404080361055373   0.01107344080806833
0.01826346853981576   -0.03404080361055373   0.01107344080806833
0.01826346853981576   -0.03404080361055373   0.01107344080806833
-0.4095883037068626   -0.060615300704750914   -0.007926937422033679
-0.4095883037068626   -0.060615300704750914   -0.007926937422033679
-0.4095883037068626   -0.060615300704750914   -0.007926937422033679
-0.4095883037068626   -0.060615300704750914   -0.007926937422033679
-0.44433168185730404   -0.13081155064309308   -0.011824510461162492
-0.44433168185730404   -0.13081155064309308   -0.011824510461162492
-0.44433168185730404   -0.13081155064309308   -0.011824510461162492
-0.44433168185730404   -0.13081155064309308   -0.011824510461162492
0.013891359809818144   0.025261490305863377   0.017244842847072474
0.013891359809818144   0.025261490305863377   0.017244842847072474
0.013891359809818144   0.025261490305863377   0.017244842847072474
0.013891359809818144   0.025261490305863377   0.017244842847072474
-0.20635803451655158   -0.04689135207195298   -0.016391361572256895
-0.20635803451655158   -0.04689135207195298   -0.016391361572256895
-0.20635803451655158   -0.04689135207195298   -0.016391361572256895
-0.20635803451655158   -0.04689135207195298   -0.016391361572256895
-0.36823730028291934   -0.031046744496883792   0.0058507508517675316
-0.36823730028291934   -0.031046744496883792   0.0058507508517675316
-0.36823730028291934   -0.031046744496883792   0.0058507508517675316
-0.36823730028291934   -0.031046744496883792   0.0058507508517675316
-0.783737481330173   -0.050532297990522085   -0.020614083711345238
-0.783737481330173   -0.050532297990522085   -0.020614083711345238
-0.783737481330173   -0.050532297990522085   -0.020614083711345238
-0.783737481330173   -0.050532297990522085   -0.020614083711345238
-0.8195248896504145   -0.12866503701622636   -0.020041218151097287
-0.8195248896504145   -0.12866503701622636   -0.020041218151097287
-0.8195248896504145   -0.12866503701622636   -0.020041218151097287
-0.8195248896504145   -0.12866503701622636   -0.020041218151097287
-0.37011256439948065   0.031358177109567814   0.0039683027723606545
-0.37011256439948065   0.031358177109567814   0.0039683027723606545
-0.37011256439948065   0.031358177109567814   0.0039683027723606545
-0.37011256439948065   0.031358177109567814   0.0039683027723606545
-0.5806004871367344   -0.04265418040258061   -0.00814348536622914
-0.5806004871367344   -0.04265418040258061   -0.00814348536622914
-0.5806004871367344   -0.04265418040258061   -0.00814348536622914
-0.5806004871367344   -0.04265418040258061   -0.00814348536622914
-0.38124771826131143   -0.03422601416135918   0.013876724734135483
-0.38124771826131143   -0.03422601416135918   0.013876724734135483
-0.38124771826131143   -0.03422601416135918   0.013876724734135483
-0.38124771826131143   -0.03422601416135918   0.013876724734135483
-0.806122458542433   -0.060813568499154355   -0.020880531128267234
-0.806122458542433   -0.060813568499154355   -0.020880531128267234
-0.806122458542433   -0.060813568499154355   -0.020880531128267234
-0.806122458542433   -0.060813568499154355   -0.020880531128267234
-0.8448413292092372   -0.13677155865679042   -0.014132539260759826
-0.8448413292092372   -0.13677155865679042   -0.014132539260759826
-0.8448413292092372   -0.13677155865679042   -0.014132539260759826
-0.8448413292092372   -0.13677155865679042   -0.014132539260759826
-0.39049391680217077   0.02210392485669546   0.004825771539979186
-0.39049391680217077   0.02210392485669546   0.004825771539979186
-0.39049391680217077   0.02210392485669546   0.004825771539979186
-0.39049391680217077   0.02210392485669546   0.004825771539979186
-0.5965306959699548   -0.047095640684963996   -0.008136720146276845
-0.5965306959699548   -0.047095640684963996   -0.008136720146276845
-0.5965306959699548   -0.047095640684963996   -0.008136720146276845
-0.5965306959699548   -0.047095640684963996   -0.008136720146276845
-0.4014700203471931   -0.04238412774826457   0.014433306419825393
-0.4014700203471931   -0.04238412774826457   0.014433306419825393
-0.4014700203471931   -0.04238412774826457   0.014433306419825393
-0.4014700203471931   -0.04238412774826457   0.014433306419825393
-0.8323427885822727   -0.07076106896988862   -0.01765032581283938
-0.8323427885822727   -0.07076106896988862   -0.01765032581283938
-0.8323427885822727   -0.07076106896988862   -0.01765032581283938
-0.8323427885822727   -0.07076106896988862   -0.01765032581283938
-0.8734642368047457   -0.1474952263932289   -0.015078735650215358
-0.8734642368047457   -0.1474952263932289   -0.015078735650215358
-0.8734642368047457   -0.1474952263932289   -0.015078735650215358
-0.8734642368047457   -0.1474952263932289   -0.015078735650215358
-0.4125258047549616   0.010653918248460056   0.005739406158988922
-0.4125258047549616   0.010653918248460056   0.005739406158988922
-0.4125258047549616   0.010653918248460056   0.005739406158988922
-0.4125258047549616   0.010653918248460056   0.005739406158988922
-0.6250397785296412   -0.058147650086712785   -0.013308551791069132
-0.6250397785296412   -0.058147650086712785   -0.013308551791069132
-0.6250397785296412   -0.058147650086712785   -0.013308551791069132
-0.6250397785296412   -0.058147650086712785   -0.013308551791069132
-0.7574144259295834   0.03529584442063871   0.02517305088044155
-0.7574144259295834   0.03529584442063871   0.02517305088044155
-0.7574144259295834   0.03529584442063871   0.02517305088044155
-0.7574144259295834   0.03529584442063871   0.02517305088044155
-1.1739997190563698   -0.058456132348143314   -0.015515022924324863
-1.1739997190563698   -0.058456132348143314   -0.015515022924324863
-1.1739997190563698   -0.058456132348143314   -0.015515022924324863
-1.1739997190563698   -0.058456132348143314   -0.015515022924324863
-1.202405566705431   -0.05955498534135387   0.02578287145645166
-1.202405566705431   -0.05955498534135387   0.02578287145645166
-1.202405566705431   -0.05955498534135387   0.02578287145645166
-1.202405566705431   -0.05955498534135387   0.02578287145645166
-0.7860695700739345   0.024620320480886165   -0.006049977765815125
-0.7860695700739345   0.024620320480886165   -0.006049977765815125
-0.7860695700739345   0.024620320480886165   -0.006049977765815125
-0.7860695700739345   0.024620320480886165   -0.006049977765815125
-0.9342754787104612   0.0005950014718936469   0.02377204078622442
-0.9342754787104612   0.0005950014718936469   0.02377204078622442
-0.9342754787104612   0.0005950014718936469   0.02377204078622442
-0.9342754787104612   0.0005950014718936469   0.02377204078622442
-0.7781041562352512   0.02652350403590706   0.03187390787257648
-0.7781041562352512   0.02652350403590706   0.03187390787257648
-0.7781041562352512   0.02652350403590706   0.03187390787257648
-0.7781041562352512   0.02652350403590706   0.03187390787257648
-1.209832907941753   -0.06092009629401393   -0.009988723772497272
-1.209832907941753   -0.06092009629401393   -0.009988723772497272
-1.209832907941753   -0.06092009629401393   -0.009988723772497272
-1.209832907941753   -0.06092009629401393   -0.009988723772497272
-1.2382111364463562   -0.06922548326420344   0.03511034594532823
-1.2382111364463562   -0.06922548326420344   0.03511034594532823
-1.2382111364463562   -0.06922548326420344   0.03511034594532823
-1.2382111364463562   -0.06922548326420344   0.03511034594532823
-0.8123219296472287   0.018042176284899875   -0.006349276392415927
-0.8123219296472287   0.018042176284899875   -0.006349276392415927
-0.8123219296472287   0.018042176284899875   -0.006349276392415927
-0.8123219296472287   0.018042176284899875   -0.006349276392415927
-0.9807077732111148   -0.010696694046051863   0.01319577346675372
-0.9807077732111148   -0.010696694046051863   0.01319577346675372
-0.9807077732111148   -0.010696694046051863   0.01319577346675372
-0.9807077732111148   -0.010696694046051863   0.01319577346675372
-0.8050372796326428   0.01667537408546868   0.031440775879944725
-0.8050372796326428   0.01667537408546868   0.031440775879944725
-0.8050372796326428   0.01667537408546868   0.031440775879944725
-0.8050372796326428   0.01667537408546868   0.031440775879944725
-1.246868194363502   -0.06923108896732719   -0.008169337937277733
-1.246868194363502   -0.06923108896732719   -0.008169337937277733
-1.246868194363502   -0.06923108896732719   -0.008169337937277733
-1.246868194363502   -0.06923108896732719   -0.008169337937277733
-1.2891758191809541   -0.108466173854051   0.030390392575606134
-1.2891758191809541   -0.108466173854051   0.030390392575606134
-1.2891758191809541   -0.108466173854051   0.030390392575606134
-1.2891758191809541   -0.108466173854051   0.030390392575606134
-0.8425930126957643   -0.0022247372141600275   -0.005993104284392717
-0.8425930126957643   -0.0022247372141600275   -0.005993104284392717
-0.8425930126957643   -0.0022247372141600275   -0.005993104284392717
-0.8425930126957643   -0.0022247372141600275   -0.005993104284392717
-1.0000972265944794   -0.024981179542749393   0.003990651466129702
-1.0000972265944794   -0.024981179542749393   0.003990651466129702
-1.0000972265944794   -0.024981179542749393   0.003990651466129702
-1.0000972265944794   -0.024981179542749393   0.003990651466129702
0.7742437381818095   0.0416398256840157   -0.027200820273358142
0.7742437381818095   0.0416398256840157   -0.027200820273358142
0.7742437381818095   0.0416398256840157   -0.027200820273358142
0.7742437381818095   0.0416398256840157   -0.027200820273358142
0.3832080178708458   -0.0008254154295768978   0.009743094924374633
0.3832080178708458   -0.0008254154295768978   0.009743094924374633
0.3832080178708458   -0.0008254154295768978   0.009743094924374633
0.3832080178708458   -0.0008254154295768978   0.009743094924374633
0.35067059994302824   -0.056877901795625005   -0.025039183237138433
0.35067059994302824   -0.056877901795625005   -0.025039183237138433
0.35067059994302824   -0.056877901795625005   -0.025039183237138433
0.35067059994302824   -0.056877901795625005   -0.025039183237138433
0.7598766681401639   0.062402644081878955   0.012233572219949272
0.7598766681401639   0.062402644081878955   0.012233572219949272
0.7598766681401639   0.062402644081878955   0.012233572219949272
0.7598766681401639   0.062402644081878955   0.012233572219949272
0.5376863490339251   0.004729363213622495   -0.01770691108902475
0.5376863490339251   0.004729363213622495   -0.01770691108902475
0.5376863490339251   0.004729363213622495   -0.01770691108902475
0.5376863490339251   0.004729363213622495   -0.01770691108902475
0.7440101863121067   0.02154884463160686   -0.026245037470057568
0.7440101863121067   0.02154884463160686   -0.026245037470057568
0.7440101863121067   0.02154884463160686   -0.026245037470057568
0.7440101863121067   0.02154884463160686   -0.026245037470057568
0.36586545108945867   -0.016695733026979687   0.010752903726361347
0.36586545108945867   -0.016695733026979687   0.010752903726361347
0.36586545108945867   -0.016695733026979687   0.010752903726361347
0.36586545108945867   -0.016695733026979687   0.010752903726361347
0.3344010541173486   -0.06156465681238836   -0.021790749071471646
0.3344010541173486   -0.06156465681238836   -0.021790749071471646
0.3344010541173486   -0.06156465681238836   -0.021790749071471646
0.3344010541173486   -0.06156465681238836   -0.021790749071471646
0.7355548461984194   0.055939814505977487   0.01678837709937523
0.7355548461984194   0.055939814505977487   0.01678837709937523
0.7355548461984194   0.055939814505977487   0.01678837709937523
0.7355548461984194   0.055939814505977487   0.01678837709937523
0.5251159177444331   -0.003763957380859481   -0.023128596692747715
0.5251159177444331   -0.003763957380859481   -0.023128596692747715
0.5251159177444331   -0.003763957380859481   -0.023128596692747715
0.5251159177444331   -0.003763957380859481   -0.023128596692747715
0.7200196271046491   0.015773022355557303   -0.020720926219043728
0.7200196271046491   0.015773022355557303   -0.020720926219043728
0.7200196271046491   0.015773022355557303   -0.020720926219043728
0.7200196271046491   0.015773022355557303   -0.020720926219043728
0.34932621020704197   -0.022007927666043578   0.013278302230647243
0.34932621020704197   -0.022007927666043578   0.013278302230647243
0.34932621020704197   -0.022007927666043578   0.013278302230647243
0.34932621020704197   -0.022007927666043578   0.013278302230647243
0.31956550942690276   -0.06280235529158143   -0.017810616382381524
0.31956550942690276   -0.06280235529158143   -0.017810616382381524
0.31956550942690276   -0.06280235529158143   -0.017810616382381524
0.31956550942690276   -0.06280235529158143   -0.017810616382381524
0.7081364032621725   0.050389581436058414   0.02095118696125788
0.7081364032621725   0.050389581436058414   0.02095118696125788
0.7081364032621725   0.050389581436058414   0.02095118696125788
0.7081364032621725   0.050389581436058414   0.02095118696125788
0.4953015768852752   -0.009563710776640907   -0.03134952895107057
0.4953015768852752   -0.009563710776640907   -0.03134952895107057
0.4953015768852752   -0.009563710776640907   -0.03134952895107057
0.4953015768852752   -0.009563710776640907   -0.03134952895107057
0.3900156355356873   0.04062530298207281   0.0023304648369327444
0.3900156355356873   0.04062530298207281   0.0023304648369327444
0.3900156355356873   0.04062530298207281   0.0023304648369327444
0.3900156355356873   0.04062530298207281   0.0023304648369327444
0.01243212538756316   -0.013090234539582895   -0.0017070746835115922
0.01243212538756316   -0.013090234539582895   -0.0017070746835115922
0.01243212538756316   -0.013090234539582895   -0.0017070746835115922
0.01243212538756316   -0.013090234539582895   -0.0017070746835115922
-0.012098643749633525   -0.05130112065233533   -0.017102301479627425
-0.012098643749633525   -0.05130112065233533   -0.017102301479627425
-0.012098643749633525   -0.05130112065233533   -0.017102301479627425
-0.012098643749633525   -0.05130112065233533   -0.017102301479627425
0.38259420415625467   0.05659626730499162   0.021104668728370114
0.38259420415625467   0.05659626730499162   0.021104668728370114
0.38259420415625467   0.05659626730499162   0.021104668728370114
0.38259420415625467   0.05659626730499162   0.021104668728370114
0.19022085846505155   0.008067999134128374   -0.0021292378201743355
0.19022085846505155   0.008067999134128374   -0.0021292378201743355
0.19022085846505155   0.008067999134128374   -0.0021292378201743355
0.19022085846505155   0.008067999134128374   -0.0021292378201743355
0.37399919657204866   0.030236739441989235   0.004489158670343881
0.37399919657204866   0.030236739441989235   0.004489158670343881
0.37399919657204866   0.030236739441989235   0.004489158670343881
0.37399919657204866   0.030236739441989235   0.004489158670343881
-0.003347868756576589   -0.024785825380486886   0.0001362782138088119
-0.003347868756576589   -0.024785825380486886   0.0001362782138088119
-0.003347868756576589   -0.024785825380486886   0.0001362782138088119
-0.003347868756576589   -0.024785825380486886   0.0001362782138088119
-0.02750903526342751   -0.058873620150918946   -0.01480572979994304
-0.02750903526342751   -0.058873620150918946   -0.01480572979994304
-0.02750903526342751   -0.058873620150918946   -0.01480572979994304
-0.02750903526342751   -0.058873620150918946   -0.01480572979994304
0.36513418533775605   0.04697037753063085   0.023339872687542926
0.36513418533775605   0.04697037753063085   0.023339872687542926
0.36513418533775605   0.04697037753063085   0.023339872687542926
0.36513418533775605   0.04697037753063085   0.023339872687542926
0.17135542316157246   -0.0014344453831630494   -0.007522432448393332
0.17135542316157246   -0.0014344453831630494   -0.007522432448393332
0.17135542316157246   -0.0014344453831630494   -0.007522432448393332
0.17135542316157246   -0.0014344453831630494   -0.007522432448393332
0.3568651741191088   0.02229617209213757   0.00666902203280329
0.3568651741191088   0.02229617209213757   0.00666902203280329
0.3568651741191088   0.02229617209213757   0.00666902203280329
0.3568651741191088   0.02229617209213757   0.00666902203280329
-0.01922630805269468   -0.03418569872033953   0.0019199848231416811
-0.01922630805269468   -0.03418569872033953   0.0019199848231416811
-0.01922630805269468   -0.03418569872033953   0.0019199848231416811
-0.01922630805269468   -0.03418569872033953   0.0019199848231416811
-0.04275685067751386   -0.0633795324879098   -0.011813003809148561
-0.04275685067751386   -0.0633795324879098   -0.011813003809148561
-0.04275685067751386   -0.0633795324879098   -0.011813003809148561
-0.04275685067751386   -0.0633795324879098   -0.011813003809148561
0.34852644834299545   0.03889315626287428   0.025298566643621512
0.34852644834299545   0.03889315626287428   0.025298566643621512
0.34852644834299545   0.03889315626287428   0.025298566643621512
0.34852644834299545   0.03889315626287428   0.025298566643621512
0.1574730169653301   -0.00745537400499198   -0.011478410626252319
0.1574730169653301   -0.00745537400499198   -0.011478410626252319
0.1574730169653301   -0.00745537400499198   -0.011478410626252319
0.1574730169653301   -0.00745537400499198   -0.011478410626252319
0.025325618291055823   0.04085615019615783   0.008814005098209076
0.025325618291055823   0.04085615019615783   0.008814005098209076
0.025325618291055823   0.04085615019615783   0.008814005098209076
0.025325618291055823   0.04085615019615783   0.008814005098209076
-0.3469665793447085   -0.02267686520261692   -0.011908748295051815
-0.3469665793447085   -0.02267686520261692   -0.011908748295051815
-0.3469665793447085   -0.02267686520261692   -0.011908748295051815
-0.3469665793447085   -0.02267686520261692   -0.011908748295051815
-0.366102565635739   -0.047148363319725904   -0.010931005560749383
-0.366102565635739   -0.047148363319725904   -0.010931005560749383
-0.366102565635739   -0.047148363319725904   -0.010931005560749383
-0.366102565635739   -0.047148363319725904   -0.010931005560749383
0.012911203129127405   0.04636585374093671   0.010279958520905179
0.012911203129127405   0.04636585374093671   0.010279958520905179
0.012911203129127405   0.04636585374093671   0.010279958520905179
0.012911203129127405   0.04636585374093671   0.010279958520905179
-0.1684935797141487   0.005110929858272099   0.0006697959394353584
-0.1684935797141487   0.005110929858272099   0.0006697959394353584
-0.1684935797141487   0.005110929858272099   0.0006697959394353584
-0.1684935797141487   0.005110929858272099   0.0006697959394353584
0.010293698585981703   0.032523957121659   0.011034332424454391
0.010293698585981703   0.032523957121659   0.011034332424454391
0.010293698585981703   0.032523957121659   0.011034332424454391
0.010293698585981703   0.032523957121659   0.011034332424454391
-0.3630627163101119   -0.03288412191796678   -0.009996000334372963
-0.3630627163101119   -0.03288412191796678   -0.009996000334372963
-0.3630627163101119   -0.03288412191796678   -0.009996000334372963
-0.3630627163101119   -0.03288412191796678   -0.009996000334372963
-0.3826366065224209   -0.055462795894303835   -0.009116110554270695
-0.3826366065224209   -0.055462795894303835   -0.009116110554270695
-0.3826366065224209   -0.055462795894303835   -0.009116110554270695
-0.3826366065224209   -0.055462795894303835   -0.009116110554270695
-0.002988038766227998   0.03646685270596494   0.012458779829168704
-0.002988038766227998   0.03646685270596494   0.012458779829168704
-0.002988038766227998   0.03646685270596494   0.012458779829168704
-0.002988038766227998   0.03646685270596494   0.012458779829168704
-0.18433823416663422   -0.0030503078233524647   -0.003371161878919936
-0.18433823416663422   -0.0030503078233524647   -0.003371161878919936
-0.18433823416663422   -0.0030503078233524647   -0.003371161878919936
-0.18433823416663422   -0.0030503078233524647   -0.003371161878919936
-0.005219622430013831   0.024497804898560824   0.01326990931764557
-0.005219622430013831   0.024497804898560824   0.01326990931764557
-0.005219622430013831   0.024497804898560824   0.01326990931764557
-0.005219622430013831   0.024497804898560824   0.01326990931764557
-0.38004535756107904   -0.04313408278934306   -0.008488578852520261
-0.38004535756107904   -0.04313408278934306   -0.008488578852520261
-0.38004535756107904   -0.04313408278934306   -0.008488578852520261
-0.38004535756107904   -0.04313408278934306   -0.008488578852520261
-0.3990530778752322   -0.06199555439949232   -0.006095942994655681
-0.3990530778752322   -0.06199555439949232   -0.006095942994655681
-0.3990530778752322   -0.06199555439949232   -0.006095942994655681
-0.3990530778752322   -0.06199555439949232   -0.006095942994655681
-0.019462322306357728   0.027141819868537725   0.014138285690184521
-0.019462322306357728   0.027141819868537725   0.014138285690184521
-0.019462322306357728   0.027141819868537725   0.014138285690184521
-0.019462322306357728   0.027141819868537725   0.014138285690184521
-0.2013890263096733   -0.01134863290342044   -0.007793587787939258
-0.2013890263096733   -0.01134863290342044   -0.007793587787939258
-0.2013890263096733   -0.01134863290342044   -0.007793587787939258
-0.2013890263096733   -0.01134863290342044   -0.007793587787939258
-0.32726128648127184   0.048061606571192655   0.015879244248327387
-0.32726128648127184   0.048061606571192655   0.015879244248327387
-0.32726128648127184   0.048061606571192655   0.015879244248327387
-0.32726128648127184   0.048061606571192655   0.015879244248327387
-0.6948428788686566   -0.031116845214313196   -0.019464483214625645
-0.6948428788686566   -0.031116845214313196   -0.019464483214625645
-0.6948428788686566   -0.031116845214313196   -0.019464483214625645
-0.6948428788686566   -0.031116845214313196   -0.019464483214625645
-0.709750044061779   -0.03802604865550245   -0.0033153463906617463
-0.709750044061779   -0.03802604865550245   -0.0033153463906617463
-0.709750044061779   -0.03802604865550245   -0.0033153463906617463
-0.709750044061779   -0.03802604865550245   -0.0033153463906617463
-0.34755084819546894   0.035141206121298035   -0.0004619878004207337
-0.34755084819546894   0.035141206121298035   -0.0004619878004207337
-0.34755084819546894   0.035141206121298035   -0.0004619878004207337
-0.34755084819546894   0.035141206121298035   -0.0004619878004207337
-0.5160913382359774   0.005076859521427085   0.003784110043677784
-0.5160913382359774   0.005076859521427085   0.003784110043677784
-0.5160913382359774   0.005076859521427085   0.003784110043677784
-0.5160913382359774   0.005076859521427085   0.003784110043677784
-0.343015546687366   0.039545887724825715   0.017809838136566187
-0.343015546687366   0.039545887724825715   0.017809838136566187
-0.343015546687366   0.039545887724825715   0.017809838136566187
-0.343015546687366   0.039545887724825715   0.017809838136566187
-0.7137205675713766   -0.04186595226052639   -0.019328060333635273
-0.7137205675713766   -0.04186595226052639   -0.019328060333635273
-0.7137205675713766   -0.04186595226052639   -0.019328060333635273
-0.7137205675713766   -0.04186595226052639   -0.019328060333635273
-0.730105393783922   -0.047381672648955736   -0.002990739006525696
-0.730105393783922   -0.047381672648955736   -0.002990739006525696
-0.730105393783922   -0.047381672648955736   -0.002990739006525696
-0.730105393783922   -0.047381672648955736   -0.002990739006525696
-0.3642867807345211   0.02569517610548977   0.0014750463854365133
-0.3642867807345211   0.02569517610548977   0.0014750463854365133
-0.3642867807345211   0.02569517610548977   0.0014750463854365133
-0.3642867807345211   0.02569517610548977   0.0014750463854365133
-0.5302875953150079   -0.00235639428530382   0.0004748082638317587
-0.5302875953150079   -0.00235639428530382   0.0004748082638317587
-0.5302875953150079   -0.00235639428530382   0.0004748082638317587
-0.5302875953150079   -0.00235639428530382   0.0004748082638317587
-0.35931443432261134   0.031484214962255105   0.020547739588217977
-0.35931443432261134   0.031484214962255105   0.020547739588217977
-0.35931443432261134   0.031484214962255105   0.020547739588217977
-0.35931443432261134   0.031484214962255105   0.020547739588217977
-0.7339181722156392   -0.05201114352552995   -0.01742516028854393
-0.7339181722156392   -0.05201114352552995   -0.01742516028854393
-0.7339181722156392   -0.05201114352552995   -0.01742516028854393
-0.7339181722156392   -0.05201114352552995   -0.01742516028854393
-0.748834648358475   -0.05741148801964674   0.0017212184219683596
-0.748834648358475   -0.05741148801964674   0.0017212184219683596
-0.748834648358475   -0.05741148801964674   0.0017212184219683596
-0.748834648358475   -0.05741148801964674   0.0017212184219683596
-0.3820235463953313   0.0144279667223869   0.0026281932829752726
-0.3820235463953313   0.0144279667223869   0.0026281932829752726
-0.3820235463953313   0.0144279667223869   0.0026281932829752726
-0.3820235463953313   0.0144279667223869   0.0026281932829752726
-0.5525976379105191   -0.012863082270534593   -0.004001315487973479
-0.5525976379105191   -0.012863082270534593   -0.004001315487973479
-0.5525976379105191   -0.012863082270534593   -0.004001315487973479
-0.5525976379105191   -0.012863082270534593   -0.004001315487973479
-0.6703388234807447   0.04980570087830802   0.022133247632306806
-0.6703388234807447   0.04980570087830802   0.022133247632306806
-0.6703388234807447   0.04980570087830802   0.022133247632306806
-0.6703388234807447   0.04980570087830802   0.022133247632306806
-1.0260619189147888   -0.04751805436135603   -0.017786578241461543
-1.0260619189147888   -0.04751805436135603   -0.017786578241461543
-1.0260619189147888   -0.04751805436135603   -0.017786578241461543
-1.0260619189147888   -0.04751805436135603   -0.017786578241461543
-1.0398782778526272   -0.0211784657963259   0.018764798626786684
-1.0398782778526272   -0.0211784657963259   0.018764798626786684
-1.0398782778526272   -0.0211784657963259   0.018764798626786684
-1.0398782778526272   -0.0211784657963259   0.018764798626786684
-0.6991999792664393   0.021267885984878165   -0.009858957054343927
-0.6991999792664393   0.021267885984878165   -0.009858957054343927
-0.6991999792664393   0.021267885984878165   -0.009858957054343927
-0.6991999792664393   0.021267885984878165   -0.009858957054343927
-0.8208710474635506   0.010254889322457938   0.01896688662712078
-0.8208710474635506   0.010254889322457938   0.01896688662712078
-0.8208710474635506   0.010254889322457938   0.01896688662712078
-0.8208710474635506   0.010254889322457938   0.01896688662712078
-0.6862155988559121   0.050889397061909675   0.025441433921249375
-0.6862155988559121   0.050889397061909675   0.025441433921249375
-0.6862155988559121   0.050889397061909675   0.025441433921249375
-0.6862155988559121   0.050889397061909675   0.025441433921249375
-1.0520975081709174   -0.05003482678111909   -0.013474991979852032
-1.0520975081709174   -0.05003482678111909   -0.013474991979852032
-1.0520975081709174   -0.05003482678111909   -0.013474991979852032
-1.0520975081709174   -0.05003482678111909   -0.013474991979852032
-1.065169827286213   -0.026074964209303303   0.025912918775552483
-1.065169827286213   -0.026074964209303303   0.025912918775552483
-1.065169827286213   -0.026074964209303303   0.025912918775552483
-1.065169827286213   -0.026074964209303303   0.025912918775552483
-0.7186157282149015   0.01584151516654586   -0.008765598976925235
-0.7186157282149015   0.01584151516654586   -0.008765598976925235
-0.7186157282149015   0.01584151516654586   -0.008765598976925235
-0.7186157282149015   0.01584151516654586   -0.008765598976925235
-0.8558837562550873   0.005081126062552038   0.012306862382861973
-0.8558837562550873   0.005081126062552038   0.012306862382861973
-0.8558837562550873   0.005081126062552038   0.012306862382861973
-0.8558837562550873   0.005081126062552038   0.012306862382861973
-0.7042713285058003   0.04723477894891173   0.031563135786214995
-0.7042713285058003   0.04723477894891173   0.031563135786214995
-0.7042713285058003   0.04723477894891173   0.031563135786214995
-0.7042713285058003   0.04723477894891173   0.031563135786214995
-1.0787699741244308   -0.05672397512078331   -0.011438804504041875
-1.0787699741244308   -0.05672397512078331   -0.011438804504041875
-1.0787699741244308   -0.05672397512078331   -0.011438804504041875
-1.0787699741244308   -0.05672397512078331   -0.011438804504041875
-1.0994820343912326   -0.04726364408984046   0.02570138303267351
-1.0994820343912326   -0.04726364408984046   0.02570138303267351
-1.0994820343912326   -0.04726364408984046   0.02570138303267351
-1.0994820343912326   -0.04726364408984046   0.02570138303267351
-0.7394619259115031   -0.0005791458668402971   -0.008247511495978369
-0.7394619259115031   -0.0005791458668402971   -0.008247511495978369
-0.7394619259115031   -0.0005791458668402971   -0.008247511495978369
-0.7394619259115031   -0.0005791458668402971   -0.008247511495978369
-0.8657842759289444   -0.002432177097627025   0.010163752983650118
-0.8657842759289444   -0.002432177097627025   0.010163752983650118
-0.8657842759289444   -0.002432177097627025   0.010163752983650118
-0.8657842759289444   -0.002432177097627025   0.010163752983650118
0.5894587986345062   0.03292709962371734   -0.027745110572814584
0.5894587986345062   0.03292709962371734   -0.027745110572814584
0.5894587986345062   0.03292709962371734   -0.027745110572814584
0.5894587986345062   0.03292709962371734   -0.027745110572814584
0.27990610238381014   0.005243465842500253   0.01048996217164858
0.27990610238381014   0.005243465842500253   0.01048996217164858
0.27990610238381014   0.005243465842500253   0.01048996217164858
0.27990610238381014   0.005243465842500253   0.01048996217164858
0.24912487525015814   -0.04747512400300163   -0.026403475314447845
0.24912487525015814   -0.04747512400300163   -0.026403475314447845
0.24912487525015814   -0.04747512400300163   -0.026403475314447845
0.24912487525015814   -0.04747512400300163   -0.026403475314447845
0.576916591851363   0.05398012191350532   0.012984553226108746
0.576916591851363   0.05398012191350532   0.012984553226108746
0.576916591851363   0.05398012191350532   0.012984553226108746
0.576916591851363   0.05398012191350532   0.012984553226108746
0.4019613561784288   0.005421053811877921   -0.011896288680491106
0.4019613561784288   0.005421053811877921   -0.011896288680491106
0.4019613561784288   0.005421053811877921   -0.011896288680491106
0.4019613561784288   0.005421053811877921   -0.011896288680491106
0.5612679634061425   0.014982079394822628   -0.02626054648131091
0.5612679634061425   0.014982079394822628   -0.02626054648131091
0.5612679634061425   0.014982079394822628   -0.02626054648131091
0.5612679634061425   0.014982079394822628   -0.02626054648131091
0.26446807895780894   -0.00878250622188892   0.01161992544269156
0.26446807895780894   -0.00878250622188892   0.01161992544269156
0.26446807895780894   -0.00878250622188892   0.01161992544269156
0.26446807895780894   -0.00878250622188892   0.01161992544269156
0.23476244103648863   -0.05208547112713012   -0.022545645904262748
0.23476244103648863   -0.05208547112713012   -0.022545645904262748
0.23476244103648863   -0.05208547112713012   -0.022545645904262748
0.23476244103648863   -0.05208547112713012   -0.022545645904262748
0.5545796616818985   0.04737792055065522   0.017127818166108477
0.5545796616818985   0.04737792055065522   0.017127818166108477
0.5545796616818985   0.04737792055065522   0.017127818166108477
0.5545796616818985   0.04737792055065522   0.017127818166108477
0.38922808425136285   -0.002606286901038063   -0.016598175736113337
0.38922808425136285   -0.002606286901038063   -0.016598175736113337
0.38922808425136285   -0.002606286901038063   -0.016598175736113337
0.38922808425136285   -0.002606286901038063   -0.016598175736113337
0.5392864487839492   0.009113662040515544   -0.021073987813494992
0.5392864487839492   0.009113662040515544   -0.021073987813494992
0.5392864487839492   0.009113662040515544   -0.021073987813494992
0.5392864487839492   0.009113662040515544   -0.021073987813494992
0.24966264852926   -0.014214218022168143   0.01408413845463019
0.24966264852926   -0.014214218022168143   0.01408413845463019
0.24966264852926   -0.014214218022168143   0.01408413845463019
0.24966264852926   -0.014214218022168143   0.01408413845463019
0.2218354041068417   -0.054817198415100146   -0.01878171313920413
0.2218354041068417   -0.054817198415100146   -0.01878171313920413
0.2218354041068417   -0.054817198415100146   -0.01878171313920413
0.2218354041068417   -0.054817198415100146   -0.01878171313920413
0.5293755448104411   0.04030843865119149   0.020389635463864103
0.5293755448104411   0.04030843865119149   0.020389635463864103
0.5293755448104411   0.04030843865119149   0.020389635463864103
0.5293755448104411   0.04030843865119149   0.020389635463864103
0.3636799076785464   -0.00863409255009516   -0.02362078190980783
0.3636799076785464   -0.00863409255009516   -0.02362078190980783
0.3636799076785464   -0.00863409255009516   -0.02362078190980783
0.3636799076785464   -0.00863409255009516   -0.02362078190980783
0.2847413880221237   0.041412503470979876   -0.0015026472652582348
0.2847413880221237   0.041412503470979876   -0.0015026472652582348
0.2847413880221237   0.041412503470979876   -0.0015026472652582348
0.2847413880221237   0.041412503470979876   -0.0015026472652582348
-0.019002056269514813   -0.004306338394835378   -0.00025134800105072486
-0.019002056269514813   -0.004306338394835378   -0.00025134800105072486
-0.019002056269514813   -0.004306338394835378   -0.00025134800105072486
-0.019002056269514813   -0.004306338394835378   -0.00025134800105072486
-0.04068880763443412   -0.03564990799460317   -0.016843195978915104
-0.04068880763443412   -0.03564990799460317   -0.016843195978915104
-0.04068880763443412   -0.03564990799460317   -0.016843195978915104
-0.04068880763443412   -0.03564990799460317   -0.016843195978915104
0.27748031117288513   0.04911872461268336   0.018779855683500206
0.27748031117288513   0.04911872461268336   0.018779855683500206
0.27748031117288513   0.04911872461268336   0.018779855683500206
0.27748031117288513   0.04911872461268336   0.018779855683500206
0.12369121275469498   0.012071562788167733   0.000909905575290448
0.12369121275469498   0.012071562788167733   0.000909905575290448
0.12369121275469498   0.012071562788167733   0.000909905575290448
0.12369121275469498   0.012071562788167733   0.000909905575290448
0.27010495369347864   0.030068201705494426   0.0009535911936601671
0.27010495369347864   0.030068201705494426   0.0009535911936601671
0.27010495369347864   0.030068201705494426   0.0009535911936601671
0.27010495369347864   0.030068201705494426   0.0009535911936601671
-0.03318915206379329   -0.016475086996179326   0.0014802608758652021
-0.03318915206379329   -0.016475086996179326   0.0014802608758652021
-0.03318915206379329   -0.016475086996179326   0.0014802608758652021
-0.03318915206379329   -0.016475086996179326   0.0014802608758652021
-0.05421329934991709   -0.044357315114754964   -0.013951105851713094
-0.05421329934991709   -0.044357315114754964   -0.013951105851713094
-0.05421329934991709   -0.044357315114754964   -0.013951105851713094
-0.05421329934991709   -0.044357315114754964   -0.013951105851713094
0.26152986396925804   0.038681011619244116   0.02052498601320798
0.26152986396925804   0.038681011619244116   0.02052498601320798
0.26152986396925804   0.038681011619244116   0.02052498601320798
0.26152986396925804   0.038681011619244116   0.02052498601320798
0.10698704364274221   0.0017380990412004318   -0.0042738844322703536
0.10698704364274221   0.0017380990412004318   -0.0042738844322703536
0.10698704364274221   0.0017380990412004318   -0.0042738844322703536
0.10698704364274221   0.0017380990412004318   -0.0042738844322703536
0.25440135261641145   0.020723770518742912   0.0028396703494784348
0.25440135261641145   0.020723770518742912   0.0028396703494784348
0.25440135261641145   0.020723770518742912   0.0028396703494784348
0.25440135261641145   0.020723770518742912   0.0028396703494784348
-0.04719261661005937   -0.026507902627247372   0.0033028953600678854
-0.04719261661005937   -0.026507902627247372   0.0033028953600678854
-0.04719261661005937   -0.026507902627247372   0.0033028953600678854
-0.04719261661005937   -0.026507902627247372   0.0033028953600678854
-0.06755568914974187   -0.05162993218212239   -0.011234738088624522
-0.06755568914974187   -0.05162993218212239   -0.011234738088624522
-0.06755568914974187   -0.05162993218212239   -0.011234738088624522
-0.06755568914974187   -0.05162993218212239   -0.011234738088624522
0.24680249115431152   0.029067977582474733   0.022168546100569068
0.24680249115431152   0.029067977582474733   0.022168546100569068
0.24680249115431152   0.029067977582474733   0.022168546100569068
0.24680249115431152   0.029067977582474733   0.022168546100569068
0.09423126087495043   -0.006044366610443892   -0.00857562561953361
0.09423126087495043   -0.006044366610443892   -0.00857562561953361
0.09423126087495043   -0.006044366610443892   -0.00857562561953361
0.09423126087495043   -0.006044366610443892   -0.00857562561953361
-0.006899813469200858   0.049090785960526406   0.006862741645157273
-0.006899813469200858   0.049090785960526406   0.006862741645157273
-0.006899813469200858   0.049090785960526406   0.006862741645157273
-0.006899813469200858   0.049090785960526406   0.006862741645157273
-0.31157082005823294   -0.013772459620230618   -0.010331114538209736
-0.31157082005823294   -0.013772459620230618   -0.010331114538209736
-0.31157082005823294   -0.013772459620230618   -0.010331114538209736
-0.31157082005823294   -0.013772459620230618   -0.010331114538209736
-0.3255429955008794   -0.02499865561083143   -0.008088389607928721
-0.3255429955008794   -0.02499865561083143   -0.008088389607928721
-0.3255429955008794   -0.02499865561083143   -0.008088389607928721
-0.3255429955008794   -0.02499865561083143   -0.008088389607928721
-0.02061404170797608   0.039661002557123015   0.008219723101648892
-0.02061404170797608   0.039661002557123015   0.008219723101648892
-0.02061404170797608   0.039661002557123015   0.008219723101648892
-0.02061404170797608   0.039661002557123015   0.008219723101648892
-0.1657614326724261   0.012566921030552944   0.003246263673389666
-0.1657614326724261   0.012566921030552944   0.003246263673389666
-0.1657614326724261   0.012566921030552944   0.003246263673389666
-0.1657614326724261   0.012566921030552944   0.003246263673389666
-0.020352808029658373   0.03957869884589218   0.009608195204468269
-0.020352808029658373   0.03957869884589218   0.009608195204468269
-0.020352808029658373   0.03957869884589218   0.009608195204468269
-0.020352808029658373   0.03957869884589218   0.009608195204468269
-0.3255453171584931   -0.02465743987889657   -0.008441213627932057
-0.3255453171584931   -0.02465743987889657   -0.008441213627932057
-0.3255453171584931   -0.02465743987889657   -0.008441213627932057
-0.3255453171584931   -0.02465743987889657   -0.008441213627932057
-0.3393975417328562   -0.03442086672943762   -0.00557031438121597
-0.3393975417328562   -0.03442086672943762   -0.00557031438121597
-0.3393975417328562   -0.03442086672943762   -0.00557031438121597
-0.3393975417328562   -0.03442086672943762   -0.00557031438121597
-0.03471819136057204   0.028914707137094826   0.010252411843164283
-0.03471819136057204   0.028914707137094826   0.010252411843164283
-0.03471819136057204   0.028914707137094826   0.010252411843164283
-0.03471819136057204   0.028914707137094826   0.010252411843164283
-0.17975881746095546   0.003250214769310887   -0.0009505128992973993
-0.17975881746095546   0.003250214769310887   -0.0009505128992973993
-0.17975881746095546   0.003250214769310887   -0.0009505128992973993
-0.17975881746095546   0.003250214769310887   -0.0009505128992973993
-0.03417538054315842   0.030094885831842128   0.011786287235485072
-0.03417538054315842   0.030094885831842128   0.011786287235485072
-0.03417538054315842   0.030094885831842128   0.011786287235485072
-0.03417538054315842   0.030094885831842128   0.011786287235485072
-0.3398682866934188   -0.035528979567333994   -0.006815926346133034
-0.3398682866934188   -0.035528979567333994   -0.006815926346133034
-0.3398682866934188   -0.035528979567333994   -0.006815926346133034
-0.3398682866934188   -0.035528979567333994   -0.006815926346133034
-0.35308251873127866   -0.043024703604397634   -0.0030741352495712946
-0.35308251873127866   -0.043024703604397634   -0.0030741352495712946
-0.35308251873127866   -0.043024703604397634   -0.0030741352495712946
-0.35308251873127866   -0.043024703604397634   -0.0030741352495712946
-0.04888438599777363   0.018521436234266307   0.011970409254827959
-0.04888438599777363   0.018521436234266307   0.011970409254827959
-0.04888438599777363   0.018521436234266307   0.011970409254827959
-0.04888438599777363   0.018521436234266307   0.011970409254827959
-0.1944022001401103   -0.006142151942611099   -0.005627944235180994
-0.1944022001401103   -0.006142151942611099   -0.005627944235180994
-0.1944022001401103   -0.006142151942611099   -0.005627944235180994
-0.1944022001401103   -0.006142151942611099   -0.005627944235180994
-0.2925655147470615   0.05618009561034494   0.014742856787069946
-0.2925655147470615   0.05618009561034494   0.014742856787069946
-0.2925655147470615   0.05618009561034494   0.014742856787069946
-0.2925655147470615   0.05618009561034494   0.014742856787069946
-0.5977420154128685   -0.02346305585103249   -0.01856588200775815
-0.5977420154128685   -0.02346305585103249   -0.01856588200775815
-0.5977420154128685   -0.02346305585103249   -0.01856588200775815
-0.5977420154128685   -0.02346305585103249   -0.01856588200775815
-0.6053650319999373   -0.01603993962407846   0.0014464672771651518
-0.6053650319999373   -0.01603993962407846   0.0014464672771651518
-0.6053650319999373   -0.01603993962407846   0.0014464672771651518
-0.6053650319999373   -0.01603993962407846   0.0014464672771651518
-0.3136792969946195   0.02852480442832006   -0.0022933571157769117
-0.3136792969946195   0.02852480442832006   -0.0022933571157769117
-0.3136792969946195   0.02852480442832006   -0.0022933571157769117
-0.3136792969946195   0.02852480442832006   -0.0022933571157769117
-0.4493847139728304   0.011856338283860526   0.005495596883445662
-0.4493847139728304   0.011856338283860526   0.005495596883445662
-0.4493847139728304   0.011856338283860526   0.005495596883445662
-0.4493847139728304   0.011856338283860526   0.005495596883445662
-0.3060458903324402   0.047011909482234354   0.017386571141201408
-0.3060458903324402   0.047011909482234354   0.017386571141201408
-0.3060458903324402   0.047011909482234354   0.017386571141201408
-0.3060458903324402   0.047011909482234354   0.017386571141201408
-0.6129352246030008   -0.03446383061887248   -0.01798060474335829
-0.6129352246030008   -0.03446383061887248   -0.01798060474335829
-0.6129352246030008   -0.03446383061887248   -0.01798060474335829
-0.6129352246030008   -0.03446383061887248   -0.01798060474335829
-0.6215026840831247   -0.02556799216468135   0.0023751083831844745
-0.6215026840831247   -0.02556799216468135   0.0023751083831844745
-0.6215026840831247   -0.02556799216468135   0.0023751083831844745
-0.6215026840831247   -0.02556799216468135   0.0023751083831844745
-0.32773192845257104   0.018569944334785204   -0.00023305904401108024
-0.32773192845257104   0.018569944334785204   -0.00023305904401108024
-0.32773192845257104   0.018569944334785204   -0.00023305904401108024
-0.32773192845257104   0.018569944334785204   -0.00023305904401108024
-0.46117086363328685   0.003574122110746536   0.0015957090231354006
-0.46117086363328685   0.003574122110746536   0.0015957090231354006
-0.46117086363328685   0.003574122110746536   0.0015957090231354006
-0.46117086363328685   0.003574122110746536   0.0015957090231354006
-0.3197756638472313   0.03827169322446247   0.01984651509301021
-0.3197756638472313   0.03827169322446247   0.01984651509301021
-0.3197756638472313   0.03827169322446247   0.01984651509301021
-0.3197756638472313   0.03827169322446247   0.01984651509301021
-0.6290525476621558   -0.044863340028050036   -0.016078861648602394
-0.6290525476621558   -0.044863340028050036   -0.016078861648602394
-0.6290525476621558   -0.044863340028050036   -0.016078861648602394
-0.6290525476621558   -0.044863340028050036   -0.016078861648602394
-0.636125625814582   -0.03584476279031616   0.005366625138710671
-0.636125625814582   -0.03584476279031616   0.005366625138710671
-0.636125625814582   -0.03584476279031616   0.005366625138710671
-0.636125625814582   -0.03584476279031616   0.005366625138710671
-0.3421806345279116   0.007152651802029161   0.0012579303608410385
-0.3421806345279116   0.007152651802029161   0.0012579303608410385
-0.3421806345279116   0.007152651802029161   0.0012579303608410385
-0.3421806345279116   0.007152651802029161   0.0012579303608410385
-0.47925713681392695   -0.00687334101947705   -0.003379516391681752
-0.47925713681392695   -0.00687334101947705   -0.003379516391681752
-0.47925713681392695   -0.00687334101947705   -0.003379516391681752
-0.47925713681392695   -0.00687334101947705   -0.003379516391681752
-0.5751016124146054   0.05038828167789833   0.020784795454626886
-0.5751016124146054   0.05038828167789833   0.020784795454626886
-0.5751016124146054   0.05038828167789833   0.020784795454626886
-0.5751016124146054   0.05038828167789833   0.020784795454626886
-0.8704811910256067   -0.04024193484260091   -0.020292192025980406
-0.8704811910256067   -0.04024193484260091   -0.020292192025980406
-0.8704811910256067   -0.04024193484260091   -0.020292192025980406
-0.8704811910256067   -0.04024193484260091   -0.020292192025980406
-0.8799637265225182   -0.00908931024335008   0.01911880906059376
-0.8799637265225182   -0.00908931024335008   0.01911880906059376
-0.8799637265225182   -0.00908931024335008   0.01911880906059376
-0.8799637265225182   -0.00908931024335008   0.01911880906059376
-0.6018825313384352   0.01460033748605119   -0.011781306525454366
-0.6018825313384352   0.01460033748605119   -0.011781306525454366
-0.6018825313384352   0.01460033748605119   -0.011781306525454366
-0.6018825313384352   0.01460033748605119   -0.011781306525454366
-0.6994416493353041   0.011210300067136997   0.017216208224446444
-0.6994416493353041   0.011210300067136997   0.017216208224446444
-0.6994416493353041   0.011210300067136997   0.017216208224446444
-0.6994416493353041   0.011210300067136997   0.017216208224446444
-0.5874767870112345   0.05046155530508495   0.024386197291515796
-0.5874767870112345   0.05046155530508495   0.024386197291515796
-0.5874767870112345   0.05046155530508495   0.024386197291515796
-0.5874767870112345   0.05046155530508495   0.024386197291515796
-0.8941338317993481   -0.04471488901201756   -0.01610613855488509
-0.8941338317993481   -0.04471488901201756   -0.01610613855488509
-0.8941338317993481   -0.04471488901201756   -0.01610613855488509
-0.8941338317993481   -0.04471488901201756   -0.01610613855488509
-0.9011075183396465   -0.014122634160930181   0.02390544451043937
-0.9011075183396465   -0.014122634160930181   0.02390544451043937
-0.9011075183396465   -0.014122634160930181   0.02390544451043937
-0.9011075183396465   -0.014122634160930181   0.02390544451043937
-0.617051708678182   0.009144273898196886   -0.010082280654980694
-0.617051708678182   0.009144273898196886   -0.010082280654980694
-0.617051708678182   0.009144273898196886   -0.010082280654980694
-0.617051708678182   0.009144273898196886   -0.010082280654980694
-0.7291668375328321   0.005607688638247316   0.010574798589834948
-0.7291668375328321   0.005607688638247316   0.010574798589834948
-0.7291668375328321   0.005607688638247316   0.010574798589834948
-0.7291668375328321   0.005607688638247316   0.010574798589834948
-0.6017716516229705   0.046713254986815084   0.02874902353245922
-0.6017716516229705   0.046713254986815084   0.02874902353245922
-0.6017716516229705   0.046713254986815084   0.02874902353245922
-0.6017716516229705   0.046713254986815084   0.02874902353245922
-0.9159904760094854   -0.05129451586416928   -0.01333746213550814
-0.9159904760094854   -0.05129451586416928   -0.01333746213550814
-0.9159904760094854   -0.05129451586416928   -0.01333746213550814
-0.9159904760094854   -0.05129451586416928   -0.01333746213550814
-0.9290185418374329   -0.03215594933054983   0.023425087111403828
-0.9290185418374329   -0.03215594933054983   0.023425087111403828
-0.9290185418374329   -0.03215594933054983   0.023425087111403828
-0.9290185418374329   -0.03215594933054983   0.023425087111403828
-0.6330878442961738   -0.006146647574807235   -0.009142582484757432
-0.6330878442961738   -0.006146647574807235   -0.009142582484757432
-0.6330878442961738   -0.006146647574807235   -0.009142582484757432
-0.6330878442961738   -0.006146647574807235   -0.009142582484757432
-0.736582854472476   -0.0014083274954131975   0.0084031708688449
-0.736582854472476   -0.0014083274954131975   0.0084031708688449
-0.736582854472476   -0.0014083274954131975   0.0084031708688449
-0.736582854472476   -0.0014083274954131975   0.0084031708688449
0.4073344209718659   0.023214120895086884   -0.02708508115347406
0.4073344209718659   0.023214120895086884   -0.02708508115347406
0.4073344209718659   0.023214120895086884   -0.02708508115347406
0.4073344209718659   0.023214120895086884   -0.02708508115347406
0.17396798060794438   0.010742986184769099   0.01154770638375413
0.17396798060794438   0.010742986184769099   0.01154770638375413
0.17396798060794438   0.010742986184769099   0.01154770638375413
0.17396798060794438   0.010742986184769099   0.01154770638375413
0.14610943579219296   -0.0398352425068598   -0.025285112816546856
0.14610943579219296   -0.0398352425068598   -0.025285112816546856
0.14610943579219296   -0.0398352425068598   -0.025285112816546856
0.14610943579219296   -0.0398352425068598   -0.025285112816546856
0.39798890225631717   0.0460174159818561   0.014039435832055122
0.39798890225631717   0.0460174159818561   0.014039435832055122
0.39798890225631717   0.0460174159818561   0.014039435832055122
0.39798890225631717   0.0460174159818561   0.014039435832055122
0.26645883325641223   0.005887654768822949   -0.007273119937513334
0.26645883325641223   0.005887654768822949   -0.007273119937513334
0.26645883325641223   0.005887654768822949   -0.007273119937513334
0.26645883325641223   0.005887654768822949   -0.007273119937513334
0.38240175616437533   0.007420390334771515   -0.0252992689805727
0.38240175616437533   0.007420390334771515   -0.0252992689805727
0.38240175616437533   0.007420390334771515   -0.0252992689805727
0.38240175616437533   0.007420390334771515   -0.0252992689805727
0.16140310606245958   -0.0015316926814504944   0.012879688709379715
0.16140310606245958   -0.0015316926814504944   0.012879688709379715
0.16140310606245958   -0.0015316926814504944   0.012879688709379715
0.16140310606245958   -0.0015316926814504944   0.012879688709379715
0.13426412253843667   -0.04442044149022903   -0.021548452894850918
0.13426412253843667   -0.04442044149022903   -0.021548452894850918
0.13426412253843667   -0.04442044149022903   -0.021548452894850918
0.13426412253843667   -0.04442044149022903   -0.021548452894850918
0.37848661179269616   0.03950697529138333   0.018138622057738654
0.37848661179269616   0.03950697529138333   0.018138622057738654
0.37848661179269616   0.03950697529138333   0.018138622057738654
0.37848661179269616   0.03950697529138333   0.018138622057738654
0.25430747056605935   -0.0016993014977439158   -0.011749040207912958
0.25430747056605935   -0.0016993014977439158   -0.011749040207912958
0.25430747056605935   -0.0016993014977439158   -0.011749040207912958
0.25430747056605935   -0.0016993014977439158   -0.011749040207912958
0.36314423129002243   0.0015433415051736565   -0.020609646669423207
0.36314423129002243   0.0015433415051736565   -0.020609646669423207
0.36314423129002243   0.0015433415051736565   -0.020609646669423207
0.36314423129002243   0.0015433415051736565   -0.020609646669423207
0.14916875512501326   -0.0068945556201168365   0.015448824167920717
0.14916875512501326   -0.0068945556201168365   0.015448824167920717
0.14916875512501326   -0.0068945556201168365   0.015448824167920717
0.14916875512501326   -0.0068945556201168365   0.015448824167920717
0.1236892373353641   -0.04850030205472895   -0.017967760590661144
0.1236892373353641   -0.04850030205472895   -0.017967760590661144
0.1236892373353641   -0.04850030205472895   -0.017967760590661144
0.1236892373353641   -0.04850030205472895   -0.017967760590661144
0.3556962964433536   0.031006675958257165   0.02073819615090699
0.3556962964433536   0.031006675958257165   0.02073819615090699
0.3556962964433536   0.031006675958257165   0.02073819615090699
0.3556962964433536   0.031006675958257165   0.02073819615090699
0.2334720735041544   -0.007891007629114377   -0.017942407095543553
0.2334720735041544   -0.007891007629114377   -0.017942407095543553
0.2334720735041544   -0.007891007629114377   -0.017942407095543553
0.2334720735041544   -0.007891007629114377   -0.017942407095543553
0.1752899331562849   0.03365201679381609   -0.004751561483593102
0.1752899331562849   0.03365201679381609   -0.004751561483593102
0.1752899331562849   0.03365201679381609   -0.004751561483593102
0.1752899331562849   0.03365201679381609   -0.004751561483593102
-0.05335721351245016   0.0026727499137808326   0.0014868708542634381
-0.05335721351245016   0.0026727499137808326   0.0014868708542634381
-0.05335721351245016   0.0026727499137808326   0.0014868708542634381
-0.05335721351245016   0.0026727499137808326   0.0014868708542634381
-0.07240407468660973   -0.027737729684391817   -0.015618029942380802
-0.07240407468660973   -0.027737729684391817   -0.015618029942380802
-0.07240407468660973   -0.027737729684391817   -0.015618029942380802
-0.07240407468660973   -0.027737729684391817   -0.015618029942380802
0.1705760757182778   0.04041009678179442   0.016802747525225877
0.1705760757182778   0.04041009678179442   0.016802747525225877
0.1705760757182778   0.04041009678179442   0.016802747525225877
0.1705760757182778   0.04041009678179442   0.016802747525225877
0.053823490149381086   0.011649855042855628   0.002075892269845925
0.053823490149381086   0.011649855042855628   0.002075892269845925
0.053823490149381086   0.011649855042855628   0.002075892269845925
0.053823490149381086   0.011649855042855628   0.002075892269845925
0.16302320265678066   0.02196752297722409   -0.002519043977691685
0.16302320265678066   0.02196752297722409   -0.002519043977691685
0.16302320265678066   0.02196752297722409   -0.002519043977691685
0.16302320265678066   0.02196752297722409   -0.002519043977691685
-0.06496692743977399   -0.009410881694483248   0.003240858301889327
-0.06496692743977399   -0.009410881694483248   0.003240858301889327
-0.06496692743977399   -0.009410881694483248   0.003240858301889327
-0.06496692743977399   -0.009410881694483248   0.003240858301889327
-0.08341642005011726   -0.036945080678859654   -0.012659191457935658
-0.08341642005011726   -0.036945080678859654   -0.012659191457935658
-0.08341642005011726   -0.036945080678859654   -0.012659191457935658
-0.08341642005011726   -0.036945080678859654   -0.012659191457935658
0.15706289605584584   0.029755823298016498   0.018269149903950368
0.15706289605584584   0.029755823298016498   0.018269149903950368
0.15706289605584584   0.029755823298016498   0.018269149903950368
0.15706289605584584   0.029755823298016498   0.018269149903950368
0.040214340428536395   0.0011968788412406528   -0.002944839381037361
0.040214340428536395   0.0011968788412406528   -0.002944839381037361
0.040214340428536395   0.0011968788412406528   -0.002944839381037361
0.040214340428536395   0.0011968788412406528   -0.002944839381037361
0.14974891656604858   0.012092366738796864   -0.0006372909858188974
0.14974891656604858   0.012092366738796864   -0.0006372909858188974
0.14974891656604858   0.012092366738796864   -0.0006372909858188974
0.14974891656604858   0.012092366738796864   -0.0006372909858188974
-0.07639047862919866   -0.01956966218851881   0.005095097156318329
-0.07639047862919866   -0.01956966218851881   0.005095097156318329
-0.07639047862919866   -0.01956966218851881   0.005095097156318329
-0.07639047862919866   -0.01956966218851881   0.005095097156318329
-0.09427850757346289   -0.04556715817148607   -0.009926133941460559
-0.09427850757346289   -0.04556715817148607   -0.009926133941460559
-0.09427850757346289   -0.04556715817148607   -0.009926133941460559
-0.09427850757346289   -0.04556715817148607   -0.009926133941460559
0.14486878109079068   0.019551596372205035   0.019878059759540576
0.14486878109079068   0.019551596372205035   0.019878059759540576
0.14486878109079068   0.019551596372205035   0.019878059759540576
0.14486878109079068   0.019551596372205035   0.019878059759540576
0.029331937770723918   -0.007436371712524208   -0.007366438547334769
0.029331937770723918   -0.007436371712524208   -0.007366438547334769
0.029331937770723918   -0.007436371712524208   -0.007366438547334769
0.029331937770723918   -0.007436371712524208   -0.007366438547334769
-0.04492730345371073   0.042403584017220046   0.003905587044521368
-0.04492730345371073   0.042403584017220046   0.003905587044521368
-0.04492730345371073   0.042403584017220046   0.003905587044521368
-0.04492730345371073   0.042403584017220046   0.003905587044521368
-0.2772673815360696   -0.007240661588567787   -0.008456483379140702
-0.2772673815360696   -0.007240661588567787   -0.008456483379140702
-0.2772673815360696   -0.007240661588567787   -0.008456483379140702
-0.2772673815360696   -0.007240661588567787   -0.008456483379140702
-0.2881497995353291   -0.016738101386035348   -0.006240038786789914
-0.2881497995353291   -0.016738101386035348   -0.006240038786789914
-0.2881497995353291   -0.016738101386035348   -0.006240038786789914
-0.2881497995353291   -0.016738101386035348   -0.006240038786789914
-0.05626660877093566   0.030800940109821456   0.00653062984177427
-0.05626660877093566   0.030800940109821456   0.00653062984177427
-0.05626660877093566   0.030800940109821456   0.00653062984177427
-0.05626660877093566   0.030800940109821456   0.00653062984177427
-0.1662431827777691   0.012104178452600811   0.0033077984759963975
-0.1662431827777691   0.012104178452600811   0.0033077984759963975
-0.1662431827777691   0.012104178452600811   0.0033077984759963975
-0.1662431827777691   0.012104178452600811   0.0033077984759963975
-0.0559385322441035   0.03228879195559954   0.0066831606301589325
-0.0559385322441035   0.03228879195559954   0.0066831606301589325
-0.0559385322441035   0.03228879195559954   0.0066831606301589325
-0.0559385322441035   0.03228879195559954   0.0066831606301589325
-0.28851384748254844   -0.018261924652202832   -0.00653645525671908
-0.28851384748254844   -0.018261924652202832   -0.00653645525671908
-0.28851384748254844   -0.018261924652202832   -0.00653645525671908
-0.28851384748254844   -0.018261924652202832   -0.00653645525671908
-0.2992789718416553   -0.02677002358907466   -0.003610461306599916
-0.2992789718416553   -0.02677002358907466   -0.003610461306599916
-0.2992789718416553   -0.02677002358907466   -0.003610461306599916
-0.2992789718416553   -0.02677002358907466   -0.003610461306599916
-0.06782433457540772   0.019837168352577636   0.008518986884174757
-0.06782433457540772   0.019837168352577636   0.008518986884174757
-0.06782433457540772   0.019837168352577636   0.008518986884174757
-0.06782433457540772   0.019837168352577636   0.008518986884174757
-0.17768375798253253   0.0023228250827992056   -0.0010013357956112114
-0.17768375798253253   0.0023228250827992056   -0.0010013357956112114
-0.17768375798253253   0.0023228250827992056   -0.0010013357956112114
-0.17768375798253253   0.0023228250827992056   -0.0010013357956112114
-0.06725872228970237   0.0221608015964101   0.009023415068870973
-0.06725872228970237   0.0221608015964101   0.009023415068870973
-0.06725872228970237   0.0221608015964101   0.009023415068870973
-0.06725872228970237   0.0221608015964101   0.009023415068870973
-0.3000293902747588   -0.02927846298030746   -0.004854114080884335
-0.3000293902747588   -0.02927846298030746   -0.004854114080884335
-0.3000293902747588   -0.02927846298030746   -0.004854114080884335
-0.3000293902747588   -0.02927846298030746   -0.004854114080884335
-0.3102145534849694   -0.03634849570034762   -0.0010490829310458825
-0.3102145534849694   -0.03634849570034762   -0.0010490829310458825
-0.3102145534849694   -0.03634849570034762   -0.0010490829310458825
-0.3102145534849694   -0.03634849570034762   -0.0010490829310458825
-0.0792894100489277   0.009185793499711013   0.010266402010018296
-0.0792894100489277   0.009185793499711013   0.010266402010018296
-0.0792894100489277   0.009185793499711013   0.010266402010018296
-0.0792894100489277   0.009185793499711013   0.010266402010018296
-0.18960098445872026   -0.007467219716911978   -0.0056754411161052485
-0.18960098445872026   -0.007467219716911978   -0.0056754411161052485
-0.18960098445872026   -0.007467219716911978   -0.0056754411161052485
-0.18960098445872026   -0.007467219716911978   -0.0056754411161052485
-0.26165992920542663   0.04994546760759068   0.012394649077915789
-0.26165992920542663   0.04994546760759068   0.012394649077915789
-0.26165992920542663   0.04994546760759068   0.012394649077915789
-0.26165992920542663   0.04994546760759068   0.012394649077915789
-0.4974434062601624   -0.017130658756163028   -0.017138490771915642
-0.4974434062601624   -0.017130658756163028   -0.017138490771915642
-0.4974434062601624   -0.017130658756163028   -0.017138490771915642
-0.4974434062601624   -0.017130658756163028   -0.017138490771915642
-0.5015162786185582   -0.007822442884427225   0.0038073879444253667
-0.5015162786185582   -0.007822442884427225   0.0038073879444253667
-0.5015162786185582   -0.007822442884427225   0.0038073879444253667
-0.5015162786185582   -0.007822442884427225   0.0038073879444253667
-0.28025199671564655   0.02009679001910518   -0.003585916093521501
-0.28025199671564655   0.02009679001910518   -0.003585916093521501
-0.28025199671564655   0.02009679001910518   -0.003585916093521501
-0.28025199671564655   0.02009679001910518   -0.003585916093521501
-0.3829121089478056   0.011375823158237777   0.004787651821310784
-0.3829121089478056   0.011375823158237777   0.004787651821310784
-0.3829121089478056   0.011375823158237777   0.004787651821310784
-0.3829121089478056   0.011375823158237777   0.004787651821310784
-0.27247167027030855   0.04025625202232761   0.015156254129949892
-0.27247167027030855   0.04025625202232761   0.015156254129949892
-0.27247167027030855   0.04025625202232761   0.015156254129949892
-0.27247167027030855   0.04025625202232761   0.015156254129949892
-0.5096442467063319   -0.02832954653008536   -0.016325348848788838
-0.5096442467063319   -0.02832954653008536   -0.016325348848788838
-0.5096442467063319   -0.02832954653008536   -0.016325348848788838
-0.5096442467063319   -0.02832954653008536   -0.016325348848788838
-0.5146442357549152   -0.01776232654882791   0.005017893840267712
-0.5146442357549152   -0.01776232654882791   0.005017893840267712
-0.5146442357549152   -0.01776232654882791   0.005017893840267712
-0.5146442357549152   -0.01776232654882791   0.005017893840267712
-0.29150214491055343   0.009987816309757383   -0.0014841665499282265
-0.29150214491055343   0.009987816309757383   -0.0014841665499282265
-0.29150214491055343   0.009987816309757383   -0.0014841665499282265
-0.29150214491055343   0.009987816309757383   -0.0014841665499282265
-0.3925066304073178   0.0025273862533898434   0.00047330519205459123
-0.3925066304073178   0.0025273862533898434   0.00047330519205459123
-0.3925066304073178   0.0025273862533898434   0.00047330519205459123
-0.3925066304073178   0.0025273862533898434   0.00047330519205459123
-0.2834402863083224   0.031031227605528885   0.017781715165458817
-0.2834402863083224   0.031031227605528885   0.017781715165458817
-0.2834402863083224   0.031031227605528885   0.017781715165458817
-0.2834402863083224   0.031031227605528885   0.017781715165458817
-0.5227405270864475   -0.038840170573897964   -0.014385718792326325
-0.5227405270864475   -0.038840170573897964   -0.014385718792326325
-0.5227405270864475   -0.038840170573897964   -0.014385718792326325
-0.5227405270864475   -0.038840170573897964   -0.014385718792326325
-0.5263183208453482   -0.028373272072450564   0.007765997305879024
-0.5263183208453482   -0.028373272072450564   0.007765997305879024
-0.5263183208453482   -0.028373272072450564   0.007765997305879024
-0.5263183208453482   -0.028373272072450564   0.007765997305879024
-0.3029519043171134   -0.0012511737490192437   0.00016684095690238515
-0.3029519043171134   -0.0012511737490192437   0.00016684095690238515
-0.3029519043171134   -0.0012511737490192437   0.00016684095690238515
-0.3029519043171134   -0.0012511737490192437   0.00016684095690238515
-0.4070121194753868   -0.007791929804473824   -0.0045536347458755635
-0.4070121194753868   -0.007791929804473824   -0.0045536347458755635
-0.4070121194753868   -0.007791929804473824   -0.0045536347458755635
-0.4070121194753868   -0.007791929804473824   -0.0045536347458755635
-0.47743623094595783   0.04631570082259487   0.019451026220349464
-0.47743623094595783   0.04631570082259487   0.019451026220349464
-0.47743623094595783   0.04631570082259487   0.019451026220349464
-0.47743623094595783   0.04631570082259487   0.019451026220349464
-0.7051325226705858   -0.032563570957347576   -0.0220908219203522
-0.7051325226705858   -0.032563570957347576   -0.0220908219203522
-0.7051325226705858   -0.032563570957347576   -0.0220908219203522
-0.7051325226705858   -0.032563570957347576   -0.0220908219203522
-0.7117990537115776   -0.0011751887525181248   0.019257584654841578
-0.7117990537115776   -0.0011751887525181248   0.019257584654841578
-0.7117990537115776   -0.0011751887525181248   0.019257584654841578
-0.7117990537115776   -0.0011751887525181248   0.019257584654841578
-0.5019432495305248   0.007052015145757262   -0.01320192464560407
-0.5019432495305248   0.007052015145757262   -0.01320192464560407
-0.5019432495305248   0.007052015145757262   -0.01320192464560407
-0.5019432495305248   0.007052015145757262   -0.01320192464560407
-0.5726787923600908   0.010624738084287766   0.014577070243726842
-0.5726787923600908   0.010624738084287766   0.014577070243726842
-0.5726787923600908   0.010624738084287766   0.014577070243726842
-0.5726787923600908   0.010624738084287766   0.014577070243726842
-0.48722798865621747   0.044477321918271015   0.02294907295342706
-0.48722798865621747   0.044477321918271015   0.02294907295342706
-0.48722798865621747   0.044477321918271015   0.02294907295342706
-0.48722798865621747   0.044477321918271015   0.02294907295342706
-0.7268136256995044   -0.038899806638646034   -0.018090657398656333
-0.7268136256995044   -0.038899806638646034   -0.018090657398656333
-0.7268136256995044   -0.038899806638646034   -0.018090657398656333
-0.7268136256995044   -0.038899806638646034   -0.018090657398656333
-0.7303717367447967   -0.006651483262969077   0.024258961605834906
-0.7303717367447967   -0.006651483262969077   0.024258961605834906
-0.7303717367447967   -0.006651483262969077   0.024258961605834906
-0.7303717367447967   -0.006651483262969077   0.024258961605834906
-0.5140406191081592   0.0015103037902951116   -0.011236653265078386
-0.5140406191081592   0.0015103037902951116   -0.011236653265078386
-0.5140406191081592   0.0015103037902951116   -0.011236653265078386
-0.5140406191081592   0.0015103037902951116   -0.011236653265078386
-0.5978722016474678   0.004344084973216922   0.007743497759527054
-0.5978722016474678   0.004344084973216922   0.007743497759527054
-0.5978722016474678   0.004344084973216922   0.007743497759527054
-0.5978722016474678   0.004344084973216922   0.007743497759527054
-0.4986405581107069   0.04024812603765368   0.027025829474828136
-0.4986405581107069   0.04024812603765368   0.027025829474828136
-0.4986405581107069   0.04024812603765368   0.027025829474828136
-0.4986405581107069   0.04024812603765368   0.027025829474828136
-0.7459868519359636   -0.04560435970403649   -0.01486373790893208
-0.7459868519359636   -0.04560435970403649   -0.01486373790893208
-0.7459868519359636   -0.04560435970403649   -0.01486373790893208
-0.7459868519359636   -0.04560435970403649   -0.01486373790893208
-0.7552172236336083   -0.02388415483629422   0.024299260545242098
-0.7552172236336083   -0.02388415483629422   0.024299260545242098
-0.7552172236336083   -0.02388415483629422   0.024299260545242098
-0.7552172236336083   -0.02388415483629422   0.024299260545242098
-0.5267111158166986   -0.012632872666445527   -0.009938376956885903
-0.5267111158166986   -0.012632872666445527   -0.009938376956885903
-0.5267111158166986   -0.012632872666445527   -0.009938376956885903
-0.5267111158166986   -0.012632872666445527   -0.009938376956885903
-0.604798379273574   -0.0028594500717109006   0.004530457676631974
-0.604798379273574   -0.0028594500717109006   0.004530457676631974
-0.604798379273574   -0.0028594500717109006   0.004530457676631974
-0.604798379273574   -0.0028594500717109006   0.004530457676631974
0.2269279688394264   0.013698120567474818   -0.026636609934199282
0.2269279688394264   0.013698120567474818   -0.026636609934199282
0.2269279688394264   0.013698120567474818   -0.026636609934199282
0.2269279688394264   0.013698120567474818   -0.026636609934199282
0.06683858722087947   0.01587104437598969   0.012671032677382149
0.06683858722087947   0.01587104437598969   0.012671032677382149
0.06683858722087947   0.01587104437598969   0.012671032677382149
0.06683858722087947   0.01587104437598969   0.012671032677382149
0.04208575030419056   -0.03267350933101079   -0.02351203878015271
0.04208575030419056   -0.03267350933101079   -0.02351203878015271
0.04208575030419056   -0.03267350933101079   -0.02351203878015271
0.04208575030419056   -0.03267350933101079   -0.02351203878015271
0.22086860196054367   0.038177699847854366   0.015242411036264997
0.22086860196054367   0.038177699847854366   0.015242411036264997
0.22086860196054367   0.038177699847854366   0.015242411036264997
0.22086860196054367   0.038177699847854366   0.015242411036264997
0.13108743847377657   0.006385187402779893   -0.0030055081131964197
0.13108743847377657   0.006385187402779893   -0.0030055081131964197
0.13108743847377657   0.006385187402779893   -0.0030055081131964197
0.13108743847377657   0.006385187402779893   -0.0030055081131964197
0.20524721448332917   -0.00023014503295294697   -0.024456681469002102
0.20524721448332917   -0.00023014503295294697   -0.024456681469002102
0.20524721448332917   -0.00023014503295294697   -0.024456681469002102
0.20524721448332917   -0.00023014503295294697   -0.024456681469002102
0.057220121509224973   0.0052473192776161665   0.014238988636392674
0.057220121509224973   0.0052473192776161665   0.014238988636392674
0.057220121509224973   0.0052473192776161665   0.014238988636392674
0.057220121509224973   0.0052473192776161665   0.014238988636392674
0.03275125179451635   -0.03726738525144501   -0.019997820658207932
0.03275125179451635   -0.03726738525144501   -0.019997820658207932
0.03275125179451635   -0.03726738525144501   -0.019997820658207932
0.03275125179451635   -0.03726738525144501   -0.019997820658207932
0.20408719119970242   0.03184250592266907   0.01962139411450149
0.20408719119970242   0.03184250592266907   0.01962139411450149
0.20408719119970242   0.03184250592266907   0.01962139411450149
0.20408719119970242   0.03184250592266907   0.01962139411450149
0.11945523563507704   -0.0008071540501697373   -0.007647046261450802
0.11945523563507704   -0.0008071540501697373   -0.007647046261450802
0.11945523563507704   -0.0008071540501697373   -0.007647046261450802
0.11945523563507704   -0.0008071540501697373   -0.007647046261450802
0.1885436597113758   -0.006133409181103701   -0.02012034822336084
0.1885436597113758   -0.006133409181103701   -0.02012034822336084
0.1885436597113758   -0.006133409181103701   -0.02012034822336084
0.1885436597113758   -0.006133409181103701   -0.02012034822336084
0.04763924335429929   5.2989923783915496e-05   0.017121761965478804
0.04763924335429929   5.2989923783915496e-05   0.017121761965478804
0.04763924335429929   5.2989923783915496e-05   0.017121761965478804
0.04763924335429929   5.2989923783915496e-05   0.017121761965478804
0.024413304001081514   -0.04273149244473656   -0.016669653421789575
0.024413304001081514   -0.04273149244473656   -0.016669653421789575
0.024413304001081514   -0.04273149244473656   -0.016669653421789575
0.024413304001081514   -0.04273149244473656   -0.016669653421789575
0.1832844543021795   0.02176013859981787   0.02181769253340956
0.1832844543021795   0.02176013859981787   0.02181769253340956
0.1832844543021795   0.02176013859981787   0.02181769253340956
0.1832844543021795   0.02176013859981787   0.02181769253340956
0.10317262934776734   -0.007179441042116121   -0.013357996788680795
0.10317262934776734   -0.007179441042116121   -0.013357996788680795
0.10317262934776734   -0.007179441042116121   -0.013357996788680795
0.10317262934776734   -0.007179441042116121   -0.013357996788680795
0.06449250519762595   0.02442304406030598   -0.007611377123202277
0.06449250519762595   0.02442304406030598   -0.007611377123202277
0.06449250519762595   0.02442304406030598   -0.007611377123202277
0.06449250519762595   0.02442304406030598   -0.007611377123202277
-0.08995523915559518   0.007646285449091829   0.003019442402930606
-0.08995523915559518   0.007646285449091829   0.003019442402930606
-0.08995523915559518   0.007646285449091829   0.003019442402930606
-0.08995523915559518   0.007646285449091829   0.003019442402930606
-0.10590906677451659   -0.020999053310407162   -0.013757860442987638
-0.10590906677451659   -0.020999053310407162   -0.013757860442987638
-0.10590906677451659   -0.020999053310407162   -0.013757860442987638
-0.10590906677451659   -0.020999053310407162   -0.013757860442987638
0.06230850148277883   0.030281167606011294   0.014647040175766821
0.06230850148277883   0.030281167606011294   0.014647040175766821
0.06230850148277883   0.030281167606011294   0.014647040175766821
0.06230850148277883   0.030281167606011294   0.014647040175766821
-0.017814946286401817   0.009897058568306789   0.0025662100765977735
-0.017814946286401817   0.009897058568306789   0.0025662100765977735
-0.017814946286401817   0.009897058568306789   0.0025662100765977735
-0.017814946286401817   0.009897058568306789   0.0025662100765977735
0.05475866051999017   0.012768220692215525   -0.005589217724380964
0.05475866051999017   0.012768220692215525   -0.005589217724380964
0.05475866051999017   0.012768220692215525   -0.005589217724380964
0.05475866051999017   0.012768220692215525   -0.005589217724380964
-0.09877820223174945   -0.0039050828166303925   0.004802491777071311
-0.09877820223174945   -0.0039050828166303925   0.004802491777071311
-0.09877820223174945   -0.0039050828166303925   0.004802491777071311
-0.09877820223174945   -0.0039050828166303925   0.004802491777071311
-0.11425626354845922   -0.030321671999814302   -0.01079916698091393
-0.11425626354845922   -0.030321671999814302   -0.01079916698091393
-0.11425626354845922   -0.030321671999814302   -0.01079916698091393
-0.11425626354845922   -0.030321671999814302   -0.01079916698091393
0.051357620865103634   0.01979134565936568   0.01597529378391879
0.051357620865103634   0.01979134565936568   0.01597529378391879
0.051357620865103634   0.01979134565936568   0.01597529378391879
0.051357620865103634   0.01979134565936568   0.01597529378391879
-0.028145840591243577   -0.00019149282033721626   -0.0022718366181399374
-0.028145840591243577   -0.00019149282033721626   -0.0022718366181399374
-0.028145840591243577   -0.00019149282033721626   -0.0022718366181399374
-0.028145840591243577   -0.00019149282033721626   -0.0022718366181399374
0.044027936188552635   0.002765537129897133   -0.003647321069368612
0.044027936188552635   0.002765537129897133   -0.003647321069368612
0.044027936188552635   0.002765537129897133   -0.003647321069368612
0.044027936188552635   0.002765537129897133   -0.003647321069368612
-0.10746941283127137   -0.013838697429709067   0.006652112034920068
-0.10746941283127137   -0.013838697429709067   0.006652112034920068
-0.10746941283127137   -0.013838697429709067   0.006652112034920068
-0.10746941283127137   -0.013838697429709067   0.006652112034920068
-0.1225375418944366   -0.03953057998807674   -0.008126499056641034
-0.1225375418944366   -0.03953057998807674   -0.008126499056641034
-0.1225375418944366   -0.03953057998807674   -0.008126499056641034
-0.1225375418944366   -0.03953057998807674   -0.008126499056641034
0.041768701055318595   0.009532319903111167   0.017843519501548596
0.041768701055318595   0.009532319903111167   0.017843519501548596
0.041768701055318595   0.009532319903111167   0.017843519501548596
0.041768701055318595   0.009532319903111167   0.017843519501548596
-0.037053531174446964   -0.009179320259434348   -0.006828041349454049
-0.037053531174446964   -0.009179320259434348   -0.006828041349454049
-0.037053531174446964   -0.009179320259434348   -0.006828041349454049
-0.037053531174446964   -0.009179320259434348   -0.006828041349454049
-0.08522935109320202   0.033097729007192926   0.00119743915679529
-0.08522935109320202   0.033097729007192926   0.00119743915679529
-0.08522935109320202   0.033097729007192926   0.00119743915679529
-0.08522935109320202   0.033097729007192926   0.00119743915679529
-0.24456840913782213   -0.0031258345912927032   -0.006773532049785171
-0.24456840913782213   -0.0031258345912927032   -0.006773532049785171
-0.24456840913782213   -0.0031258345912927032   -0.006773532049785171
-0.24456840913782213   -0.0031258345912927032   -0.006773532049785171
-0.2521009241744001   -0.010486521726088473   -0.004072363934310938
-0.2521009241744001   -0.010486521726088473   -0.004072363934310938
-0.2521009241744001   -0.010486521726088473   -0.004072363934310938
-0.2521009241744001   -0.010486521726088473   -0.004072363934310938
-0.09403515722598367   0.01994869357519439   0.00466394041407342
-0.09403515722598367   0.01994869357519439   0.00466394041407342
-0.09403515722598367   0.01994869357519439   0.00466394041407342
-0.09403515722598367   0.01994869357519439   0.00466394041407342
-0.16857694628272818   0.009640010305348487   0.0026447902597942496
-0.16857694628272818   0.009640010305348487   0.0026447902597942496
-0.16857694628272818   0.009640010305348487   0.0026447902597942496
-0.16857694628272818   0.009640010305348487   0.0026447902597942496
-0.09360171668637667   0.02281979991319947   0.003960036774105334
-0.09360171668637667   0.02281979991319947   0.003960036774105334
-0.09360171668637667   0.02281979991319947   0.003960036774105334
-0.09360171668637667   0.02281979991319947   0.003960036774105334
-0.2529026979375564   -0.0137259612876428   -0.004841793188539809
-0.2529026979375564   -0.0137259612876428   -0.004841793188539809
-0.2529026979375564   -0.0137259612876428   -0.004841793188539809
-0.2529026979375564   -0.0137259612876428   -0.004841793188539809
-0.26041470549319834   -0.020664116243226185   -0.0013970651770537322
-0.26041470549319834   -0.020664116243226185   -0.0013970651770537322
-0.26041470549319834   -0.020664116243226185   -0.0013970651770537322
-0.26041470549319834   -0.020664116243226185   -0.0013970651770537322
-0.10284368209920056   0.009309713248880046   0.006632355016683177
-0.10284368209920056   0.009309713248880046   0.006632355016683177
-0.10284368209920056   0.009309713248880046   0.006632355016683177
-0.10284368209920056   0.009309713248880046   0.006632355016683177
-0.17724764297612225   -3.4620387311716516e-05   -0.0016872750198053694
-0.17724764297612225   -3.4620387311716516e-05   -0.0016872750198053694
-0.17724764297612225   -3.4620387311716516e-05   -0.0016872750198053694
-0.17724764297612225   -3.4620387311716516e-05   -0.0016872750198053694
-0.10226194994404679   0.012513328091901383   0.006337400949432553
-0.10226194994404679   0.012513328091901383   0.006337400949432553
-0.10226194994404679   0.012513328091901383   0.006337400949432553
-0.10226194994404679   0.012513328091901383   0.006337400949432553
-0.26151946952528454   -0.02439076296318249   -0.003194238617530175
-0.26151946952528454   -0.02439076296318249   -0.003194238617530175
-0.26151946952528454   -0.02439076296318249   -0.003194238617530175
-0.26151946952528454   -0.02439076296318249   -0.003194238617530175
-0.2685637675949472   -0.030482726876321475   0.0011981576758753713
-0.2685637675949472   -0.030482726876321475   0.0011981576758753713
-0.2685637675949472   -0.030482726876321475   0.0011981576758753713
-0.2685637675949472   -0.030482726876321475   0.0011981576758753713
-0.1115076939966808   -0.0009333623697670851   0.008425522813826383
-0.1115076939966808   -0.0009333623697670851   0.008425522813826383
-0.1115076939966808   -0.0009333623697670851   0.008425522813826383
-0.1115076939966808   -0.0009333623697670851   0.008425522813826383
-0.1863751072842528   -0.009729508369824343   -0.006393202856410655
-0.1863751072842528   -0.009729508369824343   -0.006393202856410655
-0.1863751072842528   -0.009729508369824343   -0.006393202856410655
-0.1863751072842528   -0.009729508369824343   -0.006393202856410655
-0.23225647148399634   0.04138874223255294   0.010271579395498096
-0.23225647148399634   0.04138874223255294   0.010271579395498096
-0.23225647148399634   0.04138874223255294   0.010271579395498096
-0.23225647148399634   0.04138874223255294   0.010271579395498096
-0.39600343577509173   -0.012029902535879392   -0.015374566017737418
-0.39600343577509173   -0.012029902535879392   -0.015374566017737418
-0.39600343577509173   -0.012029902535879392   -0.015374566017737418
-0.39600343577509173   -0.012029902535879392   -0.015374566017737418
-0.39674158111850094   -0.001248273376282777   0.006178351332393094
-0.39674158111850094   -0.001248273376282777   0.006178351332393094
-0.39674158111850094   -0.001248273376282777   0.006178351332393094
-0.39674158111850094   -0.001248273376282777   0.006178351332393094
-0.24809161046269793   0.010283906912174519   -0.004796224014066989
-0.24809161046269793   0.010283906912174519   -0.004796224014066989
-0.24809161046269793   0.010283906912174519   -0.004796224014066989
-0.24809161046269793   0.010283906912174519   -0.004796224014066989
-0.31662626188176357   0.009570146654578171   0.0034535253152263856
-0.31662626188176357   0.009570146654578171   0.0034535253152263856
-0.31662626188176357   0.009570146654578171   0.0034535253152263856
-0.31662626188176357   0.009570146654578171   0.0034535253152263856
-0.24029819900503083   0.031413067347685036   0.013041672838762019
-0.24029819900503083   0.031413067347685036   0.013041672838762019
-0.24029819900503083   0.031413067347685036   0.013041672838762019
-0.24029819900503083   0.031413067347685036   0.013041672838762019
-0.4052395785097659   -0.023082019745391077   -0.014477889254827053
-0.4052395785097659   -0.023082019745391077   -0.014477889254827053
-0.4052395785097659   -0.023082019745391077   -0.014477889254827053
-0.4052395785097659   -0.023082019745391077   -0.014477889254827053
-0.40698242871960055   -0.011288356594949464   0.007615252735584627
-0.40698242871960055   -0.011288356594949464   0.007615252735584627
-0.40698242871960055   -0.011288356594949464   0.007615252735584627
-0.40698242871960055   -0.011288356594949464   0.007615252735584627
-0.2564490797718909   0.000477353736776355   -0.0027104065505228828
-0.2564490797718909   0.000477353736776355   -0.0027104065505228828
-0.2564490797718909   0.000477353736776355   -0.0027104065505228828
-0.2564490797718909   0.000477353736776355   -0.0027104065505228828
-0.3239704495862797   0.0005676858584404004   -0.0010840590653804147
-0.3239704495862797   0.0005676858584404004   -0.0010840590653804147
-0.3239704495862797   0.0005676858584404004   -0.0010840590653804147
-0.3239704495862797   0.0005676858584404004   -0.0010840590653804147
-0.24844926157349595   0.022040361602333816   0.01572567657589648
-0.24844926157349595   0.022040361602333816   0.01572567657589648
-0.24844926157349595   0.022040361602333816   0.01572567657589648
-0.24844926157349595   0.022040361602333816   0.01572567657589648
-0.41542233149771696   -0.03329144904022932   -0.01258116870972522
-0.41542233149771696   -0.03329144904022932   -0.01258116870972522
-0.41542233149771696   -0.03329144904022932   -0.01258116870972522
-0.41542233149771696   -0.03329144904022932   -0.01258116870972522
-0.41581582039641696   -0.02177486856684216   0.010412282947091324
-0.41581582039641696   -0.02177486856684216   0.010412282947091324
-0.41581582039641696   -0.02177486856684216   0.010412282947091324
-0.41581582039641696   -0.02177486856684216   0.010412282947091324
-0.264914260675945   -0.01003499195867897   -0.0010020426467615504
-0.264914260675945   -0.01003499195867897   -0.0010020426467615504
-0.264914260675945   -0.01003499195867897   -0.0010020426467615504
-0.264914260675945   -0.01003499195867897   -0.0010020426467615504
-0.33496633761618927   -0.009282721161269172   -0.006045470318805049
-0.33496633761618927   -0.009282721161269172   -0.006045470318805049
-0.33496633761618927   -0.009282721161269172   -0.006045470318805049
-0.33496633761618927   -0.009282721161269172   -0.006045470318805049
-0.3787313189070249   0.040771714447316684   0.018184401339408206
-0.3787313189070249   0.040771714447316684   0.018184401339408206
-0.3787313189070249   0.040771714447316684   0.018184401339408206
-0.3787313189070249   0.040771714447316684   0.018184401339408206
-0.534161398007704   -0.024706500049638078   -0.02316214317245865
-0.534161398007704   -0.024706500049638078   -0.02316214317245865
-0.534161398007704   -0.024706500049638078   -0.02316214317245865
-0.534161398007704   -0.024706500049638078   -0.02316214317245865
-0.5380048111361999   0.006301640280567733   0.019107762634108023
-0.5380048111361999   0.006301640280567733   0.019107762634108023
-0.5380048111361999   0.006301640280567733   0.019107762634108023
-0.5380048111361999   0.006301640280567733   0.019107762634108023
-0.40074919378717966   -0.0009918735619232205   -0.014116111825363778
-0.40074919378717966   -0.0009918735619232205   -0.014116111825363778
-0.40074919378717966   -0.0009918735619232205   -0.014116111825363778
-0.40074919378717966   -0.0009918735619232205   -0.014116111825363778
-0.4429714753508846   0.009651121800302767   0.01082307671849271
-0.4429714753508846   0.009651121800302767   0.01082307671849271
-0.4429714753508846   0.009651121800302767   0.01082307671849271
-0.4429714753508846   0.009651121800302767   0.01082307671849271
-0.3859888686276143   0.037185003614640166   0.021508636795899806
-0.3859888686276143   0.037185003614640166   0.021508636795899806
-0.3859888686276143   0.037185003614640166   0.021508636795899806
-0.3859888686276143   0.037185003614640166   0.021508636795899806
-0.553517208014704   -0.0326273086149369   -0.01952527286290781
-0.553517208014704   -0.0326273086149369   -0.01952527286290781
-0.553517208014704   -0.0326273086149369   -0.01952527286290781
-0.553517208014704   -0.0326273086149369   -0.01952527286290781
-0.5539785806603712   0.0006471924169220294   0.02438575142028355
-0.5539785806603712   0.0006471924169220294   0.02438575142028355
-0.5539785806603712   0.0006471924169220294   0.02438575142028355
-0.5539785806603712   0.0006471924169220294   0.02438575142028355
-0.40996013524122366   -0.006463366512873006   -0.012098269954615187
-0.40996013524122366   -0.006463366512873006   -0.012098269954615187
-0.40996013524122366   -0.006463366512873006   -0.012098269954615187
-0.40996013524122366   -0.006463366512873006   -0.012098269954615187
-0.46348867468566785   0.002978536854232383   0.004031390768233813
-0.46348867468566785   0.002978536854232383   0.004031390768233813
-0.46348867468566785   0.002978536854232383   0.004031390768233813
-0.46348867468566785   0.002978536854232383   0.004031390768233813
-0.3945819591072837   0.03276267940327414   0.025566564798941222
-0.3945819591072837   0.03276267940327414   0.025566564798941222
-0.3945819591072837   0.03276267940327414   0.025566564798941222
-0.3945819591072837   0.03276267940327414   0.025566564798941222
-0.5700642442329644   -0.03928634093787517   -0.01610903308788525
-0.5700642442329644   -0.03928634093787517   -0.01610903308788525
-0.5700642442329644   -0.03928634093787517   -0.01610903308788525
-0.5700642442329644   -0.03928634093787517   -0.01610903308788525
-0.5760478918919887   -0.015482882585408642   0.025148349523588465
-0.5760478918919887   -0.015482882585408642   0.025148349523588465
-0.5760478918919887   -0.015482882585408642   0.025148349523588465
-0.5760478918919887   -0.015482882585408642   0.025148349523588465
-0.41947221903564186   -0.019093102005515575   -0.01055147681036745
-0.41947221903564186   -0.019093102005515575   -0.01055147681036745
-0.41947221903564186   -0.019093102005515575   -0.01055147681036745
-0.41947221903564186   -0.019093102005515575   -0.01055147681036745
-0.47002693858313266   -0.004149670721934048   2.4619083931445157e-05
-0.47002693858313266   -0.004149670721934048   2.4619083931445157e-05
-0.47002693858313266   -0.004149670721934048   2.4619083931445157e-05
-0.47002693858313266   -0.004149670721934048   2.4619083931445157e-05
0.045532968582505454   0.003732982282352938   -0.02671365915244293
0.045532968582505454   0.003732982282352938   -0.02671365915244293
0.045532968582505454   0.003732982282352938   -0.02671365915244293
0.045532968582505454   0.003732982282352938   -0.02671365915244293
-0.040760430640991836   0.019917629857359575   0.01359369733227048
-0.040760430640991836   0.019917629857359575   0.01359369733227048
-0.040760430640991836   0.019917629857359575   0.01359369733227048
-0.040760430640991836   0.019917629857359575   0.01359369733227048
-0.06253792919011093   -0.025862275505765933   -0.021550934581166577
-0.06253792919011093   -0.025862275505765933   -0.021550934581166577
-0.06253792919011093   -0.025862275505765933   -0.021550934581166577
-0.06253792919011093   -0.025862275505765933   -0.021550934581166577
0.042234211429952095   0.02871552789778233   0.01665295697017274
0.042234211429952095   0.02871552789778233   0.01665295697017274
0.042234211429952095   0.02871552789778233   0.01665295697017274
0.042234211429952095   0.02871552789778233   0.01665295697017274
-0.004988363772076281   0.006308941688771725   0.0022940633968633094
-0.004988363772076281   0.006308941688771725   0.0022940633968633094
-0.004988363772076281   0.006308941688771725   0.0022940633968633094
-0.004988363772076281   0.006308941688771725   0.0022940633968633094
0.026675836045544736   -0.008495011627681529   -0.023928380426400216
0.026675836045544736   -0.008495011627681529   -0.023928380426400216
0.026675836045544736   -0.008495011627681529   -0.023928380426400216
0.026675836045544736   -0.008495011627681529   -0.023928380426400216
-0.04788932751259482   0.010438490312806678   0.015391307987841404
-0.04788932751259482   0.010438490312806678   0.015391307987841404
-0.04788932751259482   0.010438490312806678   0.015391307987841404
-0.04788932751259482   0.010438490312806678   0.015391307987841404
-0.06973661914049167   -0.030507187123001742   -0.018303260773673852
-0.06973661914049167   -0.030507187123001742   -0.018303260773673852
-0.06973661914049167   -0.030507187123001742   -0.018303260773673852
-0.06973661914049167   -0.030507187123001742   -0.018303260773673852
0.027469562979057432   0.02242244582565476   0.022883409252911203
0.027469562979057432   0.02242244582565476   0.022883409252911203
0.027469562979057432   0.02242244582565476   0.022883409252911203
0.027469562979057432   0.02242244582565476   0.022883409252911203
-0.016560961428297574   -0.0006559441043630394   -0.0030510259654121406
-0.016560961428297574   -0.0006559441043630394   -0.0030510259654121406
-0.016560961428297574   -0.0006559441043630394   -0.0030510259654121406
-0.016560961428297574   -0.0006559441043630394   -0.0030510259654121406
0.01153975851839334   -0.014549910734536774   -0.019793256490218698
0.01153975851839334   -0.014549910734536774   -0.019793256490218698
0.01153975851839334   -0.014549910734536774   -0.019793256490218698
0.01153975851839334   -0.014549910734536774   -0.019793256490218698
-0.05507384179421616   0.005198142322798421   0.019305296511903106
-0.05507384179421616   0.005198142322798421   0.019305296511903106
-0.05507384179421616   0.005198142322798421   0.019305296511903106
-0.05507384179421616   0.005198142322798421   0.019305296511903106
-0.0763272673450096   -0.03756476236263512   -0.015195090631666297
-0.0763272673450096   -0.03756476236263512   -0.015195090631666297
-0.0763272673450096   -0.03756476236263512   -0.015195090631666297
-0.0763272673450096   -0.03756476236263512   -0.015195090631666297
0.006962250725574513   0.009286345715553933   0.02612978537469201
0.006962250725574513   0.009286345715553933   0.02612978537469201
0.006962250725574513   0.009286345715553933   0.02612978537469201
0.006962250725574513   0.009286345715553933   0.02612978537469201
-0.029166333191907888   -0.007633729699205564   -0.009248306243001181
-0.029166333191907888   -0.007633729699205564   -0.009248306243001181
-0.029166333191907888   -0.007633729699205564   -0.009248306243001181
-0.029166333191907888   -0.007633729699205564   -0.009248306243001181
-0.046857842543899395   0.013555608188219428   -0.010531340513127197
-0.046857842543899395   0.013555608188219428   -0.010531340513127197
-0.046857842543899395   0.013555608188219428   -0.010531340513127197
-0.046857842543899395   0.013555608188219428   -0.010531340513127197
-0.12728354457632307   0.005371681952163133   0.0035092273846675168
-0.12728354457632307   0.005371681952163133   0.0035092273846675168
-0.12728354457632307   0.005371681952163133   0.0035092273846675168
-0.12728354457632307   0.005371681952163133   0.0035092273846675168
-0.13856315282475945   -0.015071719557073725   -0.011245741332135352
-0.13856315282475945   -0.015071719557073725   -0.011245741332135352
-0.13856315282475945   -0.015071719557073725   -0.011245741332135352
-0.13856315282475945   -0.015071719557073725   -0.011245741332135352
-0.04825089885928443   0.013258219875049979   0.010763721692150043
-0.04825089885928443   0.013258219875049979   0.010763721692150043
-0.04825089885928443   0.013258219875049979   0.010763721692150043
-0.04825089885928443   0.013258219875049979   0.010763721692150043
-0.09007123885775337   0.004008036902726685   0.0021658487010677123
-0.09007123885775337   0.004008036902726685   0.0021658487010677123
-0.09007123885775337   0.004008036902726685   0.0021658487010677123
-0.09007123885775337   0.004008036902726685   0.0021658487010677123
-0.054329330260435515   0.002291791778755912   -0.00866200721731109
-0.054329330260435515   0.002291791778755912   -0.00866200721731109
-0.054329330260435515   0.002291791778755912   -0.00866200721731109
-0.054329330260435515   0.002291791778755912   -0.00866200721731109
-0.1332385322084644   -0.0048591022456356825   0.005164744437901712
-0.1332385322084644   -0.0048591022456356825   0.005164744437901712
-0.1332385322084644   -0.0048591022456356825   0.005164744437901712
-0.1332385322084644   -0.0048591022456356825   0.005164744437901712
-0.14417791831974236   -0.02417719573940368   -0.008331874025082025
-0.14417791831974236   -0.02417719573940368   -0.008331874025082025
-0.14417791831974236   -0.02417719573940368   -0.008331874025082025
-0.14417791831974236   -0.02417719573940368   -0.008331874025082025
-0.05690863721219237   0.0031914281328832665   0.01213803361193721
-0.05690863721219237   0.0031914281328832665   0.01213803361193721
-0.05690863721219237   0.0031914281328832665   0.01213803361193721
-0.05690863721219237   0.0031914281328832665   0.01213803361193721
-0.09716173728333717   -0.005155911575968914   -0.002441900092528944
-0.09716173728333717   -0.005155911575968914   -0.002441900092528944
-0.09716173728333717   -0.005155911575968914   -0.002441900092528944
-0.09716173728333717   -0.005155911575968914   -0.002441900092528944
-0.06277501116811178   -0.007525600925846982   -0.0064768071089291055
-0.06277501116811178   -0.007525600925846982   -0.0064768071089291055
-0.06277501116811178   -0.007525600925846982   -0.0064768071089291055
-0.06277501116811178   -0.007525600925846982   -0.0064768071089291055
-0.1391222290220703   -0.014270851338920736   0.007040228062795152
-0.1391222290220703   -0.014270851338920736   0.007040228062795152
-0.1391222290220703   -0.014270851338920736   0.007040228062795152
-0.1391222290220703   -0.014270851338920736   0.007040228062795152
-0.14982963715794054   -0.033506760738275805   -0.005753545492127116
-0.14982963715794054   -0.033506760738275805   -0.005753545492127116
-0.14982963715794054   -0.033506760738275805   -0.005753545492127116
-0.14982963715794054   -0.033506760738275805   -0.005753545492127116
-0.0641557401280764   -0.006959587741839069   0.01505737083220356
-0.0641557401280764   -0.006959587741839069   0.01505737083220356
-0.0641557401280764   -0.006959587741839069   0.01505737083220356
-0.0641557401280764   -0.006959587741839069   0.01505737083220356
-0.1042158560003119   -0.014170295495760732   -0.007114833004727367
-0.1042158560003119   -0.014170295495760732   -0.007114833004727367
-0.1042158560003119   -0.014170295495760732   -0.007114833004727367
-0.1042158560003119   -0.014170295495760732   -0.007114833004727367
-0.12489308860674914   0.021942144801515857   -0.0011089556168153748
-0.12489308860674914   0.021942144801515857   -0.0011089556168153748
-0.12489308860674914   0.021942144801515857   -0.0011089556168153748
-0.12489308860674914   0.021942144801515857   -0.0011089556168153748
-0.2128464909321271   -0.007391590443713909   -0.0060751374796155985
-0.2128464909321271   -0.007391590443713909   -0.0060751374796155985
-0.2128464909321271   -0.007391590443713909   -0.0060751374796155985
-0.2128464909321271   -0.007391590443713909   -0.0060751374796155985
-0.21512136460963524   -0.005472007530758813   -0.001353357732041014
-0.21512136460963524   -0.005472007530758813   -0.001353357732041014
-0.21512136460963524   -0.005472007530758813   -0.001353357732041014
-0.21512136460963524   -0.005472007530758813   -0.001353357732041014
-0.13265736336202258   0.0015427993228167465   0.0016686871016583383
-0.13265736336202258   0.0015427993228167465   0.0016686871016583383
-0.13265736336202258   0.0015427993228167465   0.0016686871016583383
-0.13265736336202258   0.0015427993228167465   0.0016686871016583383
-0.17101476989620917   0.0024778652634923765   0.0007923126525471308
-0.17101476989620917   0.0024778652634923765   0.0007923126525471308
-0.17101476989620917   0.0024778652634923765   0.0007923126525471308
-0.17101476989620917   0.0024778652634923765   0.0007923126525471308
-0.13056571023981858   0.012036454413926478   0.001633297621568764
-0.13056571023981858   0.012036454413926478   0.001633297621568764
-0.13056571023981858   0.012036454413926478   0.001633297621568764
-0.13056571023981858   0.012036454413926478   0.001633297621568764
-0.2179405829162302   -0.0166932278062595   -0.0042282289895152775
-0.2179405829162302   -0.0166932278062595   -0.0042282289895152775
-0.2179405829162302   -0.0166932278062595   -0.0042282289895152775
-0.2179405829162302   -0.0166932278062595   -0.0042282289895152775
-0.2203918121160961   -0.015255488032481855   0.0013544786267845402
-0.2203918121160961   -0.015255488032481855   0.0013544786267845402
-0.2203918121160961   -0.015255488032481855   0.0013544786267845402
-0.2203918121160961   -0.015255488032481855   0.0013544786267845402
-0.13860276057618284   -0.008080833550144495   0.0034475525034562606
-0.13860276057618284   -0.008080833550144495   0.0034475525034562606
-0.13860276057618284   -0.008080833550144495   0.0034475525034562606
-0.13860276057618284   -0.008080833550144495   0.0034475525034562606
-0.17671996003469936   -0.0064204122684563755   -0.0034379982134444143
-0.17671996003469936   -0.0064204122684563755   -0.0034379982134444143
-0.17671996003469936   -0.0064204122684563755   -0.0034379982134444143
-0.17671996003469936   -0.0064204122684563755   -0.0034379982134444143
-0.13645519575413367   0.002068206772723593   0.004036336290834044
-0.13645519575413367   0.002068206772723593   0.004036336290834044
-0.13645519575413367   0.002068206772723593   0.004036336290834044
-0.13645519575413367   0.002068206772723593   0.004036336290834044
-0.2234173511650896   -0.026282502582292366   -0.0027462020683763303
-0.2234173511650896   -0.026282502582292366   -0.0027462020683763303
-0.2234173511650896   -0.026282502582292366   -0.0027462020683763303
-0.2234173511650896   -0.026282502582292366   -0.0027462020683763303
-0.22552217479569428   -0.024629883862635562   0.003957396148497457
-0.22552217479569428   -0.024629883862635562   0.003957396148497457
-0.22552217479569428   -0.024629883862635562   0.003957396148497457
-0.22552217479569428   -0.024629883862635562   0.003957396148497457
-0.1443218400292623   -0.017146497263460535   0.005425176676448793
-0.1443218400292623   -0.017146497263460535   0.005425176676448793
-0.1443218400292623   -0.017146497263460535   0.005425176676448793
-0.1443218400292623   -0.017146497263460535   0.005425176676448793
-0.18285899254120697   -0.015368413190631886   -0.008035758507683857
-0.18285899254120697   -0.015368413190631886   -0.008035758507683857
-0.18285899254120697   -0.015368413190631886   -0.008035758507683857
-0.18285899254120697   -0.015368413190631886   -0.008035758507683857
-0.20211154635308898   0.03155415628870388   0.008653838683160876
-0.20211154635308898   0.03155415628870388   0.008653838683160876
-0.20211154635308898   0.03155415628870388   0.008653838683160876
-0.20211154635308898   0.03155415628870388   0.008653838683160876
-0.29521312391015053   -0.012389162719124665   -0.013589214891487572
-0.29521312391015053   -0.012389162719124665   -0.013589214891487572
-0.29521312391015053   -0.012389162719124665   -0.013589214891487572
-0.29521312391015053   -0.012389162719124665   -0.013589214891487572
-0.2913423655712703   0.00436013166595213   0.008835654863393359
-0.2913423655712703   0.00436013166595213   0.008835654863393359
-0.2913423655712703   0.00436013166595213   0.008835654863393359
-0.2913423655712703   0.00436013166595213   0.008835654863393359
-0.2157723222408378   -0.004081806471831546   -0.005998346946981179
-0.2157723222408378   -0.004081806471831546   -0.005998346946981179
-0.2157723222408378   -0.004081806471831546   -0.005998346946981179
-0.2157723222408378   -0.004081806471831546   -0.005998346946981179
-0.2502117756387984   0.004884906905377288   0.0012686440740341618
-0.2502117756387984   0.004884906905377288   0.0012686440740341618
-0.2502117756387984   0.004884906905377288   0.0012686440740341618
-0.2502117756387984   0.004884906905377288   0.0012686440740341618
-0.2071332649345204   0.021714872869315248   0.011400260243459099
-0.2071332649345204   0.021714872869315248   0.011400260243459099
-0.2071332649345204   0.021714872869315248   0.011400260243459099
-0.2071332649345204   0.021714872869315248   0.011400260243459099
-0.30104473253543723   -0.022499857333044826   -0.01281619095844819
-0.30104473253543723   -0.022499857333044826   -0.01281619095844819
-0.30104473253543723   -0.022499857333044826   -0.01281619095844819
-0.30104473253543723   -0.022499857333044826   -0.01281619095844819
-0.29839503085667907   -0.005279448255315622   0.010451534573805397
-0.29839503085667907   -0.005279448255315622   0.010451534573805397
-0.29839503085667907   -0.005279448255315622   0.010451534573805397
-0.29839503085667907   -0.005279448255315622   0.010451534573805397
-0.22099614452859778   -0.012851646431224016   -0.004071025036981793
-0.22099614452859778   -0.012851646431224016   -0.004071025036981793
-0.22099614452859778   -0.012851646431224016   -0.004071025036981793
-0.22099614452859778   -0.012851646431224016   -0.004071025036981793
-0.2549953981817796   -0.003685760490167639   -0.003316171297801592
-0.2549953981817796   -0.003685760490167639   -0.003316171297801592
-0.2549953981817796   -0.003685760490167639   -0.003316171297801592
-0.2549953981817796   -0.003685760490167639   -0.003316171297801592
-0.21226371723844475   0.012670333791734392   0.014069131190821156
-0.21226371723844475   0.012670333791734392   0.014069131190821156
-0.21226371723844475   0.012670333791734392   0.014069131190821156
-0.21226371723844475   0.012670333791734392   0.014069131190821156
-0.3079671490665497   -0.03164111939799353   -0.01104738533287747
-0.3079671490665497   -0.03164111939799353   -0.01104738533287747
-0.3079671490665497   -0.03164111939799353   -0.01104738533287747
-0.3079671490665497   -0.03164111939799353   -0.01104738533287747
-0.3041248888812545   -0.015009778277151976   0.013334653966182946
-0.3041248888812545   -0.015009778277151976   0.013334653966182946
-0.3041248888812545   -0.015009778277151976   0.013334653966182946
-0.3041248888812545   -0.015009778277151976   0.013334653966182946
-0.22624285047665818   -0.02185088725394161   -0.002424978865019847
-0.22624285047665818   -0.02185088725394161   -0.002424978865019847
-0.22624285047665818   -0.02185088725394161   -0.002424978865019847
-0.22624285047665818   -0.02185088725394161   -0.002424978865019847
-0.26222165103919354   -0.012460011491473452   -0.008027715725041705
-0.26222165103919354   -0.012460011491473452   -0.008027715725041705
-0.26222165103919354   -0.012460011491473452   -0.008027715725041705
-0.26222165103919354   -0.012460011491473452   -0.008027715725041705
-0.2797443010336836   0.03423541277833521   0.01713032399338731
-0.2797443010336836   0.03423541277833521   0.01713032399338731
-0.2797443010336836   0.03423541277833521   0.01713032399338731
-0.2797443010336836   0.03423541277833521   0.01713032399338731
-0.36165468465313855   -0.01821587799809142   -0.02256992761694573
-0.36165468465313855   -0.01821587799809142   -0.02256992761694573
-0.36165468465313855   -0.01821587799809142   -0.02256992761694573
-0.36165468465313855   -0.01821587799809142   -0.02256992761694573
-0.3619897396003494   0.013360351400316176   0.018885558799002944
-0.3619897396003494   0.013360351400316176   0.018885558799002944
-0.3619897396003494   0.013360351400316176   0.018885558799002944
-0.3619897396003494   0.013360351400316176   0.018885558799002944
-0.298726674855996   -0.009926389464542974   -0.01379937042974033
-0.298726674855996   -0.009926389464542974   -0.01379937042974033
-0.298726674855996   -0.009926389464542974   -0.01379937042974033
-0.298726674855996   -0.009926389464542974   -0.01379937042974033
-0.31230485307691463   0.007997250852856574   0.006162818923876174
-0.31230485307691463   0.007997250852856574   0.006162818923876174
-0.31230485307691463   0.007997250852856574   0.006162818923876174
-0.31230485307691463   0.007997250852856574   0.006162818923876174
-0.2840995759866014   0.02920268271150203   0.020207051741184187
-0.2840995759866014   0.02920268271150203   0.020207051741184187
-0.2840995759866014   0.02920268271150203   0.020207051741184187
-0.2840995759866014   0.02920268271150203   0.020207051741184187
-0.377726059872583   -0.02687794217856515   -0.019557748983279583
-0.377726059872583   -0.02687794217856515   -0.019557748983279583
-0.377726059872583   -0.02687794217856515   -0.019557748983279583
-0.377726059872583   -0.02687794217856515   -0.019557748983279583
-0.37481213082705306   0.007848051271259551   0.024310814551861577
-0.37481213082705306   0.007848051271259551   0.024310814551861577
-0.37481213082705306   0.007848051271259551   0.024310814551861577
-0.37481213082705306   0.007848051271259551   0.024310814551861577
-0.304837630576524   -0.014971760983898588   -0.012069151296836306
-0.304837630576524   -0.014971760983898588   -0.012069151296836306
-0.304837630576524   -0.014971760983898588   -0.012069151296836306
-0.304837630576524   -0.014971760983898588   -0.012069151296836306
-0.3276209996397356   0.0013100666178192666   -0.00023444576080696583
-0.3276209996397356   0.0013100666178192666   -0.00023444576080696583
-0.3276209996397356   0.0013100666178192666   -0.00023444576080696583
-0.3276209996397356   0.0013100666178192666   -0.00023444576080696583
-0.2896133029325962   0.02486816593963291   0.024212559999271487
-0.2896133029325962   0.02486816593963291   0.024212559999271487
-0.2896133029325962   0.02486816593963291   0.024212559999271487
-0.2896133029325962   0.02486816593963291   0.024212559999271487
-0.39116067724232306   -0.03311609442361476   -0.016467771829602802
-0.39116067724232306   -0.03311609442361476   -0.016467771829602802
-0.39116067724232306   -0.03311609442361476   -0.016467771829602802
-0.39116067724232306   -0.03311609442361476   -0.016467771829602802
-0.39370032306957536   -0.00669189956641178   0.02568263941908503
-0.39370032306957536   -0.00669189956641178   0.02568263941908503
-0.39370032306957536   -0.00669189956641178   0.02568263941908503
-0.39370032306957536   -0.00669189956641178   0.02568263941908503
-0.3109774554393252   -0.025513945311243562   -0.010424011790082567
-0.3109774554393252   -0.025513945311243562   -0.010424011790082567
-0.3109774554393252   -0.025513945311243562   -0.010424011790082567
-0.3109774554393252   -0.025513945311243562   -0.010424011790082567
-0.3334195260526161   -0.005341345566283018   -0.004748027268613262
-0.3334195260526161   -0.005341345566283018   -0.004748027268613262
-0.3334195260526161   -0.005341345566283018   -0.004748027268613262
-0.3334195260526161   -0.005341345566283018   -0.004748027268613262
-0.14535262455465975   -0.009417762034468053   -0.028491068213199713
-0.14535262455465975   -0.009417762034468053   -0.028491068213199713
-0.14535262455465975   -0.009417762034468053   -0.028491068213199713
-0.14535262455465975   -0.009417762034468053   -0.028491068213199713
-0.14681657655606303   0.021624523105198024   0.012769133828607324
-0.14681657655606303   0.021624523105198024   0.012769133828607324
-0.14681657655606303   0.021624523105198024   0.012769133828607324
-0.14681657655606303   0.021624523105198024   0.012769133828607324
-0.16569487139623637   -0.02007939939535415   -0.019392596669321173
-0.16569487139623637   -0.02007939939535415   -0.019392596669321173
-0.16569487139623637   -0.02007939939535415   -0.019392596669321173
-0.16569487139623637   -0.02007939939535415   -0.019392596669321173
-0.14857037331311532   0.011827248424618117   0.019057049102873296
-0.14857037331311532   0.011827248424618117   0.019057049102873296
-0.14857037331311532   0.011827248424618117   0.019057049102873296
-0.14857037331311532   0.011827248424618117   0.019057049102873296
-0.14398372286978164   0.003768647104558053   0.013030435157227188
-0.14398372286978164   0.003768647104558053   0.013030435157227188
-0.14398372286978164   0.003768647104558053   0.013030435157227188
-0.14398372286978164   0.003768647104558053   0.013030435157227188
-0.16365161932353692   -0.020580513459896674   -0.023941419064717927
-0.16365161932353692   -0.020580513459896674   -0.023941419064717927
-0.16365161932353692   -0.020580513459896674   -0.023941419064717927
-0.16365161932353692   -0.020580513459896674   -0.023941419064717927
-0.15245504912200558   0.010486938752967606   0.016240176553511027
-0.15245504912200558   0.010486938752967606   0.016240176553511027
-0.15245504912200558   0.010486938752967606   0.016240176553511027
-0.15245504912200558   0.010486938752967606   0.016240176553511027
-0.17146042136141676   -0.025231619439499156   -0.016456932732384154
-0.17146042136141676   -0.025231619439499156   -0.016456932732384154
-0.17146042136141676   -0.025231619439499156   -0.016456932732384154
-0.17146042136141676   -0.025231619439499156   -0.016456932732384154
-0.16321016889105275   0.004845809342146189   0.03557096704079132
-0.16321016889105275   0.004845809342146189   0.03557096704079132
-0.16321016889105275   0.004845809342146189   0.03557096704079132
-0.16321016889105275   0.004845809342146189   0.03557096704079132
-0.1573916993025517   -0.005069654854150538   0.005266616753790397
-0.1573916993025517   -0.005069654854150538   0.005266616753790397
-0.1573916993025517   -0.005069654854150538   0.005266616753790397
-0.1573916993025517   -0.005069654854150538   0.005266616753790397
-0.18053949422356508   -0.027501681267813875   -0.018728169011809435
-0.18053949422356508   -0.027501681267813875   -0.018728169011809435
-0.18053949422356508   -0.027501681267813875   -0.018728169011809435
-0.18053949422356508   -0.027501681267813875   -0.018728169011809435
-0.1585356051330723   0.002711362066293181   0.02022416690354585
-0.1585356051330723   0.002711362066293181   0.02022416690354585
-0.1585356051330723   0.002711362066293181   0.02022416690354585
-0.1585356051330723   0.002711362066293181   0.02022416690354585
-0.17619814146316898   -0.03517034184836007   -0.012993260256119158
-0.17619814146316898   -0.03517034184836007   -0.012993260256119158
-0.17619814146316898   -0.03517034184836007   -0.012993260256119158
-0.17619814146316898   -0.03517034184836007   -0.012993260256119158
-0.18592565262053673   -0.018227896030554566   0.03326472730300908
-0.18592565262053673   -0.018227896030554566   0.03326472730300908
-0.18592565262053673   -0.018227896030554566   0.03326472730300908
-0.18592565262053673   -0.018227896030554566   0.03326472730300908
-0.16919336000213137   -0.015500557333184652   -0.007108012269434279
-0.16919336000213137   -0.015500557333184652   -0.007108012269434279
-0.16919336000213137   -0.015500557333184652   -0.007108012269434279
-0.16919336000213137   -0.015500557333184652   -0.007108012269434279
-0.15747011913661313   -0.004285241358850611   -0.014588814610095818
-0.15747011913661313   -0.004285241358850611   -0.014588814610095818
-0.15747011913661313   -0.004285241358850611   -0.014588814610095818
-0.15747011913661313   -0.004285241358850611   -0.014588814610095818
-0.16181203185143728   -0.019970232514734877   -0.0008628682155529532
-0.16181203185143728   -0.019970232514734877   -0.0008628682155529532
-0.16181203185143728   -0.019970232514734877   -0.0008628682155529532
-0.16181203185143728   -0.019970232514734877   -0.0008628682155529532
-0.16314940035439077   -0.013356125827785365   -0.00740950532693567
-0.16314940035439077   -0.013356125827785365   -0.00740950532693567
-0.16314940035439077   -0.013356125827785365   -0.00740950532693567
-0.16314940035439077   -0.013356125827785365   -0.00740950532693567
-0.16318228399700488   -0.026733455656581036   -0.0001756034119368597
-0.16318228399700488   -0.026733455656581036   -0.0001756034119368597
-0.16318228399700488   -0.026733455656581036   -0.0001756034119368597
-0.16318228399700488   -0.026733455656581036   -0.0001756034119368597
-0.16003921990419517   -0.016789315300748852   -0.0004352832030236923
-0.16003921990419517   -0.016789315300748852   -0.0004352832030236923
-0.16003921990419517   -0.016789315300748852   -0.0004352832030236923
-0.16003921990419517   -0.016789315300748852   -0.0004352832030236923
-0.16321243277692385   -0.014415659867106245   -0.012644143101006963
-0.16321243277692385   -0.014415659867106245   -0.012644143101006963
-0.16321243277692385   -0.014415659867106245   -0.012644143101006963
-0.16321243277692385   -0.014415659867106245   -0.012644143101006963
-0.164158799584616   -0.026713469627405076   0.0009008423215540495
-0.164158799584616   -0.026713469627405076   0.0009008423215540495
-0.164158799584616   -0.026713469627405076   0.0009008423215540495
-0.164158799584616   -0.026713469627405076   0.0009008423215540495
-0.16602403205481847   -0.022024338098411166   -0.004825402701924195
-0.16602403205481847   -0.022024338098411166   -0.004825402701924195
-0.16602403205481847   -0.022024338098411166   -0.004825402701924195
-0.16602403205481847   -0.022024338098411166   -0.004825402701924195
-0.16931239225506914   -0.034766439013708274   0.0038180323735631395
-0.16931239225506914   -0.034766439013708274   0.0038180323735631395
-0.16931239225506914   -0.034766439013708274   0.0038180323735631395
-0.16931239225506914   -0.034766439013708274   0.0038180323735631395
-0.16389213073628658   -0.023816396275621588   -0.004482467982677824
-0.16389213073628658   -0.023816396275621588   -0.004482467982677824
-0.16389213073628658   -0.023816396275621588   -0.004482467982677824
-0.16389213073628658   -0.023816396275621588   -0.004482467982677824
-0.16974023845806568   -0.023683355308084443   -0.00940428234704337
-0.16974023845806568   -0.023683355308084443   -0.00940428234704337
-0.16974023845806568   -0.023683355308084443   -0.00940428234704337
-0.16974023845806568   -0.023683355308084443   -0.00940428234704337
-0.16692358493722737   -0.03443482088943948   0.003087315677057699
-0.16692358493722737   -0.03443482088943948   0.003087315677057699
-0.16692358493722737   -0.03443482088943948   0.003087315677057699
-0.16692358493722737   -0.03443482088943948   0.003087315677057699
-0.1686242726311423   -0.03131871925743747   -0.0022697542427225392
-0.1686242726311423   -0.03131871925743747   -0.0022697542427225392
-0.1686242726311423   -0.03131871925743747   -0.0022697542427225392
-0.1686242726311423   -0.03131871925743747   -0.0022697542427225392
-0.1740240387598751   -0.044897746960781054   0.007604658372770446
-0.1740240387598751   -0.044897746960781054   0.007604658372770446
-0.1740240387598751   -0.044897746960781054   0.007604658372770446
-0.1740240387598751   -0.044897746960781054   0.007604658372770446
-0.16911567100642502   -0.03223855752737653   -0.009600926640787665
-0.16911567100642502   -0.03223855752737653   -0.009600926640787665
-0.16911567100642502   -0.03223855752737653   -0.009600926640787665
-0.16911567100642502   -0.03223855752737653   -0.009600926640787665
-0.15730480879816283   0.00439364698851611   -0.002690632452429783
-0.15730480879816283   0.00439364698851611   -0.002690632452429783
-0.15730480879816283   0.00439364698851611   -0.002690632452429783
-0.15730480879816283   0.00439364698851611   -0.002690632452429783
-0.1798336594717182   -0.03416464463011569   -0.008668769970593149
-0.1798336594717182   -0.03416464463011569   -0.008668769970593149
-0.1798336594717182   -0.03416464463011569   -0.008668769970593149
-0.1798336594717182   -0.03416464463011569   -0.008668769970593149
-0.17263667918473505   -0.006351846531600286   0.0021747736522856245
-0.17263667918473505   -0.006351846531600286   0.0021747736522856245
-0.17263667918473505   -0.006351846531600286   0.0021747736522856245
-0.17263667918473505   -0.006351846531600286   0.0021747736522856245
-0.1673624182465206   -0.036543184686459486   -0.005287535928914494
-0.1673624182465206   -0.036543184686459486   -0.005287535928914494
-0.1673624182465206   -0.036543184686459486   -0.005287535928914494
-0.1673624182465206   -0.036543184686459486   -0.005287535928914494
-0.16916482257566479   -0.01874740986723931   -0.00374799981431555
-0.16916482257566479   -0.01874740986723931   -0.00374799981431555
-0.16916482257566479   -0.01874740986723931   -0.00374799981431555
-0.16916482257566479   -0.01874740986723931   -0.00374799981431555
-0.15985008071949303   -0.0042360734708795506   -3.295950935273441e-05
-0.15985008071949303   -0.0042360734708795506   -3.295950935273441e-05
-0.15985008071949303   -0.0042360734708795506   -3.295950935273441e-05
-0.15985008071949303   -0.0042360734708795506   -3.295950935273441e-05
-0.18109590854340016   -0.03960584957881714   -0.006867370093823153
-0.18109590854340016   -0.03960584957881714   -0.006867370093823153
-0.18109590854340016   -0.03960584957881714   -0.006867370093823153
-0.18109590854340016   -0.03960584957881714   -0.006867370093823153
-0.17474176024816243   -0.015050112254335009   0.004740158654483273
-0.17474176024816243   -0.015050112254335009   0.004740158654483273
-0.17474176024816243   -0.015050112254335009   0.004740158654483273
-0.17474176024816243   -0.015050112254335009   0.004740158654483273
-0.17005426817079658   -0.04338780325835563   -0.0036131181218721983
-0.17005426817079658   -0.04338780325835563   -0.0036131181218721983
-0.17005426817079658   -0.04338780325835563   -0.0036131181218721983
-0.17005426817079658   -0.04338780325835563   -0.0036131181218721983
-0.17138627039298773   -0.025361358543977194   -0.007219484410073816
-0.17138627039298773   -0.025361358543977194   -0.007219484410073816
-0.17138627039298773   -0.025361358543977194   -0.007219484410073816
-0.17138627039298773   -0.025361358543977194   -0.007219484410073816
-0.16276313427211422   -0.013092890972820723   0.002547639086006517
-0.16276313427211422   -0.013092890972820723   0.002547639086006517
-0.16276313427211422   -0.013092890972820723   0.002547639086006517
-0.16276313427211422   -0.013092890972820723   0.002547639086006517
-0.18309082356659248   -0.046402953959617944   -0.005652316232387877
-0.18309082356659248   -0.046402953959617944   -0.005652316232387877
-0.18309082356659248   -0.046402953959617944   -0.005652316232387877
-0.18309082356659248   -0.046402953959617944   -0.005652316232387877
-0.17647957454373253   -0.023211988278305833   0.0072554561166925345
-0.17647957454373253   -0.023211988278305833   0.0072554561166925345
-0.17647957454373253   -0.023211988278305833   0.0072554561166925345
-0.17647957454373253   -0.023211988278305833   0.0072554561166925345
-0.17209998238485305   -0.049921685528446766   -0.001045336740268855
-0.17209998238485305   -0.049921685528446766   -0.001045336740268855
-0.17209998238485305   -0.049921685528446766   -0.001045336740268855
-0.17209998238485305   -0.049921685528446766   -0.001045336740268855
-0.17401552790569474   -0.0322721639275229   -0.011031769944870966
-0.17401552790569474   -0.0322721639275229   -0.011031769944870966
-0.17401552790569474   -0.0322721639275229   -0.011031769944870966
-0.17401552790569474   -0.0322721639275229   -0.011031769944870966
-0.16603447843598612   0.017830756224663354   0.008331734353288137
-0.16603447843598612   0.017830756224663354   0.008331734353288137
-0.16603447843598612   0.017830756224663354   0.008331734353288137
-0.16603447843598612   0.017830756224663354   0.008331734353288137
-0.1978642286245487   -0.025707682443910133   -0.012152718736927024
-0.1978642286245487   -0.025707682443910133   -0.012152718736927024
-0.1978642286245487   -0.025707682443910133   -0.012152718736927024
-0.1978642286245487   -0.025707682443910133   -0.012152718736927024
-0.18741611423788979   0.005081987953658537   0.011464417177521221
-0.18741611423788979   0.005081987953658537   0.011464417177521221
-0.18741611423788979   0.005081987953658537   0.011464417177521221
-0.18741611423788979   0.005081987953658537   0.011464417177521221
-0.17891826198505825   -0.02827685444474392   -0.007308132436186854
-0.17891826198505825   -0.02827685444474392   -0.007308132436186854
-0.17891826198505825   -0.02827685444474392   -0.007308132436186854
-0.17891826198505825   -0.02827685444474392   -0.007308132436186854
-0.18251579884146907   -0.007583604504408106   -0.0022363808530387885
-0.18251579884146907   -0.007583604504408106   -0.0022363808530387885
-0.18251579884146907   -0.007583604504408106   -0.0022363808530387885
-0.18251579884146907   -0.007583604504408106   -0.0022363808530387885
-0.16784283275410378   0.008885160558066513   0.01090699871577511
-0.16784283275410378   0.008885160558066513   0.01090699871577511
-0.16784283275410378   0.008885160558066513   0.01090699871577511
-0.16784283275410378   0.008885160558066513   0.01090699871577511
-0.19975295448279148   -0.03334143806309783   -0.0117963580302309
-0.19975295448279148   -0.03334143806309783   -0.0117963580302309
-0.19975295448279148   -0.03334143806309783   -0.0117963580302309
-0.19975295448279148   -0.03334143806309783   -0.0117963580302309
-0.19097535235951107   -0.0034309913347303073   0.013011458276400037
-0.19097535235951107   -0.0034309913347303073   0.013011458276400037
-0.19097535235951107   -0.0034309913347303073   0.013011458276400037
-0.19097535235951107   -0.0034309913347303073   0.013011458276400037
-0.18076696699449146   -0.03462964621935235   -0.005806341112148505
-0.18076696699449146   -0.03462964621935235   -0.005806341112148505
-0.18076696699449146   -0.03462964621935235   -0.005806341112148505
-0.18076696699449146   -0.03462964621935235   -0.005806341112148505
-0.1843600791947161   -0.014764448244323738   -0.006311945496777068
-0.1843600791947161   -0.014764448244323738   -0.006311945496777068
-0.1843600791947161   -0.014764448244323738   -0.006311945496777068
-0.1843600791947161   -0.014764448244323738   -0.006311945496777068
-0.16982320054160369   0.0008780969667990038   0.013404747966139175
-0.16982320054160369   0.0008780969667990038   0.013404747966139175
-0.16982320054160369   0.0008780969667990038   0.013404747966139175
-0.16982320054160369   0.0008780969667990038   0.013404747966139175
-0.20301134829258527   -0.040030964001068065   -0.010568548722633277
-0.20301134829258527   -0.040030964001068065   -0.010568548722633277
-0.20301134829258527   -0.040030964001068065   -0.010568548722633277
-0.20301134829258527   -0.040030964001068065   -0.010568548722633277
-0.19336281801478106   -0.011614108372028344   0.015878883082669396
-0.19336281801478106   -0.011614108372028344   0.015878883082669396
-0.19336281801478106   -0.011614108372028344   0.015878883082669396
-0.19336281801478106   -0.011614108372028344   0.015878883082669396
-0.1823782563785027   -0.04101727444384816   -0.004432666891615915
-0.1823782563785027   -0.04101727444384816   -0.004432666891615915
-0.1823782563785027   -0.04101727444384816   -0.004432666891615915
-0.1823782563785027   -0.04101727444384816   -0.004432666891615915
-0.1875291444154435   -0.021558557801439573   -0.010270593516681211
-0.1875291444154435   -0.021558557801439573   -0.010270593516681211
-0.1875291444154435   -0.021558557801439573   -0.010270593516681211
-0.1875291444154435   -0.021558557801439573   -0.010270593516681211
-0.18183564073978584   0.025598686630469082   0.01668385161250412
-0.18183564073978584   0.025598686630469082   0.01668385161250412
-0.18183564073978584   0.025598686630469082   0.01668385161250412
-0.18183564073978584   0.025598686630469082   0.01668385161250412
-0.1962980400296133   -0.015707943890949986   -0.017547864646325326
-0.1962980400296133   -0.015707943890949986   -0.017547864646325326
-0.1962980400296133   -0.015707943890949986   -0.017547864646325326
-0.1962980400296133   -0.015707943890949986   -0.017547864646325326
-0.19212403204254996   0.01786446758859616   0.0185522720225093
-0.19212403204254996   0.01786446758859616   0.0185522720225093
-0.19212403204254996   0.01786446758859616   0.0185522720225093
-0.19212403204254996   0.01786446758859616   0.0185522720225093
-0.1968027462195507   -0.019656557508319336   -0.01073019726880927
-0.1968027462195507   -0.019656557508319336   -0.01073019726880927
-0.1968027462195507   -0.019656557508319336   -0.01073019726880927
-0.1968027462195507   -0.019656557508319336   -0.01073019726880927
-0.18518024319166224   0.004460973529400489   0.0008733505383029319
-0.18518024319166224   0.004460973529400489   0.0008733505383029319
-0.18518024319166224   0.004460973529400489   0.0008733505383029319
-0.18518024319166224   0.004460973529400489   0.0008733505383029319
-0.18289723179129094   0.019856280589316773   0.01928453677485338
-0.18289723179129094   0.019856280589316773   0.01928453677485338
-0.18289723179129094   0.019856280589316773   0.01928453677485338
-0.18289723179129094   0.019856280589316773   0.01928453677485338
-0.2070667195411024   -0.022685543579331363   -0.015611154302317735
-0.2070667195411024   -0.022685543579331363   -0.015611154302317735
-0.2070667195411024   -0.022685543579331363   -0.015611154302317735
-0.2070667195411024   -0.022685543579331363   -0.015611154302317735
-0.20057976359801216   0.013065690013164044   0.023860236709980324
-0.20057976359801216   0.013065690013164044   0.023860236709980324
-0.20057976359801216   0.013065690013164044   0.023860236709980324
-0.20057976359801216   0.013065690013164044   0.023860236709980324
-0.19952617917742813   -0.02340912649281719   -0.0097645406551021
-0.19952617917742813   -0.02340912649281719   -0.0097645406551021
-0.19952617917742813   -0.02340912649281719   -0.0097645406551021
-0.19952617917742813   -0.02340912649281719   -0.0097645406551021
-0.1943109394239575   -0.0013393725067497725   -0.003979769441910006
-0.1943109394239575   -0.0013393725067497725   -0.003979769441910006
-0.1943109394239575   -0.0013393725067497725   -0.003979769441910006
-0.1943109394239575   -0.0013393725067497725   -0.003979769441910006
-0.185078310900159   0.016005890048689117   0.023059784189737198
-0.185078310900159   0.016005890048689117   0.023059784189737198
-0.185078310900159   0.016005890048689117   0.023059784189737198
-0.185078310900159   0.016005890048689117   0.023059784189737198
-0.21636758265065184   -0.02768927730371028   -0.014323891236343846
-0.21636758265065184   -0.02768927730371028   -0.014323891236343846
-0.21636758265065184   -0.02768927730371028   -0.014323891236343846
-0.21636758265065184   -0.02768927730371028   -0.014323891236343846
-0.21533124996053285   0.000796213171694822   0.025480575145817065
-0.21533124996053285   0.000796213171694822   0.025480575145817065
-0.21533124996053285   0.000796213171694822   0.025480575145817065
-0.21533124996053285   0.000796213171694822   0.025480575145817065
-0.20202487258140772   -0.030567031118590153   -0.008478467003902236
-0.20202487258140772   -0.030567031118590153   -0.008478467003902236
-0.20202487258140772   -0.030567031118590153   -0.008478467003902236
-0.20202487258140772   -0.030567031118590153   -0.008478467003902236
-0.19862989895690183   -0.006702438092209828   -0.00832808586125951
-0.19862989895690183   -0.006702438092209828   -0.00832808586125951
-0.19862989895690183   -0.006702438092209828   -0.00832808586125951
-0.19862989895690183   -0.006702438092209828   -0.00832808586125951
-0.37976262944694106   -0.034820713125481406   -0.036510994433911786
-0.37976262944694106   -0.034820713125481406   -0.036510994433911786
-0.37976262944694106   -0.034820713125481406   -0.036510994433911786
-0.37976262944694106   -0.034820713125481406   -0.036510994433911786
-0.24237822093433034   0.020134805194751373   0.008560940795198833
-0.24237822093433034   0.020134805194751373   0.008560940795198833
-0.24237822093433034   0.020134805194751373   0.008560940795198833
-0.24237822093433034   0.020134805194751373   0.008560940795198833
-0.25467655772332454   -0.016490574669974264   -0.01642588195987942
-0.25467655772332454   -0.016490574669974264   -0.01642588195987942
-0.25467655772332454   -0.016490574669974264   -0.01642588195987942
-0.25467655772332454   -0.016490574669974264   -0.01642588195987942
-0.4045095748702329   -0.04635528528411882   0.040585661983438014
-0.4045095748702329   -0.04635528528411882   0.040585661983438014
-0.4045095748702329   -0.04635528528411882   0.040585661983438014
-0.4045095748702329   -0.04635528528411882   0.040585661983438014
-0.2943042435872585   -0.011467554783111726   0.03953156738496165
-0.2943042435872585   -0.011467554783111726   0.03953156738496165
-0.2943042435872585   -0.011467554783111726   0.03953156738496165
-0.2943042435872585   -0.011467554783111726   0.03953156738496165
-0.41901356906198634   -0.051442266164682976   -0.026847328094761185
-0.41901356906198634   -0.051442266164682976   -0.026847328094761185
-0.41901356906198634   -0.051442266164682976   -0.026847328094761185
-0.41901356906198634   -0.051442266164682976   -0.026847328094761185
-0.2503944468240211   -0.021625477081859485   0.01011957494852293
-0.2503944468240211   -0.021625477081859485   0.01011957494852293
-0.2503944468240211   -0.021625477081859485   0.01011957494852293
-0.2503944468240211   -0.021625477081859485   0.01011957494852293
-0.25885060241121743   -0.023774724105239543   -0.01189126667597268
-0.25885060241121743   -0.023774724105239543   -0.01189126667597268
-0.25885060241121743   -0.023774724105239543   -0.01189126667597268
-0.25885060241121743   -0.023774724105239543   -0.01189126667597268
-0.4177674308904747   -0.06466774137162062   0.000794136841810367
-0.4177674308904747   -0.06466774137162062   0.000794136841810367
-0.4177674308904747   -0.06466774137162062   0.000794136841810367
-0.4177674308904747   -0.06466774137162062   0.000794136841810367
-0.3263816002445679   -0.03901259550735755   0.009207697982241964
-0.3263816002445679   -0.03901259550735755   0.009207697982241964
-0.3263816002445679   -0.03901259550735755   0.009207697982241964
-0.3263816002445679   -0.03901259550735755   0.009207697982241964
-0.4209727092201742   -0.058167409472914426   -0.0217325867053903
-0.4209727092201742   -0.058167409472914426   -0.0217325867053903
-0.4209727092201742   -0.058167409472914426   -0.0217325867053903
-0.4209727092201742   -0.058167409472914426   -0.0217325867053903
-0.2587155069682081   -0.033345238890635794   -0.001645274675532082
-0.2587155069682081   -0.033345238890635794   -0.001645274675532082
-0.2587155069682081   -0.033345238890635794   -0.001645274675532082
-0.2587155069682081   -0.033345238890635794   -0.001645274675532082
-0.2592703703826337   -0.04129457995364663   -0.008723974550354301
-0.2592703703826337   -0.04129457995364663   -0.008723974550354301
-0.2592703703826337   -0.04129457995364663   -0.008723974550354301
-0.2592703703826337   -0.04129457995364663   -0.008723974550354301
-0.4282340429589666   -0.0985833886891627   0.006167673303408517
-0.4282340429589666   -0.0985833886891627   0.006167673303408517
-0.4282340429589666   -0.0985833886891627   0.006167673303408517
-0.4282340429589666   -0.0985833886891627   0.006167673303408517
-0.32633024666798927   -0.053565051978498396   0.0007811482072874673
-0.32633024666798927   -0.053565051978498396   0.0007811482072874673
-0.32633024666798927   -0.053565051978498396   0.0007811482072874673
-0.32633024666798927   -0.053565051978498396   0.0007811482072874673
-0.26169366347551154   -0.04445856544969276   -0.023422901266260458
-0.26169366347551154   -0.04445856544969276   -0.023422901266260458
-0.26169366347551154   -0.04445856544969276   -0.023422901266260458
-0.26169366347551154   -0.04445856544969276   -0.023422901266260458
-0.18098698296997087   -0.11832309521042797   -0.022118735350006143
-0.18098698296997087   -0.11832309521042797   -0.022118735350006143
-0.18098698296997087   -0.11832309521042797   -0.022118735350006143
-0.18098698296997087   -0.11832309521042797   -0.022118735350006143
-0.15889412277011564   -0.026143490320922565   -0.0015139379605261165
-0.15889412277011564   -0.026143490320922565   -0.0015139379605261165
-0.15889412277011564   -0.026143490320922565   -0.0015139379605261165
-0.15889412277011564   -0.026143490320922565   -0.0015139379605261165
-0.27867035975193905   -0.12513418230471102   -0.027751284468215384
-0.27867035975193905   -0.12513418230471102   -0.027751284468215384
-0.27867035975193905   -0.12513418230471102   -0.027751284468215384
-0.27867035975193905   -0.12513418230471102   -0.027751284468215384
-0.21753720682056374   -0.08325245505898866   -0.006376769632964869
-0.21753720682056374   -0.08325245505898866   -0.006376769632964869
-0.21753720682056374   -0.08325245505898866   -0.006376769632964869
-0.21753720682056374   -0.08325245505898866   -0.006376769632964869
-0.26161142920469205   -0.049918605685892264   -0.017672208350798156
-0.26161142920469205   -0.049918605685892264   -0.017672208350798156
-0.26161142920469205   -0.049918605685892264   -0.017672208350798156
-0.26161142920469205   -0.049918605685892264   -0.017672208350798156
-0.17700725863963576   -0.10241327226201463   -0.015809835367036784
-0.17700725863963576   -0.10241327226201463   -0.015809835367036784
-0.17700725863963576   -0.10241327226201463   -0.015809835367036784
-0.17700725863963576   -0.10241327226201463   -0.015809835367036784
-0.16092574278891977   -0.03382779799370435   0.00012458800743341848
-0.16092574278891977   -0.03382779799370435   0.00012458800743341848
-0.16092574278891977   -0.03382779799370435   0.00012458800743341848
-0.16092574278891977   -0.03382779799370435   0.00012458800743341848
-0.2798800651389121   -0.12446737593467046   -0.016345928485017466
-0.2798800651389121   -0.12446737593467046   -0.016345928485017466
-0.2798800651389121   -0.12446737593467046   -0.016345928485017466
-0.2798800651389121   -0.12446737593467046   -0.016345928485017466
-0.2152738941396307   -0.07803170021967688   -0.006777525709008005
-0.2152738941396307   -0.07803170021967688   -0.006777525709008005
-0.2152738941396307   -0.07803170021967688   -0.006777525709008005
-0.2152738941396307   -0.07803170021967688   -0.006777525709008005
-0.2658744912612237   -0.05749962691325042   -0.013285808117993054
-0.2658744912612237   -0.05749962691325042   -0.013285808117993054
-0.2658744912612237   -0.05749962691325042   -0.013285808117993054
-0.2658744912612237   -0.05749962691325042   -0.013285808117993054
-0.17713600323313866   -0.10300023358165475   -0.011754278625712447
-0.17713600323313866   -0.10300023358165475   -0.011754278625712447
-0.17713600323313866   -0.10300023358165475   -0.011754278625712447
-0.17713600323313866   -0.10300023358165475   -0.011754278625712447
-0.16111976396857258   -0.04334459882014512   0.0024661242846475686
-0.16111976396857258   -0.04334459882014512   0.0024661242846475686
-0.16111976396857258   -0.04334459882014512   0.0024661242846475686
-0.16111976396857258   -0.04334459882014512   0.0024661242846475686
-0.2794173666656472   -0.1263641142351492   -0.02438942168392258
-0.2794173666656472   -0.1263641142351492   -0.02438942168392258
-0.2794173666656472   -0.1263641142351492   -0.02438942168392258
-0.2794173666656472   -0.1263641142351492   -0.02438942168392258
-0.2187682981750359   -0.08388266397562623   -0.01261503508703357
-0.2187682981750359   -0.08388266397562623   -0.01261503508703357
-0.2187682981750359   -0.08388266397562623   -0.01261503508703357
-0.2187682981750359   -0.08388266397562623   -0.01261503508703357
-0.1590458448654189   -0.028683796435226706   -0.00205234360244755
-0.1590458448654189   -0.028683796435226706   -0.00205234360244755
-0.1590458448654189   -0.028683796435226706   -0.00205234360244755
-0.1590458448654189   -0.028683796435226706   -0.00205234360244755
-0.1345932294825073   -0.09077734374081214   -0.01566762268969754
-0.1345932294825073   -0.09077734374081214   -0.01566762268969754
-0.1345932294825073   -0.09077734374081214   -0.01566762268969754
-0.1345932294825073   -0.09077734374081214   -0.01566762268969754
-0.11604608897321032   -0.023997996911446072   0.006122073672842304
-0.11604608897321032   -0.023997996911446072   0.006122073672842304
-0.11604608897321032   -0.023997996911446072   0.006122073672842304
-0.11604608897321032   -0.023997996911446072   0.006122073672842304
-0.1764854228193162   -0.09838343687471993   -0.017230491652733704
-0.1764854228193162   -0.09838343687471993   -0.017230491652733704
-0.1764854228193162   -0.09838343687471993   -0.017230491652733704
-0.1764854228193162   -0.09838343687471993   -0.017230491652733704
-0.14591305075326494   -0.06126394689920035   -0.007206927399476806
-0.14591305075326494   -0.06126394689920035   -0.007206927399476806
-0.14591305075326494   -0.06126394689920035   -0.007206927399476806
-0.14591305075326494   -0.06126394689920035   -0.007206927399476806
-0.16010790170631004   -0.033983365654265865   0.0002570426918430633
-0.16010790170631004   -0.033983365654265865   0.0002570426918430633
-0.16010790170631004   -0.033983365654265865   0.0002570426918430633
-0.16010790170631004   -0.033983365654265865   0.0002570426918430633
-0.13336674911676874   -0.08934120716245303   -0.015138016793942815
-0.13336674911676874   -0.08934120716245303   -0.015138016793942815
-0.13336674911676874   -0.08934120716245303   -0.015138016793942815
-0.13336674911676874   -0.08934120716245303   -0.015138016793942815
-0.11629083902523477   -0.030322428187243906   0.007950328088124618
-0.11629083902523477   -0.030322428187243906   0.007950328088124618
-0.11629083902523477   -0.030322428187243906   0.007950328088124618
-0.11629083902523477   -0.030322428187243906   0.007950328088124618
-0.17724548493236697   -0.09993924544194056   -0.015362675261568245
-0.17724548493236697   -0.09993924544194056   -0.015362675261568245
-0.17724548493236697   -0.09993924544194056   -0.015362675261568245
-0.17724548493236697   -0.09993924544194056   -0.015362675261568245
-0.14582641949780117   -0.06361488117962194   -0.00935743825946205
-0.14582641949780117   -0.06361488117962194   -0.00935743825946205
-0.14582641949780117   -0.06361488117962194   -0.00935743825946205
-0.14582641949780117   -0.06361488117962194   -0.00935743825946205
-0.16167659231224765   -0.040400946652378214   0.0029434890494659458
-0.16167659231224765   -0.040400946652378214   0.0029434890494659458
-0.16167659231224765   -0.040400946652378214   0.0029434890494659458
-0.16167659231224765   -0.040400946652378214   0.0029434890494659458
-0.13238151796413694   -0.09038251329558912   -0.012442981498041045
-0.13238151796413694   -0.09038251329558912   -0.012442981498041045
-0.13238151796413694   -0.09038251329558912   -0.012442981498041045
-0.13238151796413694   -0.09038251329558912   -0.012442981498041045
-0.11515204574528987   -0.03633315086220949   0.009949399951354337
-0.11515204574528987   -0.03633315086220949   0.009949399951354337
-0.11515204574528987   -0.03633315086220949   0.009949399951354337
-0.11515204574528987   -0.03633315086220949   0.009949399951354337
-0.17537981895214294   -0.10114646200014074   -0.01103228745321054
-0.17537981895214294   -0.10114646200014074   -0.01103228745321054
-0.17537981895214294   -0.10114646200014074   -0.01103228745321054
-0.17537981895214294   -0.10114646200014074   -0.01103228745321054
-0.14561739234712603   -0.066746884894692   -0.010881248946150234
-0.14561739234712603   -0.066746884894692   -0.010881248946150234
-0.14561739234712603   -0.066746884894692   -0.010881248946150234
-0.14561739234712603   -0.066746884894692   -0.010881248946150234
-0.1118862074742948   -0.003886254786968215   0.010976398397521025
-0.1118862074742948   -0.003886254786968215   0.010976398397521025
-0.1118862074742948   -0.003886254786968215   0.010976398397521025
-0.1118862074742948   -0.003886254786968215   0.010976398397521025
-0.10698473767099197   -0.048294739442094996   -0.009488559105732125
-0.10698473767099197   -0.048294739442094996   -0.009488559105732125
-0.10698473767099197   -0.048294739442094996   -0.009488559105732125
-0.10698473767099197   -0.048294739442094996   -0.009488559105732125
-0.09244660437437995   -0.006985862411451183   0.012675170119598464
-0.09244660437437995   -0.006985862411451183   0.012675170119598464
-0.09244660437437995   -0.006985862411451183   0.012675170119598464
-0.09244660437437995   -0.006985862411451183   0.012675170119598464
-0.1249069137951504   -0.05550429712020026   -0.006675750228103882
-0.1249069137951504   -0.05550429712020026   -0.006675750228103882
-0.1249069137951504   -0.05550429712020026   -0.006675750228103882
-0.1249069137951504   -0.05550429712020026   -0.006675750228103882
-0.10941053212080731   -0.028383323792308023   -0.0039221051739228106
-0.10941053212080731   -0.028383323792308023   -0.0039221051739228106
-0.10941053212080731   -0.028383323792308023   -0.0039221051739228106
-0.10941053212080731   -0.028383323792308023   -0.0039221051739228106
-0.11212283648106469   -0.010923395843569118   0.012663735065693548
-0.11212283648106469   -0.010923395843569118   0.012663735065693548
-0.11212283648106469   -0.010923395843569118   0.012663735065693548
-0.11212283648106469   -0.010923395843569118   0.012663735065693548
-0.10624674689574687   -0.052582828895363545   -0.010728576003323843
-0.10624674689574687   -0.052582828895363545   -0.010728576003323843
-0.10624674689574687   -0.052582828895363545   -0.010728576003323843
-0.10624674689574687   -0.052582828895363545   -0.010728576003323843
-0.09277422048013305   -0.013141972309861341   0.013639281920948085
-0.09277422048013305   -0.013141972309861341   0.013639281920948085
-0.09277422048013305   -0.013141972309861341   0.013639281920948085
-0.09277422048013305   -0.013141972309861341   0.013639281920948085
-0.1250751120329385   -0.05890168099412645   -0.007391784143511521
-0.1250751120329385   -0.05890168099412645   -0.007391784143511521
-0.1250751120329385   -0.05890168099412645   -0.007391784143511521
-0.1250751120329385   -0.05890168099412645   -0.007391784143511521
-0.10911140425533525   -0.033308276658261964   -0.00667618754712544
-0.10911140425533525   -0.033308276658261964   -0.00667618754712544
-0.10911140425533525   -0.033308276658261964   -0.00667618754712544
-0.10911140425533525   -0.033308276658261964   -0.00667618754712544
-0.11231506148522605   -0.016897199479070583   0.014403987079994879
-0.11231506148522605   -0.016897199479070583   0.014403987079994879
-0.11231506148522605   -0.016897199479070583   0.014403987079994879
-0.11231506148522605   -0.016897199479070583   0.014403987079994879
-0.10615052097683204   -0.055762703773904396   -0.010621489098503861
-0.10615052097683204   -0.055762703773904396   -0.010621489098503861
-0.10615052097683204   -0.055762703773904396   -0.010621489098503861
-0.10615052097683204   -0.055762703773904396   -0.010621489098503861
-0.09219175343437465   -0.018930341527975438   0.015815494743627326
-0.09219175343437465   -0.018930341527975438   0.015815494743627326
-0.09219175343437465   -0.018930341527975438   0.015815494743627326
-0.09219175343437465   -0.018930341527975438   0.015815494743627326
-0.12333446261277964   -0.06228230623304347   -0.005013529015260573
-0.12333446261277964   -0.06228230623304347   -0.005013529015260573
-0.12333446261277964   -0.06228230623304347   -0.005013529015260573
-0.12333446261277964   -0.06228230623304347   -0.005013529015260573
-0.10900600601740541   -0.03758086149392943   -0.008618874774848417
-0.10900600601740541   -0.03758086149392943   -0.008618874774848417
-0.10900600601740541   -0.03758086149392943   -0.008618874774848417
-0.10900600601740541   -0.03758086149392943   -0.008618874774848417
-0.0894692809235288   0.012605148247858088   0.017188836941630543
-0.0894692809235288   0.012605148247858088   0.017188836941630543
-0.0894692809235288   0.012605148247858088   0.017188836941630543
-0.0894692809235288   0.012605148247858088   0.017188836941630543
-0.06107292447494024   -0.016062032542725892   -0.005915852030253519
-0.06107292447494024   -0.016062032542725892   -0.005915852030253519
-0.06107292447494024   -0.016062032542725892   -0.005915852030253519
-0.06107292447494024   -0.016062032542725892   -0.005915852030253519
-0.05375837475765781   0.01449863299486693   0.017001383785229154
-0.05375837475765781   0.01449863299486693   0.017001383785229154
-0.05375837475765781   0.01449863299486693   0.017001383785229154
-0.05375837475765781   0.01449863299486693   0.017001383785229154
-0.09903916480445328   -0.024194164831844975   -0.0030793296103744303
-0.09903916480445328   -0.024194164831844975   -0.0030793296103744303
-0.09903916480445328   -0.024194164831844975   -0.0030793296103744303
-0.09903916480445328   -0.024194164831844975   -0.0030793296103744303
-0.07472720480223308   -0.0016033578959390987   -0.00301166986715895
-0.07472720480223308   -0.0016033578959390987   -0.00301166986715895
-0.07472720480223308   -0.0016033578959390987   -0.00301166986715895
-0.07472720480223308   -0.0016033578959390987   -0.00301166986715895
-0.08824036444326139   0.007955049811207624   0.01876545755253621
-0.08824036444326139   0.007955049811207624   0.01876545755253621
-0.08824036444326139   0.007955049811207624   0.01876545755253621
-0.08824036444326139   0.007955049811207624   0.01876545755253621
-0.0646759726227182   -0.017769379152054177   -0.005318593393151666
-0.0646759726227182   -0.017769379152054177   -0.005318593393151666
-0.0646759726227182   -0.017769379152054177   -0.005318593393151666
-0.0646759726227182   -0.017769379152054177   -0.005318593393151666
-0.05629224713703376   0.011465351901202667   0.021373919274602797
-0.05629224713703376   0.011465351901202667   0.021373919274602797
-0.05629224713703376   0.011465351901202667   0.021373919274602797
-0.05629224713703376   0.011465351901202667   0.021373919274602797
-0.09880744697095549   -0.025787227169777188   -0.003881595673248296
-0.09880744697095549   -0.025787227169777188   -0.003881595673248296
-0.09880744697095549   -0.025787227169777188   -0.003881595673248296
-0.09880744697095549   -0.025787227169777188   -0.003881595673248296
-0.0771773326914829   -0.004909912478778283   -0.0043768418685381635
-0.0771773326914829   -0.004909912478778283   -0.0043768418685381635
-0.0771773326914829   -0.004909912478778283   -0.0043768418685381635
-0.0771773326914829   -0.004909912478778283   -0.0043768418685381635
-0.08750161066655983   0.005267305896806218   0.02159305278214662
-0.08750161066655983   0.005267305896806218   0.02159305278214662
-0.08750161066655983   0.005267305896806218   0.02159305278214662
-0.08750161066655983   0.005267305896806218   0.02159305278214662
-0.06837236639696803   -0.020363464120918703   -0.0071978610029471675
-0.06837236639696803   -0.020363464120918703   -0.0071978610029471675
-0.06837236639696803   -0.020363464120918703   -0.0071978610029471675
-0.06837236639696803   -0.020363464120918703   -0.0071978610029471675
-0.06432880855896711   0.0031168946825265113   0.022245097979240458
-0.06432880855896711   0.0031168946825265113   0.022245097979240458
-0.06432880855896711   0.0031168946825265113   0.022245097979240458
-0.06432880855896711   0.0031168946825265113   0.022245097979240458
-0.09767249336633231   -0.027287669685427736   -0.0032308767587086733
-0.09767249336633231   -0.027287669685427736   -0.0032308767587086733
-0.09767249336633231   -0.027287669685427736   -0.0032308767587086733
-0.09767249336633231   -0.027287669685427736   -0.0032308767587086733
-0.07844160907278948   -0.0073435263154935475   -0.006510129232112353
-0.07844160907278948   -0.0073435263154935475   -0.006510129232112353
-0.07844160907278948   -0.0073435263154935475   -0.006510129232112353
-0.07844160907278948   -0.0073435263154935475   -0.006510129232112353
-0.9048104672954974   -0.12927554596404078   -0.07605856863759881
-0.9048104672954974   -0.12927554596404078   -0.07605856863759881
-0.9048104672954974   -0.12927554596404078   -0.07605856863759881
-0.9048104672954974   -0.12927554596404078   -0.07605856863759881
-0.3154660649329567   -0.507796172119015   -0.059310117476809886
-0.3154660649329567   -0.507796172119015   -0.059310117476809886
-0.3154660649329567   -0.507796172119015   -0.059310117476809886
-0.3154660649329567   -0.507796172119015   -0.059310117476809886
-0.24220184948132875   -0.021976064368391477   0.00017404117317062606
-0.24220184948132875   -0.021976064368391477   0.00017404117317062606
-0.24220184948132875   -0.021976064368391477   0.00017404117317062606
-0.24220184948132875   -0.021976064368391477   0.00017404117317062606
-0.9691992119676034   -0.5944373356147818   -0.31272730951647704
-0.9691992119676034   -0.5944373356147818   -0.31272730951647704
-0.9691992119676034   -0.5944373356147818   -0.31272730951647704
-0.9691992119676034   -0.5944373356147818   -0.31272730951647704
-0.5926654713065833   -0.29537694743834886   -0.04308500636883892
-0.5926654713065833   -0.29537694743834886   -0.04308500636883892
-0.5926654713065833   -0.29537694743834886   -0.04308500636883892
-0.5926654713065833   -0.29537694743834886   -0.04308500636883892
-0.840931795327203   -0.16243531179837775   -0.10339225013088657
-0.840931795327203   -0.16243531179837775   -0.10339225013088657
-0.840931795327203   -0.16243531179837775   -0.10339225013088657
-0.840931795327203   -0.16243531179837775   -0.10339225013088657
-0.3411415855687682   -0.4246504076318354   -0.09185029600058016
-0.3411415855687682   -0.4246504076318354   -0.09185029600058016
-0.3411415855687682   -0.4246504076318354   -0.09185029600058016
-0.3411415855687682   -0.4246504076318354   -0.09185029600058016
-0.24750333579561684   -0.02892622000718332   0.009237648569139065
-0.24750333579561684   -0.02892622000718332   0.009237648569139065
-0.24750333579561684   -0.02892622000718332   0.009237648569139065
-0.24750333579561684   -0.02892622000718332   0.009237648569139065
-0.9072269139124822   -0.5315926559867512   -0.2877639139798467
-0.9072269139124822   -0.5315926559867512   -0.2877639139798467
-0.9072269139124822   -0.5315926559867512   -0.2877639139798467
-0.9072269139124822   -0.5315926559867512   -0.2877639139798467
-0.5584475494653188   -0.26678634661879647   0.02226652315865215
-0.5584475494653188   -0.26678634661879647   0.02226652315865215
-0.5584475494653188   -0.26678634661879647   0.02226652315865215
-0.5584475494653188   -0.26678634661879647   0.02226652315865215
-0.7897678673904165   -0.15469910292602168   -0.07736223443025306
-0.7897678673904165   -0.15469910292602168   -0.07736223443025306
-0.7897678673904165   -0.15469910292602168   -0.07736223443025306
-0.7897678673904165   -0.15469910292602168   -0.07736223443025306
-0.3323305233921221   -0.37318791414235286   -0.0706365952782154
-0.3323305233921221   -0.37318791414235286   -0.0706365952782154
-0.3323305233921221   -0.37318791414235286   -0.0706365952782154
-0.3323305233921221   -0.37318791414235286   -0.0706365952782154
-0.2853957012986823   -0.074283029344257   -0.015168871632351127
-0.2853957012986823   -0.074283029344257   -0.015168871632351127
-0.2853957012986823   -0.074283029344257   -0.015168871632351127
-0.2853957012986823   -0.074283029344257   -0.015168871632351127
-0.8270382463554146   -0.4485179049070641   -0.2551112302524957
-0.8270382463554146   -0.4485179049070641   -0.2551112302524957
-0.8270382463554146   -0.4485179049070641   -0.2551112302524957
-0.8270382463554146   -0.4485179049070641   -0.2551112302524957
-0.5175512122866113   -0.23162299636179565   0.09621580671180133
-0.5175512122866113   -0.23162299636179565   0.09621580671180133
-0.5175512122866113   -0.23162299636179565   0.09621580671180133
-0.5175512122866113   -0.23162299636179565   0.09621580671180133
-0.231353209905134   -0.1277341636823352   -0.018807850774379166
-0.231353209905134   -0.1277341636823352   -0.018807850774379166
-0.231353209905134   -0.1277341636823352   -0.018807850774379166
-0.231353209905134   -0.1277341636823352   -0.018807850774379166
-0.10828291315208957   -0.1641749961356152   -0.026817198851297817
-0.10828291315208957   -0.1641749961356152   -0.026817198851297817
-0.10828291315208957   -0.1641749961356152   -0.026817198851297817
-0.10828291315208957   -0.1641749961356152   -0.026817198851297817
-0.09469475492045906   -0.08232076935872457   0.0023401754302368356
-0.09469475492045906   -0.08232076935872457   0.0023401754302368356
-0.09469475492045906   -0.08232076935872457   0.0023401754302368356
-0.09469475492045906   -0.08232076935872457   0.0023401754302368356
-0.2851733515052327   -0.23747266078939666   0.0008131274746585454
-0.2851733515052327   -0.23747266078939666   0.0008131274746585454
-0.2851733515052327   -0.23747266078939666   0.0008131274746585454
-0.2851733515052327   -0.23747266078939666   0.0008131274746585454
-0.15258010057917942   -0.1148178294686635   0.04935303571691747
-0.15258010057917942   -0.1148178294686635   0.04935303571691747
-0.15258010057917942   -0.1148178294686635   0.04935303571691747
-0.15258010057917942   -0.1148178294686635   0.04935303571691747
-0.2640811314166996   -0.11908813859869606   -0.012110294273380041
-0.2640811314166996   -0.11908813859869606   -0.012110294273380041
-0.2640811314166996   -0.11908813859869606   -0.012110294273380041
-0.2640811314166996   -0.11908813859869606   -0.012110294273380041
-0.12398102774756092   -0.20889934428799453   -0.01751261377600255
-0.12398102774756092   -0.20889934428799453   -0.01751261377600255
-0.12398102774756092   -0.20889934428799453   -0.01751261377600255
-0.12398102774756092   -0.20889934428799453   -0.01751261377600255
-0.10266340551062116   -0.08525681288518225   0.002490227134132616
-0.10266340551062116   -0.08525681288518225   0.002490227134132616
-0.10266340551062116   -0.08525681288518225   0.002490227134132616
-0.10266340551062116   -0.08525681288518225   0.002490227134132616
-0.29967110372618205   -0.23491774415431035   -0.04560966693655783
-0.29967110372618205   -0.23491774415431035   -0.04560966693655783
-0.29967110372618205   -0.23491774415431035   -0.04560966693655783
-0.29967110372618205   -0.23491774415431035   -0.04560966693655783
-0.1826808774569614   -0.14684380353022564   0.022178390599623586
-0.1826808774569614   -0.14684380353022564   0.022178390599623586
-0.1826808774569614   -0.14684380353022564   0.022178390599623586
-0.1826808774569614   -0.14684380353022564   0.022178390599623586
-0.2729771635404666   -0.12435762662536373   -0.02270008353692933
-0.2729771635404666   -0.12435762662536373   -0.02270008353692933
-0.2729771635404666   -0.12435762662536373   -0.02270008353692933
-0.2729771635404666   -0.12435762662536373   -0.02270008353692933
-0.12861285720938995   -0.19507244192718257   -0.017441402317710974
-0.12861285720938995   -0.19507244192718257   -0.017441402317710974
-0.12861285720938995   -0.19507244192718257   -0.017441402317710974
-0.12861285720938995   -0.19507244192718257   -0.017441402317710974
-0.11507403299294594   -0.08788117785009851   0.0036819265686374274
-0.11507403299294594   -0.08788117785009851   0.0036819265686374274
-0.11507403299294594   -0.08788117785009851   0.0036819265686374274
-0.11507403299294594   -0.08788117785009851   0.0036819265686374274
-0.3211239573254892   -0.22861290156185293   -0.03948027954878871
-0.3211239573254892   -0.22861290156185293   -0.03948027954878871
-0.3211239573254892   -0.22861290156185293   -0.03948027954878871
-0.3211239573254892   -0.22861290156185293   -0.03948027954878871
-0.19166067880024512   -0.13848396881193004   0.023394476551129213
-0.19166067880024512   -0.13848396881193004   0.023394476551129213
-0.19166067880024512   -0.13848396881193004   0.023394476551129213
-0.19166067880024512   -0.13848396881193004   0.023394476551129213
-0.08425549712197927   -0.07645607974836612   0.005600964912004545
-0.08425549712197927   -0.07645607974836612   0.005600964912004545
-0.08425549712197927   -0.07645607974836612   0.005600964912004545
-0.08425549712197927   -0.07645607974836612   0.005600964912004545
-0.05255296247552723   -0.053149621670349693   -0.013189829920477007
-0.05255296247552723   -0.053149621670349693   -0.013189829920477007
-0.05255296247552723   -0.053149621670349693   -0.013189829920477007
-0.05255296247552723   -0.053149621670349693   -0.013189829920477007
-0.050590186092143   -0.06864645859524143   0.005559163017489436
-0.050590186092143   -0.06864645859524143   0.005559163017489436
-0.050590186092143   -0.06864645859524143   0.005559163017489436
-0.050590186092143   -0.06864645859524143   0.005559163017489436
-0.09414649151211184   -0.07173696799214371   -0.005502308894607923
-0.09414649151211184   -0.07173696799214371   -0.005502308894607923
-0.09414649151211184   -0.07173696799214371   -0.005502308894607923
-0.09414649151211184   -0.07173696799214371   -0.005502308894607923
-0.059313571768923254   -0.05683203318802665   0.0248343733637287
-0.059313571768923254   -0.05683203318802665   0.0248343733637287
-0.059313571768923254   -0.05683203318802665   0.0248343733637287
-0.059313571768923254   -0.05683203318802665   0.0248343733637287
-0.09287792436279542   -0.07699593923408643   0.006099498093916848
-0.09287792436279542   -0.07699593923408643   0.006099498093916848
-0.09287792436279542   -0.07699593923408643   0.006099498093916848
-0.09287792436279542   -0.07699593923408643   0.006099498093916848
-0.05275232448423278   -0.0642810585960721   -0.00961692894212888
-0.05275232448423278   -0.0642810585960721   -0.00961692894212888
-0.05275232448423278   -0.0642810585960721   -0.00961692894212888
-0.05275232448423278   -0.0642810585960721   -0.00961692894212888
-0.05140322047085009   -0.07070174106643462   0.004982582154444623
-0.05140322047085009   -0.07070174106643462   0.004982582154444623
-0.05140322047085009   -0.07070174106643462   0.004982582154444623
-0.05140322047085009   -0.07070174106643462   0.004982582154444623
-0.10034531419349307   -0.08347543913151606   0.012299309966106797
-0.10034531419349307   -0.08347543913151606   0.012299309966106797
-0.10034531419349307   -0.08347543913151606   0.012299309966106797
-0.10034531419349307   -0.08347543913151606   0.012299309966106797
-0.06490609761924354   -0.06340792281285652   0.02079226203170667
-0.06490609761924354   -0.06340792281285652   0.02079226203170667
-0.06490609761924354   -0.06340792281285652   0.02079226203170667
-0.06490609761924354   -0.06340792281285652   0.02079226203170667
-0.10044027725209784   -0.07986321478771642   0.008212270329283369
-0.10044027725209784   -0.07986321478771642   0.008212270329283369
-0.10044027725209784   -0.07986321478771642   0.008212270329283369
-0.10044027725209784   -0.07986321478771642   0.008212270329283369
-0.0557378152858845   -0.07874352328387342   -0.00864860970328861
-0.0557378152858845   -0.07874352328387342   -0.00864860970328861
-0.0557378152858845   -0.07874352328387342   -0.00864860970328861
-0.0557378152858845   -0.07874352328387342   -0.00864860970328861
-0.05242393754791454   -0.07294147997894657   0.007036741248531916
-0.05242393754791454   -0.07294147997894657   0.007036741248531916
-0.05242393754791454   -0.07294147997894657   0.007036741248531916
-0.05242393754791454   -0.07294147997894657   0.007036741248531916
-0.11800972501545709   -0.1021428532504424   0.003265141856423709
-0.11800972501545709   -0.1021428532504424   0.003265141856423709
-0.11800972501545709   -0.1021428532504424   0.003265141856423709
-0.11800972501545709   -0.1021428532504424   0.003265141856423709
-0.0729096418445758   -0.07208986638862994   0.009481960298935124
-0.0729096418445758   -0.07208986638862994   0.009481960298935124
-0.0729096418445758   -0.07208986638862994   0.009481960298935124
-0.0729096418445758   -0.07208986638862994   0.009481960298935124
-0.04242607687811964   -0.030521916819275907   0.014816893215487162
-0.04242607687811964   -0.030521916819275907   0.014816893215487162
-0.04242607687811964   -0.030521916819275907   0.014816893215487162
-0.04242607687811964   -0.030521916819275907   0.014816893215487162
-0.030547651862965573   -0.0017499687534617316   -0.0030125205525925397
-0.030547651862965573   -0.0017499687534617316   -0.0030125205525925397
-0.030547651862965573   -0.0017499687534617316   -0.0030125205525925397
-0.030547651862965573   -0.0017499687534617316   -0.0030125205525925397
-0.02893311450634823   -0.033144004722599124   0.009151912471095792
-0.02893311450634823   -0.033144004722599124   0.009151912471095792
-0.02893311450634823   -0.033144004722599124   0.009151912471095792
-0.02893311450634823   -0.033144004722599124   0.009151912471095792
-0.03982221797358117   -0.007694748582437544   -0.0015527064025053555
-0.03982221797358117   -0.007694748582437544   -0.0015527064025053555
-0.03982221797358117   -0.007694748582437544   -0.0015527064025053555
-0.03982221797358117   -0.007694748582437544   -0.0015527064025053555
-0.03272089135785039   -0.017400572630713644   0.007345312295498927
-0.03272089135785039   -0.017400572630713644   0.007345312295498927
-0.03272089135785039   -0.017400572630713644   0.007345312295498927
-0.03272089135785039   -0.017400572630713644   0.007345312295498927
-0.04213197160000485   -0.03481116938246823   0.014014946265406926
-0.04213197160000485   -0.03481116938246823   0.014014946265406926
-0.04213197160000485   -0.03481116938246823   0.014014946265406926
-0.04213197160000485   -0.03481116938246823   0.014014946265406926
-0.02592228740724819   -0.005326510449892082   -0.0036114463061110305
-0.02592228740724819   -0.005326510449892082   -0.0036114463061110305
-0.02592228740724819   -0.005326510449892082   -0.0036114463061110305
-0.02592228740724819   -0.005326510449892082   -0.0036114463061110305
-0.026735569995106193   -0.036059761173628184   0.008478272921151367
-0.026735569995106193   -0.036059761173628184   0.008478272921151367
-0.026735569995106193   -0.036059761173628184   0.008478272921151367
-0.026735569995106193   -0.036059761173628184   0.008478272921151367
-0.040398784066701304   -0.013672473126531585   0.0029754962352855304
-0.040398784066701304   -0.013672473126531585   0.0029754962352855304
-0.040398784066701304   -0.013672473126531585   0.0029754962352855304
-0.040398784066701304   -0.013672473126531585   0.0029754962352855304
-0.030297020024677296   -0.020005741993112888   0.008570984940471165
-0.030297020024677296   -0.020005741993112888   0.008570984940471165
-0.030297020024677296   -0.020005741993112888   0.008570984940471165
-0.030297020024677296   -0.020005741993112888   0.008570984940471165
-0.04259334215520512   -0.037717436380526694   0.016047669046757737
-0.04259334215520512   -0.037717436380526694   0.016047669046757737
-0.04259334215520512   -0.037717436380526694   0.016047669046757737
-0.04259334215520512   -0.037717436380526694   0.016047669046757737
-0.024828901296581333   -0.012302687309612668   -0.00574545745023986
-0.024828901296581333   -0.012302687309612668   -0.00574545745023986
-0.024828901296581333   -0.012302687309612668   -0.00574545745023986
-0.024828901296581333   -0.012302687309612668   -0.00574545745023986
-0.022746572536115374   -0.03929130640184838   0.00935358006405063
-0.022746572536115374   -0.03929130640184838   0.00935358006405063
-0.022746572536115374   -0.03929130640184838   0.00935358006405063
-0.022746572536115374   -0.03929130640184838   0.00935358006405063
-0.04405267223198059   -0.027904613095843155   0.0038562009450982372
-0.04405267223198059   -0.027904613095843155   0.0038562009450982372
-0.04405267223198059   -0.027904613095843155   0.0038562009450982372
-0.04405267223198059   -0.027904613095843155   0.0038562009450982372
-0.02949049318644749   -0.025136512449931293   0.0071879353147898135
-0.02949049318644749   -0.025136512449931293   0.0071879353147898135
-0.02949049318644749   -0.025136512449931293   0.0071879353147898135
-0.02949049318644749   -0.025136512449931293   0.0071879353147898135
-0.02763265470328374   -0.005190257403228066   0.015002753895582952
-0.02763265470328374   -0.005190257403228066   0.015002753895582952
-0.02763265470328374   -0.005190257403228066   0.015002753895582952
-0.02763265470328374   -0.005190257403228066   0.015002753895582952
-0.005429543165400667   0.0029116460844222057   -0.00030347752642640087
-0.005429543165400667   0.0029116460844222057   -0.00030347752642640087
-0.005429543165400667   0.0029116460844222057   -0.00030347752642640087
-0.005429543165400667   0.0029116460844222057   -0.00030347752642640087
0.0009217734426184014   -0.0017156379666623395   0.00935236646847092
0.0009217734426184014   -0.0017156379666623395   0.00935236646847092
0.0009217734426184014   -0.0017156379666623395   0.00935236646847092
0.0009217734426184014   -0.0017156379666623395   0.00935236646847092
-0.023928267991164653   0.001975658626628808   -0.0009435183022142475
-0.023928267991164653   0.001975658626628808   -0.0009435183022142475
-0.023928267991164653   0.001975658626628808   -0.0009435183022142475
-0.023928267991164653   0.001975658626628808   -0.0009435183022142475
-0.01422023682208502   -0.0011336389573345252   -0.0010992669471644352
-0.01422023682208502   -0.0011336389573345252   -0.0010992669471644352
-0.01422023682208502   -0.0011336389573345252   -0.0010992669471644352
-0.01422023682208502   -0.0011336389573345252   -0.0010992669471644352
-0.022019975282825614   -0.005049783526852816   0.015623387392962552
-0.022019975282825614   -0.005049783526852816   0.015623387392962552
-0.022019975282825614   -0.005049783526852816   0.015623387392962552
-0.022019975282825614   -0.005049783526852816   0.015623387392962552
-0.00017539801231197675   0.00612092544022922   -0.00397005421306486
-0.00017539801231197675   0.00612092544022922   -0.00397005421306486
-0.00017539801231197675   0.00612092544022922   -0.00397005421306486
-0.00017539801231197675   0.00612092544022922   -0.00397005421306486
0.003988991337719178   -0.002143713882836749   0.011539532452779245
0.003988991337719178   -0.002143713882836749   0.011539532452779245
0.003988991337719178   -0.002143713882836749   0.011539532452779245
0.003988991337719178   -0.002143713882836749   0.011539532452779245
-0.02124620875816501   0.00123020534878755   -0.0013648874165584444
-0.02124620875816501   0.00123020534878755   -0.0013648874165584444
-0.02124620875816501   0.00123020534878755   -0.0013648874165584444
-0.02124620875816501   0.00123020534878755   -0.0013648874165584444
-0.009663760994893331   -0.0004047086162703123   0.001417832542625397
-0.009663760994893331   -0.0004047086162703123   0.001417832542625397
-0.009663760994893331   -0.0004047086162703123   0.001417832542625397
-0.009663760994893331   -0.0004047086162703123   0.001417832542625397
-0.01899037560214899   -0.005682164182420328   0.01682664789472952
-0.01899037560214899   -0.005682164182420328   0.01682664789472952
-0.01899037560214899   -0.005682164182420328   0.01682664789472952
-0.01899037560214899   -0.005682164182420328   0.01682664789472952
0.0024375340597605193   0.005473031526428487   -0.0038344993462792816
0.0024375340597605193   0.005473031526428487   -0.0038344993462792816
0.0024375340597605193   0.005473031526428487   -0.0038344993462792816
0.0024375340597605193   0.005473031526428487   -0.0038344993462792816
0.006992793935252007   -0.0034571500998252756   0.011256433867715477
0.006992793935252007   -0.0034571500998252756   0.011256433867715477
0.006992793935252007   -0.0034571500998252756   0.011256433867715477
0.006992793935252007   -0.0034571500998252756   0.011256433867715477
-0.016889348488099476   0.0008711694407522652   -0.0015227755384705263
-0.016889348488099476   0.0008711694407522652   -0.0015227755384705263
-0.016889348488099476   0.0008711694407522652   -0.0015227755384705263
-0.016889348488099476   0.0008711694407522652   -0.0015227755384705263
-0.005645183214827454   -4.0223647582685756e-05   0.0035623216728793315
-0.005645183214827454   -4.0223647582685756e-05   0.0035623216728793315
-0.005645183214827454   -4.0223647582685756e-05   0.0035623216728793315
-0.005645183214827454   -4.0223647582685756e-05   0.0035623216728793315
              </DataArray>   
             <DataArray type="Float64" NumberOfComponents="3" Name="Displacements" format="ascii">   
0.0   0.0   0.0
-0.0025281569146136714   -0.0016653255186624156   -0.0008473179693584098
0.0   0.0   0.0
0.0   0.0   0.0
-0.0025281569146136714   -0.0016653255186624156   -0.0008473179693584098
-0.0016081126455710097   -0.001497767715771088   -0.0006226061546236308
0.0   0.0   0.0
-0.0015758971088988712   -0.0015725410470573448   -0.0005217457529463911
0.0   0.0   0.0
0.0   0.0   0.0
-0.0015758971088988712   -0.0015725410470573448   -0.0005217457529463911
0.0   0.0   0.0
0.0   0.0   0.0
-0.0015758971088988712   -0.0015725410470573448   -0.0005217457529463911
-0.0026453260416187552   -0.0017738503369523013   -0.0006804811528009422
-0.0025281569146136714   -0.0016653255186624156   -0.0008473179693584098
0.0   0.0   0.0
-0.0015758971088988712   -0.0015725410470573448   -0.0005217457529463911
-0.0025281569146136714   -0.0016653255186624156   -0.0008473179693584098
0.0   0.0   0.0
0.0   0.0   0.0
-0.0026453260416187552   -0.0017738503369523013   -0.0006804811528009422
0.0   0.0   0.0
0.0   0.0   0.0
-0.0026453260416187552   -0.0017738503369523013   -0.0006804811528009422
-0.0015758971088988712   -0.0015725410470573448   -0.0005217457529463911
0.0   0.0   0.0
-0.001579895615588974   -0.001610911333766937   -0.0004210814650068999
0.0   0.0   0.0
0.0   0.0   0.0
-0.001579895615588974   -0.001610911333766937   -0.0004210814650068999
0.0   0.0   0.0
0.0   0.0   0.0
-0.001579895615588974   -0.001610911333766937   -0.0004210814650068999
-0.0027274081126095035   -0.0018266469161086073   -0.0005207220105192126
-0.0026453260416187552   -0.0017738503369523013   -0.0006804811528009422
0.0   0.0   0.0
-0.001579895615588974   -0.001610911333766937   -0.0004210814650068999
-0.0026453260416187552   -0.0017738503369523013   -0.0006804811528009422
0.0   0.0   0.0
0.0   0.0   0.0
-0.0027274081126095035   -0.0018266469161086073   -0.0005207220105192126
0.0   0.0   0.0
0.0   0.0   0.0
-0.0027274081126095035   -0.0018266469161086073   -0.0005207220105192126
-0.001579895615588974   -0.001610911333766937   -0.0004210814650068999
0.0   0.0   0.0
-0.001578562644170935   -0.0016208412654448506   -0.0003170566368042044
0.0   0.0   0.0
0.0   0.0   0.0
-0.001578562644170935   -0.0016208412654448506   -0.0003170566368042044
0.0   0.0   0.0
0.0   0.0   0.0
-0.001578562644170935   -0.0016208412654448506   -0.0003170566368042044
-0.0029046779163341392   -0.0018668050992630685   -0.0003354414428533806
-0.0027274081126095035   -0.0018266469161086073   -0.0005207220105192126
0.0   0.0   0.0
-0.001578562644170935   -0.0016208412654448506   -0.0003170566368042044
-0.0027274081126095035   -0.0018266469161086073   -0.0005207220105192126
0.0   0.0   0.0
0.0   0.0   0.0
-0.0016081126455710097   -0.001497767715771088   -0.0006226061546236308
0.0   0.0   0.0
0.0   0.0   0.0
-0.0016081126455710097   -0.001497767715771088   -0.0006226061546236308
-0.0007328587323346068   -0.0014364076758936817   -0.0004737582894256028
0.0   0.0   0.0
-0.0007044186650819761   -0.0014850235922017568   -0.0004260893949902376
0.0   0.0   0.0
0.0   0.0   0.0
-0.0007044186650819761   -0.0014850235922017568   -0.0004260893949902376
0.0   0.0   0.0
0.0   0.0   0.0
-0.0007044186650819761   -0.0014850235922017568   -0.0004260893949902376
-0.0015758971088988712   -0.0015725410470573448   -0.0005217457529463911
-0.0016081126455710097   -0.001497767715771088   -0.0006226061546236308
0.0   0.0   0.0
-0.0007044186650819761   -0.0014850235922017568   -0.0004260893949902376
-0.0016081126455710097   -0.001497767715771088   -0.0006226061546236308
0.0   0.0   0.0
0.0   0.0   0.0
-0.0015758971088988712   -0.0015725410470573448   -0.0005217457529463911
0.0   0.0   0.0
0.0   0.0   0.0
-0.0015758971088988712   -0.0015725410470573448   -0.0005217457529463911
-0.0007044186650819761   -0.0014850235922017568   -0.0004260893949902376
0.0   0.0   0.0
-0.0006882636149995006   -0.0015035724521109736   -0.00037971541712225496
0.0   0.0   0.0
0.0   0.0   0.0
-0.0006882636149995006   -0.0015035724521109736   -0.00037971541712225496
0.0   0.0   0.0
0.0   0.0   0.0
-0.0006882636149995006   -0.0015035724521109736   -0.00037971541712225496
-0.001579895615588974   -0.001610911333766937   -0.0004210814650068999
-0.0015758971088988712   -0.0015725410470573448   -0.0005217457529463911
0.0   0.0   0.0
-0.0006882636149995006   -0.0015035724521109736   -0.00037971541712225496
-0.0015758971088988712   -0.0015725410470573448   -0.0005217457529463911
0.0   0.0   0.0
0.0   0.0   0.0
-0.001579895615588974   -0.001610911333766937   -0.0004210814650068999
0.0   0.0   0.0
0.0   0.0   0.0
-0.001579895615588974   -0.001610911333766937   -0.0004210814650068999
-0.0006882636149995006   -0.0015035724521109736   -0.00037971541712225496
0.0   0.0   0.0
-0.0006734795325166751   -0.0014958765028533056   -0.00033182536058268855
0.0   0.0   0.0
0.0   0.0   0.0
-0.0006734795325166751   -0.0014958765028533056   -0.00033182536058268855
0.0   0.0   0.0
0.0   0.0   0.0
-0.0006734795325166751   -0.0014958765028533056   -0.00033182536058268855
-0.001578562644170935   -0.0016208412654448506   -0.0003170566368042044
-0.001579895615588974   -0.001610911333766937   -0.0004210814650068999
0.0   0.0   0.0
-0.0006734795325166751   -0.0014958765028533056   -0.00033182536058268855
-0.001579895615588974   -0.001610911333766937   -0.0004210814650068999
0.0   0.0   0.0
0.0   0.0   0.0
-0.0007328587323346068   -0.0014364076758936817   -0.0004737582894256028
0.0   0.0   0.0
0.0   0.0   0.0
-0.0007328587323346068   -0.0014364076758936817   -0.0004737582894256028
9.371079704776738e-05   -0.0014443392267627726   -0.00037904218890159874
0.0   0.0   0.0
0.00011207069924294979   -0.0014694770814254543   -0.0003855094981431146
0.0   0.0   0.0
0.0   0.0   0.0
0.00011207069924294979   -0.0014694770814254543   -0.0003855094981431146
0.0   0.0   0.0
0.0   0.0   0.0
0.00011207069924294979   -0.0014694770814254543   -0.0003855094981431146
-0.0007044186650819761   -0.0014850235922017568   -0.0004260893949902376
-0.0007328587323346068   -0.0014364076758936817   -0.0004737582894256028
0.0   0.0   0.0
0.00011207069924294979   -0.0014694770814254543   -0.0003855094981431146
-0.0007328587323346068   -0.0014364076758936817   -0.0004737582894256028
0.0   0.0   0.0
0.0   0.0   0.0
-0.0007044186650819761   -0.0014850235922017568   -0.0004260893949902376
0.0   0.0   0.0
0.0   0.0   0.0
-0.0007044186650819761   -0.0014850235922017568   -0.0004260893949902376
0.00011207069924294979   -0.0014694770814254543   -0.0003855094981431146
0.0   0.0   0.0
0.00012662042144777824   -0.0014673405382051095   -0.00039139454857519817
0.0   0.0   0.0
0.0   0.0   0.0
0.00012662042144777824   -0.0014673405382051095   -0.00039139454857519817
0.0   0.0   0.0
0.0   0.0   0.0
0.00012662042144777824   -0.0014673405382051095   -0.00039139454857519817
-0.0006882636149995006   -0.0015035724521109736   -0.00037971541712225496
-0.0007044186650819761   -0.0014850235922017568   -0.0004260893949902376
0.0   0.0   0.0
0.00012662042144777824   -0.0014673405382051095   -0.00039139454857519817
-0.0007044186650819761   -0.0014850235922017568   -0.0004260893949902376
0.0   0.0   0.0
0.0   0.0   0.0
-0.0006882636149995006   -0.0015035724521109736   -0.00037971541712225496
0.0   0.0   0.0
0.0   0.0   0.0
-0.0006882636149995006   -0.0015035724521109736   -0.00037971541712225496
0.00012662042144777824   -0.0014673405382051095   -0.00039139454857519817
0.0   0.0   0.0
0.00014604915548683525   -0.0014357015237022109   -0.00039749525641070337
0.0   0.0   0.0
0.0   0.0   0.0
0.00014604915548683525   -0.0014357015237022109   -0.00039749525641070337
0.0   0.0   0.0
0.0   0.0   0.0
0.00014604915548683525   -0.0014357015237022109   -0.00039749525641070337
-0.0006734795325166751   -0.0014958765028533056   -0.00033182536058268855
-0.0006882636149995006   -0.0015035724521109736   -0.00037971541712225496
0.0   0.0   0.0
0.00014604915548683525   -0.0014357015237022109   -0.00039749525641070337
-0.0006882636149995006   -0.0015035724521109736   -0.00037971541712225496
0.0   0.0   0.0
0.0   0.0   0.0
9.371079704776738e-05   -0.0014443392267627726   -0.00037904218890159874
0.0   0.0   0.0
0.0   0.0   0.0
9.371079704776738e-05   -0.0014443392267627726   -0.00037904218890159874
0.0009913187918663443   -0.0015141035774446335   -0.0003323780749544678
0.0   0.0   0.0
0.000993626386079421   -0.001521994774574815   -0.0003958128512952579
0.0   0.0   0.0
0.0   0.0   0.0
0.000993626386079421   -0.001521994774574815   -0.0003958128512952579
0.0   0.0   0.0
0.0   0.0   0.0
0.000993626386079421   -0.001521994774574815   -0.0003958128512952579
0.00011207069924294979   -0.0014694770814254543   -0.0003855094981431146
9.371079704776738e-05   -0.0014443392267627726   -0.00037904218890159874
0.0   0.0   0.0
0.000993626386079421   -0.001521994774574815   -0.0003958128512952579
9.371079704776738e-05   -0.0014443392267627726   -0.00037904218890159874
0.0   0.0   0.0
0.0   0.0   0.0
0.00011207069924294979   -0.0014694770814254543   -0.0003855094981431146
0.0   0.0   0.0
0.0   0.0   0.0
0.00011207069924294979   -0.0014694770814254543   -0.0003855094981431146
0.000993626386079421   -0.001521994774574815   -0.0003958128512952579
0.0   0.0   0.0
0.0009898403806235408   -0.0015002651673191947   -0.00045673133410321763
0.0   0.0   0.0
0.0   0.0   0.0
0.0009898403806235408   -0.0015002651673191947   -0.00045673133410321763
0.0   0.0   0.0
0.0   0.0   0.0
0.0009898403806235408   -0.0015002651673191947   -0.00045673133410321763
0.00012662042144777824   -0.0014673405382051095   -0.00039139454857519817
0.00011207069924294979   -0.0014694770814254543   -0.0003855094981431146
0.0   0.0   0.0
0.0009898403806235408   -0.0015002651673191947   -0.00045673133410321763
0.00011207069924294979   -0.0014694770814254543   -0.0003855094981431146
0.0   0.0   0.0
0.0   0.0   0.0
0.00012662042144777824   -0.0014673405382051095   -0.00039139454857519817
0.0   0.0   0.0
0.0   0.0   0.0
0.00012662042144777824   -0.0014673405382051095   -0.00039139454857519817
0.0009898403806235408   -0.0015002651673191947   -0.00045673133410321763
0.0   0.0   0.0
0.0010094617876915883   -0.0014423146177797836   -0.0005165407122861529
0.0   0.0   0.0
0.0   0.0   0.0
0.0010094617876915883   -0.0014423146177797836   -0.0005165407122861529
0.0   0.0   0.0
0.0   0.0   0.0
0.0010094617876915883   -0.0014423146177797836   -0.0005165407122861529
0.00014604915548683525   -0.0014357015237022109   -0.00039749525641070337
0.00012662042144777824   -0.0014673405382051095   -0.00039139454857519817
0.0   0.0   0.0
0.0010094617876915883   -0.0014423146177797836   -0.0005165407122861529
0.00012662042144777824   -0.0014673405382051095   -0.00039139454857519817
0.0   0.0   0.0
0.0   0.0   0.0
0.0009913187918663443   -0.0015141035774446335   -0.0003323780749544678
0.0   0.0   0.0
0.0   0.0   0.0
0.0009913187918663443   -0.0015141035774446335   -0.0003323780749544678
0.002240924630803531   -0.0016911758143843996   -0.0003140666209258872
0.0   0.0   0.0
0.0021052976024681026   -0.0016724824019062898   -0.0004580663714582971
0.0   0.0   0.0
0.0   0.0   0.0
0.0021052976024681026   -0.0016724824019062898   -0.0004580663714582971
0.0   0.0   0.0
0.0   0.0   0.0
0.0021052976024681026   -0.0016724824019062898   -0.0004580663714582971
0.000993626386079421   -0.001521994774574815   -0.0003958128512952579
0.0009913187918663443   -0.0015141035774446335   -0.0003323780749544678
0.0   0.0   0.0
0.0021052976024681026   -0.0016724824019062898   -0.0004580663714582971
0.0009913187918663443   -0.0015141035774446335   -0.0003323780749544678
0.0   0.0   0.0
0.0   0.0   0.0
0.000993626386079421   -0.001521994774574815   -0.0003958128512952579
0.0   0.0   0.0
0.0   0.0   0.0
0.000993626386079421   -0.001521994774574815   -0.0003958128512952579
0.0021052976024681026   -0.0016724824019062898   -0.0004580663714582971
0.0   0.0   0.0
0.0020429666487256975   -0.001637715724721609   -0.0005798875390154685
0.0   0.0   0.0
0.0   0.0   0.0
0.0020429666487256975   -0.001637715724721609   -0.0005798875390154685
0.0   0.0   0.0
0.0   0.0   0.0
0.0020429666487256975   -0.001637715724721609   -0.0005798875390154685
0.0009898403806235408   -0.0015002651673191947   -0.00045673133410321763
0.000993626386079421   -0.001521994774574815   -0.0003958128512952579
0.0   0.0   0.0
0.0020429666487256975   -0.001637715724721609   -0.0005798875390154685
0.000993626386079421   -0.001521994774574815   -0.0003958128512952579
0.0   0.0   0.0
0.0   0.0   0.0
0.0009898403806235408   -0.0015002651673191947   -0.00045673133410321763
0.0   0.0   0.0
0.0   0.0   0.0
0.0009898403806235408   -0.0015002651673191947   -0.00045673133410321763
0.0020429666487256975   -0.001637715724721609   -0.0005798875390154685
0.0   0.0   0.0
0.0019498452005632051   -0.0015489415480139568   -0.0007089133551914407
0.0   0.0   0.0
0.0   0.0   0.0
0.0019498452005632051   -0.0015489415480139568   -0.0007089133551914407
0.0   0.0   0.0
0.0   0.0   0.0
0.0019498452005632051   -0.0015489415480139568   -0.0007089133551914407
0.0010094617876915883   -0.0014423146177797836   -0.0005165407122861529
0.0009898403806235408   -0.0015002651673191947   -0.00045673133410321763
0.0   0.0   0.0
0.0019498452005632051   -0.0015489415480139568   -0.0007089133551914407
0.0009898403806235408   -0.0015002651673191947   -0.00045673133410321763
0.0   0.0   0.0
-0.0025281569146136714   -0.0016653255186624156   -0.0008473179693584098
-0.004717182652574485   -0.004639067517264468   -0.0011417977170618176
-0.0016081126455710097   -0.001497767715771088   -0.0006226061546236308
-0.0026453260416187552   -0.0017738503369523013   -0.0006804811528009422
-0.004717182652574485   -0.004639067517264468   -0.0011417977170618176
-0.0030105712731444342   -0.004488549481333743   -0.0009403341884782727
-0.0016081126455710097   -0.001497767715771088   -0.0006226061546236308
-0.003013406427058463   -0.004564957055491889   -0.0008471780216452946
-0.0026453260416187552   -0.0017738503369523013   -0.0006804811528009422
-0.0015758971088988712   -0.0015725410470573448   -0.0005217457529463911
-0.003013406427058463   -0.004564957055491889   -0.0008471780216452946
-0.0016081126455710097   -0.001497767715771088   -0.0006226061546236308
-0.0026453260416187552   -0.0017738503369523013   -0.0006804811528009422
-0.003013406427058463   -0.004564957055491889   -0.0008471780216452946
-0.004857554458818847   -0.00474576198185655   -0.0009906356425589064
-0.004717182652574485   -0.004639067517264468   -0.0011417977170618176
-0.0026453260416187552   -0.0017738503369523013   -0.0006804811528009422
-0.003013406427058463   -0.004564957055491889   -0.0008471780216452946
-0.004717182652574485   -0.004639067517264468   -0.0011417977170618176
-0.0016081126455710097   -0.001497767715771088   -0.0006226061546236308
-0.0026453260416187552   -0.0017738503369523013   -0.0006804811528009422
-0.004857554458818847   -0.00474576198185655   -0.0009906356425589064
-0.0015758971088988712   -0.0015725410470573448   -0.0005217457529463911
-0.0027274081126095035   -0.0018266469161086073   -0.0005207220105192126
-0.004857554458818847   -0.00474576198185655   -0.0009906356425589064
-0.003013406427058463   -0.004564957055491889   -0.0008471780216452946
-0.0015758971088988712   -0.0015725410470573448   -0.0005217457529463911
-0.0030244989290951034   -0.004611602140774817   -0.0007577058199373507
-0.0027274081126095035   -0.0018266469161086073   -0.0005207220105192126
-0.001579895615588974   -0.001610911333766937   -0.0004210814650068999
-0.0030244989290951034   -0.004611602140774817   -0.0007577058199373507
-0.0015758971088988712   -0.0015725410470573448   -0.0005217457529463911
-0.0027274081126095035   -0.0018266469161086073   -0.0005207220105192126
-0.0030244989290951034   -0.004611602140774817   -0.0007577058199373507
-0.0049547792046140725   -0.004806082138469178   -0.0008426871504403727
-0.004857554458818847   -0.00474576198185655   -0.0009906356425589064
-0.0027274081126095035   -0.0018266469161086073   -0.0005207220105192126
-0.0030244989290951034   -0.004611602140774817   -0.0007577058199373507
-0.004857554458818847   -0.00474576198185655   -0.0009906356425589064
-0.0015758971088988712   -0.0015725410470573448   -0.0005217457529463911
-0.0027274081126095035   -0.0018266469161086073   -0.0005207220105192126
-0.0049547792046140725   -0.004806082138469178   -0.0008426871504403727
-0.001579895615588974   -0.001610911333766937   -0.0004210814650068999
-0.0029046779163341392   -0.0018668050992630685   -0.0003354414428533806
-0.0049547792046140725   -0.004806082138469178   -0.0008426871504403727
-0.0030244989290951034   -0.004611602140774817   -0.0007577058199373507
-0.001579895615588974   -0.001610911333766937   -0.0004210814650068999
-0.0030146836582180987   -0.0046359181844351175   -0.0006740037876735135
-0.0029046779163341392   -0.0018668050992630685   -0.0003354414428533806
-0.001578562644170935   -0.0016208412654448506   -0.0003170566368042044
-0.0030146836582180987   -0.0046359181844351175   -0.0006740037876735135
-0.001579895615588974   -0.001610911333766937   -0.0004210814650068999
-0.0029046779163341392   -0.0018668050992630685   -0.0003354414428533806
-0.0030146836582180987   -0.0046359181844351175   -0.0006740037876735135
-0.005069661919225122   -0.004841352201115903   -0.0007081859155369811
-0.0049547792046140725   -0.004806082138469178   -0.0008426871504403727
-0.0029046779163341392   -0.0018668050992630685   -0.0003354414428533806
-0.0030146836582180987   -0.0046359181844351175   -0.0006740037876735135
-0.0049547792046140725   -0.004806082138469178   -0.0008426871504403727
-0.001579895615588974   -0.001610911333766937   -0.0004210814650068999
-0.0016081126455710097   -0.001497767715771088   -0.0006226061546236308
-0.0030105712731444342   -0.004488549481333743   -0.0009403341884782727
-0.0007328587323346068   -0.0014364076758936817   -0.0004737582894256028
-0.0015758971088988712   -0.0015725410470573448   -0.0005217457529463911
-0.0030105712731444342   -0.004488549481333743   -0.0009403341884782727
-0.0013981467999040422   -0.004418505979808817   -0.0008028777407334688
-0.0007328587323346068   -0.0014364076758936817   -0.0004737582894256028
-0.001385350597208795   -0.004467066297957038   -0.0007550722642930655
-0.0015758971088988712   -0.0015725410470573448   -0.0005217457529463911
-0.0007044186650819761   -0.0014850235922017568   -0.0004260893949902376
-0.001385350597208795   -0.004467066297957038   -0.0007550722642930655
-0.0007328587323346068   -0.0014364076758936817   -0.0004737582894256028
-0.0015758971088988712   -0.0015725410470573448   -0.0005217457529463911
-0.001385350597208795   -0.004467066297957038   -0.0007550722642930655
-0.003013406427058463   -0.004564957055491889   -0.0008471780216452946
-0.0030105712731444342   -0.004488549481333743   -0.0009403341884782727
-0.0015758971088988712   -0.0015725410470573448   -0.0005217457529463911
-0.001385350597208795   -0.004467066297957038   -0.0007550722642930655
-0.0030105712731444342   -0.004488549481333743   -0.0009403341884782727
-0.0007328587323346068   -0.0014364076758936817   -0.0004737582894256028
-0.0015758971088988712   -0.0015725410470573448   -0.0005217457529463911
-0.003013406427058463   -0.004564957055491889   -0.0008471780216452946
-0.0007044186650819761   -0.0014850235922017568   -0.0004260893949902376
-0.001579895615588974   -0.001610911333766937   -0.0004210814650068999
-0.003013406427058463   -0.004564957055491889   -0.0008471780216452946
-0.001385350597208795   -0.004467066297957038   -0.0007550722642930655
-0.0007044186650819761   -0.0014850235922017568   -0.0004260893949902376
-0.0013739284270503267   -0.004490643220905215   -0.0007117672044324166
-0.001579895615588974   -0.001610911333766937   -0.0004210814650068999
-0.0006882636149995006   -0.0015035724521109736   -0.00037971541712225496
-0.0013739284270503267   -0.004490643220905215   -0.0007117672044324166
-0.0007044186650819761   -0.0014850235922017568   -0.0004260893949902376
-0.001579895615588974   -0.001610911333766937   -0.0004210814650068999
-0.0013739284270503267   -0.004490643220905215   -0.0007117672044324166
-0.0030244989290951034   -0.004611602140774817   -0.0007577058199373507
-0.003013406427058463   -0.004564957055491889   -0.0008471780216452946
-0.001579895615588974   -0.001610911333766937   -0.0004210814650068999
-0.0013739284270503267   -0.004490643220905215   -0.0007117672044324166
-0.003013406427058463   -0.004564957055491889   -0.0008471780216452946
-0.0007044186650819761   -0.0014850235922017568   -0.0004260893949902376
-0.001579895615588974   -0.001610911333766937   -0.0004210814650068999
-0.0030244989290951034   -0.004611602140774817   -0.0007577058199373507
-0.0006882636149995006   -0.0015035724521109736   -0.00037971541712225496
-0.001578562644170935   -0.0016208412654448506   -0.0003170566368042044
-0.0030244989290951034   -0.004611602140774817   -0.0007577058199373507
-0.0013739284270503267   -0.004490643220905215   -0.0007117672044324166
-0.0006882636149995006   -0.0015035724521109736   -0.00037971541712225496
-0.0013572255202925667   -0.004490123605171019   -0.0006741024311861744
-0.001578562644170935   -0.0016208412654448506   -0.0003170566368042044
-0.0006734795325166751   -0.0014958765028533056   -0.00033182536058268855
-0.0013572255202925667   -0.004490123605171019   -0.0006741024311861744
-0.0006882636149995006   -0.0015035724521109736   -0.00037971541712225496
-0.001578562644170935   -0.0016208412654448506   -0.0003170566368042044
-0.0013572255202925667   -0.004490123605171019   -0.0006741024311861744
-0.0030146836582180987   -0.0046359181844351175   -0.0006740037876735135
-0.0030244989290951034   -0.004611602140774817   -0.0007577058199373507
-0.001578562644170935   -0.0016208412654448506   -0.0003170566368042044
-0.0013572255202925667   -0.004490123605171019   -0.0006741024311861744
-0.0030244989290951034   -0.004611602140774817   -0.0007577058199373507
-0.0006882636149995006   -0.0015035724521109736   -0.00037971541712225496
-0.0007328587323346068   -0.0014364076758936817   -0.0004737582894256028
-0.0013981467999040422   -0.004418505979808817   -0.0008028777407334688
9.371079704776738e-05   -0.0014443392267627726   -0.00037904218890159874
-0.0007044186650819761   -0.0014850235922017568   -0.0004260893949902376
-0.0013981467999040422   -0.004418505979808817   -0.0008028777407334688
0.00015625137573057102   -0.0044206354701268255   -0.0007161450548674726
9.371079704776738e-05   -0.0014443392267627726   -0.00037904218890159874
0.00017185206793708544   -0.0044435302543725545   -0.0007128438700140065
-0.0007044186650819761   -0.0014850235922017568   -0.0004260893949902376
0.00011207069924294979   -0.0014694770814254543   -0.0003855094981431146
0.00017185206793708544   -0.0044435302543725545   -0.0007128438700140065
9.371079704776738e-05   -0.0014443392267627726   -0.00037904218890159874
-0.0007044186650819761   -0.0014850235922017568   -0.0004260893949902376
0.00017185206793708544   -0.0044435302543725545   -0.0007128438700140065
-0.001385350597208795   -0.004467066297957038   -0.0007550722642930655
-0.0013981467999040422   -0.004418505979808817   -0.0008028777407334688
-0.0007044186650819761   -0.0014850235922017568   -0.0004260893949902376
0.00017185206793708544   -0.0044435302543725545   -0.0007128438700140065
-0.0013981467999040422   -0.004418505979808817   -0.0008028777407334688
9.371079704776738e-05   -0.0014443392267627726   -0.00037904218890159874
-0.0007044186650819761   -0.0014850235922017568   -0.0004260893949902376
-0.001385350597208795   -0.004467066297957038   -0.0007550722642930655
0.00011207069924294979   -0.0014694770814254543   -0.0003855094981431146
-0.0006882636149995006   -0.0015035724521109736   -0.00037971541712225496
-0.001385350597208795   -0.004467066297957038   -0.0007550722642930655
0.00017185206793708544   -0.0044435302543725545   -0.0007128438700140065
0.00011207069924294979   -0.0014694770814254543   -0.0003855094981431146
0.0001825820785994639   -0.004442024746681911   -0.0007146477909749146
-0.0006882636149995006   -0.0015035724521109736   -0.00037971541712225496
0.00012662042144777824   -0.0014673405382051095   -0.00039139454857519817
0.0001825820785994639   -0.004442024746681911   -0.0007146477909749146
0.00011207069924294979   -0.0014694770814254543   -0.0003855094981431146
-0.0006882636149995006   -0.0015035724521109736   -0.00037971541712225496
0.0001825820785994639   -0.004442024746681911   -0.0007146477909749146
-0.0013739284270503267   -0.004490643220905215   -0.0007117672044324166
-0.001385350597208795   -0.004467066297957038   -0.0007550722642930655
-0.0006882636149995006   -0.0015035724521109736   -0.00037971541712225496
0.0001825820785994639   -0.004442024746681911   -0.0007146477909749146
-0.001385350597208795   -0.004467066297957038   -0.0007550722642930655
0.00011207069924294979   -0.0014694770814254543   -0.0003855094981431146
-0.0006882636149995006   -0.0015035724521109736   -0.00037971541712225496
-0.0013739284270503267   -0.004490643220905215   -0.0007117672044324166
0.00012662042144777824   -0.0014673405382051095   -0.00039139454857519817
-0.0006734795325166751   -0.0014958765028533056   -0.00033182536058268855
-0.0013739284270503267   -0.004490643220905215   -0.0007117672044324166
0.0001825820785994639   -0.004442024746681911   -0.0007146477909749146
0.00012662042144777824   -0.0014673405382051095   -0.00039139454857519817
0.00019403909034951006   -0.004415377945850494   -0.000721636615764982
-0.0006734795325166751   -0.0014958765028533056   -0.00033182536058268855
0.00014604915548683525   -0.0014357015237022109   -0.00039749525641070337
0.00019403909034951006   -0.004415377945850494   -0.000721636615764982
0.00012662042144777824   -0.0014673405382051095   -0.00039139454857519817
-0.0006734795325166751   -0.0014958765028533056   -0.00033182536058268855
0.00019403909034951006   -0.004415377945850494   -0.000721636615764982
-0.0013572255202925667   -0.004490123605171019   -0.0006741024311861744
-0.0013739284270503267   -0.004490643220905215   -0.0007117672044324166
-0.0006734795325166751   -0.0014958765028533056   -0.00033182536058268855
0.00019403909034951006   -0.004415377945850494   -0.000721636615764982
-0.0013739284270503267   -0.004490643220905215   -0.0007117672044324166
0.00012662042144777824   -0.0014673405382051095   -0.00039139454857519817
9.371079704776738e-05   -0.0014443392267627726   -0.00037904218890159874
0.00015625137573057102   -0.0044206354701268255   -0.0007161450548674726
0.0009913187918663443   -0.0015141035774446335   -0.0003323780749544678
0.00011207069924294979   -0.0014694770814254543   -0.0003855094981431146
0.00015625137573057102   -0.0044206354701268255   -0.0007161450548674726
0.0018038859216353996   -0.004492347145028307   -0.0006759595581124645
0.0009913187918663443   -0.0015141035774446335   -0.0003323780749544678
0.0018131385408113366   -0.00449189182992456   -0.0007186007566921857
0.00011207069924294979   -0.0014694770814254543   -0.0003855094981431146
0.000993626386079421   -0.001521994774574815   -0.0003958128512952579
0.0018131385408113366   -0.00449189182992456   -0.0007186007566921857
0.0009913187918663443   -0.0015141035774446335   -0.0003323780749544678
0.00011207069924294979   -0.0014694770814254543   -0.0003855094981431146
0.0018131385408113366   -0.00449189182992456   -0.0007186007566921857
0.00017185206793708544   -0.0044435302543725545   -0.0007128438700140065
0.00015625137573057102   -0.0044206354701268255   -0.0007161450548674726
0.00011207069924294979   -0.0014694770814254543   -0.0003855094981431146
0.0018131385408113366   -0.00449189182992456   -0.0007186007566921857
0.00015625137573057102   -0.0044206354701268255   -0.0007161450548674726
0.0009913187918663443   -0.0015141035774446335   -0.0003323780749544678
0.00011207069924294979   -0.0014694770814254543   -0.0003855094981431146
0.00017185206793708544   -0.0044435302543725545   -0.0007128438700140065
0.000993626386079421   -0.001521994774574815   -0.0003958128512952579
0.00012662042144777824   -0.0014673405382051095   -0.00039139454857519817
0.00017185206793708544   -0.0044435302543725545   -0.0007128438700140065
0.0018131385408113366   -0.00449189182992456   -0.0007186007566921857
0.000993626386079421   -0.001521994774574815   -0.0003958128512952579
0.0018056000436345112   -0.004467532767174309   -0.0007670171972750096
0.00012662042144777824   -0.0014673405382051095   -0.00039139454857519817
0.0009898403806235408   -0.0015002651673191947   -0.00045673133410321763
0.0018056000436345112   -0.004467532767174309   -0.0007670171972750096
0.000993626386079421   -0.001521994774574815   -0.0003958128512952579
0.00012662042144777824   -0.0014673405382051095   -0.00039139454857519817
0.0018056000436345112   -0.004467532767174309   -0.0007670171972750096
0.0001825820785994639   -0.004442024746681911   -0.0007146477909749146
0.00017185206793708544   -0.0044435302543725545   -0.0007128438700140065
0.00012662042144777824   -0.0014673405382051095   -0.00039139454857519817
0.0018056000436345112   -0.004467532767174309   -0.0007670171972750096
0.00017185206793708544   -0.0044435302543725545   -0.0007128438700140065
0.000993626386079421   -0.001521994774574815   -0.0003958128512952579
0.00012662042144777824   -0.0014673405382051095   -0.00039139454857519817
0.0001825820785994639   -0.004442024746681911   -0.0007146477909749146
0.0009898403806235408   -0.0015002651673191947   -0.00045673133410321763
0.00014604915548683525   -0.0014357015237022109   -0.00039749525641070337
0.0001825820785994639   -0.004442024746681911   -0.0007146477909749146
0.0018056000436345112   -0.004467532767174309   -0.0007670171972750096
0.0009898403806235408   -0.0015002651673191947   -0.00045673133410321763
0.00180158469341919   -0.0044126426831986795   -0.0008194146765003684
0.00014604915548683525   -0.0014357015237022109   -0.00039749525641070337
0.0010094617876915883   -0.0014423146177797836   -0.0005165407122861529
0.00180158469341919   -0.0044126426831986795   -0.0008194146765003684
0.0009898403806235408   -0.0015002651673191947   -0.00045673133410321763
0.00014604915548683525   -0.0014357015237022109   -0.00039749525641070337
0.00180158469341919   -0.0044126426831986795   -0.0008194146765003684
0.00019403909034951006   -0.004415377945850494   -0.000721636615764982
0.0001825820785994639   -0.004442024746681911   -0.0007146477909749146
0.00014604915548683525   -0.0014357015237022109   -0.00039749525641070337
0.00180158469341919   -0.0044126426831986795   -0.0008194146765003684
0.0001825820785994639   -0.004442024746681911   -0.0007146477909749146
0.0009898403806235408   -0.0015002651673191947   -0.00045673133410321763
0.0009913187918663443   -0.0015141035774446335   -0.0003323780749544678
0.0018038859216353996   -0.004492347145028307   -0.0006759595581124645
0.002240924630803531   -0.0016911758143843996   -0.0003140666209258872
0.000993626386079421   -0.001521994774574815   -0.0003958128512952579
0.0018038859216353996   -0.004492347145028307   -0.0006759595581124645
0.003793201164305867   -0.004625492671392816   -0.0006657048282153359
0.002240924630803531   -0.0016911758143843996   -0.0003140666209258872
0.0037172769989977147   -0.004612540026510718   -0.0007617501961258281
0.000993626386079421   -0.001521994774574815   -0.0003958128512952579
0.0021052976024681026   -0.0016724824019062898   -0.0004580663714582971
0.0037172769989977147   -0.004612540026510718   -0.0007617501961258281
0.002240924630803531   -0.0016911758143843996   -0.0003140666209258872
0.000993626386079421   -0.001521994774574815   -0.0003958128512952579
0.0037172769989977147   -0.004612540026510718   -0.0007617501961258281
0.0018131385408113366   -0.00449189182992456   -0.0007186007566921857
0.0018038859216353996   -0.004492347145028307   -0.0006759595581124645
0.000993626386079421   -0.001521994774574815   -0.0003958128512952579
0.0037172769989977147   -0.004612540026510718   -0.0007617501961258281
0.0018038859216353996   -0.004492347145028307   -0.0006759595581124645
0.002240924630803531   -0.0016911758143843996   -0.0003140666209258872
0.000993626386079421   -0.001521994774574815   -0.0003958128512952579
0.0018131385408113366   -0.00449189182992456   -0.0007186007566921857
0.0021052976024681026   -0.0016724824019062898   -0.0004580663714582971
0.0009898403806235408   -0.0015002651673191947   -0.00045673133410321763
0.0018131385408113366   -0.00449189182992456   -0.0007186007566921857
0.0037172769989977147   -0.004612540026510718   -0.0007617501961258281
0.0021052976024681026   -0.0016724824019062898   -0.0004580663714582971
0.0036493184727917965   -0.004575033199841939   -0.0008699370310039092
0.0009898403806235408   -0.0015002651673191947   -0.00045673133410321763
0.0020429666487256975   -0.001637715724721609   -0.0005798875390154685
0.0036493184727917965   -0.004575033199841939   -0.0008699370310039092
0.0021052976024681026   -0.0016724824019062898   -0.0004580663714582971
0.0009898403806235408   -0.0015002651673191947   -0.00045673133410321763
0.0036493184727917965   -0.004575033199841939   -0.0008699370310039092
0.0018056000436345112   -0.004467532767174309   -0.0007670171972750096
0.0018131385408113366   -0.00449189182992456   -0.0007186007566921857
0.0009898403806235408   -0.0015002651673191947   -0.00045673133410321763
0.0036493184727917965   -0.004575033199841939   -0.0008699370310039092
0.0018131385408113366   -0.00449189182992456   -0.0007186007566921857
0.0021052976024681026   -0.0016724824019062898   -0.0004580663714582971
0.0009898403806235408   -0.0015002651673191947   -0.00045673133410321763
0.0018056000436345112   -0.004467532767174309   -0.0007670171972750096
0.0020429666487256975   -0.001637715724721609   -0.0005798875390154685
0.0010094617876915883   -0.0014423146177797836   -0.0005165407122861529
0.0018056000436345112   -0.004467532767174309   -0.0007670171972750096
0.0036493184727917965   -0.004575033199841939   -0.0008699370310039092
0.0020429666487256975   -0.001637715724721609   -0.0005798875390154685
0.0035469544856088506   -0.004491862487200091   -0.0009826394206203471
0.0010094617876915883   -0.0014423146177797836   -0.0005165407122861529
0.0019498452005632051   -0.0015489415480139568   -0.0007089133551914407
0.0035469544856088506   -0.004491862487200091   -0.0009826394206203471
0.0020429666487256975   -0.001637715724721609   -0.0005798875390154685
0.0010094617876915883   -0.0014423146177797836   -0.0005165407122861529
0.0035469544856088506   -0.004491862487200091   -0.0009826394206203471
0.00180158469341919   -0.0044126426831986795   -0.0008194146765003684
0.0018056000436345112   -0.004467532767174309   -0.0007670171972750096
0.0010094617876915883   -0.0014423146177797836   -0.0005165407122861529
0.0035469544856088506   -0.004491862487200091   -0.0009826394206203471
0.0018056000436345112   -0.004467532767174309   -0.0007670171972750096
0.0020429666487256975   -0.001637715724721609   -0.0005798875390154685
-0.004717182652574485   -0.004639067517264468   -0.0011417977170618176
-0.006457230371150211   -0.008687240428877254   -0.0013012248865921926
-0.0030105712731444342   -0.004488549481333743   -0.0009403341884782727
-0.004857554458818847   -0.00474576198185655   -0.0009906356425589064
-0.006457230371150211   -0.008687240428877254   -0.0013012248865921926
-0.004152227419722035   -0.008572422695231608   -0.0011382040278027222
-0.0030105712731444342   -0.004488549481333743   -0.0009403341884782727
-0.00416044500587002   -0.008638238795669302   -0.0010660547901432398
-0.004857554458818847   -0.00474576198185655   -0.0009906356425589064
-0.003013406427058463   -0.004564957055491889   -0.0008471780216452946
-0.00416044500587002   -0.008638238795669302   -0.0010660547901432398
-0.0030105712731444342   -0.004488549481333743   -0.0009403341884782727
-0.004857554458818847   -0.00474576198185655   -0.0009906356425589064
-0.00416044500587002   -0.008638238795669302   -0.0010660547901432398
-0.006570835551676932   -0.008777240001830132   -0.0011887772447212903
-0.006457230371150211   -0.008687240428877254   -0.0013012248865921926
-0.004857554458818847   -0.00474576198185655   -0.0009906356425589064
-0.00416044500587002   -0.008638238795669302   -0.0010660547901432398
-0.006457230371150211   -0.008687240428877254   -0.0013012248865921926
-0.0030105712731444342   -0.004488549481333743   -0.0009403341884782727
-0.004857554458818847   -0.00474576198185655   -0.0009906356425589064
-0.006570835551676932   -0.008777240001830132   -0.0011887772447212903
-0.003013406427058463   -0.004564957055491889   -0.0008471780216452946
-0.0049547792046140725   -0.004806082138469178   -0.0008426871504403727
-0.006570835551676932   -0.008777240001830132   -0.0011887772447212903
-0.00416044500587002   -0.008638238795669302   -0.0010660547901432398
-0.003013406427058463   -0.004564957055491889   -0.0008471780216452946
-0.004170229972973702   -0.008684115503129468   -0.0009991593110463884
-0.0049547792046140725   -0.004806082138469178   -0.0008426871504403727
-0.0030244989290951034   -0.004611602140774817   -0.0007577058199373507
-0.004170229972973702   -0.008684115503129468   -0.0009991593110463884
-0.003013406427058463   -0.004564957055491889   -0.0008471780216452946
-0.0049547792046140725   -0.004806082138469178   -0.0008426871504403727
-0.004170229972973702   -0.008684115503129468   -0.0009991593110463884
-0.00664204691939275   -0.008833760202054126   -0.0010840277243280663
-0.006570835551676932   -0.008777240001830132   -0.0011887772447212903
-0.0049547792046140725   -0.004806082138469178   -0.0008426871504403727
-0.004170229972973702   -0.008684115503129468   -0.0009991593110463884
-0.006570835551676932   -0.008777240001830132   -0.0011887772447212903
-0.003013406427058463   -0.004564957055491889   -0.0008471780216452946
-0.0049547792046140725   -0.004806082138469178   -0.0008426871504403727
-0.00664204691939275   -0.008833760202054126   -0.0010840277243280663
-0.0030244989290951034   -0.004611602140774817   -0.0007577058199373507
-0.005069661919225122   -0.004841352201115903   -0.0007081859155369811
-0.00664204691939275   -0.008833760202054126   -0.0010840277243280663
-0.004170229972973702   -0.008684115503129468   -0.0009991593110463884
-0.0030244989290951034   -0.004611602140774817   -0.0007577058199373507
-0.004161475005475939   -0.008714412317946223   -0.0009363961068421193
-0.005069661919225122   -0.004841352201115903   -0.0007081859155369811
-0.0030146836582180987   -0.0046359181844351175   -0.0006740037876735135
-0.004161475005475939   -0.008714412317946223   -0.0009363961068421193
-0.0030244989290951034   -0.004611602140774817   -0.0007577058199373507
-0.005069661919225122   -0.004841352201115903   -0.0007081859155369811
-0.004161475005475939   -0.008714412317946223   -0.0009363961068421193
-0.006723070317088841   -0.008874593575947859   -0.0009876970350969872
-0.00664204691939275   -0.008833760202054126   -0.0010840277243280663
-0.005069661919225122   -0.004841352201115903   -0.0007081859155369811
-0.004161475005475939   -0.008714412317946223   -0.0009363961068421193
-0.00664204691939275   -0.008833760202054126   -0.0010840277243280663
-0.0030244989290951034   -0.004611602140774817   -0.0007577058199373507
-0.0030105712731444342   -0.004488549481333743   -0.0009403341884782727
-0.004152227419722035   -0.008572422695231608   -0.0011382040278027222
-0.0013981467999040422   -0.004418505979808817   -0.0008028777407334688
-0.003013406427058463   -0.004564957055491889   -0.0008471780216452946
-0.004152227419722035   -0.008572422695231608   -0.0011382040278027222
-0.0019801825400905036   -0.008515097950910586   -0.0010249844080978615
-0.0013981467999040422   -0.004418505979808817   -0.0008028777407334688
-0.0019743441563731434   -0.008557114224874093   -0.0009841219667848919
-0.003013406427058463   -0.004564957055491889   -0.0008471780216452946
-0.001385350597208795   -0.004467066297957038   -0.0007550722642930655
-0.0019743441563731434   -0.008557114224874093   -0.0009841219667848919
-0.0013981467999040422   -0.004418505979808817   -0.0008028777407334688
-0.003013406427058463   -0.004564957055491889   -0.0008471780216452946
-0.0019743441563731434   -0.008557114224874093   -0.0009841219667848919
-0.00416044500587002   -0.008638238795669302   -0.0010660547901432398
-0.004152227419722035   -0.008572422695231608   -0.0011382040278027222
-0.003013406427058463   -0.004564957055491889   -0.0008471780216452946
-0.0019743441563731434   -0.008557114224874093   -0.0009841219667848919
-0.004152227419722035   -0.008572422695231608   -0.0011382040278027222
-0.0013981467999040422   -0.004418505979808817   -0.0008028777407334688
-0.003013406427058463   -0.004564957055491889   -0.0008471780216452946
-0.00416044500587002   -0.008638238795669302   -0.0010660547901432398
-0.001385350597208795   -0.004467066297957038   -0.0007550722642930655
-0.0030244989290951034   -0.004611602140774817   -0.0007577058199373507
-0.00416044500587002   -0.008638238795669302   -0.0010660547901432398
-0.0019743441563731434   -0.008557114224874093   -0.0009841219667848919
-0.001385350597208795   -0.004467066297957038   -0.0007550722642930655
-0.001967395560904963   -0.008581823558554963   -0.0009482567866412862
-0.0030244989290951034   -0.004611602140774817   -0.0007577058199373507
-0.0013739284270503267   -0.004490643220905215   -0.0007117672044324166
-0.001967395560904963   -0.008581823558554963   -0.0009482567866412862
-0.001385350597208795   -0.004467066297957038   -0.0007550722642930655
-0.0030244989290951034   -0.004611602140774817   -0.0007577058199373507
-0.001967395560904963   -0.008581823558554963   -0.0009482567866412862
-0.004170229972973702   -0.008684115503129468   -0.0009991593110463884
-0.00416044500587002   -0.008638238795669302   -0.0010660547901432398
-0.0030244989290951034   -0.004611602140774817   -0.0007577058199373507
-0.001967395560904963   -0.008581823558554963   -0.0009482567866412862
-0.00416044500587002   -0.008638238795669302   -0.0010660547901432398
-0.001385350597208795   -0.004467066297957038   -0.0007550722642930655
-0.0030244989290951034   -0.004611602140774817   -0.0007577058199373507
-0.004170229972973702   -0.008684115503129468   -0.0009991593110463884
-0.0013739284270503267   -0.004490643220905215   -0.0007117672044324166
-0.0030146836582180987   -0.0046359181844351175   -0.0006740037876735135
-0.004170229972973702   -0.008684115503129468   -0.0009991593110463884
-0.001967395560904963   -0.008581823558554963   -0.0009482567866412862
-0.0013739284270503267   -0.004490643220905215   -0.0007117672044324166
-0.001956522750015289   -0.00858957900538666   -0.0009173765573411416
-0.0030146836582180987   -0.0046359181844351175   -0.0006740037876735135
-0.0013572255202925667   -0.004490123605171019   -0.0006741024311861744
-0.001956522750015289   -0.00858957900538666   -0.0009173765573411416
-0.0013739284270503267   -0.004490643220905215   -0.0007117672044324166
-0.0030146836582180987   -0.0046359181844351175   -0.0006740037876735135
-0.001956522750015289   -0.00858957900538666   -0.0009173765573411416
-0.004161475005475939   -0.008714412317946223   -0.0009363961068421193
-0.004170229972973702   -0.008684115503129468   -0.0009991593110463884
-0.0030146836582180987   -0.0046359181844351175   -0.0006740037876735135
-0.001956522750015289   -0.00858957900538666   -0.0009173765573411416
-0.004170229972973702   -0.008684115503129468   -0.0009991593110463884
-0.0013739284270503267   -0.004490643220905215   -0.0007117672044324166
-0.0013981467999040422   -0.004418505979808817   -0.0008028777407334688
-0.0019801825400905036   -0.008515097950910586   -0.0010249844080978615
0.00015625137573057102   -0.0044206354701268255   -0.0007161450548674726
-0.001385350597208795   -0.004467066297957038   -0.0007550722642930655
-0.0019801825400905036   -0.008515097950910586   -0.0010249844080978615
0.00012769512927321896   -0.008512031639411805   -0.0009549705364122397
0.00015625137573057102   -0.0044206354701268255   -0.0007161450548674726
0.00013772718099942436   -0.008530599145770423   -0.00094523297818242
-0.001385350597208795   -0.004467066297957038   -0.0007550722642930655
0.00017185206793708544   -0.0044435302543725545   -0.0007128438700140065
0.00013772718099942436   -0.008530599145770423   -0.00094523297818242
0.00015625137573057102   -0.0044206354701268255   -0.0007161450548674726
-0.001385350597208795   -0.004467066297957038   -0.0007550722642930655
0.00013772718099942436   -0.008530599145770423   -0.00094523297818242
-0.0019743441563731434   -0.008557114224874093   -0.0009841219667848919
-0.0019801825400905036   -0.008515097950910586   -0.0010249844080978615
-0.001385350597208795   -0.004467066297957038   -0.0007550722642930655
0.00013772718099942436   -0.008530599145770423   -0.00094523297818242
-0.0019801825400905036   -0.008515097950910586   -0.0010249844080978615
0.00015625137573057102   -0.0044206354701268255   -0.0007161450548674726
-0.001385350597208795   -0.004467066297957038   -0.0007550722642930655
-0.0019743441563731434   -0.008557114224874093   -0.0009841219667848919
0.00017185206793708544   -0.0044435302543725545   -0.0007128438700140065
-0.0013739284270503267   -0.004490643220905215   -0.0007117672044324166
-0.0019743441563731434   -0.008557114224874093   -0.0009841219667848919
0.00013772718099942436   -0.008530599145770423   -0.00094523297818242
0.00017185206793708544   -0.0044435302543725545   -0.0007128438700140065
0.00014447215126343728   -0.008531927410399447   -0.0009403651524382183
-0.0013739284270503267   -0.004490643220905215   -0.0007117672044324166
0.0001825820785994639   -0.004442024746681911   -0.0007146477909749146
0.00014447215126343728   -0.008531927410399447   -0.0009403651524382183
0.00017185206793708544   -0.0044435302543725545   -0.0007128438700140065
-0.0013739284270503267   -0.004490643220905215   -0.0007117672044324166
0.00014447215126343728   -0.008531927410399447   -0.0009403651524382183
-0.001967395560904963   -0.008581823558554963   -0.0009482567866412862
-0.0019743441563731434   -0.008557114224874093   -0.0009841219667848919
-0.0013739284270503267   -0.004490643220905215   -0.0007117672044324166
0.00014447215126343728   -0.008531927410399447   -0.0009403651524382183
-0.0019743441563731434   -0.008557114224874093   -0.0009841219667848919
0.00017185206793708544   -0.0044435302543725545   -0.0007128438700140065
-0.0013739284270503267   -0.004490643220905215   -0.0007117672044324166
-0.001967395560904963   -0.008581823558554963   -0.0009482567866412862
0.0001825820785994639   -0.004442024746681911   -0.0007146477909749146
-0.0013572255202925667   -0.004490123605171019   -0.0006741024311861744
-0.001967395560904963   -0.008581823558554963   -0.0009482567866412862
0.00014447215126343728   -0.008531927410399447   -0.0009403651524382183
0.0001825820785994639   -0.004442024746681911   -0.0007146477909749146
0.00014960435258321405   -0.008515760613764809   -0.0009406596303658397
-0.0013572255202925667   -0.004490123605171019   -0.0006741024311861744
0.00019403909034951006   -0.004415377945850494   -0.000721636615764982
0.00014960435258321405   -0.008515760613764809   -0.0009406596303658397
0.0001825820785994639   -0.004442024746681911   -0.0007146477909749146
-0.0013572255202925667   -0.004490123605171019   -0.0006741024311861744
0.00014960435258321405   -0.008515760613764809   -0.0009406596303658397
-0.001956522750015289   -0.00858957900538666   -0.0009173765573411416
-0.001967395560904963   -0.008581823558554963   -0.0009482567866412862
-0.0013572255202925667   -0.004490123605171019   -0.0006741024311861744
0.00014960435258321405   -0.008515760613764809   -0.0009406596303658397
-0.001967395560904963   -0.008581823558554963   -0.0009482567866412862
0.0001825820785994639   -0.004442024746681911   -0.0007146477909749146
0.00015625137573057102   -0.0044206354701268255   -0.0007161450548674726
0.00012769512927321896   -0.008512031639411805   -0.0009549705364122397
0.0018038859216353996   -0.004492347145028307   -0.0006759595581124645
0.00017185206793708544   -0.0044435302543725545   -0.0007128438700140065
0.00012769512927321896   -0.008512031639411805   -0.0009549705364122397
0.002325788069462529   -0.008559990565602854   -0.0009269921440675836
0.0018038859216353996   -0.004492347145028307   -0.0006759595581124645
0.002334751052323254   -0.008557033910486674   -0.0009490186580330383
0.00017185206793708544   -0.0044435302543725545   -0.0007128438700140065
0.0018131385408113366   -0.00449189182992456   -0.0007186007566921857
0.002334751052323254   -0.008557033910486674   -0.0009490186580330383
0.0018038859216353996   -0.004492347145028307   -0.0006759595581124645
0.00017185206793708544   -0.0044435302543725545   -0.0007128438700140065
0.002334751052323254   -0.008557033910486674   -0.0009490186580330383
0.00013772718099942436   -0.008530599145770423   -0.00094523297818242
0.00012769512927321896   -0.008512031639411805   -0.0009549705364122397
0.00017185206793708544   -0.0044435302543725545   -0.0007128438700140065
0.002334751052323254   -0.008557033910486674   -0.0009490186580330383
0.00012769512927321896   -0.008512031639411805   -0.0009549705364122397
0.0018038859216353996   -0.004492347145028307   -0.0006759595581124645
0.00017185206793708544   -0.0044435302543725545   -0.0007128438700140065
0.00013772718099942436   -0.008530599145770423   -0.00094523297818242
0.0018131385408113366   -0.00449189182992456   -0.0007186007566921857
0.0001825820785994639   -0.004442024746681911   -0.0007146477909749146
0.00013772718099942436   -0.008530599145770423   -0.00094523297818242
0.002334751052323254   -0.008557033910486674   -0.0009490186580330383
0.0018131385408113366   -0.00449189182992456   -0.0007186007566921857
0.002329845708438877   -0.008537237931592072   -0.000975557092113512
0.0001825820785994639   -0.004442024746681911   -0.0007146477909749146
0.0018056000436345112   -0.004467532767174309   -0.0007670171972750096
0.002329845708438877   -0.008537237931592072   -0.000975557092113512
0.0018131385408113366   -0.00449189182992456   -0.0007186007566921857
0.0001825820785994639   -0.004442024746681911   -0.0007146477909749146
0.002329845708438877   -0.008537237931592072   -0.000975557092113512
0.00014447215126343728   -0.008531927410399447   -0.0009403651524382183
0.00013772718099942436   -0.008530599145770423   -0.00094523297818242
0.0001825820785994639   -0.004442024746681911   -0.0007146477909749146
0.002329845708438877   -0.008537237931592072   -0.000975557092113512
0.00013772718099942436   -0.008530599145770423   -0.00094523297818242
0.0018131385408113366   -0.00449189182992456   -0.0007186007566921857
0.0001825820785994639   -0.004442024746681911   -0.0007146477909749146
0.00014447215126343728   -0.008531927410399447   -0.0009403651524382183
0.0018056000436345112   -0.004467532767174309   -0.0007670171972750096
0.00019403909034951006   -0.004415377945850494   -0.000721636615764982
0.00014447215126343728   -0.008531927410399447   -0.0009403651524382183
0.002329845708438877   -0.008537237931592072   -0.000975557092113512
0.0018056000436345112   -0.004467532767174309   -0.0007670171972750096
0.002321932394182406   -0.00849639935189801   -0.001007144718757443
0.00019403909034951006   -0.004415377945850494   -0.000721636615764982
0.00180158469341919   -0.0044126426831986795   -0.0008194146765003684
0.002321932394182406   -0.00849639935189801   -0.001007144718757443
0.0018056000436345112   -0.004467532767174309   -0.0007670171972750096
0.00019403909034951006   -0.004415377945850494   -0.000721636615764982
0.002321932394182406   -0.00849639935189801   -0.001007144718757443
0.00014960435258321405   -0.008515760613764809   -0.0009406596303658397
0.00014447215126343728   -0.008531927410399447   -0.0009403651524382183
0.00019403909034951006   -0.004415377945850494   -0.000721636615764982
0.002321932394182406   -0.00849639935189801   -0.001007144718757443
0.00014447215126343728   -0.008531927410399447   -0.0009403651524382183
0.0018056000436345112   -0.004467532767174309   -0.0007670171972750096
0.0018038859216353996   -0.004492347145028307   -0.0006759595581124645
0.002325788069462529   -0.008559990565602854   -0.0009269921440675836
0.003793201164305867   -0.004625492671392816   -0.0006657048282153359
0.0018131385408113366   -0.00449189182992456   -0.0007186007566921857
0.002325788069462529   -0.008559990565602854   -0.0009269921440675836
0.0048296097726682795   -0.008646777769289286   -0.0009282853443089929
0.003793201164305867   -0.004625492671392816   -0.0006657048282153359
0.004789081636938492   -0.008631369605213863   -0.0009860656764338206
0.0018131385408113366   -0.00449189182992456   -0.0007186007566921857
0.0037172769989977147   -0.004612540026510718   -0.0007617501961258281
0.004789081636938492   -0.008631369605213863   -0.0009860656764338206
0.003793201164305867   -0.004625492671392816   -0.0006657048282153359
0.0018131385408113366   -0.00449189182992456   -0.0007186007566921857
0.004789081636938492   -0.008631369605213863   -0.0009860656764338206
0.002334751052323254   -0.008557033910486674   -0.0009490186580330383
0.002325788069462529   -0.008559990565602854   -0.0009269921440675836
0.0018131385408113366   -0.00449189182992456   -0.0007186007566921857
0.004789081636938492   -0.008631369605213863   -0.0009860656764338206
0.002325788069462529   -0.008559990565602854   -0.0009269921440675836
0.003793201164305867   -0.004625492671392816   -0.0006657048282153359
0.0018131385408113366   -0.00449189182992456   -0.0007186007566921857
0.002334751052323254   -0.008557033910486674   -0.0009490186580330383
0.0037172769989977147   -0.004612540026510718   -0.0007617501961258281
0.0018056000436345112   -0.004467532767174309   -0.0007670171972750096
0.002334751052323254   -0.008557033910486674   -0.0009490186580330383
0.004789081636938492   -0.008631369605213863   -0.0009860656764338206
0.0037172769989977147   -0.004612540026510718   -0.0007617501961258281
0.004748417185480521   -0.008600950013917846   -0.001051982909522395
0.0018056000436345112   -0.004467532767174309   -0.0007670171972750096
0.0036493184727917965   -0.004575033199841939   -0.0008699370310039092
0.004748417185480521   -0.008600950013917846   -0.001051982909522395
0.0037172769989977147   -0.004612540026510718   -0.0007617501961258281
0.0018056000436345112   -0.004467532767174309   -0.0007670171972750096
0.004748417185480521   -0.008600950013917846   -0.001051982909522395
0.002329845708438877   -0.008537237931592072   -0.000975557092113512
0.002334751052323254   -0.008557033910486674   -0.0009490186580330383
0.0018056000436345112   -0.004467532767174309   -0.0007670171972750096
0.004748417185480521   -0.008600950013917846   -0.001051982909522395
0.002334751052323254   -0.008557033910486674   -0.0009490186580330383
0.0037172769989977147   -0.004612540026510718   -0.0007617501961258281
0.0018056000436345112   -0.004467532767174309   -0.0007670171972750096
0.002329845708438877   -0.008537237931592072   -0.000975557092113512
0.0036493184727917965   -0.004575033199841939   -0.0008699370310039092
0.00180158469341919   -0.0044126426831986795   -0.0008194146765003684
0.002329845708438877   -0.008537237931592072   -0.000975557092113512
0.004748417185480521   -0.008600950013917846   -0.001051982909522395
0.0036493184727917965   -0.004575033199841939   -0.0008699370310039092
0.0046752139219515924   -0.008537462522677704   -0.001126046059669719
0.00180158469341919   -0.0044126426831986795   -0.0008194146765003684
0.0035469544856088506   -0.004491862487200091   -0.0009826394206203471
0.0046752139219515924   -0.008537462522677704   -0.001126046059669719
0.0036493184727917965   -0.004575033199841939   -0.0008699370310039092
0.00180158469341919   -0.0044126426831986795   -0.0008194146765003684
0.0046752139219515924   -0.008537462522677704   -0.001126046059669719
0.002321932394182406   -0.00849639935189801   -0.001007144718757443
0.002329845708438877   -0.008537237931592072   -0.000975557092113512
0.00180158469341919   -0.0044126426831986795   -0.0008194146765003684
0.0046752139219515924   -0.008537462522677704   -0.001126046059669719
0.002329845708438877   -0.008537237931592072   -0.000975557092113512
0.0036493184727917965   -0.004575033199841939   -0.0008699370310039092
-0.006457230371150211   -0.008687240428877254   -0.0013012248865921926
-0.007704459026254434   -0.013479873608595223   -0.001388719153300733
-0.004152227419722035   -0.008572422695231608   -0.0011382040278027222
-0.006570835551676932   -0.008777240001830132   -0.0011887772447212903
-0.007704459026254434   -0.013479873608595223   -0.001388719153300733
-0.005002711362830202   -0.013407017265547458   -0.0012561431230701321
-0.004152227419722035   -0.008572422695231608   -0.0011382040278027222
-0.005007808540633383   -0.013463497713608144   -0.0012045996872373874
-0.006570835551676932   -0.008777240001830132   -0.0011887772447212903
-0.00416044500587002   -0.008638238795669302   -0.0010660547901432398
-0.005007808540633383   -0.013463497713608144   -0.0012045996872373874
-0.004152227419722035   -0.008572422695231608   -0.0011382040278027222
-0.006570835551676932   -0.008777240001830132   -0.0011887772447212903
-0.005007808540633383   -0.013463497713608144   -0.0012045996872373874
-0.007780461533518552   -0.013556329938171472   -0.0013142899126273385
-0.007704459026254434   -0.013479873608595223   -0.001388719153300733
-0.006570835551676932   -0.008777240001830132   -0.0011887772447212903
-0.005007808540633383   -0.013463497713608144   -0.0012045996872373874
-0.007704459026254434   -0.013479873608595223   -0.001388719153300733
-0.004152227419722035   -0.008572422695231608   -0.0011382040278027222
-0.006570835551676932   -0.008777240001830132   -0.0011887772447212903
-0.007780461533518552   -0.013556329938171472   -0.0013142899126273385
-0.00416044500587002   -0.008638238795669302   -0.0010660547901432398
-0.00664204691939275   -0.008833760202054126   -0.0010840277243280663
-0.007780461533518552   -0.013556329938171472   -0.0013142899126273385
-0.005007808540633383   -0.013463497713608144   -0.0012045996872373874
-0.00416044500587002   -0.008638238795669302   -0.0010660547901432398
-0.005011150681362352   -0.013508354400805613   -0.0011582087722784226
-0.00664204691939275   -0.008833760202054126   -0.0010840277243280663
-0.004170229972973702   -0.008684115503129468   -0.0009991593110463884
-0.005011150681362352   -0.013508354400805613   -0.0011582087722784226
-0.00416044500587002   -0.008638238795669302   -0.0010660547901432398
-0.00664204691939275   -0.008833760202054126   -0.0010840277243280663
-0.005011150681362352   -0.013508354400805613   -0.0011582087722784226
-0.007823616647376191   -0.013610520107297042   -0.0012470420974187706
-0.007780461533518552   -0.013556329938171472   -0.0013142899126273385
-0.00664204691939275   -0.008833760202054126   -0.0010840277243280663
-0.005011150681362352   -0.013508354400805613   -0.0011582087722784226
-0.007780461533518552   -0.013556329938171472   -0.0013142899126273385
-0.00416044500587002   -0.008638238795669302   -0.0010660547901432398
-0.00664204691939275   -0.008833760202054126   -0.0010840277243280663
-0.007823616647376191   -0.013610520107297042   -0.0012470420974187706
-0.004170229972973702   -0.008684115503129468   -0.0009991593110463884
-0.006723070317088841   -0.008874593575947859   -0.0009876970350969872
-0.007823616647376191   -0.013610520107297042   -0.0012470420974187706
-0.005011150681362352   -0.013508354400805613   -0.0011582087722784226
-0.004170229972973702   -0.008684115503129468   -0.0009991593110463884
-0.004999851081473904   -0.013545315971497452   -0.001116279625531682
-0.006723070317088841   -0.008874593575947859   -0.0009876970350969872
-0.004161475005475939   -0.008714412317946223   -0.0009363961068421193
-0.004999851081473904   -0.013545315971497452   -0.001116279625531682
-0.004170229972973702   -0.008684115503129468   -0.0009991593110463884
-0.006723070317088841   -0.008874593575947859   -0.0009876970350969872
-0.004999851081473904   -0.013545315971497452   -0.001116279625531682
-0.007867992087709668   -0.01365925863992849   -0.0011878346877087576
-0.007823616647376191   -0.013610520107297042   -0.0012470420974187706
-0.006723070317088841   -0.008874593575947859   -0.0009876970350969872
-0.004999851081473904   -0.013545315971497452   -0.001116279625531682
-0.007823616647376191   -0.013610520107297042   -0.0012470420974187706
-0.004170229972973702   -0.008684115503129468   -0.0009991593110463884
-0.004152227419722035   -0.008572422695231608   -0.0011382040278027222
-0.005002711362830202   -0.013407017265547458   -0.0012561431230701321
-0.0019801825400905036   -0.008515097950910586   -0.0010249844080978615
-0.00416044500587002   -0.008638238795669302   -0.0010660547901432398
-0.005002711362830202   -0.013407017265547458   -0.0012561431230701321
-0.0024706652182175885   -0.013369226924156506   -0.0011643711120634004
-0.0019801825400905036   -0.008515097950910586   -0.0010249844080978615
-0.0024650771573598144   -0.013404600272273576   -0.001130234564516134
-0.00416044500587002   -0.008638238795669302   -0.0010660547901432398
-0.0019743441563731434   -0.008557114224874093   -0.0009841219667848919
-0.0024650771573598144   -0.013404600272273576   -0.001130234564516134
-0.0019801825400905036   -0.008515097950910586   -0.0010249844080978615
-0.00416044500587002   -0.008638238795669302   -0.0010660547901432398
-0.0024650771573598144   -0.013404600272273576   -0.001130234564516134
-0.005007808540633383   -0.013463497713608144   -0.0012045996872373874
-0.005002711362830202   -0.013407017265547458   -0.0012561431230701321
-0.00416044500587002   -0.008638238795669302   -0.0010660547901432398
-0.0024650771573598144   -0.013404600272273576   -0.001130234564516134
-0.005002711362830202   -0.013407017265547458   -0.0012561431230701321
-0.0019801825400905036   -0.008515097950910586   -0.0010249844080978615
-0.00416044500587002   -0.008638238795669302   -0.0010660547901432398
-0.005007808540633383   -0.013463497713608144   -0.0012045996872373874
-0.0019743441563731434   -0.008557114224874093   -0.0009841219667848919
-0.004170229972973702   -0.008684115503129468   -0.0009991593110463884
-0.005007808540633383   -0.013463497713608144   -0.0012045996872373874
-0.0024650771573598144   -0.013404600272273576   -0.001130234564516134
-0.0019743441563731434   -0.008557114224874093   -0.0009841219667848919
-0.0024577831368526814   -0.013430224728930268   -0.0011011684285562636
-0.004170229972973702   -0.008684115503129468   -0.0009991593110463884
-0.001967395560904963   -0.008581823558554963   -0.0009482567866412862
-0.0024577831368526814   -0.013430224728930268   -0.0011011684285562636
-0.0019743441563731434   -0.008557114224874093   -0.0009841219667848919
-0.004170229972973702   -0.008684115503129468   -0.0009991593110463884
-0.0024577831368526814   -0.013430224728930268   -0.0011011684285562636
-0.005011150681362352   -0.013508354400805613   -0.0011582087722784226
-0.005007808540633383   -0.013463497713608144   -0.0012045996872373874
-0.004170229972973702   -0.008684115503129468   -0.0009991593110463884
-0.0024577831368526814   -0.013430224728930268   -0.0011011684285562636
-0.005007808540633383   -0.013463497713608144   -0.0012045996872373874
-0.0019743441563731434   -0.008557114224874093   -0.0009841219667848919
-0.004170229972973702   -0.008684115503129468   -0.0009991593110463884
-0.005011150681362352   -0.013508354400805613   -0.0011582087722784226
-0.001967395560904963   -0.008581823558554963   -0.0009482567866412862
-0.004161475005475939   -0.008714412317946223   -0.0009363961068421193
-0.005011150681362352   -0.013508354400805613   -0.0011582087722784226
-0.0024577831368526814   -0.013430224728930268   -0.0011011684285562636
-0.001967395560904963   -0.008581823558554963   -0.0009482567866412862
-0.0024473284164090534   -0.01344626924326588   -0.001077260110045114
-0.004161475005475939   -0.008714412317946223   -0.0009363961068421193
-0.001956522750015289   -0.00858957900538666   -0.0009173765573411416
-0.0024473284164090534   -0.01344626924326588   -0.001077260110045114
-0.001967395560904963   -0.008581823558554963   -0.0009482567866412862
-0.004161475005475939   -0.008714412317946223   -0.0009363961068421193
-0.0024473284164090534   -0.01344626924326588   -0.001077260110045114
-0.004999851081473904   -0.013545315971497452   -0.001116279625531682
-0.005011150681362352   -0.013508354400805613   -0.0011582087722784226
-0.004161475005475939   -0.008714412317946223   -0.0009363961068421193
-0.0024473284164090534   -0.01344626924326588   -0.001077260110045114
-0.005011150681362352   -0.013508354400805613   -0.0011582087722784226
-0.001967395560904963   -0.008581823558554963   -0.0009482567866412862
-0.0019801825400905036   -0.008515097950910586   -0.0010249844080978615
-0.0024706652182175885   -0.013369226924156506   -0.0011643711120634004
0.00012769512927321896   -0.008512031639411805   -0.0009549705364122397
-0.0019743441563731434   -0.008557114224874093   -0.0009841219667848919
-0.0024706652182175885   -0.013369226924156506   -0.0011643711120634004
-7.599355561234015e-06   -0.013362643861079054   -0.0011111183267903837
0.00012769512927321896   -0.008512031639411805   -0.0009549705364122397
2.155466504098186e-06   -0.01337676820302656   -0.001094534989288142
-0.0019743441563731434   -0.008557114224874093   -0.0009841219667848919
0.00013772718099942436   -0.008530599145770423   -0.00094523297818242
2.155466504098186e-06   -0.01337676820302656   -0.001094534989288142
0.00012769512927321896   -0.008512031639411805   -0.0009549705364122397
-0.0019743441563731434   -0.008557114224874093   -0.0009841219667848919
2.155466504098186e-06   -0.01337676820302656   -0.001094534989288142
-0.0024650771573598144   -0.013404600272273576   -0.001130234564516134
-0.0024706652182175885   -0.013369226924156506   -0.0011643711120634004
-0.0019743441563731434   -0.008557114224874093   -0.0009841219667848919
2.155466504098186e-06   -0.01337676820302656   -0.001094534989288142
-0.0024706652182175885   -0.013369226924156506   -0.0011643711120634004
0.00012769512927321896   -0.008512031639411805   -0.0009549705364122397
-0.0019743441563731434   -0.008557114224874093   -0.0009841219667848919
-0.0024650771573598144   -0.013404600272273576   -0.001130234564516134
0.00013772718099942436   -0.008530599145770423   -0.00094523297818242
-0.001967395560904963   -0.008581823558554963   -0.0009482567866412862
-0.0024650771573598144   -0.013404600272273576   -0.001130234564516134
2.155466504098186e-06   -0.01337676820302656   -0.001094534989288142
0.00013772718099942436   -0.008530599145770423   -0.00094523297818242
9.355332139317393e-06   -0.013381075292336432   -0.0010829610442918782
-0.001967395560904963   -0.008581823558554963   -0.0009482567866412862
0.00014447215126343728   -0.008531927410399447   -0.0009403651524382183
9.355332139317393e-06   -0.013381075292336432   -0.0010829610442918782
0.00013772718099942436   -0.008530599145770423   -0.00094523297818242
-0.001967395560904963   -0.008581823558554963   -0.0009482567866412862
9.355332139317393e-06   -0.013381075292336432   -0.0010829610442918782
-0.0024577831368526814   -0.013430224728930268   -0.0011011684285562636
-0.0024650771573598144   -0.013404600272273576   -0.001130234564516134
-0.001967395560904963   -0.008581823558554963   -0.0009482567866412862
9.355332139317393e-06   -0.013381075292336432   -0.0010829610442918782
-0.0024650771573598144   -0.013404600272273576   -0.001130234564516134
0.00013772718099942436   -0.008530599145770423   -0.00094523297818242
-0.001967395560904963   -0.008581823558554963   -0.0009482567866412862
-0.0024577831368526814   -0.013430224728930268   -0.0011011684285562636
0.00014447215126343728   -0.008531927410399447   -0.0009403651524382183
-0.001956522750015289   -0.00858957900538666   -0.0009173765573411416
-0.0024577831368526814   -0.013430224728930268   -0.0011011684285562636
9.355332139317393e-06   -0.013381075292336432   -0.0010829610442918782
0.00014447215126343728   -0.008531927410399447   -0.0009403651524382183
1.4268551879126765e-05   -0.013375429741926638   -0.0010766154283123406
-0.001956522750015289   -0.00858957900538666   -0.0009173765573411416
0.00014960435258321405   -0.008515760613764809   -0.0009406596303658397
1.4268551879126765e-05   -0.013375429741926638   -0.0010766154283123406
0.00014447215126343728   -0.008531927410399447   -0.0009403651524382183
-0.001956522750015289   -0.00858957900538666   -0.0009173765573411416
1.4268551879126765e-05   -0.013375429741926638   -0.0010766154283123406
-0.0024473284164090534   -0.01344626924326588   -0.001077260110045114
-0.0024577831368526814   -0.013430224728930268   -0.0011011684285562636
-0.001956522750015289   -0.00858957900538666   -0.0009173765573411416
1.4268551879126765e-05   -0.013375429741926638   -0.0010766154283123406
-0.0024577831368526814   -0.013430224728930268   -0.0011011684285562636
0.00014447215126343728   -0.008531927410399447   -0.0009403651524382183
0.00012769512927321896   -0.008512031639411805   -0.0009549705364122397
-7.599355561234015e-06   -0.013362643861079054   -0.0011111183267903837
0.002325788069462529   -0.008559990565602854   -0.0009269921440675836
0.00013772718099942436   -0.008530599145770423   -0.00094523297818242
-7.599355561234015e-06   -0.013362643861079054   -0.0011111183267903837
0.0025402189300216178   -0.013384579683816036   -0.00109620375036313
0.002325788069462529   -0.008559990565602854   -0.0009269921440675836
0.0025520268549415566   -0.01337866194289258   -0.001097536420575087
0.00013772718099942436   -0.008530599145770423   -0.00094523297818242
0.002334751052323254   -0.008557033910486674   -0.0009490186580330383
0.0025520268549415566   -0.01337866194289258   -0.001097536420575087
0.002325788069462529   -0.008559990565602854   -0.0009269921440675836
0.00013772718099942436   -0.008530599145770423   -0.00094523297818242
0.0025520268549415566   -0.01337866194289258   -0.001097536420575087
2.155466504098186e-06   -0.01337676820302656   -0.001094534989288142
-7.599355561234015e-06   -0.013362643861079054   -0.0011111183267903837
0.00013772718099942436   -0.008530599145770423   -0.00094523297818242
0.0025520268549415566   -0.01337866194289258   -0.001097536420575087
-7.599355561234015e-06   -0.013362643861079054   -0.0011111183267903837
0.002325788069462529   -0.008559990565602854   -0.0009269921440675836
0.00013772718099942436   -0.008530599145770423   -0.00094523297818242
2.155466504098186e-06   -0.01337676820302656   -0.001094534989288142
0.002334751052323254   -0.008557033910486674   -0.0009490186580330383
0.00014447215126343728   -0.008531927410399447   -0.0009403651524382183
2.155466504098186e-06   -0.01337676820302656   -0.001094534989288142
0.0025520268549415566   -0.01337866194289258   -0.001097536420575087
0.002334751052323254   -0.008557033910486674   -0.0009490186580330383
0.0025539006307937623   -0.013363713423416227   -0.0011036063921834786
0.00014447215126343728   -0.008531927410399447   -0.0009403651524382183
0.002329845708438877   -0.008537237931592072   -0.000975557092113512
0.0025539006307937623   -0.013363713423416227   -0.0011036063921834786
0.002334751052323254   -0.008557033910486674   -0.0009490186580330383
0.00014447215126343728   -0.008531927410399447   -0.0009403651524382183
0.0025539006307937623   -0.013363713423416227   -0.0011036063921834786
9.355332139317393e-06   -0.013381075292336432   -0.0010829610442918782
2.155466504098186e-06   -0.01337676820302656   -0.001094534989288142
0.00014447215126343728   -0.008531927410399447   -0.0009403651524382183
0.0025539006307937623   -0.013363713423416227   -0.0011036063921834786
2.155466504098186e-06   -0.01337676820302656   -0.001094534989288142
0.002334751052323254   -0.008557033910486674   -0.0009490186580330383
0.00014447215126343728   -0.008531927410399447   -0.0009403651524382183
9.355332139317393e-06   -0.013381075292336432   -0.0010829610442918782
0.002329845708438877   -0.008537237931592072   -0.000975557092113512
0.00014960435258321405   -0.008515760613764809   -0.0009406596303658397
9.355332139317393e-06   -0.013381075292336432   -0.0010829610442918782
0.0025539006307937623   -0.013363713423416227   -0.0011036063921834786
0.002329845708438877   -0.008537237931592072   -0.000975557092113512
0.00254932398010882   -0.013336026868436565   -0.001114597281378348
0.00014960435258321405   -0.008515760613764809   -0.0009406596303658397
0.002321932394182406   -0.00849639935189801   -0.001007144718757443
0.00254932398010882   -0.013336026868436565   -0.001114597281378348
0.002329845708438877   -0.008537237931592072   -0.000975557092113512
0.00014960435258321405   -0.008515760613764809   -0.0009406596303658397
0.00254932398010882   -0.013336026868436565   -0.001114597281378348
1.4268551879126765e-05   -0.013375429741926638   -0.0010766154283123406
9.355332139317393e-06   -0.013381075292336432   -0.0010829610442918782
0.00014960435258321405   -0.008515760613764809   -0.0009406596303658397
0.00254932398010882   -0.013336026868436565   -0.001114597281378348
9.355332139317393e-06   -0.013381075292336432   -0.0010829610442918782
0.002329845708438877   -0.008537237931592072   -0.000975557092113512
0.002325788069462529   -0.008559990565602854   -0.0009269921440675836
0.0025402189300216178   -0.013384579683816036   -0.00109620375036313
0.0048296097726682795   -0.008646777769289286   -0.0009282853443089929
0.002334751052323254   -0.008557033910486674   -0.0009490186580330383
0.0025402189300216178   -0.013384579683816036   -0.00109620375036313
0.005353542024224495   -0.013424730090627878   -0.0011114202410319246
0.0048296097726682795   -0.008646777769289286   -0.0009282853443089929
0.0053501686108043895   -0.013405201668635994   -0.0011319784485422993
0.002334751052323254   -0.008557033910486674   -0.0009490186580330383
0.004789081636938492   -0.008631369605213863   -0.0009860656764338206
0.0053501686108043895   -0.013405201668635994   -0.0011319784485422993
0.0048296097726682795   -0.008646777769289286   -0.0009282853443089929
0.002334751052323254   -0.008557033910486674   -0.0009490186580330383
0.0053501686108043895   -0.013405201668635994   -0.0011319784485422993
0.0025520268549415566   -0.01337866194289258   -0.001097536420575087
0.0025402189300216178   -0.013384579683816036   -0.00109620375036313
0.002334751052323254   -0.008557033910486674   -0.0009490186580330383
0.0053501686108043895   -0.013405201668635994   -0.0011319784485422993
0.0025402189300216178   -0.013384579683816036   -0.00109620375036313
0.0048296097726682795   -0.008646777769289286   -0.0009282853443089929
0.002334751052323254   -0.008557033910486674   -0.0009490186580330383
0.0025520268549415566   -0.01337866194289258   -0.001097536420575087
0.004789081636938492   -0.008631369605213863   -0.0009860656764338206
0.002329845708438877   -0.008537237931592072   -0.000975557092113512
0.0025520268549415566   -0.01337866194289258   -0.001097536420575087
0.0053501686108043895   -0.013405201668635994   -0.0011319784485422993
0.004789081636938492   -0.008631369605213863   -0.0009860656764338206
0.0053381511005047245   -0.013380888625061805   -0.001160229172398646
0.002329845708438877   -0.008537237931592072   -0.000975557092113512
0.004748417185480521   -0.008600950013917846   -0.001051982909522395
0.0053381511005047245   -0.013380888625061805   -0.001160229172398646
0.004789081636938492   -0.008631369605213863   -0.0009860656764338206
0.002329845708438877   -0.008537237931592072   -0.000975557092113512
0.0053381511005047245   -0.013380888625061805   -0.001160229172398646
0.0025539006307937623   -0.013363713423416227   -0.0011036063921834786
0.0025520268549415566   -0.01337866194289258   -0.001097536420575087
0.002329845708438877   -0.008537237931592072   -0.000975557092113512
0.0053381511005047245   -0.013380888625061805   -0.001160229172398646
0.0025520268549415566   -0.01337866194289258   -0.001097536420575087
0.004789081636938492   -0.008631369605213863   -0.0009860656764338206
0.002329845708438877   -0.008537237931592072   -0.000975557092113512
0.0025539006307937623   -0.013363713423416227   -0.0011036063921834786
0.004748417185480521   -0.008600950013917846   -0.001051982909522395
0.002321932394182406   -0.00849639935189801   -0.001007144718757443
0.0025539006307937623   -0.013363713423416227   -0.0011036063921834786
0.0053381511005047245   -0.013380888625061805   -0.001160229172398646
0.004748417185480521   -0.008600950013917846   -0.001051982909522395
0.005303086608327764   -0.013334853177041067   -0.0011961164934905222
0.002321932394182406   -0.00849639935189801   -0.001007144718757443
0.0046752139219515924   -0.008537462522677704   -0.001126046059669719
0.005303086608327764   -0.013334853177041067   -0.0011961164934905222
0.004748417185480521   -0.008600950013917846   -0.001051982909522395
0.002321932394182406   -0.00849639935189801   -0.001007144718757443
0.005303086608327764   -0.013334853177041067   -0.0011961164934905222
0.00254932398010882   -0.013336026868436565   -0.001114597281378348
0.0025539006307937623   -0.013363713423416227   -0.0011036063921834786
0.002321932394182406   -0.00849639935189801   -0.001007144718757443
0.005303086608327764   -0.013334853177041067   -0.0011961164934905222
0.0025539006307937623   -0.013363713423416227   -0.0011036063921834786
0.004748417185480521   -0.008600950013917846   -0.001051982909522395
-0.007704459026254434   -0.013479873608595223   -0.001388719153300733
-0.008456579094800886   -0.018689558140831713   -0.0014152472442114272
-0.005002711362830202   -0.013407017265547458   -0.0012561431230701321
-0.007780461533518552   -0.013556329938171472   -0.0013142899126273385
-0.008456579094800886   -0.018689558140831713   -0.0014152472442114272
-0.005559772191760081   -0.018660045604230555   -0.0013099461987464858
-0.005002711362830202   -0.013407017265547458   -0.0012561431230701321
-0.005556771099726602   -0.018708097510683145   -0.0012784014121728165
-0.007780461533518552   -0.013556329938171472   -0.0013142899126273385
-0.005007808540633383   -0.013463497713608144   -0.0012045996872373874
-0.005556771099726602   -0.018708097510683145   -0.0012784014121728165
-0.005002711362830202   -0.013407017265547458   -0.0012561431230701321
-0.007780461533518552   -0.013556329938171472   -0.0013142899126273385
-0.005556771099726602   -0.018708097510683145   -0.0012784014121728165
-0.008491502458271384   -0.018754195318430745   -0.0013770835528443795
-0.008456579094800886   -0.018689558140831713   -0.0014152472442114272
-0.007780461533518552   -0.013556329938171472   -0.0013142899126273385
-0.005556771099726602   -0.018708097510683145   -0.0012784014121728165
-0.008456579094800886   -0.018689558140831713   -0.0014152472442114272
-0.005002711362830202   -0.013407017265547458   -0.0012561431230701321
-0.007780461533518552   -0.013556329938171472   -0.0013142899126273385
-0.008491502458271384   -0.018754195318430745   -0.0013770835528443795
-0.005007808540633383   -0.013463497713608144   -0.0012045996872373874
-0.007823616647376191   -0.013610520107297042   -0.0012470420974187706
-0.008491502458271384   -0.018754195318430745   -0.0013770835528443795
-0.005556771099726602   -0.018708097510683145   -0.0012784014121728165
-0.005007808540633383   -0.013463497713608144   -0.0012045996872373874
-0.005548525933435499   -0.018752519565528106   -0.0012520974742526478
-0.007823616647376191   -0.013610520107297042   -0.0012470420974187706
-0.005011150681362352   -0.013508354400805613   -0.0011582087722784226
-0.005548525933435499   -0.018752519565528106   -0.0012520974742526478
-0.005007808540633383   -0.013463497713608144   -0.0012045996872373874
-0.007823616647376191   -0.013610520107297042   -0.0012470420974187706
-0.005548525933435499   -0.018752519565528106   -0.0012520974742526478
-0.008501975395115276   -0.01880702928590414   -0.0013464603162427777
-0.008491502458271384   -0.018754195318430745   -0.0013770835528443795
-0.007823616647376191   -0.013610520107297042   -0.0012470420974187706
-0.005548525933435499   -0.018752519565528106   -0.0012520974742526478
-0.008491502458271384   -0.018754195318430745   -0.0013770835528443795
-0.005007808540633383   -0.013463497713608144   -0.0012045996872373874
-0.007823616647376191   -0.013610520107297042   -0.0012470420974187706
-0.008501975395115276   -0.01880702928590414   -0.0013464603162427777
-0.005011150681362352   -0.013508354400805613   -0.0011582087722784226
-0.007867992087709668   -0.01365925863992849   -0.0011878346877087576
-0.008501975395115276   -0.01880702928590414   -0.0013464603162427777
-0.005548525933435499   -0.018752519565528106   -0.0012520974742526478
-0.005011150681362352   -0.013508354400805613   -0.0011582087722784226
-0.005529408595328878   -0.018796706733524748   -0.0012306591008648046
-0.007867992087709668   -0.01365925863992849   -0.0011878346877087576
-0.004999851081473904   -0.013545315971497452   -0.001116279625531682
-0.005529408595328878   -0.018796706733524748   -0.0012306591008648046
-0.005011150681362352   -0.013508354400805613   -0.0011582087722784226
-0.007867992087709668   -0.01365925863992849   -0.0011878346877087576
-0.005529408595328878   -0.018796706733524748   -0.0012306591008648046
-0.008504755560983733   -0.01886455714254209   -0.001324034214895127
-0.008501975395115276   -0.01880702928590414   -0.0013464603162427777
-0.007867992087709668   -0.01365925863992849   -0.0011878346877087576
-0.005529408595328878   -0.018796706733524748   -0.0012306591008648046
-0.008501975395115276   -0.01880702928590414   -0.0013464603162427777
-0.005011150681362352   -0.013508354400805613   -0.0011582087722784226
-0.005002711362830202   -0.013407017265547458   -0.0012561431230701321
-0.005559772191760081   -0.018660045604230555   -0.0013099461987464858
-0.0024706652182175885   -0.013369226924156506   -0.0011643711120634004
-0.005007808540633383   -0.013463497713608144   -0.0012045996872373874
-0.005559772191760081   -0.018660045604230555   -0.0013099461987464858
-0.0028690274711253914   -0.01864292821928725   -0.0012382857256372397
-0.0024706652182175885   -0.013369226924156506   -0.0011643711120634004
-0.0028582024856274872   -0.018671944939898086   -0.0012106542174816484
-0.005007808540633383   -0.013463497713608144   -0.0012045996872373874
-0.0024650771573598144   -0.013404600272273576   -0.001130234564516134
-0.0028582024856274872   -0.018671944939898086   -0.0012106542174816484
-0.0024706652182175885   -0.013369226924156506   -0.0011643711120634004
-0.005007808540633383   -0.013463497713608144   -0.0012045996872373874
-0.0028582024856274872   -0.018671944939898086   -0.0012106542174816484
-0.005556771099726602   -0.018708097510683145   -0.0012784014121728165
-0.005559772191760081   -0.018660045604230555   -0.0013099461987464858
-0.005007808540633383   -0.013463497713608144   -0.0012045996872373874
-0.0028582024856274872   -0.018671944939898086   -0.0012106542174816484
-0.005559772191760081   -0.018660045604230555   -0.0013099461987464858
-0.0024706652182175885   -0.013369226924156506   -0.0011643711120634004
-0.005007808540633383   -0.013463497713608144   -0.0012045996872373874
-0.005556771099726602   -0.018708097510683145   -0.0012784014121728165
-0.0024650771573598144   -0.013404600272273576   -0.001130234564516134
-0.005011150681362352   -0.013508354400805613   -0.0011582087722784226
-0.005556771099726602   -0.018708097510683145   -0.0012784014121728165
-0.0028582024856274872   -0.018671944939898086   -0.0012106542174816484
-0.0024650771573598144   -0.013404600272273576   -0.001130234564516134
-0.002845115801375884   -0.018698640219835205   -0.0011882636024733637
-0.005011150681362352   -0.013508354400805613   -0.0011582087722784226
-0.0024577831368526814   -0.013430224728930268   -0.0011011684285562636
-0.002845115801375884   -0.018698640219835205   -0.0011882636024733637
-0.0024650771573598144   -0.013404600272273576   -0.001130234564516134
-0.005011150681362352   -0.013508354400805613   -0.0011582087722784226
-0.002845115801375884   -0.018698640219835205   -0.0011882636024733637
-0.005548525933435499   -0.018752519565528106   -0.0012520974742526478
-0.005556771099726602   -0.018708097510683145   -0.0012784014121728165
-0.005011150681362352   -0.013508354400805613   -0.0011582087722784226
-0.002845115801375884   -0.018698640219835205   -0.0011882636024733637
-0.005556771099726602   -0.018708097510683145   -0.0012784014121728165
-0.0024650771573598144   -0.013404600272273576   -0.001130234564516134
-0.005011150681362352   -0.013508354400805613   -0.0011582087722784226
-0.005548525933435499   -0.018752519565528106   -0.0012520974742526478
-0.0024577831368526814   -0.013430224728930268   -0.0011011684285562636
-0.004999851081473904   -0.013545315971497452   -0.001116279625531682
-0.005548525933435499   -0.018752519565528106   -0.0012520974742526478
-0.002845115801375884   -0.018698640219835205   -0.0011882636024733637
-0.0024577831368526814   -0.013430224728930268   -0.0011011684285562636
-0.00282953509791997   -0.018723103424123567   -0.0011712439572286407
-0.004999851081473904   -0.013545315971497452   -0.001116279625531682
-0.0024473284164090534   -0.01344626924326588   -0.001077260110045114
-0.00282953509791997   -0.018723103424123567   -0.0011712439572286407
-0.0024577831368526814   -0.013430224728930268   -0.0011011684285562636
-0.004999851081473904   -0.013545315971497452   -0.001116279625531682
-0.00282953509791997   -0.018723103424123567   -0.0011712439572286407
-0.005529408595328878   -0.018796706733524748   -0.0012306591008648046
-0.005548525933435499   -0.018752519565528106   -0.0012520974742526478
-0.004999851081473904   -0.013545315971497452   -0.001116279625531682
-0.00282953509791997   -0.018723103424123567   -0.0011712439572286407
-0.005548525933435499   -0.018752519565528106   -0.0012520974742526478
-0.0024577831368526814   -0.013430224728930268   -0.0011011684285562636
-0.0024706652182175885   -0.013369226924156506   -0.0011643711120634004
-0.0028690274711253914   -0.01864292821928725   -0.0012382857256372397
-7.599355561234015e-06   -0.013362643861079054   -0.0011111183267903837
-0.0024650771573598144   -0.013404600272273576   -0.001130234564516134
-0.0028690274711253914   -0.01864292821928725   -0.0012382857256372397
-0.00025113838999759155   -0.018633002701876927   -0.0012014345662202238
-7.599355561234015e-06   -0.013362643861079054   -0.0011111183267903837
-0.0002362954972518263   -0.018642601385382904   -0.001178002074421134
-0.0024650771573598144   -0.013404600272273576   -0.001130234564516134
2.155466504098186e-06   -0.01337676820302656   -0.001094534989288142
-0.0002362954972518263   -0.018642601385382904   -0.001178002074421134
-7.599355561234015e-06   -0.013362643861079054   -0.0011111183267903837
-0.0024650771573598144   -0.013404600272273576   -0.001130234564516134
-0.0002362954972518263   -0.018642601385382904   -0.001178002074421134
-0.0028582024856274872   -0.018671944939898086   -0.0012106542174816484
-0.0028690274711253914   -0.01864292821928725   -0.0012382857256372397
-0.0024650771573598144   -0.013404600272273576   -0.001130234564516134
-0.0002362954972518263   -0.018642601385382904   -0.001178002074421134
-0.0028690274711253914   -0.01864292821928725   -0.0012382857256372397
-7.599355561234015e-06   -0.013362643861079054   -0.0011111183267903837
-0.0024650771573598144   -0.013404600272273576   -0.001130234564516134
-0.0028582024856274872   -0.018671944939898086   -0.0012106542174816484
2.155466504098186e-06   -0.01337676820302656   -0.001094534989288142
-0.0024577831368526814   -0.013430224728930268   -0.0011011684285562636
-0.0028582024856274872   -0.018671944939898086   -0.0012106542174816484
-0.0002362954972518263   -0.018642601385382904   -0.001178002074421134
2.155466504098186e-06   -0.01337676820302656   -0.001094534989288142
-0.000223342561109172   -0.018649709906427406   -0.0011597687700340695
-0.0024577831368526814   -0.013430224728930268   -0.0011011684285562636
9.355332139317393e-06   -0.013381075292336432   -0.0010829610442918782
-0.000223342561109172   -0.018649709906427406   -0.0011597687700340695
2.155466504098186e-06   -0.01337676820302656   -0.001094534989288142
-0.0024577831368526814   -0.013430224728930268   -0.0011011684285562636
-0.000223342561109172   -0.018649709906427406   -0.0011597687700340695
-0.002845115801375884   -0.018698640219835205   -0.0011882636024733637
-0.0028582024856274872   -0.018671944939898086   -0.0012106542174816484
-0.0024577831368526814   -0.013430224728930268   -0.0011011684285562636
-0.000223342561109172   -0.018649709906427406   -0.0011597687700340695
-0.0028582024856274872   -0.018671944939898086   -0.0012106542174816484
2.155466504098186e-06   -0.01337676820302656   -0.001094534989288142
-0.0024577831368526814   -0.013430224728930268   -0.0011011684285562636
-0.002845115801375884   -0.018698640219835205   -0.0011882636024733637
9.355332139317393e-06   -0.013381075292336432   -0.0010829610442918782
-0.0024473284164090534   -0.01344626924326588   -0.001077260110045114
-0.002845115801375884   -0.018698640219835205   -0.0011882636024733637
-0.000223342561109172   -0.018649709906427406   -0.0011597687700340695
9.355332139317393e-06   -0.013381075292336432   -0.0010829610442918782
-0.00021326889231896505   -0.01865428914523685   -0.0011469219839216345
-0.0024473284164090534   -0.01344626924326588   -0.001077260110045114
1.4268551879126765e-05   -0.013375429741926638   -0.0010766154283123406
-0.00021326889231896505   -0.01865428914523685   -0.0011469219839216345
9.355332139317393e-06   -0.013381075292336432   -0.0010829610442918782
-0.0024473284164090534   -0.01344626924326588   -0.001077260110045114
-0.00021326889231896505   -0.01865428914523685   -0.0011469219839216345
-0.00282953509791997   -0.018723103424123567   -0.0011712439572286407
-0.002845115801375884   -0.018698640219835205   -0.0011882636024733637
-0.0024473284164090534   -0.01344626924326588   -0.001077260110045114
-0.00021326889231896505   -0.01865428914523685   -0.0011469219839216345
-0.002845115801375884   -0.018698640219835205   -0.0011882636024733637
9.355332139317393e-06   -0.013381075292336432   -0.0010829610442918782
-7.599355561234015e-06   -0.013362643861079054   -0.0011111183267903837
-0.00025113838999759155   -0.018633002701876927   -0.0012014345662202238
0.0025402189300216178   -0.013384579683816036   -0.00109620375036313
2.155466504098186e-06   -0.01337676820302656   -0.001094534989288142
-0.00025113838999759155   -0.018633002701876927   -0.0012014345662202238
0.002446478163634741   -0.01862855287423421   -0.0011997516309694746
0.0025402189300216178   -0.013384579683816036   -0.00109620375036313
0.0024659570144105704   -0.01861931854582834   -0.0011807246701059134
2.155466504098186e-06   -0.01337676820302656   -0.001094534989288142
0.0025520268549415566   -0.01337866194289258   -0.001097536420575087
0.0024659570144105704   -0.01861931854582834   -0.0011807246701059134
0.0025402189300216178   -0.013384579683816036   -0.00109620375036313
2.155466504098186e-06   -0.01337676820302656   -0.001094534989288142
0.0024659570144105704   -0.01861931854582834   -0.0011807246701059134
-0.0002362954972518263   -0.018642601385382904   -0.001178002074421134
-0.00025113838999759155   -0.018633002701876927   -0.0012014345662202238
2.155466504098186e-06   -0.01337676820302656   -0.001094534989288142
0.0024659570144105704   -0.01861931854582834   -0.0011807246701059134
-0.00025113838999759155   -0.018633002701876927   -0.0012014345662202238
0.0025402189300216178   -0.013384579683816036   -0.00109620375036313
2.155466504098186e-06   -0.01337676820302656   -0.001094534989288142
-0.0002362954972518263   -0.018642601385382904   -0.001178002074421134
0.0025520268549415566   -0.01337866194289258   -0.001097536420575087
9.355332139317393e-06   -0.013381075292336432   -0.0010829610442918782
-0.0002362954972518263   -0.018642601385382904   -0.001178002074421134
0.0024659570144105704   -0.01861931854582834   -0.0011807246701059134
0.0025520268549415566   -0.01337866194289258   -0.001097536420575087
0.0024793314023370634   -0.01860870301468622   -0.0011667451327444789
9.355332139317393e-06   -0.013381075292336432   -0.0010829610442918782
0.0025539006307937623   -0.013363713423416227   -0.0011036063921834786
0.0024793314023370634   -0.01860870301468622   -0.0011667451327444789
0.0025520268549415566   -0.01337866194289258   -0.001097536420575087
9.355332139317393e-06   -0.013381075292336432   -0.0010829610442918782
0.0024793314023370634   -0.01860870301468622   -0.0011667451327444789
-0.000223342561109172   -0.018649709906427406   -0.0011597687700340695
-0.0002362954972518263   -0.018642601385382904   -0.001178002074421134
9.355332139317393e-06   -0.013381075292336432   -0.0010829610442918782
0.0024793314023370634   -0.01860870301468622   -0.0011667451327444789
-0.0002362954972518263   -0.018642601385382904   -0.001178002074421134
0.0025520268549415566   -0.01337866194289258   -0.001097536420575087
9.355332139317393e-06   -0.013381075292336432   -0.0010829610442918782
-0.000223342561109172   -0.018649709906427406   -0.0011597687700340695
0.0025539006307937623   -0.013363713423416227   -0.0011036063921834786
1.4268551879126765e-05   -0.013375429741926638   -0.0010766154283123406
-0.000223342561109172   -0.018649709906427406   -0.0011597687700340695
0.0024793314023370634   -0.01860870301468622   -0.0011667451327444789
0.0025539006307937623   -0.013363713423416227   -0.0011036063921834786
0.0024827655395856154   -0.018593270666614543   -0.001157711549430352
1.4268551879126765e-05   -0.013375429741926638   -0.0010766154283123406
0.00254932398010882   -0.013336026868436565   -0.001114597281378348
0.0024827655395856154   -0.018593270666614543   -0.001157711549430352
0.0025539006307937623   -0.013363713423416227   -0.0011036063921834786
1.4268551879126765e-05   -0.013375429741926638   -0.0010766154283123406
0.0024827655395856154   -0.018593270666614543   -0.001157711549430352
-0.00021326889231896505   -0.01865428914523685   -0.0011469219839216345
-0.000223342561109172   -0.018649709906427406   -0.0011597687700340695
1.4268551879126765e-05   -0.013375429741926638   -0.0010766154283123406
0.0024827655395856154   -0.018593270666614543   -0.001157711549430352
-0.000223342561109172   -0.018649709906427406   -0.0011597687700340695
0.0025539006307937623   -0.013363713423416227   -0.0011036063921834786
0.0025402189300216178   -0.013384579683816036   -0.00109620375036313
0.002446478163634741   -0.01862855287423421   -0.0011997516309694746
0.005353542024224495   -0.013424730090627878   -0.0011114202410319246
0.0025520268549415566   -0.01337866194289258   -0.001097536420575087
0.002446478163634741   -0.01862855287423421   -0.0011997516309694746
0.005369175933167256   -0.018622150828612627   -0.0012298486666125013
0.005353542024224495   -0.013424730090627878   -0.0011114202410319246
0.0054070011874327705   -0.018598001882557297   -0.0012139420282214477
0.0025520268549415566   -0.01337866194289258   -0.001097536420575087
0.0053501686108043895   -0.013405201668635994   -0.0011319784485422993
0.0054070011874327705   -0.018598001882557297   -0.0012139420282214477
0.005353542024224495   -0.013424730090627878   -0.0011114202410319246
0.0025520268549415566   -0.01337866194289258   -0.001097536420575087
0.0054070011874327705   -0.018598001882557297   -0.0012139420282214477
0.0024659570144105704   -0.01861931854582834   -0.0011807246701059134
0.002446478163634741   -0.01862855287423421   -0.0011997516309694746
0.0025520268549415566   -0.01337866194289258   -0.001097536420575087
0.0054070011874327705   -0.018598001882557297   -0.0012139420282214477
0.002446478163634741   -0.01862855287423421   -0.0011997516309694746
0.005353542024224495   -0.013424730090627878   -0.0011114202410319246
0.0025520268549415566   -0.01337866194289258   -0.001097536420575087
0.0024659570144105704   -0.01861931854582834   -0.0011807246701059134
0.0053501686108043895   -0.013405201668635994   -0.0011319784485422993
0.0025539006307937623   -0.013363713423416227   -0.0011036063921834786
0.0024659570144105704   -0.01861931854582834   -0.0011807246701059134
0.0054070011874327705   -0.018598001882557297   -0.0012139420282214477
0.0053501686108043895   -0.013405201668635994   -0.0011319784485422993
0.005427530732481348   -0.018579013453918592   -0.0012057142741773326
0.0025539006307937623   -0.013363713423416227   -0.0011036063921834786
0.0053381511005047245   -0.013380888625061805   -0.001160229172398646
0.005427530732481348   -0.018579013453918592   -0.0012057142741773326
0.0053501686108043895   -0.013405201668635994   -0.0011319784485422993
0.0025539006307937623   -0.013363713423416227   -0.0011036063921834786
0.005427530732481348   -0.018579013453918592   -0.0012057142741773326
0.0024793314023370634   -0.01860870301468622   -0.0011667451327444789
0.0024659570144105704   -0.01861931854582834   -0.0011807246701059134
0.0025539006307937623   -0.013363713423416227   -0.0011036063921834786
0.005427530732481348   -0.018579013453918592   -0.0012057142741773326
0.0024659570144105704   -0.01861931854582834   -0.0011807246701059134
0.0053501686108043895   -0.013405201668635994   -0.0011319784485422993
0.0025539006307937623   -0.013363713423416227   -0.0011036063921834786
0.0024793314023370634   -0.01860870301468622   -0.0011667451327444789
0.0053381511005047245   -0.013380888625061805   -0.001160229172398646
0.00254932398010882   -0.013336026868436565   -0.001114597281378348
0.0024793314023370634   -0.01860870301468622   -0.0011667451327444789
0.005427530732481348   -0.018579013453918592   -0.0012057142741773326
0.0053381511005047245   -0.013380888625061805   -0.001160229172398646
0.00543363614196768   -0.0185488031167381   -0.0012052966755916523
0.00254932398010882   -0.013336026868436565   -0.001114597281378348
0.005303086608327764   -0.013334853177041067   -0.0011961164934905222
0.00543363614196768   -0.0185488031167381   -0.0012052966755916523
0.0053381511005047245   -0.013380888625061805   -0.001160229172398646
0.00254932398010882   -0.013336026868436565   -0.001114597281378348
0.00543363614196768   -0.0185488031167381   -0.0012052966755916523
0.0024827655395856154   -0.018593270666614543   -0.001157711549430352
0.0024793314023370634   -0.01860870301468622   -0.0011667451327444789
0.00254932398010882   -0.013336026868436565   -0.001114597281378348
0.00543363614196768   -0.0185488031167381   -0.0012052966755916523
0.0024793314023370634   -0.01860870301468622   -0.0011667451327444789
0.0053381511005047245   -0.013380888625061805   -0.001160229172398646
-0.008456579094800886   -0.018689558140831713   -0.0014152472442114272
-0.008715515727461336   -0.02398631071197529   -0.0013923904756823087
-0.005559772191760081   -0.018660045604230555   -0.0013099461987464858
-0.008491502458271384   -0.018754195318430745   -0.0013770835528443795
-0.008715515727461336   -0.02398631071197529   -0.0013923904756823087
-0.0058251628669400155   -0.024000308338826975   -0.0013147876910095907
-0.005559772191760081   -0.018660045604230555   -0.0013099461987464858
-0.00580904188791691   -0.024039805912549946   -0.0013028697142845502
-0.008491502458271384   -0.018754195318430745   -0.0013770835528443795
-0.005556771099726602   -0.018708097510683145   -0.0012784014121728165
-0.00580904188791691   -0.024039805912549946   -0.0013028697142845502
-0.005559772191760081   -0.018660045604230555   -0.0013099461987464858
-0.008491502458271384   -0.018754195318430745   -0.0013770835528443795
-0.00580904188791691   -0.024039805912549946   -0.0013028697142845502
-0.008704680288727723   -0.02403919003973969   -0.0013902091215263898
-0.008715515727461336   -0.02398631071197529   -0.0013923904756823087
-0.008491502458271384   -0.018754195318430745   -0.0013770835528443795
-0.00580904188791691   -0.024039805912549946   -0.0013028697142845502
-0.008715515727461336   -0.02398631071197529   -0.0013923904756823087
-0.005559772191760081   -0.018660045604230555   -0.0013099461987464858
-0.008491502458271384   -0.018754195318430745   -0.0013770835528443795
-0.008704680288727723   -0.02403919003973969   -0.0013902091215263898
-0.005556771099726602   -0.018708097510683145   -0.0012784014121728165
-0.008501975395115276   -0.01880702928590414   -0.0013464603162427777
-0.008704680288727723   -0.02403919003973969   -0.0013902091215263898
-0.00580904188791691   -0.024039805912549946   -0.0013028697142845502
-0.005556771099726602   -0.018708097510683145   -0.0012784014121728165
-0.005784210811655819   -0.024083685564109936   -0.001296329339070328
-0.008501975395115276   -0.01880702928590414   -0.0013464603162427777
-0.005548525933435499   -0.018752519565528106   -0.0012520974742526478
-0.005784210811655819   -0.024083685564109936   -0.001296329339070328
-0.005556771099726602   -0.018708097510683145   -0.0012784014121728165
-0.008501975395115276   -0.01880702928590414   -0.0013464603162427777
-0.005784210811655819   -0.024083685564109936   -0.001296329339070328
-0.008677413761051697   -0.024090676685482048   -0.0013960611029808512
-0.008704680288727723   -0.02403919003973969   -0.0013902091215263898
-0.008501975395115276   -0.01880702928590414   -0.0013464603162427777
-0.005784210811655819   -0.024083685564109936   -0.001296329339070328
-0.008704680288727723   -0.02403919003973969   -0.0013902091215263898
-0.005556771099726602   -0.018708097510683145   -0.0012784014121728165
-0.008501975395115276   -0.01880702928590414   -0.0013464603162427777
-0.008677413761051697   -0.024090676685482048   -0.0013960611029808512
-0.005548525933435499   -0.018752519565528106   -0.0012520974742526478
-0.008504755560983733   -0.01886455714254209   -0.001324034214895127
-0.008677413761051697   -0.024090676685482048   -0.0013960611029808512
-0.005784210811655819   -0.024083685564109936   -0.001296329339070328
-0.005548525933435499   -0.018752519565528106   -0.0012520974742526478
-0.005752240488877317   -0.024134976941514275   -0.0012950707950279419
-0.008504755560983733   -0.01886455714254209   -0.001324034214895127
-0.005529408595328878   -0.018796706733524748   -0.0012306591008648046
-0.005752240488877317   -0.024134976941514275   -0.0012950707950279419
-0.005548525933435499   -0.018752519565528106   -0.0012520974742526478
-0.008504755560983733   -0.01886455714254209   -0.001324034214895127
-0.005752240488877317   -0.024134976941514275   -0.0012950707950279419
-0.008633597673626793   -0.02415712684274565   -0.0014103633771369358
-0.008677413761051697   -0.024090676685482048   -0.0013960611029808512
-0.008504755560983733   -0.01886455714254209   -0.001324034214895127
-0.005752240488877317   -0.024134976941514275   -0.0012950707950279419
-0.008677413761051697   -0.024090676685482048   -0.0013960611029808512
-0.005548525933435499   -0.018752519565528106   -0.0012520974742526478
-0.005559772191760081   -0.018660045604230555   -0.0013099461987464858
-0.0058251628669400155   -0.024000308338826975   -0.0013147876910095907
-0.0028690274711253914   -0.01864292821928725   -0.0012382857256372397
-0.005556771099726602   -0.018708097510683145   -0.0012784014121728165
-0.0058251628669400155   -0.024000308338826975   -0.0013147876910095907
-0.003177114799319172   -0.02400321937220553   -0.001263240218377838
-0.0028690274711253914   -0.01864292821928725   -0.0012382857256372397
-0.00315575584284319   -0.024025808406243476   -0.0012419043620190584
-0.005556771099726602   -0.018708097510683145   -0.0012784014121728165
-0.0028582024856274872   -0.018671944939898086   -0.0012106542174816484
-0.00315575584284319   -0.024025808406243476   -0.0012419043620190584
-0.0028690274711253914   -0.01864292821928725   -0.0012382857256372397
-0.005556771099726602   -0.018708097510683145   -0.0012784014121728165
-0.00315575584284319   -0.024025808406243476   -0.0012419043620190584
-0.00580904188791691   -0.024039805912549946   -0.0013028697142845502
-0.0058251628669400155   -0.024000308338826975   -0.0013147876910095907
-0.005556771099726602   -0.018708097510683145   -0.0012784014121728165
-0.00315575584284319   -0.024025808406243476   -0.0012419043620190584
-0.0058251628669400155   -0.024000308338826975   -0.0013147876910095907
-0.0028690274711253914   -0.01864292821928725   -0.0012382857256372397
-0.005556771099726602   -0.018708097510683145   -0.0012784014121728165
-0.00580904188791691   -0.024039805912549946   -0.0013028697142845502
-0.0028582024856274872   -0.018671944939898086   -0.0012106542174816484
-0.005548525933435499   -0.018752519565528106   -0.0012520974742526478
-0.00580904188791691   -0.024039805912549946   -0.0013028697142845502
-0.00315575584284319   -0.024025808406243476   -0.0012419043620190584
-0.0028582024856274872   -0.018671944939898086   -0.0012106542174816484
-0.0031317074720679174   -0.024053384433263353   -0.0012259631796256198
-0.005548525933435499   -0.018752519565528106   -0.0012520974742526478
-0.002845115801375884   -0.018698640219835205   -0.0011882636024733637
-0.0031317074720679174   -0.024053384433263353   -0.0012259631796256198
-0.0028582024856274872   -0.018671944939898086   -0.0012106542174816484
-0.005548525933435499   -0.018752519565528106   -0.0012520974742526478
-0.0031317074720679174   -0.024053384433263353   -0.0012259631796256198
-0.005784210811655819   -0.024083685564109936   -0.001296329339070328
-0.00580904188791691   -0.024039805912549946   -0.0013028697142845502
-0.005548525933435499   -0.018752519565528106   -0.0012520974742526478
-0.0031317074720679174   -0.024053384433263353   -0.0012259631796256198
-0.00580904188791691   -0.024039805912549946   -0.0013028697142845502
-0.0028582024856274872   -0.018671944939898086   -0.0012106542174816484
-0.005548525933435499   -0.018752519565528106   -0.0012520974742526478
-0.005784210811655819   -0.024083685564109936   -0.001296329339070328
-0.002845115801375884   -0.018698640219835205   -0.0011882636024733637
-0.005529408595328878   -0.018796706733524748   -0.0012306591008648046
-0.005784210811655819   -0.024083685564109936   -0.001296329339070328
-0.0031317074720679174   -0.024053384433263353   -0.0012259631796256198
-0.002845115801375884   -0.018698640219835205   -0.0011882636024733637
-0.0031058261272382255   -0.024086033675846545   -0.0012155961252374016
-0.005529408595328878   -0.018796706733524748   -0.0012306591008648046
-0.00282953509791997   -0.018723103424123567   -0.0011712439572286407
-0.0031058261272382255   -0.024086033675846545   -0.0012155961252374016
-0.002845115801375884   -0.018698640219835205   -0.0011882636024733637
-0.005529408595328878   -0.018796706733524748   -0.0012306591008648046
-0.0031058261272382255   -0.024086033675846545   -0.0012155961252374016
-0.005752240488877317   -0.024134976941514275   -0.0012950707950279419
-0.005784210811655819   -0.024083685564109936   -0.001296329339070328
-0.005529408595328878   -0.018796706733524748   -0.0012306591008648046
-0.0031058261272382255   -0.024086033675846545   -0.0012155961252374016
-0.005784210811655819   -0.024083685564109936   -0.001296329339070328
-0.002845115801375884   -0.018698640219835205   -0.0011882636024733637
-0.0028690274711253914   -0.01864292821928725   -0.0012382857256372397
-0.003177114799319172   -0.02400321937220553   -0.001263240218377838
-0.00025113838999759155   -0.018633002701876927   -0.0012014345662202238
-0.0028582024856274872   -0.018671944939898086   -0.0012106542174816484
-0.003177114799319172   -0.02400321937220553   -0.001263240218377838
-0.0006038716493855274   -0.023989029073964396   -0.00124241811019861
-0.00025113838999759155   -0.018633002701876927   -0.0012014345662202238
-0.0005786921213286495   -0.02399411015046278   -0.0012121347164321104
-0.0028582024856274872   -0.018671944939898086   -0.0012106542174816484
-0.0002362954972518263   -0.018642601385382904   -0.001178002074421134
-0.0005786921213286495   -0.02399411015046278   -0.0012121347164321104
-0.00025113838999759155   -0.018633002701876927   -0.0012014345662202238
-0.0028582024856274872   -0.018671944939898086   -0.0012106542174816484
-0.0005786921213286495   -0.02399411015046278   -0.0012121347164321104
-0.00315575584284319   -0.024025808406243476   -0.0012419043620190584
-0.003177114799319172   -0.02400321937220553   -0.001263240218377838
-0.0028582024856274872   -0.018671944939898086   -0.0012106542174816484
-0.0005786921213286495   -0.02399411015046278   -0.0012121347164321104
-0.003177114799319172   -0.02400321937220553   -0.001263240218377838
-0.00025113838999759155   -0.018633002701876927   -0.0012014345662202238
-0.0028582024856274872   -0.018671944939898086   -0.0012106542174816484
-0.00315575584284319   -0.024025808406243476   -0.0012419043620190584
-0.0002362954972518263   -0.018642601385382904   -0.001178002074421134
-0.002845115801375884   -0.018698640219835205   -0.0011882636024733637
-0.00315575584284319   -0.024025808406243476   -0.0012419043620190584
-0.0005786921213286495   -0.02399411015046278   -0.0012121347164321104
-0.0002362954972518263   -0.018642601385382904   -0.001178002074421134
-0.0005548435616300909   -0.02400379834738966   -0.0011872115779141509
-0.002845115801375884   -0.018698640219835205   -0.0011882636024733637
-0.000223342561109172   -0.018649709906427406   -0.0011597687700340695
-0.0005548435616300909   -0.02400379834738966   -0.0011872115779141509
-0.0002362954972518263   -0.018642601385382904   -0.001178002074421134
-0.002845115801375884   -0.018698640219835205   -0.0011882636024733637
-0.0005548435616300909   -0.02400379834738966   -0.0011872115779141509
-0.0031317074720679174   -0.024053384433263353   -0.0012259631796256198
-0.00315575584284319   -0.024025808406243476   -0.0012419043620190584
-0.002845115801375884   -0.018698640219835205   -0.0011882636024733637
-0.0005548435616300909   -0.02400379834738966   -0.0011872115779141509
-0.00315575584284319   -0.024025808406243476   -0.0012419043620190584
-0.0002362954972518263   -0.018642601385382904   -0.001178002074421134
-0.002845115801375884   -0.018698640219835205   -0.0011882636024733637
-0.0031317074720679174   -0.024053384433263353   -0.0012259631796256198
-0.000223342561109172   -0.018649709906427406   -0.0011597687700340695
-0.00282953509791997   -0.018723103424123567   -0.0011712439572286407
-0.0031317074720679174   -0.024053384433263353   -0.0012259631796256198
-0.0005548435616300909   -0.02400379834738966   -0.0011872115779141509
-0.000223342561109172   -0.018649709906427406   -0.0011597687700340695
-0.0005345000584368623   -0.02401830977176339   -0.0011678338746582268
-0.00282953509791997   -0.018723103424123567   -0.0011712439572286407
-0.00021326889231896505   -0.01865428914523685   -0.0011469219839216345
-0.0005345000584368623   -0.02401830977176339   -0.0011678338746582268
-0.000223342561109172   -0.018649709906427406   -0.0011597687700340695
-0.00282953509791997   -0.018723103424123567   -0.0011712439572286407
-0.0005345000584368623   -0.02401830977176339   -0.0011678338746582268
-0.0031058261272382255   -0.024086033675846545   -0.0012155961252374016
-0.0031317074720679174   -0.024053384433263353   -0.0012259631796256198
-0.00282953509791997   -0.018723103424123567   -0.0011712439572286407
-0.0005345000584368623   -0.02401830977176339   -0.0011678338746582268
-0.0031317074720679174   -0.024053384433263353   -0.0012259631796256198
-0.000223342561109172   -0.018649709906427406   -0.0011597687700340695
-0.00025113838999759155   -0.018633002701876927   -0.0012014345662202238
-0.0006038716493855274   -0.023989029073964396   -0.00124241811019861
0.002446478163634741   -0.01862855287423421   -0.0011997516309694746
-0.0002362954972518263   -0.018642601385382904   -0.001178002074421134
-0.0006038716493855274   -0.023989029073964396   -0.00124241811019861
0.002046379539907484   -0.023957556922664387   -0.0012533550563434597
0.002446478163634741   -0.01862855287423421   -0.0011997516309694746
0.0020784121974383105   -0.023945054232007074   -0.0012142679291788391
-0.0002362954972518263   -0.018642601385382904   -0.001178002074421134
0.0024659570144105704   -0.01861931854582834   -0.0011807246701059134
0.0020784121974383105   -0.023945054232007074   -0.0012142679291788391
0.002446478163634741   -0.01862855287423421   -0.0011997516309694746
-0.0002362954972518263   -0.018642601385382904   -0.001178002074421134
0.0020784121974383105   -0.023945054232007074   -0.0012142679291788391
-0.0005786921213286495   -0.02399411015046278   -0.0012121347164321104
-0.0006038716493855274   -0.023989029073964396   -0.00124241811019861
-0.0002362954972518263   -0.018642601385382904   -0.001178002074421134
0.0020784121974383105   -0.023945054232007074   -0.0012142679291788391
-0.0006038716493855274   -0.023989029073964396   -0.00124241811019861
0.002446478163634741   -0.01862855287423421   -0.0011997516309694746
-0.0002362954972518263   -0.018642601385382904   -0.001178002074421134
-0.0005786921213286495   -0.02399411015046278   -0.0012121347164321104
0.0024659570144105704   -0.01861931854582834   -0.0011807246701059134
-0.000223342561109172   -0.018649709906427406   -0.0011597687700340695
-0.0005786921213286495   -0.02399411015046278   -0.0012121347164321104
0.0020784121974383105   -0.023945054232007074   -0.0012142679291788391
0.0024659570144105704   -0.01861931854582834   -0.0011807246701059134
0.002108117252751474   -0.023938541347698045   -0.0011805226344090902
-0.000223342561109172   -0.018649709906427406   -0.0011597687700340695
0.0024793314023370634   -0.01860870301468622   -0.0011667451327444789
0.002108117252751474   -0.023938541347698045   -0.0011805226344090902
0.0024659570144105704   -0.01861931854582834   -0.0011807246701059134
-0.000223342561109172   -0.018649709906427406   -0.0011597687700340695
0.002108117252751474   -0.023938541347698045   -0.0011805226344090902
-0.0005548435616300909   -0.02400379834738966   -0.0011872115779141509
-0.0005786921213286495   -0.02399411015046278   -0.0012121347164321104
-0.000223342561109172   -0.018649709906427406   -0.0011597687700340695
0.002108117252751474   -0.023938541347698045   -0.0011805226344090902
-0.0005786921213286495   -0.02399411015046278   -0.0012121347164321104
0.0024659570144105704   -0.01861931854582834   -0.0011807246701059134
-0.000223342561109172   -0.018649709906427406   -0.0011597687700340695
-0.0005548435616300909   -0.02400379834738966   -0.0011872115779141509
0.0024793314023370634   -0.01860870301468622   -0.0011667451327444789
-0.00021326889231896505   -0.01865428914523685   -0.0011469219839216345
-0.0005548435616300909   -0.02400379834738966   -0.0011872115779141509
0.002108117252751474   -0.023938541347698045   -0.0011805226344090902
0.0024793314023370634   -0.01860870301468622   -0.0011667451327444789
0.00212435345998749   -0.023934928132240345   -0.0011517703823400746
-0.00021326889231896505   -0.01865428914523685   -0.0011469219839216345
0.0024827655395856154   -0.018593270666614543   -0.001157711549430352
0.00212435345998749   -0.023934928132240345   -0.0011517703823400746
0.0024793314023370634   -0.01860870301468622   -0.0011667451327444789
-0.00021326889231896505   -0.01865428914523685   -0.0011469219839216345
0.00212435345998749   -0.023934928132240345   -0.0011517703823400746
-0.0005345000584368623   -0.02401830977176339   -0.0011678338746582268
-0.0005548435616300909   -0.02400379834738966   -0.0011872115779141509
-0.00021326889231896505   -0.01865428914523685   -0.0011469219839216345
0.00212435345998749   -0.023934928132240345   -0.0011517703823400746
-0.0005548435616300909   -0.02400379834738966   -0.0011872115779141509
0.0024793314023370634   -0.01860870301468622   -0.0011667451327444789
0.002446478163634741   -0.01862855287423421   -0.0011997516309694746
0.002046379539907484   -0.023957556922664387   -0.0012533550563434597
0.005369175933167256   -0.018622150828612627   -0.0012298486666125013
0.0024659570144105704   -0.01861931854582834   -0.0011807246701059134
0.002046379539907484   -0.023957556922664387   -0.0012533550563434597
0.004882613778394658   -0.02390454538838449   -0.0012978118444420359
0.005369175933167256   -0.018622150828612627   -0.0012298486666125013
0.004965716341420084   -0.023876073351466433   -0.0012463604333621781
0.0024659570144105704   -0.01861931854582834   -0.0011807246701059134
0.0054070011874327705   -0.018598001882557297   -0.0012139420282214477
0.004965716341420084   -0.023876073351466433   -0.0012463604333621781
0.005369175933167256   -0.018622150828612627   -0.0012298486666125013
0.0024659570144105704   -0.01861931854582834   -0.0011807246701059134
0.004965716341420084   -0.023876073351466433   -0.0012463604333621781
0.0020784121974383105   -0.023945054232007074   -0.0012142679291788391
0.002046379539907484   -0.023957556922664387   -0.0012533550563434597
0.0024659570144105704   -0.01861931854582834   -0.0011807246701059134
0.004965716341420084   -0.023876073351466433   -0.0012463604333621781
0.002046379539907484   -0.023957556922664387   -0.0012533550563434597
0.005369175933167256   -0.018622150828612627   -0.0012298486666125013
0.0024659570144105704   -0.01861931854582834   -0.0011807246701059134
0.0020784121974383105   -0.023945054232007074   -0.0012142679291788391
0.0054070011874327705   -0.018598001882557297   -0.0012139420282214477
0.0024793314023370634   -0.01860870301468622   -0.0011667451327444789
0.0020784121974383105   -0.023945054232007074   -0.0012142679291788391
0.004965716341420084   -0.023876073351466433   -0.0012463604333621781
0.0054070011874327705   -0.018598001882557297   -0.0012139420282214477
0.005023072567844588   -0.02386225111902181   -0.0012025270373537608
0.0024793314023370634   -0.01860870301468622   -0.0011667451327444789
0.005427530732481348   -0.018579013453918592   -0.0012057142741773326
0.005023072567844588   -0.02386225111902181   -0.0012025270373537608
0.0054070011874327705   -0.018598001882557297   -0.0012139420282214477
0.0024793314023370634   -0.01860870301468622   -0.0011667451327444789
0.005023072567844588   -0.02386225111902181   -0.0012025270373537608
0.002108117252751474   -0.023938541347698045   -0.0011805226344090902
0.0020784121974383105   -0.023945054232007074   -0.0012142679291788391
0.0024793314023370634   -0.01860870301468622   -0.0011667451327444789
0.005023072567844588   -0.02386225111902181   -0.0012025270373537608
0.0020784121974383105   -0.023945054232007074   -0.0012142679291788391
0.0054070011874327705   -0.018598001882557297   -0.0012139420282214477
0.0024793314023370634   -0.01860870301468622   -0.0011667451327444789
0.002108117252751474   -0.023938541347698045   -0.0011805226344090902
0.005427530732481348   -0.018579013453918592   -0.0012057142741773326
0.0024827655395856154   -0.018593270666614543   -0.001157711549430352
0.002108117252751474   -0.023938541347698045   -0.0011805226344090902
0.005023072567844588   -0.02386225111902181   -0.0012025270373537608
0.005427530732481348   -0.018579013453918592   -0.0012057142741773326
0.005074335347152874   -0.02384738959010243   -0.001166630510460121
0.0024827655395856154   -0.018593270666614543   -0.001157711549430352
0.00543363614196768   -0.0185488031167381   -0.0012052966755916523
0.005074335347152874   -0.02384738959010243   -0.001166630510460121
0.005427530732481348   -0.018579013453918592   -0.0012057142741773326
0.0024827655395856154   -0.018593270666614543   -0.001157711549430352
0.005074335347152874   -0.02384738959010243   -0.001166630510460121
0.00212435345998749   -0.023934928132240345   -0.0011517703823400746
0.002108117252751474   -0.023938541347698045   -0.0011805226344090902
0.0024827655395856154   -0.018593270666614543   -0.001157711549430352
0.005074335347152874   -0.02384738959010243   -0.001166630510460121
0.002108117252751474   -0.023938541347698045   -0.0011805226344090902
0.005427530732481348   -0.018579013453918592   -0.0012057142741773326
-0.008715515727461336   -0.02398631071197529   -0.0013923904756823087
-0.008479067626404446   -0.029038130756575745   -0.0013321297966174565
-0.0058251628669400155   -0.024000308338826975   -0.0013147876910095907
-0.008704680288727723   -0.02403919003973969   -0.0013902091215263898
-0.008479067626404446   -0.029038130756575745   -0.0013321297966174565
-0.005800354106203603   -0.029096249226893096   -0.0012855860092220283
-0.0058251628669400155   -0.024000308338826975   -0.0013147876910095907
-0.005766287349358997   -0.029125667067322548   -0.0012927130077930765
-0.008704680288727723   -0.02403919003973969   -0.0013902091215263898
-0.00580904188791691   -0.024039805912549946   -0.0013028697142845502
-0.005766287349358997   -0.029125667067322548   -0.0012927130077930765
-0.0058251628669400155   -0.024000308338826975   -0.0013147876910095907
-0.008704680288727723   -0.02403919003973969   -0.0013902091215263898
-0.005766287349358997   -0.029125667067322548   -0.0012927130077930765
-0.00841753281228451   -0.02907786222398575   -0.0013658751786544093
-0.008479067626404446   -0.029038130756575745   -0.0013321297966174565
-0.008704680288727723   -0.02403919003973969   -0.0013902091215263898
-0.005766287349358997   -0.029125667067322548   -0.0012927130077930765
-0.008479067626404446   -0.029038130756575745   -0.0013321297966174565
-0.0058251628669400155   -0.024000308338826975   -0.0013147876910095907
-0.008704680288727723   -0.02403919003973969   -0.0013902091215263898
-0.00841753281228451   -0.02907786222398575   -0.0013658751786544093
-0.00580904188791691   -0.024039805912549946   -0.0013028697142845502
-0.008677413761051697   -0.024090676685482048   -0.0013960611029808512
-0.00841753281228451   -0.02907786222398575   -0.0013658751786544093
-0.005766287349358997   -0.029125667067322548   -0.0012927130077930765
-0.00580904188791691   -0.024039805912549946   -0.0013028697142845502
-0.005720269311464549   -0.029167695715585095   -0.001305331517272502
-0.008677413761051697   -0.024090676685482048   -0.0013960611029808512
-0.005784210811655819   -0.024083685564109936   -0.001296329339070328
-0.005720269311464549   -0.029167695715585095   -0.001305331517272502
-0.00580904188791691   -0.024039805912549946   -0.0013028697142845502
-0.008677413761051697   -0.024090676685482048   -0.0013960611029808512
-0.005720269311464549   -0.029167695715585095   -0.001305331517272502
-0.008347518445535636   -0.029126809765383333   -0.001408253282262593
-0.00841753281228451   -0.02907786222398575   -0.0013658751786544093
-0.008677413761051697   -0.024090676685482048   -0.0013960611029808512
-0.005720269311464549   -0.029167695715585095   -0.001305331517272502
-0.00841753281228451   -0.02907786222398575   -0.0013658751786544093
-0.00580904188791691   -0.024039805912549946   -0.0013028697142845502
-0.008677413761051697   -0.024090676685482048   -0.0013960611029808512
-0.008347518445535636   -0.029126809765383333   -0.001408253282262593
-0.005784210811655819   -0.024083685564109936   -0.001296329339070328
-0.008633597673626793   -0.02415712684274565   -0.0014103633771369358
-0.008347518445535636   -0.029126809765383333   -0.001408253282262593
-0.005720269311464549   -0.029167695715585095   -0.001305331517272502
-0.005784210811655819   -0.024083685564109936   -0.001296329339070328
-0.00567093992008169   -0.029224906107840835   -0.0013235961222646906
-0.008633597673626793   -0.02415712684274565   -0.0014103633771369358
-0.005752240488877317   -0.024134976941514275   -0.0012950707950279419
-0.00567093992008169   -0.029224906107840835   -0.0013235961222646906
-0.005784210811655819   -0.024083685564109936   -0.001296329339070328
-0.008633597673626793   -0.02415712684274565   -0.0014103633771369358
-0.00567093992008169   -0.029224906107840835   -0.0013235961222646906
-0.008252342267678405   -0.029201412088987026   -0.0014594347799592234
-0.008347518445535636   -0.029126809765383333   -0.001408253282262593
-0.008633597673626793   -0.02415712684274565   -0.0014103633771369358
-0.00567093992008169   -0.029224906107840835   -0.0013235961222646906
-0.008347518445535636   -0.029126809765383333   -0.001408253282262593
-0.005784210811655819   -0.024083685564109936   -0.001296329339070328
-0.0058251628669400155   -0.024000308338826975   -0.0013147876910095907
-0.005800354106203603   -0.029096249226893096   -0.0012855860092220283
-0.003177114799319172   -0.02400321937220553   -0.001263240218377838
-0.00580904188791691   -0.024039805912549946   -0.0013028697142845502
-0.005800354106203603   -0.029096249226893096   -0.0012855860092220283
-0.0033979624770297265   -0.02911906123227785   -0.0012558415407968805
-0.003177114799319172   -0.02400321937220553   -0.001263240218377838
-0.0033609236060834842   -0.029134291937576155   -0.0012402973398802323
-0.00580904188791691   -0.024039805912549946   -0.0013028697142845502
-0.00315575584284319   -0.024025808406243476   -0.0012419043620190584
-0.0033609236060834842   -0.029134291937576155   -0.0012402973398802323
-0.003177114799319172   -0.02400321937220553   -0.001263240218377838
-0.00580904188791691   -0.024039805912549946   -0.0013028697142845502
-0.0033609236060834842   -0.029134291937576155   -0.0012402973398802323
-0.005766287349358997   -0.029125667067322548   -0.0012927130077930765
-0.005800354106203603   -0.029096249226893096   -0.0012855860092220283
-0.00580904188791691   -0.024039805912549946   -0.0013028697142845502
-0.0033609236060834842   -0.029134291937576155   -0.0012402973398802323
-0.005800354106203603   -0.029096249226893096   -0.0012855860092220283
-0.003177114799319172   -0.02400321937220553   -0.001263240218377838
-0.00580904188791691   -0.024039805912549946   -0.0013028697142845502
-0.005766287349358997   -0.029125667067322548   -0.0012927130077930765
-0.00315575584284319   -0.024025808406243476   -0.0012419043620190584
-0.005784210811655819   -0.024083685564109936   -0.001296329339070328
-0.005766287349358997   -0.029125667067322548   -0.0012927130077930765
-0.0033609236060834842   -0.029134291937576155   -0.0012402973398802323
-0.00315575584284319   -0.024025808406243476   -0.0012419043620190584
-0.0033211032977548825   -0.029161635668870776   -0.0012301763503932267
-0.005784210811655819   -0.024083685564109936   -0.001296329339070328
-0.0031317074720679174   -0.024053384433263353   -0.0012259631796256198
-0.0033211032977548825   -0.029161635668870776   -0.0012301763503932267
-0.00315575584284319   -0.024025808406243476   -0.0012419043620190584
-0.005784210811655819   -0.024083685564109936   -0.001296329339070328
-0.0033211032977548825   -0.029161635668870776   -0.0012301763503932267
-0.005720269311464549   -0.029167695715585095   -0.001305331517272502
-0.005766287349358997   -0.029125667067322548   -0.0012927130077930765
-0.005784210811655819   -0.024083685564109936   -0.001296329339070328
-0.0033211032977548825   -0.029161635668870776   -0.0012301763503932267
-0.005766287349358997   -0.029125667067322548   -0.0012927130077930765
-0.00315575584284319   -0.024025808406243476   -0.0012419043620190584
-0.005784210811655819   -0.024083685564109936   -0.001296329339070328
-0.005720269311464549   -0.029167695715585095   -0.001305331517272502
-0.0031317074720679174   -0.024053384433263353   -0.0012259631796256198
-0.005752240488877317   -0.024134976941514275   -0.0012950707950279419
-0.005720269311464549   -0.029167695715585095   -0.001305331517272502
-0.0033211032977548825   -0.029161635668870776   -0.0012301763503932267
-0.0031317074720679174   -0.024053384433263353   -0.0012259631796256198
-0.0032801739516835557   -0.02920143216350145   -0.0012257485060831398
-0.005752240488877317   -0.024134976941514275   -0.0012950707950279419
-0.0031058261272382255   -0.024086033675846545   -0.0012155961252374016
-0.0032801739516835557   -0.02920143216350145   -0.0012257485060831398
-0.0031317074720679174   -0.024053384433263353   -0.0012259631796256198
-0.005752240488877317   -0.024134976941514275   -0.0012950707950279419
-0.0032801739516835557   -0.02920143216350145   -0.0012257485060831398
-0.00567093992008169   -0.029224906107840835   -0.0013235961222646906
-0.005720269311464549   -0.029167695715585095   -0.001305331517272502
-0.005752240488877317   -0.024134976941514275   -0.0012950707950279419
-0.0032801739516835557   -0.02920143216350145   -0.0012257485060831398
-0.005720269311464549   -0.029167695715585095   -0.001305331517272502
-0.0031317074720679174   -0.024053384433263353   -0.0012259631796256198
-0.003177114799319172   -0.02400321937220553   -0.001263240218377838
-0.0033979624770297265   -0.02911906123227785   -0.0012558415407968805
-0.0006038716493855274   -0.023989029073964396   -0.00124241811019861
-0.00315575584284319   -0.024025808406243476   -0.0012419043620190584
-0.0033979624770297265   -0.02911906123227785   -0.0012558415407968805
-0.001068128924008297   -0.02910118413860451   -0.0012512380821992992
-0.0006038716493855274   -0.023989029073964396   -0.00124241811019861
-0.0010271719442728922   -0.029101374346338908   -0.0012138003046718998
-0.00315575584284319   -0.024025808406243476   -0.0012419043620190584
-0.0005786921213286495   -0.02399411015046278   -0.0012121347164321104
-0.0010271719442728922   -0.029101374346338908   -0.0012138003046718998
-0.0006038716493855274   -0.023989029073964396   -0.00124241811019861
-0.00315575584284319   -0.024025808406243476   -0.0012419043620190584
-0.0010271719442728922   -0.029101374346338908   -0.0012138003046718998
-0.0033609236060834842   -0.029134291937576155   -0.0012402973398802323
-0.0033979624770297265   -0.02911906123227785   -0.0012558415407968805
-0.00315575584284319   -0.024025808406243476   -0.0012419043620190584
-0.0010271719442728922   -0.029101374346338908   -0.0012138003046718998
-0.0033979624770297265   -0.02911906123227785   -0.0012558415407968805
-0.0006038716493855274   -0.023989029073964396   -0.00124241811019861
-0.00315575584284319   -0.024025808406243476   -0.0012419043620190584
-0.0033609236060834842   -0.029134291937576155   -0.0012402973398802323
-0.0005786921213286495   -0.02399411015046278   -0.0012121347164321104
-0.0031317074720679174   -0.024053384433263353   -0.0012259631796256198
-0.0033609236060834842   -0.029134291937576155   -0.0012402973398802323
-0.0010271719442728922   -0.029101374346338908   -0.0012138003046718998
-0.0005786921213286495   -0.02399411015046278   -0.0012121347164321104
-0.0009872726907312359   -0.029112808110393157   -0.001181802335391086
-0.0031317074720679174   -0.024053384433263353   -0.0012259631796256198
-0.0005548435616300909   -0.02400379834738966   -0.0011872115779141509
-0.0009872726907312359   -0.029112808110393157   -0.001181802335391086
-0.0005786921213286495   -0.02399411015046278   -0.0012121347164321104
-0.0031317074720679174   -0.024053384433263353   -0.0012259631796256198
-0.0009872726907312359   -0.029112808110393157   -0.001181802335391086
-0.0033211032977548825   -0.029161635668870776   -0.0012301763503932267
-0.0033609236060834842   -0.029134291937576155   -0.0012402973398802323
-0.0031317074720679174   -0.024053384433263353   -0.0012259631796256198
-0.0009872726907312359   -0.029112808110393157   -0.001181802335391086
-0.0033609236060834842   -0.029134291937576155   -0.0012402973398802323
-0.0005786921213286495   -0.02399411015046278   -0.0012121347164321104
-0.0031317074720679174   -0.024053384433263353   -0.0012259631796256198
-0.0033211032977548825   -0.029161635668870776   -0.0012301763503932267
-0.0005548435616300909   -0.02400379834738966   -0.0011872115779141509
-0.0031058261272382255   -0.024086033675846545   -0.0012155961252374016
-0.0033211032977548825   -0.029161635668870776   -0.0012301763503932267
-0.0009872726907312359   -0.029112808110393157   -0.001181802335391086
-0.0005548435616300909   -0.02400379834738966   -0.0011872115779141509
-0.0009516276569504179   -0.029136418097083665   -0.0011554318431456893
-0.0031058261272382255   -0.024086033675846545   -0.0012155961252374016
-0.0005345000584368623   -0.02401830977176339   -0.0011678338746582268
-0.0009516276569504179   -0.029136418097083665   -0.0011554318431456893
-0.0005548435616300909   -0.02400379834738966   -0.0011872115779141509
-0.0031058261272382255   -0.024086033675846545   -0.0012155961252374016
-0.0009516276569504179   -0.029136418097083665   -0.0011554318431456893
-0.0032801739516835557   -0.02920143216350145   -0.0012257485060831398
-0.0033211032977548825   -0.029161635668870776   -0.0012301763503932267
-0.0031058261272382255   -0.024086033675846545   -0.0012155961252374016
-0.0009516276569504179   -0.029136418097083665   -0.0011554318431456893
-0.0033211032977548825   -0.029161635668870776   -0.0012301763503932267
-0.0005548435616300909   -0.02400379834738966   -0.0011872115779141509
-0.0006038716493855274   -0.023989029073964396   -0.00124241811019861
-0.001068128924008297   -0.02910118413860451   -0.0012512380821992992
0.002046379539907484   -0.023957556922664387   -0.0012533550563434597
-0.0005786921213286495   -0.02399411015046278   -0.0012121347164321104
-0.001068128924008297   -0.02910118413860451   -0.0012512380821992992
0.0013411681921556046   -0.029043737899529017   -0.0012737431474315261
0.002046379539907484   -0.023957556922664387   -0.0012533550563434597
0.0013912628724247265   -0.029027871423422478   -0.0012146016592529804
-0.0005786921213286495   -0.02399411015046278   -0.0012121347164321104
0.0020784121974383105   -0.023945054232007074   -0.0012142679291788391
0.0013912628724247265   -0.029027871423422478   -0.0012146016592529804
0.002046379539907484   -0.023957556922664387   -0.0012533550563434597
-0.0005786921213286495   -0.02399411015046278   -0.0012121347164321104
0.0013912628724247265   -0.029027871423422478   -0.0012146016592529804
-0.0010271719442728922   -0.029101374346338908   -0.0012138003046718998
-0.001068128924008297   -0.02910118413860451   -0.0012512380821992992
-0.0005786921213286495   -0.02399411015046278   -0.0012121347164321104
0.0013912628724247265   -0.029027871423422478   -0.0012146016592529804
-0.001068128924008297   -0.02910118413860451   -0.0012512380821992992
0.002046379539907484   -0.023957556922664387   -0.0012533550563434597
-0.0005786921213286495   -0.02399411015046278   -0.0012121347164321104
-0.0010271719442728922   -0.029101374346338908   -0.0012138003046718998
0.0020784121974383105   -0.023945054232007074   -0.0012142679291788391
-0.0005548435616300909   -0.02400379834738966   -0.0011872115779141509
-0.0010271719442728922   -0.029101374346338908   -0.0012138003046718998
0.0013912628724247265   -0.029027871423422478   -0.0012146016592529804
0.0020784121974383105   -0.023945054232007074   -0.0012142679291788391
0.0014426909838130824   -0.029024858302598575   -0.0011612440527969806
-0.0005548435616300909   -0.02400379834738966   -0.0011872115779141509
0.002108117252751474   -0.023938541347698045   -0.0011805226344090902
0.0014426909838130824   -0.029024858302598575   -0.0011612440527969806
0.0020784121974383105   -0.023945054232007074   -0.0012142679291788391
-0.0005548435616300909   -0.02400379834738966   -0.0011872115779141509
0.0014426909838130824   -0.029024858302598575   -0.0011612440527969806
-0.0009872726907312359   -0.029112808110393157   -0.001181802335391086
-0.0010271719442728922   -0.029101374346338908   -0.0012138003046718998
-0.0005548435616300909   -0.02400379834738966   -0.0011872115779141509
0.0014426909838130824   -0.029024858302598575   -0.0011612440527969806
-0.0010271719442728922   -0.029101374346338908   -0.0012138003046718998
0.0020784121974383105   -0.023945054232007074   -0.0012142679291788391
-0.0005548435616300909   -0.02400379834738966   -0.0011872115779141509
-0.0009872726907312359   -0.029112808110393157   -0.001181802335391086
0.002108117252751474   -0.023938541347698045   -0.0011805226344090902
-0.0005345000584368623   -0.02401830977176339   -0.0011678338746582268
-0.0009872726907312359   -0.029112808110393157   -0.001181802335391086
0.0014426909838130824   -0.029024858302598575   -0.0011612440527969806
0.002108117252751474   -0.023938541347698045   -0.0011805226344090902
0.001477000209779818   -0.0290323398802232   -0.0011129062362209277
-0.0005345000584368623   -0.02401830977176339   -0.0011678338746582268
0.00212435345998749   -0.023934928132240345   -0.0011517703823400746
0.001477000209779818   -0.0290323398802232   -0.0011129062362209277
0.002108117252751474   -0.023938541347698045   -0.0011805226344090902
-0.0005345000584368623   -0.02401830977176339   -0.0011678338746582268
0.001477000209779818   -0.0290323398802232   -0.0011129062362209277
-0.0009516276569504179   -0.029136418097083665   -0.0011554318431456893
-0.0009872726907312359   -0.029112808110393157   -0.001181802335391086
-0.0005345000584368623   -0.02401830977176339   -0.0011678338746582268
0.001477000209779818   -0.0290323398802232   -0.0011129062362209277
-0.0009872726907312359   -0.029112808110393157   -0.001181802335391086
0.002108117252751474   -0.023938541347698045   -0.0011805226344090902
0.002046379539907484   -0.023957556922664387   -0.0012533550563434597
0.0013411681921556046   -0.029043737899529017   -0.0012737431474315261
0.004882613778394658   -0.02390454538838449   -0.0012978118444420359
0.0020784121974383105   -0.023945054232007074   -0.0012142679291788391
0.0013411681921556046   -0.029043737899529017   -0.0012737431474315261
0.0039023063938057236   -0.028944923265551578   -0.0013312548626828046
0.004882613778394658   -0.02390454538838449   -0.0012978118444420359
0.004035653628047809   -0.028912357628687182   -0.001245105500599728
0.0020784121974383105   -0.023945054232007074   -0.0012142679291788391
0.004965716341420084   -0.023876073351466433   -0.0012463604333621781
0.004035653628047809   -0.028912357628687182   -0.001245105500599728
0.004882613778394658   -0.02390454538838449   -0.0012978118444420359
0.0020784121974383105   -0.023945054232007074   -0.0012142679291788391
0.004035653628047809   -0.028912357628687182   -0.001245105500599728
0.0013912628724247265   -0.029027871423422478   -0.0012146016592529804
0.0013411681921556046   -0.029043737899529017   -0.0012737431474315261
0.0020784121974383105   -0.023945054232007074   -0.0012142679291788391
0.004035653628047809   -0.028912357628687182   -0.001245105500599728
0.0013411681921556046   -0.029043737899529017   -0.0012737431474315261
0.004882613778394658   -0.02390454538838449   -0.0012978118444420359
0.0020784121974383105   -0.023945054232007074   -0.0012142679291788391
0.0013912628724247265   -0.029027871423422478   -0.0012146016592529804
0.004965716341420084   -0.023876073351466433   -0.0012463604333621781
0.002108117252751474   -0.023938541347698045   -0.0011805226344090902
0.0013912628724247265   -0.029027871423422478   -0.0012146016592529804
0.004035653628047809   -0.028912357628687182   -0.001245105500599728
0.004965716341420084   -0.023876073351466433   -0.0012463604333621781
0.004134533487823623   -0.028903351504508696   -0.0011666572085610016
0.002108117252751474   -0.023938541347698045   -0.0011805226344090902
0.005023072567844588   -0.02386225111902181   -0.0012025270373537608
0.004134533487823623   -0.028903351504508696   -0.0011666572085610016
0.004965716341420084   -0.023876073351466433   -0.0012463604333621781
0.002108117252751474   -0.023938541347698045   -0.0011805226344090902
0.004134533487823623   -0.028903351504508696   -0.0011666572085610016
0.0014426909838130824   -0.029024858302598575   -0.0011612440527969806
0.0013912628724247265   -0.029027871423422478   -0.0012146016592529804
0.002108117252751474   -0.023938541347698045   -0.0011805226344090902
0.004134533487823623   -0.028903351504508696   -0.0011666572085610016
0.0013912628724247265   -0.029027871423422478   -0.0012146016592529804
0.004965716341420084   -0.023876073351466433   -0.0012463604333621781
0.002108117252751474   -0.023938541347698045   -0.0011805226344090902
0.0014426909838130824   -0.029024858302598575   -0.0011612440527969806
0.005023072567844588   -0.02386225111902181   -0.0012025270373537608
0.00212435345998749   -0.023934928132240345   -0.0011517703823400746
0.0014426909838130824   -0.029024858302598575   -0.0011612440527969806
0.004134533487823623   -0.028903351504508696   -0.0011666572085610016
0.005023072567844588   -0.02386225111902181   -0.0012025270373537608
0.004235028377403366   -0.028903316843780908   -0.0010962677266300048
0.00212435345998749   -0.023934928132240345   -0.0011517703823400746
0.005074335347152874   -0.02384738959010243   -0.001166630510460121
0.004235028377403366   -0.028903316843780908   -0.0010962677266300048
0.005023072567844588   -0.02386225111902181   -0.0012025270373537608
0.00212435345998749   -0.023934928132240345   -0.0011517703823400746
0.004235028377403366   -0.028903316843780908   -0.0010962677266300048
0.001477000209779818   -0.0290323398802232   -0.0011129062362209277
0.0014426909838130824   -0.029024858302598575   -0.0011612440527969806
0.00212435345998749   -0.023934928132240345   -0.0011517703823400746
0.004235028377403366   -0.028903316843780908   -0.0010962677266300048
0.0014426909838130824   -0.029024858302598575   -0.0011612440527969806
0.005023072567844588   -0.02386225111902181   -0.0012025270373537608
-0.008479067626404446   -0.029038130756575745   -0.0013321297966174565
-0.00773913680626081   -0.03350351221843918   -0.001242920518344677
-0.005800354106203603   -0.029096249226893096   -0.0012855860092220283
-0.00841753281228451   -0.02907786222398575   -0.0013658751786544093
-0.00773913680626081   -0.03350351221843918   -0.001242920518344677
-0.005485832977103923   -0.0336079738678619   -0.0012355540886539137
-0.005800354106203603   -0.029096249226893096   -0.0012855860092220283
-0.005429908282188877   -0.03362305740743103   -0.0012603110855585143
-0.00841753281228451   -0.02907786222398575   -0.0013658751786544093
-0.005766287349358997   -0.029125667067322548   -0.0012927130077930765
-0.005429908282188877   -0.03362305740743103   -0.0012603110855585143
-0.005800354106203603   -0.029096249226893096   -0.0012855860092220283
-0.00841753281228451   -0.02907786222398575   -0.0013658751786544093
-0.005429908282188877   -0.03362305740743103   -0.0012603110855585143
-0.007622364727093312   -0.03352586439265654   -0.0013123617523128888
-0.00773913680626081   -0.03350351221843918   -0.001242920518344677
-0.00841753281228451   -0.02907786222398575   -0.0013658751786544093
-0.005429908282188877   -0.03362305740743103   -0.0012603110855585143
-0.00773913680626081   -0.03350351221843918   -0.001242920518344677
-0.005800354106203603   -0.029096249226893096   -0.0012855860092220283
-0.00841753281228451   -0.02907786222398575   -0.0013658751786544093
-0.007622364727093312   -0.03352586439265654   -0.0013123617523128888
-0.005766287349358997   -0.029125667067322548   -0.0012927130077930765
-0.008347518445535636   -0.029126809765383333   -0.001408253282262593
-0.007622364727093312   -0.03352586439265654   -0.0013123617523128888
-0.005429908282188877   -0.03362305740743103   -0.0012603110855585143
-0.005766287349358997   -0.029125667067322548   -0.0012927130077930765
-0.005359653235591338   -0.033659323397786614   -0.0012906200072027691
-0.008347518445535636   -0.029126809765383333   -0.001408253282262593
-0.005720269311464549   -0.029167695715585095   -0.001305331517272502
-0.005359653235591338   -0.033659323397786614   -0.0012906200072027691
-0.005766287349358997   -0.029125667067322548   -0.0012927130077930765
-0.008347518445535636   -0.029126809765383333   -0.001408253282262593
-0.005359653235591338   -0.033659323397786614   -0.0012906200072027691
-0.0075060413689013415   -0.03356843075627906   -0.0013908412552892282
-0.007622364727093312   -0.03352586439265654   -0.0013123617523128888
-0.008347518445535636   -0.029126809765383333   -0.001408253282262593
-0.005359653235591338   -0.033659323397786614   -0.0012906200072027691
-0.007622364727093312   -0.03352586439265654   -0.0013123617523128888
-0.005766287349358997   -0.029125667067322548   -0.0012927130077930765
-0.008347518445535636   -0.029126809765383333   -0.001408253282262593
-0.0075060413689013415   -0.03356843075627906   -0.0013908412552892282
-0.005720269311464549   -0.029167695715585095   -0.001305331517272502
-0.008252342267678405   -0.029201412088987026   -0.0014594347799592234
-0.0075060413689013415   -0.03356843075627906   -0.0013908412552892282
-0.005359653235591338   -0.033659323397786614   -0.0012906200072027691
-0.005720269311464549   -0.029167695715585095   -0.001305331517272502
-0.005290362858726803   -0.033718834323802654   -0.0013264282688713735
-0.008252342267678405   -0.029201412088987026   -0.0014594347799592234
-0.00567093992008169   -0.029224906107840835   -0.0013235961222646906
-0.005290362858726803   -0.033718834323802654   -0.0013264282688713735
-0.005720269311464549   -0.029167695715585095   -0.001305331517272502
-0.008252342267678405   -0.029201412088987026   -0.0014594347799592234
-0.005290362858726803   -0.033718834323802654   -0.0013264282688713735
-0.007357081993858751   -0.033647805776361395   -0.0014782045017462874
-0.0075060413689013415   -0.03356843075627906   -0.0013908412552892282
-0.008252342267678405   -0.029201412088987026   -0.0014594347799592234
-0.005290362858726803   -0.033718834323802654   -0.0013264282688713735
-0.0075060413689013415   -0.03356843075627906   -0.0013908412552892282
-0.005720269311464549   -0.029167695715585095   -0.001305331517272502
-0.005800354106203603   -0.029096249226893096   -0.0012855860092220283
-0.005485832977103923   -0.0336079738678619   -0.0012355540886539137
-0.0033979624770297265   -0.02911906123227785   -0.0012558415407968805
-0.005766287349358997   -0.029125667067322548   -0.0012927130077930765
-0.005485832977103923   -0.0336079738678619   -0.0012355540886539137
-0.00353287793084824   -0.03365661536850374   -0.0012327198015652993
-0.0033979624770297265   -0.02911906123227785   -0.0012558415407968805
-0.003475554322419156   -0.03366151672480417   -0.0012215698774280448
-0.005766287349358997   -0.029125667067322548   -0.0012927130077930765
-0.0033609236060834842   -0.029134291937576155   -0.0012402973398802323
-0.003475554322419156   -0.03366151672480417   -0.0012215698774280448
-0.0033979624770297265   -0.02911906123227785   -0.0012558415407968805
-0.005766287349358997   -0.029125667067322548   -0.0012927130077930765
-0.003475554322419156   -0.03366151672480417   -0.0012215698774280448
-0.005429908282188877   -0.03362305740743103   -0.0012603110855585143
-0.005485832977103923   -0.0336079738678619   -0.0012355540886539137
-0.005766287349358997   -0.029125667067322548   -0.0012927130077930765
-0.003475554322419156   -0.03366151672480417   -0.0012215698774280448
-0.005485832977103923   -0.0336079738678619   -0.0012355540886539137
-0.0033979624770297265   -0.02911906123227785   -0.0012558415407968805
-0.005766287349358997   -0.029125667067322548   -0.0012927130077930765
-0.005429908282188877   -0.03362305740743103   -0.0012603110855585143
-0.0033609236060834842   -0.029134291937576155   -0.0012402973398802323
-0.005720269311464549   -0.029167695715585095   -0.001305331517272502
-0.005429908282188877   -0.03362305740743103   -0.0012603110855585143
-0.003475554322419156   -0.03366151672480417   -0.0012215698774280448
-0.0033609236060834842   -0.029134291937576155   -0.0012402973398802323
-0.0034163681748618467   -0.033685344440371696   -0.00121580719575781
-0.005720269311464549   -0.029167695715585095   -0.001305331517272502
-0.0033211032977548825   -0.029161635668870776   -0.0012301763503932267
-0.0034163681748618467   -0.033685344440371696   -0.00121580719575781
-0.0033609236060834842   -0.029134291937576155   -0.0012402973398802323
-0.005720269311464549   -0.029167695715585095   -0.001305331517272502
-0.0034163681748618467   -0.033685344440371696   -0.00121580719575781
-0.005359653235591338   -0.033659323397786614   -0.0012906200072027691
-0.005429908282188877   -0.03362305740743103   -0.0012603110855585143
-0.005720269311464549   -0.029167695715585095   -0.001305331517272502
-0.0034163681748618467   -0.033685344440371696   -0.00121580719575781
-0.005429908282188877   -0.03362305740743103   -0.0012603110855585143
-0.0033609236060834842   -0.029134291937576155   -0.0012402973398802323
-0.005720269311464549   -0.029167695715585095   -0.001305331517272502
-0.005359653235591338   -0.033659323397786614   -0.0012906200072027691
-0.0033211032977548825   -0.029161635668870776   -0.0012301763503932267
-0.00567093992008169   -0.029224906107840835   -0.0013235961222646906
-0.005359653235591338   -0.033659323397786614   -0.0012906200072027691
-0.0034163681748618467   -0.033685344440371696   -0.00121580719575781
-0.0033211032977548825   -0.029161635668870776   -0.0012301763503932267
-0.0033572674394584047   -0.03372918660317964   -0.0012153714449573633
-0.00567093992008169   -0.029224906107840835   -0.0013235961222646906
-0.0032801739516835557   -0.02920143216350145   -0.0012257485060831398
-0.0033572674394584047   -0.03372918660317964   -0.0012153714449573633
-0.0033211032977548825   -0.029161635668870776   -0.0012301763503932267
-0.00567093992008169   -0.029224906107840835   -0.0013235961222646906
-0.0033572674394584047   -0.03372918660317964   -0.0012153714449573633
-0.005290362858726803   -0.033718834323802654   -0.0013264282688713735
-0.005359653235591338   -0.033659323397786614   -0.0012906200072027691
-0.00567093992008169   -0.029224906107840835   -0.0013235961222646906
-0.0033572674394584047   -0.03372918660317964   -0.0012153714449573633
-0.005359653235591338   -0.033659323397786614   -0.0012906200072027691
-0.0033211032977548825   -0.029161635668870776   -0.0012301763503932267
-0.0033979624770297265   -0.02911906123227785   -0.0012558415407968805
-0.00353287793084824   -0.03365661536850374   -0.0012327198015652993
-0.001068128924008297   -0.02910118413860451   -0.0012512380821992992
-0.0033609236060834842   -0.029134291937576155   -0.0012402973398802323
-0.00353287793084824   -0.03365661536850374   -0.0012327198015652993
-0.001644561095247825   -0.03364721154254171   -0.0012469584618111714
-0.001068128924008297   -0.02910118413860451   -0.0012512380821992992
-0.001581777473999569   -0.03364065567578863   -0.00120115557451832
-0.0033609236060834842   -0.029134291937576155   -0.0012402973398802323
-0.0010271719442728922   -0.029101374346338908   -0.0012138003046718998
-0.001581777473999569   -0.03364065567578863   -0.00120115557451832
-0.001068128924008297   -0.02910118413860451   -0.0012512380821992992
-0.0033609236060834842   -0.029134291937576155   -0.0012402973398802323
-0.001581777473999569   -0.03364065567578863   -0.00120115557451832
-0.003475554322419156   -0.03366151672480417   -0.0012215698774280448
-0.00353287793084824   -0.03365661536850374   -0.0012327198015652993
-0.0033609236060834842   -0.029134291937576155   -0.0012402973398802323
-0.001581777473999569   -0.03364065567578863   -0.00120115557451832
-0.00353287793084824   -0.03365661536850374   -0.0012327198015652993
-0.001068128924008297   -0.02910118413860451   -0.0012512380821992992
-0.0033609236060834842   -0.029134291937576155   -0.0012402973398802323
-0.003475554322419156   -0.03366151672480417   -0.0012215698774280448
-0.0010271719442728922   -0.029101374346338908   -0.0012138003046718998
-0.0033211032977548825   -0.029161635668870776   -0.0012301763503932267
-0.003475554322419156   -0.03366151672480417   -0.0012215698774280448
-0.001581777473999569   -0.03364065567578863   -0.00120115557451832
-0.0010271719442728922   -0.029101374346338908   -0.0012138003046718998
-0.0015208138197229958   -0.03365124651884716   -0.001161096484778704
-0.0033211032977548825   -0.029161635668870776   -0.0012301763503932267
-0.0009872726907312359   -0.029112808110393157   -0.001181802335391086
-0.0015208138197229958   -0.03365124651884716   -0.001161096484778704
-0.0010271719442728922   -0.029101374346338908   -0.0012138003046718998
-0.0033211032977548825   -0.029161635668870776   -0.0012301763503932267
-0.0015208138197229958   -0.03365124651884716   -0.001161096484778704
-0.0034163681748618467   -0.033685344440371696   -0.00121580719575781
-0.003475554322419156   -0.03366151672480417   -0.0012215698774280448
-0.0033211032977548825   -0.029161635668870776   -0.0012301763503932267
-0.0015208138197229958   -0.03365124651884716   -0.001161096484778704
-0.003475554322419156   -0.03366151672480417   -0.0012215698774280448
-0.0010271719442728922   -0.029101374346338908   -0.0012138003046718998
-0.0033211032977548825   -0.029161635668870776   -0.0012301763503932267
-0.0034163681748618467   -0.033685344440371696   -0.00121580719575781
-0.0009872726907312359   -0.029112808110393157   -0.001181802335391086
-0.0032801739516835557   -0.02920143216350145   -0.0012257485060831398
-0.0034163681748618467   -0.033685344440371696   -0.00121580719575781
-0.0015208138197229958   -0.03365124651884716   -0.001161096484778704
-0.0009872726907312359   -0.029112808110393157   -0.001181802335391086
-0.0014657062396881814   -0.0336814146488172   -0.0011262883954632709
-0.0032801739516835557   -0.02920143216350145   -0.0012257485060831398
-0.0009516276569504179   -0.029136418097083665   -0.0011554318431456893
-0.0014657062396881814   -0.0336814146488172   -0.0011262883954632709
-0.0009872726907312359   -0.029112808110393157   -0.001181802335391086
-0.0032801739516835557   -0.02920143216350145   -0.0012257485060831398
-0.0014657062396881814   -0.0336814146488172   -0.0011262883954632709
-0.0033572674394584047   -0.03372918660317964   -0.0012153714449573633
-0.0034163681748618467   -0.033685344440371696   -0.00121580719575781
-0.0032801739516835557   -0.02920143216350145   -0.0012257485060831398
-0.0014657062396881814   -0.0336814146488172   -0.0011262883954632709
-0.0034163681748618467   -0.033685344440371696   -0.00121580719575781
-0.0009872726907312359   -0.029112808110393157   -0.001181802335391086
-0.001068128924008297   -0.02910118413860451   -0.0012512380821992992
-0.001644561095247825   -0.03364721154254171   -0.0012469584618111714
0.0013411681921556046   -0.029043737899529017   -0.0012737431474315261
-0.0010271719442728922   -0.029101374346338908   -0.0012138003046718998
-0.001644561095247825   -0.03364721154254171   -0.0012469584618111714
0.0003308675131892494   -0.03357767440632643   -0.0012813064683589819
0.0013411681921556046   -0.029043737899529017   -0.0012737431474315261
0.0004073036614331695   -0.033556607760711336   -0.0012009525441092812
-0.0010271719442728922   -0.029101374346338908   -0.0012138003046718998
0.0013912628724247265   -0.029027871423422478   -0.0012146016592529804
0.0004073036614331695   -0.033556607760711336   -0.0012009525441092812
0.0013411681921556046   -0.029043737899529017   -0.0012737431474315261
-0.0010271719442728922   -0.029101374346338908   -0.0012138003046718998
0.0004073036614331695   -0.033556607760711336   -0.0012009525441092812
-0.001581777473999569   -0.03364065567578863   -0.00120115557451832
-0.001644561095247825   -0.03364721154254171   -0.0012469584618111714
-0.0010271719442728922   -0.029101374346338908   -0.0012138003046718998
0.0004073036614331695   -0.033556607760711336   -0.0012009525441092812
-0.001644561095247825   -0.03364721154254171   -0.0012469584618111714
0.0013411681921556046   -0.029043737899529017   -0.0012737431474315261
-0.0010271719442728922   -0.029101374346338908   -0.0012138003046718998
-0.001581777473999569   -0.03364065567578863   -0.00120115557451832
0.0013912628724247265   -0.029027871423422478   -0.0012146016592529804
-0.0009872726907312359   -0.029112808110393157   -0.001181802335391086
-0.001581777473999569   -0.03364065567578863   -0.00120115557451832
0.0004073036614331695   -0.033556607760711336   -0.0012009525441092812
0.0013912628724247265   -0.029027871423422478   -0.0012146016592529804
0.00048795380939361133   -0.033554707798395436   -0.001127871527943256
-0.0009872726907312359   -0.029112808110393157   -0.001181802335391086
0.0014426909838130824   -0.029024858302598575   -0.0011612440527969806
0.00048795380939361133   -0.033554707798395436   -0.001127871527943256
0.0013912628724247265   -0.029027871423422478   -0.0012146016592529804
-0.0009872726907312359   -0.029112808110393157   -0.001181802335391086
0.00048795380939361133   -0.033554707798395436   -0.001127871527943256
-0.0015208138197229958   -0.03365124651884716   -0.001161096484778704
-0.001581777473999569   -0.03364065567578863   -0.00120115557451832
-0.0009872726907312359   -0.029112808110393157   -0.001181802335391086
0.00048795380939361133   -0.033554707798395436   -0.001127871527943256
-0.001581777473999569   -0.03364065567578863   -0.00120115557451832
0.0013912628724247265   -0.029027871423422478   -0.0012146016592529804
-0.0009872726907312359   -0.029112808110393157   -0.001181802335391086
-0.0015208138197229958   -0.03365124651884716   -0.001161096484778704
0.0014426909838130824   -0.029024858302598575   -0.0011612440527969806
-0.0009516276569504179   -0.029136418097083665   -0.0011554318431456893
-0.0015208138197229958   -0.03365124651884716   -0.001161096484778704
0.00048795380939361133   -0.033554707798395436   -0.001127871527943256
0.0014426909838130824   -0.029024858302598575   -0.0011612440527969806
0.0005469361555713646   -0.033571088115821844   -0.0010597945180291872
-0.0009516276569504179   -0.029136418097083665   -0.0011554318431456893
0.001477000209779818   -0.0290323398802232   -0.0011129062362209277
0.0005469361555713646   -0.033571088115821844   -0.0010597945180291872
0.0014426909838130824   -0.029024858302598575   -0.0011612440527969806
-0.0009516276569504179   -0.029136418097083665   -0.0011554318431456893
0.0005469361555713646   -0.033571088115821844   -0.0010597945180291872
-0.0014657062396881814   -0.0336814146488172   -0.0011262883954632709
-0.0015208138197229958   -0.03365124651884716   -0.001161096484778704
-0.0009516276569504179   -0.029136418097083665   -0.0011554318431456893
0.0005469361555713646   -0.033571088115821844   -0.0010597945180291872
-0.0015208138197229958   -0.03365124651884716   -0.001161096484778704
0.0014426909838130824   -0.029024858302598575   -0.0011612440527969806
0.0013411681921556046   -0.029043737899529017   -0.0012737431474315261
0.0003308675131892494   -0.03357767440632643   -0.0012813064683589819
0.0039023063938057236   -0.028944923265551578   -0.0013312548626828046
0.0013912628724247265   -0.029027871423422478   -0.0012146016592529804
0.0003308675131892494   -0.03357767440632643   -0.0012813064683589819
0.002434278319009449   -0.033441452418030725   -0.0013542720524018891
0.0039023063938057236   -0.028944923265551578   -0.0013312548626828046
0.002628645846165974   -0.03340109986110894   -0.0012312484293741791
0.0013912628724247265   -0.029027871423422478   -0.0012146016592529804
0.004035653628047809   -0.028912357628687182   -0.001245105500599728
0.002628645846165974   -0.03340109986110894   -0.0012312484293741791
0.0039023063938057236   -0.028944923265551578   -0.0013312548626828046
0.0013912628724247265   -0.029027871423422478   -0.0012146016592529804
0.002628645846165974   -0.03340109986110894   -0.0012312484293741791
0.0004073036614331695   -0.033556607760711336   -0.0012009525441092812
0.0003308675131892494   -0.03357767440632643   -0.0012813064683589819
0.0013912628724247265   -0.029027871423422478   -0.0012146016592529804
0.002628645846165974   -0.03340109986110894   -0.0012312484293741791
0.0003308675131892494   -0.03357767440632643   -0.0012813064683589819
0.0039023063938057236   -0.028944923265551578   -0.0013312548626828046
0.0013912628724247265   -0.029027871423422478   -0.0012146016592529804
0.0004073036614331695   -0.033556607760711336   -0.0012009525441092812
0.004035653628047809   -0.028912357628687182   -0.001245105500599728
0.0014426909838130824   -0.029024858302598575   -0.0011612440527969806
0.0004073036614331695   -0.033556607760711336   -0.0012009525441092812
0.002628645846165974   -0.03340109986110894   -0.0012312484293741791
0.004035653628047809   -0.028912357628687182   -0.001245105500599728
0.0027777283895320396   -0.03339410954894679   -0.0011172470899435414
0.0014426909838130824   -0.029024858302598575   -0.0011612440527969806
0.004134533487823623   -0.028903351504508696   -0.0011666572085610016
0.0027777283895320396   -0.03339410954894679   -0.0011172470899435414
0.004035653628047809   -0.028912357628687182   -0.001245105500599728
0.0014426909838130824   -0.029024858302598575   -0.0011612440527969806
0.0027777283895320396   -0.03339410954894679   -0.0011172470899435414
0.00048795380939361133   -0.033554707798395436   -0.001127871527943256
0.0004073036614331695   -0.033556607760711336   -0.0012009525441092812
0.0014426909838130824   -0.029024858302598575   -0.0011612440527969806
0.0027777283895320396   -0.03339410954894679   -0.0011172470899435414
0.0004073036614331695   -0.033556607760711336   -0.0012009525441092812
0.004035653628047809   -0.028912357628687182   -0.001245105500599728
0.0014426909838130824   -0.029024858302598575   -0.0011612440527969806
0.00048795380939361133   -0.033554707798395436   -0.001127871527943256
0.004134533487823623   -0.028903351504508696   -0.0011666572085610016
0.001477000209779818   -0.0290323398802232   -0.0011129062362209277
0.00048795380939361133   -0.033554707798395436   -0.001127871527943256
0.0027777283895320396   -0.03339410954894679   -0.0011172470899435414
0.004134533487823623   -0.028903351504508696   -0.0011666572085610016
0.002932514521961746   -0.03340619907095301   -0.0010131935165559084
0.001477000209779818   -0.0290323398802232   -0.0011129062362209277
0.004235028377403366   -0.028903316843780908   -0.0010962677266300048
0.002932514521961746   -0.03340619907095301   -0.0010131935165559084
0.004134533487823623   -0.028903351504508696   -0.0011666572085610016
0.001477000209779818   -0.0290323398802232   -0.0011129062362209277
0.002932514521961746   -0.03340619907095301   -0.0010131935165559084
0.0005469361555713646   -0.033571088115821844   -0.0010597945180291872
0.00048795380939361133   -0.033554707798395436   -0.001127871527943256
0.001477000209779818   -0.0290323398802232   -0.0011129062362209277
0.002932514521961746   -0.03340619907095301   -0.0010131935165559084
0.00048795380939361133   -0.033554707798395436   -0.001127871527943256
0.004134533487823623   -0.028903351504508696   -0.0011666572085610016
-0.00773913680626081   -0.03350351221843918   -0.001242920518344677
-0.006488624769746318   -0.03700645043313647   -0.0011282400639703505
-0.005485832977103923   -0.0336079738678619   -0.0012355540886539137
-0.007622364727093312   -0.03352586439265654   -0.0013123617523128888
-0.006488624769746318   -0.03700645043313647   -0.0011282400639703505
-0.004884232502953257   -0.0371607059245473   -0.0011744172895641583
-0.005485832977103923   -0.0336079738678619   -0.0012355540886539137
-0.004804112391085445   -0.0371529072423934   -0.0012124940466710329
-0.007622364727093312   -0.03352586439265654   -0.0013123617523128888
-0.005429908282188877   -0.03362305740743103   -0.0012603110855585143
-0.004804112391085445   -0.0371529072423934   -0.0012124940466710329
-0.005485832977103923   -0.0336079738678619   -0.0012355540886539137
-0.007622364727093312   -0.03352586439265654   -0.0013123617523128888
-0.004804112391085445   -0.0371529072423934   -0.0012124940466710329
-0.006315270110838966   -0.03700220449981179   -0.001230876532621709
-0.006488624769746318   -0.03700645043313647   -0.0011282400639703505
-0.007622364727093312   -0.03352586439265654   -0.0013123617523128888
-0.004804112391085445   -0.0371529072423934   -0.0012124940466710329
-0.006488624769746318   -0.03700645043313647   -0.0011282400639703505
-0.005485832977103923   -0.0336079738678619   -0.0012355540886539137
-0.007622364727093312   -0.03352586439265654   -0.0013123617523128888
-0.006315270110838966   -0.03700220449981179   -0.001230876532621709
-0.005429908282188877   -0.03362305740743103   -0.0012603110855585143
-0.0075060413689013415   -0.03356843075627906   -0.0013908412552892282
-0.006315270110838966   -0.03700220449981179   -0.001230876532621709
-0.004804112391085445   -0.0371529072423934   -0.0012124940466710329
-0.005429908282188877   -0.03362305740743103   -0.0012603110855585143
-0.004709776965809652   -0.03717536767201881   -0.001256224065957214
-0.0075060413689013415   -0.03356843075627906   -0.0013908412552892282
-0.005359653235591338   -0.033659323397786614   -0.0012906200072027691
-0.004709776965809652   -0.03717536767201881   -0.001256224065957214
-0.005429908282188877   -0.03362305740743103   -0.0012603110855585143
-0.0075060413689013415   -0.03356843075627906   -0.0013908412552892282
-0.004709776965809652   -0.03717536767201881   -0.001256224065957214
-0.006155578291940405   -0.037029913621829065   -0.001341482345948101
-0.006315270110838966   -0.03700220449981179   -0.001230876532621709
-0.0075060413689013415   -0.03356843075627906   -0.0013908412552892282
-0.004709776965809652   -0.03717536767201881   -0.001256224065957214
-0.006315270110838966   -0.03700220449981179   -0.001230876532621709
-0.005429908282188877   -0.03362305740743103   -0.0012603110855585143
-0.0075060413689013415   -0.03356843075627906   -0.0013908412552892282
-0.006155578291940405   -0.037029913621829065   -0.001341482345948101
-0.005359653235591338   -0.033659323397786614   -0.0012906200072027691
-0.007357081993858751   -0.033647805776361395   -0.0014782045017462874
-0.006155578291940405   -0.037029913621829065   -0.001341482345948101
-0.004709776965809652   -0.03717536767201881   -0.001256224065957214
-0.005359653235591338   -0.033659323397786614   -0.0012906200072027691
-0.004624201839460041   -0.03722861438105824   -0.0013052478767765956
-0.007357081993858751   -0.033647805776361395   -0.0014782045017462874
-0.005290362858726803   -0.033718834323802654   -0.0013264282688713735
-0.004624201839460041   -0.03722861438105824   -0.0013052478767765956
-0.005359653235591338   -0.033659323397786614   -0.0012906200072027691
-0.007357081993858751   -0.033647805776361395   -0.0014782045017462874
-0.004624201839460041   -0.03722861438105824   -0.0013052478767765956
-0.0059607363141516165   -0.037103572038597966   -0.0014595997058231367
-0.006155578291940405   -0.037029913621829065   -0.001341482345948101
-0.007357081993858751   -0.033647805776361395   -0.0014782045017462874
-0.004624201839460041   -0.03722861438105824   -0.0013052478767765956
-0.006155578291940405   -0.037029913621829065   -0.001341482345948101
-0.005359653235591338   -0.033659323397786614   -0.0012906200072027691
-0.005485832977103923   -0.0336079738678619   -0.0012355540886539137
-0.004884232502953257   -0.0371607059245473   -0.0011744172895641583
-0.00353287793084824   -0.03365661536850374   -0.0012327198015652993
-0.005429908282188877   -0.03362305740743103   -0.0012603110855585143
-0.004884232502953257   -0.0371607059245473   -0.0011744172895641583
-0.0035711457104470193   -0.037260001844351555   -0.0012105791553851351
-0.00353287793084824   -0.03365661536850374   -0.0012327198015652993
-0.00348902616167818   -0.03724735644154427   -0.0011989488445947227
-0.005429908282188877   -0.03362305740743103   -0.0012603110855585143
-0.003475554322419156   -0.03366151672480417   -0.0012215698774280448
-0.00348902616167818   -0.03724735644154427   -0.0011989488445947227
-0.00353287793084824   -0.03365661536850374   -0.0012327198015652993
-0.005429908282188877   -0.03362305740743103   -0.0012603110855585143
-0.00348902616167818   -0.03724735644154427   -0.0011989488445947227
-0.004804112391085445   -0.0371529072423934   -0.0012124940466710329
-0.004884232502953257   -0.0371607059245473   -0.0011744172895641583
-0.005429908282188877   -0.03362305740743103   -0.0012603110855585143
-0.00348902616167818   -0.03724735644154427   -0.0011989488445947227
-0.004884232502953257   -0.0371607059245473   -0.0011744172895641583
-0.00353287793084824   -0.03365661536850374   -0.0012327198015652993
-0.005429908282188877   -0.03362305740743103   -0.0012603110855585143
-0.004804112391085445   -0.0371529072423934   -0.0012124940466710329
-0.003475554322419156   -0.03366151672480417   -0.0012215698774280448
-0.005359653235591338   -0.033659323397786614   -0.0012906200072027691
-0.004804112391085445   -0.0371529072423934   -0.0012124940466710329
-0.00348902616167818   -0.03724735644154427   -0.0011989488445947227
-0.003475554322419156   -0.03366151672480417   -0.0012215698774280448
-0.003408003287497076   -0.03726086160271968   -0.0011928163304884476
-0.005359653235591338   -0.033659323397786614   -0.0012906200072027691
-0.0034163681748618467   -0.033685344440371696   -0.00121580719575781
-0.003408003287497076   -0.03726086160271968   -0.0011928163304884476
-0.003475554322419156   -0.03366151672480417   -0.0012215698774280448
-0.005359653235591338   -0.033659323397786614   -0.0012906200072027691
-0.003408003287497076   -0.03726086160271968   -0.0011928163304884476
-0.004709776965809652   -0.03717536767201881   -0.001256224065957214
-0.004804112391085445   -0.0371529072423934   -0.0012124940466710329
-0.005359653235591338   -0.033659323397786614   -0.0012906200072027691
-0.003408003287497076   -0.03726086160271968   -0.0011928163304884476
-0.004804112391085445   -0.0371529072423934   -0.0012124940466710329
-0.003475554322419156   -0.03366151672480417   -0.0012215698774280448
-0.005359653235591338   -0.033659323397786614   -0.0012906200072027691
-0.004709776965809652   -0.03717536767201881   -0.001256224065957214
-0.0034163681748618467   -0.033685344440371696   -0.00121580719575781
-0.005290362858726803   -0.033718834323802654   -0.0013264282688713735
-0.004709776965809652   -0.03717536767201881   -0.001256224065957214
-0.003408003287497076   -0.03726086160271968   -0.0011928163304884476
-0.0034163681748618467   -0.033685344440371696   -0.00121580719575781
-0.003333390169523762   -0.03730136168689094   -0.0011933230100055969
-0.005290362858726803   -0.033718834323802654   -0.0013264282688713735
-0.0033572674394584047   -0.03372918660317964   -0.0012153714449573633
-0.003333390169523762   -0.03730136168689094   -0.0011933230100055969
-0.0034163681748618467   -0.033685344440371696   -0.00121580719575781
-0.005290362858726803   -0.033718834323802654   -0.0013264282688713735
-0.003333390169523762   -0.03730136168689094   -0.0011933230100055969
-0.004624201839460041   -0.03722861438105824   -0.0013052478767765956
-0.004709776965809652   -0.03717536767201881   -0.001256224065957214
-0.005290362858726803   -0.033718834323802654   -0.0013264282688713735
-0.003333390169523762   -0.03730136168689094   -0.0011933230100055969
-0.004709776965809652   -0.03717536767201881   -0.001256224065957214
-0.0034163681748618467   -0.033685344440371696   -0.00121580719575781
-0.00353287793084824   -0.03365661536850374   -0.0012327198015652993
-0.0035711457104470193   -0.037260001844351555   -0.0012105791553851351
-0.001644561095247825   -0.03364721154254171   -0.0012469584618111714
-0.003475554322419156   -0.03366151672480417   -0.0012215698774280448
-0.0035711457104470193   -0.037260001844351555   -0.0012105791553851351
-0.0023132501954324144   -0.037311106336044654   -0.0012535449909158716
-0.001644561095247825   -0.03364721154254171   -0.0012469584618111714
-0.002220701064838342   -0.03729272115372462   -0.0011949964319467885
-0.003475554322419156   -0.03366151672480417   -0.0012215698774280448
-0.001581777473999569   -0.03364065567578863   -0.00120115557451832
-0.002220701064838342   -0.03729272115372462   -0.0011949964319467885
-0.001644561095247825   -0.03364721154254171   -0.0012469584618111714
-0.003475554322419156   -0.03366151672480417   -0.0012215698774280448
-0.002220701064838342   -0.03729272115372462   -0.0011949964319467885
-0.00348902616167818   -0.03724735644154427   -0.0011989488445947227
-0.0035711457104470193   -0.037260001844351555   -0.0012105791553851351
-0.003475554322419156   -0.03366151672480417   -0.0012215698774280448
-0.002220701064838342   -0.03729272115372462   -0.0011949964319467885
-0.0035711457104470193   -0.037260001844351555   -0.0012105791553851351
-0.001644561095247825   -0.03364721154254171   -0.0012469584618111714
-0.003475554322419156   -0.03366151672480417   -0.0012215698774280448
-0.00348902616167818   -0.03724735644154427   -0.0011989488445947227
-0.001581777473999569   -0.03364065567578863   -0.00120115557451832
-0.0034163681748618467   -0.033685344440371696   -0.00121580719575781
-0.00348902616167818   -0.03724735644154427   -0.0011989488445947227
-0.002220701064838342   -0.03729272115372462   -0.0011949964319467885
-0.001581777473999569   -0.03364065567578863   -0.00120115557451832
-0.002132430898837619   -0.037297389122023676   -0.0011413325374570664
-0.0034163681748618467   -0.033685344440371696   -0.00121580719575781
-0.0015208138197229958   -0.03365124651884716   -0.001161096484778704
-0.002132430898837619   -0.037297389122023676   -0.0011413325374570664
-0.001581777473999569   -0.03364065567578863   -0.00120115557451832
-0.0034163681748618467   -0.033685344440371696   -0.00121580719575781
-0.002132430898837619   -0.037297389122023676   -0.0011413325374570664
-0.003408003287497076   -0.03726086160271968   -0.0011928163304884476
-0.00348902616167818   -0.03724735644154427   -0.0011989488445947227
-0.0034163681748618467   -0.033685344440371696   -0.00121580719575781
-0.002132430898837619   -0.037297389122023676   -0.0011413325374570664
-0.00348902616167818   -0.03724735644154427   -0.0011989488445947227
-0.001581777473999569   -0.03364065567578863   -0.00120115557451832
-0.0034163681748618467   -0.033685344440371696   -0.00121580719575781
-0.003408003287497076   -0.03726086160271968   -0.0011928163304884476
-0.0015208138197229958   -0.03365124651884716   -0.001161096484778704
-0.0033572674394584047   -0.03372918660317964   -0.0012153714449573633
-0.003408003287497076   -0.03726086160271968   -0.0011928163304884476
-0.002132430898837619   -0.037297389122023676   -0.0011413325374570664
-0.0015208138197229958   -0.03365124651884716   -0.001161096484778704
-0.0020589256370609947   -0.03732949510005472   -0.0010955478233047034
-0.0033572674394584047   -0.03372918660317964   -0.0012153714449573633
-0.0014657062396881814   -0.0336814146488172   -0.0011262883954632709
-0.0020589256370609947   -0.03732949510005472   -0.0010955478233047034
-0.0015208138197229958   -0.03365124651884716   -0.001161096484778704
-0.0033572674394584047   -0.03372918660317964   -0.0012153714449573633
-0.0020589256370609947   -0.03732949510005472   -0.0010955478233047034
-0.003333390169523762   -0.03730136168689094   -0.0011933230100055969
-0.003408003287497076   -0.03726086160271968   -0.0011928163304884476
-0.0033572674394584047   -0.03372918660317964   -0.0012153714449573633
-0.0020589256370609947   -0.03732949510005472   -0.0010955478233047034
-0.003408003287497076   -0.03726086160271968   -0.0011928163304884476
-0.0015208138197229958   -0.03365124651884716   -0.001161096484778704
-0.001644561095247825   -0.03364721154254171   -0.0012469584618111714
-0.0023132501954324144   -0.037311106336044654   -0.0012535449909158716
0.0003308675131892494   -0.03357767440632643   -0.0012813064683589819
-0.001581777473999569   -0.03364065567578863   -0.00120115557451832
-0.0023132501954324144   -0.037311106336044654   -0.0012535449909158716
-0.0009772612576292349   -0.03729591397514902   -0.0013043545773997365
0.0003308675131892494   -0.03357767440632643   -0.0012813064683589819
-0.0008584322219639525   -0.03726705297709369   -0.0012008623567663613
-0.001581777473999569   -0.03364065567578863   -0.00120115557451832
0.0004073036614331695   -0.033556607760711336   -0.0012009525441092812
-0.0008584322219639525   -0.03726705297709369   -0.0012008623567663613
0.0003308675131892494   -0.03357767440632643   -0.0012813064683589819
-0.001581777473999569   -0.03364065567578863   -0.00120115557451832
-0.0008584322219639525   -0.03726705297709369   -0.0012008623567663613
-0.002220701064838342   -0.03729272115372462   -0.0011949964319467885
-0.0023132501954324144   -0.037311106336044654   -0.0012535449909158716
-0.001581777473999569   -0.03364065567578863   -0.00120115557451832
-0.0008584322219639525   -0.03726705297709369   -0.0012008623567663613
-0.0023132501954324144   -0.037311106336044654   -0.0012535449909158716
0.0003308675131892494   -0.03357767440632643   -0.0012813064683589819
-0.001581777473999569   -0.03364065567578863   -0.00120115557451832
-0.002220701064838342   -0.03729272115372462   -0.0011949964319467885
0.0004073036614331695   -0.033556607760711336   -0.0012009525441092812
-0.0015208138197229958   -0.03365124651884716   -0.001161096484778704
-0.002220701064838342   -0.03729272115372462   -0.0011949964319467885
-0.0008584322219639525   -0.03726705297709369   -0.0012008623567663613
0.0004073036614331695   -0.033556607760711336   -0.0012009525441092812
-0.0007367238706344502   -0.037262091651313306   -0.001102580705631512
-0.0015208138197229958   -0.03365124651884716   -0.001161096484778704
0.00048795380939361133   -0.033554707798395436   -0.001127871527943256
-0.0007367238706344502   -0.037262091651313306   -0.001102580705631512
0.0004073036614331695   -0.033556607760711336   -0.0012009525441092812
-0.0015208138197229958   -0.03365124651884716   -0.001161096484778704
-0.0007367238706344502   -0.037262091651313306   -0.001102580705631512
-0.002132430898837619   -0.037297389122023676   -0.0011413325374570664
-0.002220701064838342   -0.03729272115372462   -0.0011949964319467885
-0.0015208138197229958   -0.03365124651884716   -0.001161096484778704
-0.0007367238706344502   -0.037262091651313306   -0.001102580705631512
-0.002220701064838342   -0.03729272115372462   -0.0011949964319467885
0.0004073036614331695   -0.033556607760711336   -0.0012009525441092812
-0.0015208138197229958   -0.03365124651884716   -0.001161096484778704
-0.002132430898837619   -0.037297389122023676   -0.0011413325374570664
0.00048795380939361133   -0.033554707798395436   -0.001127871527943256
-0.0014657062396881814   -0.0336814146488172   -0.0011262883954632709
-0.002132430898837619   -0.037297389122023676   -0.0011413325374570664
-0.0007367238706344502   -0.037262091651313306   -0.001102580705631512
0.00048795380939361133   -0.033554707798395436   -0.001127871527943256
-0.0006467082987605333   -0.0372860830196772   -0.001013208031390976
-0.0014657062396881814   -0.0336814146488172   -0.0011262883954632709
0.0005469361555713646   -0.033571088115821844   -0.0010597945180291872
-0.0006467082987605333   -0.0372860830196772   -0.001013208031390976
0.00048795380939361133   -0.033554707798395436   -0.001127871527943256
-0.0014657062396881814   -0.0336814146488172   -0.0011262883954632709
-0.0006467082987605333   -0.0372860830196772   -0.001013208031390976
-0.0020589256370609947   -0.03732949510005472   -0.0010955478233047034
-0.002132430898837619   -0.037297389122023676   -0.0011413325374570664
-0.0014657062396881814   -0.0336814146488172   -0.0011262883954632709
-0.0006467082987605333   -0.0372860830196772   -0.001013208031390976
-0.002132430898837619   -0.037297389122023676   -0.0011413325374570664
0.00048795380939361133   -0.033554707798395436   -0.001127871527943256
0.0003308675131892494   -0.03357767440632643   -0.0012813064683589819
-0.0009772612576292349   -0.03729591397514902   -0.0013043545773997365
0.002434278319009449   -0.033441452418030725   -0.0013542720524018891
0.0004073036614331695   -0.033556607760711336   -0.0012009525441092812
-0.0009772612576292349   -0.03729591397514902   -0.0013043545773997365
0.00045740509753092927   -0.03716687861434881   -0.0014077912509495017
0.002434278319009449   -0.033441452418030725   -0.0013542720524018891
0.0007360206482359496   -0.037104294035969675   -0.0012386163484716447
0.0004073036614331695   -0.033556607760711336   -0.0012009525441092812
0.002628645846165974   -0.03340109986110894   -0.0012312484293741791
0.0007360206482359496   -0.037104294035969675   -0.0012386163484716447
0.002434278319009449   -0.033441452418030725   -0.0013542720524018891
0.0004073036614331695   -0.033556607760711336   -0.0012009525441092812
0.0007360206482359496   -0.037104294035969675   -0.0012386163484716447
-0.0008584322219639525   -0.03726705297709369   -0.0012008623567663613
-0.0009772612576292349   -0.03729591397514902   -0.0013043545773997365
0.0004073036614331695   -0.033556607760711336   -0.0012009525441092812
0.0007360206482359496   -0.037104294035969675   -0.0012386163484716447
-0.0009772612576292349   -0.03729591397514902   -0.0013043545773997365
0.002434278319009449   -0.033441452418030725   -0.0013542720524018891
0.0004073036614331695   -0.033556607760711336   -0.0012009525441092812
-0.0008584322219639525   -0.03726705297709369   -0.0012008623567663613
0.002628645846165974   -0.03340109986110894   -0.0012312484293741791
0.00048795380939361133   -0.033554707798395436   -0.001127871527943256
-0.0008584322219639525   -0.03726705297709369   -0.0012008623567663613
0.0007360206482359496   -0.037104294035969675   -0.0012386163484716447
0.002628645846165974   -0.03340109986110894   -0.0012312484293741791
0.0009548846260854972   -0.037091726911090486   -0.0010796316103675475
0.00048795380939361133   -0.033554707798395436   -0.001127871527943256
0.0027777283895320396   -0.03339410954894679   -0.0011172470899435414
0.0009548846260854972   -0.037091726911090486   -0.0010796316103675475
0.002628645846165974   -0.03340109986110894   -0.0012312484293741791
0.00048795380939361133   -0.033554707798395436   -0.001127871527943256
0.0009548846260854972   -0.037091726911090486   -0.0010796316103675475
-0.0007367238706344502   -0.037262091651313306   -0.001102580705631512
-0.0008584322219639525   -0.03726705297709369   -0.0012008623567663613
0.00048795380939361133   -0.033554707798395436   -0.001127871527943256
0.0009548846260854972   -0.037091726911090486   -0.0010796316103675475
-0.0008584322219639525   -0.03726705297709369   -0.0012008623567663613
0.002628645846165974   -0.03340109986110894   -0.0012312484293741791
0.00048795380939361133   -0.033554707798395436   -0.001127871527943256
-0.0007367238706344502   -0.037262091651313306   -0.001102580705631512
0.0027777283895320396   -0.03339410954894679   -0.0011172470899435414
0.0005469361555713646   -0.033571088115821844   -0.0010597945180291872
-0.0007367238706344502   -0.037262091651313306   -0.001102580705631512
0.0009548846260854972   -0.037091726911090486   -0.0010796316103675475
0.0027777283895320396   -0.03339410954894679   -0.0011172470899435414
0.0011827511912946007   -0.03710283276189303   -0.0009342657379293293
0.0005469361555713646   -0.033571088115821844   -0.0010597945180291872
0.002932514521961746   -0.03340619907095301   -0.0010131935165559084
0.0011827511912946007   -0.03710283276189303   -0.0009342657379293293
0.0027777283895320396   -0.03339410954894679   -0.0011172470899435414
0.0005469361555713646   -0.033571088115821844   -0.0010597945180291872
0.0011827511912946007   -0.03710283276189303   -0.0009342657379293293
-0.0006467082987605333   -0.0372860830196772   -0.001013208031390976
-0.0007367238706344502   -0.037262091651313306   -0.001102580705631512
0.0005469361555713646   -0.033571088115821844   -0.0010597945180291872
0.0011827511912946007   -0.03710283276189303   -0.0009342657379293293
-0.0007367238706344502   -0.037262091651313306   -0.001102580705631512
0.0027777283895320396   -0.03339410954894679   -0.0011172470899435414
-0.006488624769746318   -0.03700645043313647   -0.0011282400639703505
-0.004773503062621782   -0.039091656537205796   -0.0009933497154052098
-0.004884232502953257   -0.0371607059245473   -0.0011744172895641583
-0.006315270110838966   -0.03700220449981179   -0.001230876532621709
-0.004773503062621782   -0.039091656537205796   -0.0009933497154052098
-0.004023221689049576   -0.03928640833637117   -0.001109909684457317
-0.004884232502953257   -0.0371607059245473   -0.0011744172895641583
-0.003922434220174936   -0.03924826867698003   -0.0011505458687388979
-0.006315270110838966   -0.03700220449981179   -0.001230876532621709
-0.004804112391085445   -0.0371529072423934   -0.0012124940466710329
-0.003922434220174936   -0.03924826867698003   -0.0011505458687388979
-0.004884232502953257   -0.0371607059245473   -0.0011744172895641583
-0.006315270110838966   -0.03700220449981179   -0.001230876532621709
-0.003922434220174936   -0.03924826867698003   -0.0011505458687388979
-0.004557888944249838   -0.03904864268536899   -0.001116401328177039
-0.004773503062621782   -0.039091656537205796   -0.0009933497154052098
-0.006315270110838966   -0.03700220449981179   -0.001230876532621709
-0.003922434220174936   -0.03924826867698003   -0.0011505458687388979
-0.004773503062621782   -0.039091656537205796   -0.0009933497154052098
-0.004884232502953257   -0.0371607059245473   -0.0011744172895641583
-0.006315270110838966   -0.03700220449981179   -0.001230876532621709
-0.004557888944249838   -0.03904864268536899   -0.001116401328177039
-0.004804112391085445   -0.0371529072423934   -0.0012124940466710329
-0.006155578291940405   -0.037029913621829065   -0.001341482345948101
-0.004557888944249838   -0.03904864268536899   -0.001116401328177039
-0.003922434220174936   -0.03924826867698003   -0.0011505458687388979
-0.004804112391085445   -0.0371529072423934   -0.0012124940466710329
-0.00381063846032847   -0.03925060932878853   -0.0011916018165065438
-0.006155578291940405   -0.037029913621829065   -0.001341482345948101
-0.004709776965809652   -0.03717536767201881   -0.001256224065957214
-0.00381063846032847   -0.03925060932878853   -0.0011916018165065438
-0.004804112391085445   -0.0371529072423934   -0.0012124940466710329
-0.006155578291940405   -0.037029913621829065   -0.001341482345948101
-0.00381063846032847   -0.03925060932878853   -0.0011916018165065438
-0.00437189823348445   -0.039052835114968557   -0.0012390192149055131
-0.004557888944249838   -0.03904864268536899   -0.001116401328177039
-0.006155578291940405   -0.037029913621829065   -0.001341482345948101
-0.00381063846032847   -0.03925060932878853   -0.0011916018165065438
-0.004557888944249838   -0.03904864268536899   -0.001116401328177039
-0.004804112391085445   -0.0371529072423934   -0.0012124940466710329
-0.006155578291940405   -0.037029913621829065   -0.001341482345948101
-0.00437189823348445   -0.039052835114968557   -0.0012390192149055131
-0.004709776965809652   -0.03717536767201881   -0.001256224065957214
-0.0059607363141516165   -0.037103572038597966   -0.0014595997058231367
-0.00437189823348445   -0.039052835114968557   -0.0012390192149055131
-0.00381063846032847   -0.03925060932878853   -0.0011916018165065438
-0.004709776965809652   -0.03717536767201881   -0.001256224065957214
-0.0037068756408982304   -0.03929363961663036   -0.0012332483551238981
-0.0059607363141516165   -0.037103572038597966   -0.0014595997058231367
-0.004624201839460041   -0.03722861438105824   -0.0013052478767765956
-0.0037068756408982304   -0.03929363961663036   -0.0012332483551238981
-0.004709776965809652   -0.03717536767201881   -0.001256224065957214
-0.0059607363141516165   -0.037103572038597966   -0.0014595997058231367
-0.0037068756408982304   -0.03929363961663036   -0.0012332483551238981
-0.0041511564665810165   -0.03910699354402922   -0.0013642654761350673
-0.00437189823348445   -0.039052835114968557   -0.0012390192149055131
-0.0059607363141516165   -0.037103572038597966   -0.0014595997058231367
-0.0037068756408982304   -0.03929363961663036   -0.0012332483551238981
-0.00437189823348445   -0.039052835114968557   -0.0012390192149055131
-0.004709776965809652   -0.03717536767201881   -0.001256224065957214
-0.004884232502953257   -0.0371607059245473   -0.0011744172895641583
-0.004023221689049576   -0.03928640833637117   -0.001109909684457317
-0.0035711457104470193   -0.037260001844351555   -0.0012105791553851351
-0.004804112391085445   -0.0371529072423934   -0.0012124940466710329
-0.004023221689049576   -0.03928640833637117   -0.001109909684457317
-0.0034719599389432675   -0.03948019296898283   -0.0012128091364595726
-0.0035711457104470193   -0.037260001844351555   -0.0012105791553851351
-0.003365787927413782   -0.03944097166768236   -0.0011848209434636653
-0.004804112391085445   -0.0371529072423934   -0.0012124940466710329
-0.00348902616167818   -0.03724735644154427   -0.0011989488445947227
-0.003365787927413782   -0.03944097166768236   -0.0011848209434636653
-0.0035711457104470193   -0.037260001844351555   -0.0012105791553851351
-0.004804112391085445   -0.0371529072423934   -0.0012124940466710329
-0.003365787927413782   -0.03944097166768236   -0.0011848209434636653
-0.003922434220174936   -0.03924826867698003   -0.0011505458687388979
-0.004023221689049576   -0.03928640833637117   -0.001109909684457317
-0.004804112391085445   -0.0371529072423934   -0.0012124940466710329
-0.003365787927413782   -0.03944097166768236   -0.0011848209434636653
-0.004023221689049576   -0.03928640833637117   -0.001109909684457317
-0.0035711457104470193   -0.037260001844351555   -0.0012105791553851351
-0.004804112391085445   -0.0371529072423934   -0.0012124940466710329
-0.003922434220174936   -0.03924826867698003   -0.0011505458687388979
-0.00348902616167818   -0.03724735644154427   -0.0011989488445947227
-0.004709776965809652   -0.03717536767201881   -0.001256224065957214
-0.003922434220174936   -0.03924826867698003   -0.0011505458687388979
-0.003365787927413782   -0.03944097166768236   -0.0011848209434636653
-0.00348902616167818   -0.03724735644154427   -0.0011989488445947227
-0.00326305817429104   -0.03944060772565307   -0.0011564963972391336
-0.004709776965809652   -0.03717536767201881   -0.001256224065957214
-0.003408003287497076   -0.03726086160271968   -0.0011928163304884476
-0.00326305817429104   -0.03944060772565307   -0.0011564963972391336
-0.00348902616167818   -0.03724735644154427   -0.0011989488445947227
-0.004709776965809652   -0.03717536767201881   -0.001256224065957214
-0.00326305817429104   -0.03944060772565307   -0.0011564963972391336
-0.00381063846032847   -0.03925060932878853   -0.0011916018165065438
-0.003922434220174936   -0.03924826867698003   -0.0011505458687388979
-0.004709776965809652   -0.03717536767201881   -0.001256224065957214
-0.00326305817429104   -0.03944060772565307   -0.0011564963972391336
-0.003922434220174936   -0.03924826867698003   -0.0011505458687388979
-0.00348902616167818   -0.03724735644154427   -0.0011989488445947227
-0.004709776965809652   -0.03717536767201881   -0.001256224065957214
-0.00381063846032847   -0.03925060932878853   -0.0011916018165065438
-0.003408003287497076   -0.03726086160271968   -0.0011928163304884476
-0.004624201839460041   -0.03722861438105824   -0.0013052478767765956
-0.00381063846032847   -0.03925060932878853   -0.0011916018165065438
-0.00326305817429104   -0.03944060772565307   -0.0011564963972391336
-0.003408003287497076   -0.03726086160271968   -0.0011928163304884476
-0.003156018302399924   -0.03947831109495758   -0.0011293190854689333
-0.004624201839460041   -0.03722861438105824   -0.0013052478767765956
-0.003333390169523762   -0.03730136168689094   -0.0011933230100055969
-0.003156018302399924   -0.03947831109495758   -0.0011293190854689333
-0.003408003287497076   -0.03726086160271968   -0.0011928163304884476
-0.004624201839460041   -0.03722861438105824   -0.0013052478767765956
-0.003156018302399924   -0.03947831109495758   -0.0011293190854689333
-0.0037068756408982304   -0.03929363961663036   -0.0012332483551238981
-0.00381063846032847   -0.03925060932878853   -0.0011916018165065438
-0.004624201839460041   -0.03722861438105824   -0.0013052478767765956
-0.003156018302399924   -0.03947831109495758   -0.0011293190854689333
-0.00381063846032847   -0.03925060932878853   -0.0011916018165065438
-0.003408003287497076   -0.03726086160271968   -0.0011928163304884476
-0.0035711457104470193   -0.037260001844351555   -0.0012105791553851351
-0.0034719599389432675   -0.03948019296898283   -0.0012128091364595726
-0.0023132501954324144   -0.037311106336044654   -0.0012535449909158716
-0.00348902616167818   -0.03724735644154427   -0.0011989488445947227
-0.0034719599389432675   -0.03948019296898283   -0.0012128091364595726
-0.002967888307283748   -0.03971227629198971   -0.001326364640169205
-0.0023132501954324144   -0.037311106336044654   -0.0012535449909158716
-0.0028378404890295706   -0.03967805441914334   -0.001225938474642638
-0.00348902616167818   -0.03724735644154427   -0.0011989488445947227
-0.002220701064838342   -0.03729272115372462   -0.0011949964319467885
-0.0028378404890295706   -0.03967805441914334   -0.001225938474642638
-0.0023132501954324144   -0.037311106336044654   -0.0012535449909158716
-0.00348902616167818   -0.03724735644154427   -0.0011989488445947227
-0.0028378404890295706   -0.03967805441914334   -0.001225938474642638
-0.003365787927413782   -0.03944097166768236   -0.0011848209434636653
-0.0034719599389432675   -0.03948019296898283   -0.0012128091364595726
-0.00348902616167818   -0.03724735644154427   -0.0011989488445947227
-0.0028378404890295706   -0.03967805441914334   -0.001225938474642638
-0.0034719599389432675   -0.03948019296898283   -0.0012128091364595726
-0.0023132501954324144   -0.037311106336044654   -0.0012535449909158716
-0.00348902616167818   -0.03724735644154427   -0.0011989488445947227
-0.003365787927413782   -0.03944097166768236   -0.0011848209434636653
-0.002220701064838342   -0.03729272115372462   -0.0011949964319467885
-0.003408003287497076   -0.03726086160271968   -0.0011928163304884476
-0.003365787927413782   -0.03944097166768236   -0.0011848209434636653
-0.0028378404890295706   -0.03967805441914334   -0.001225938474642638
-0.002220701064838342   -0.03729272115372462   -0.0011949964319467885
-0.0027172197282620877   -0.039676420708582065   -0.0011257799974057935
-0.003408003287497076   -0.03726086160271968   -0.0011928163304884476
-0.002132430898837619   -0.037297389122023676   -0.0011413325374570664
-0.0027172197282620877   -0.039676420708582065   -0.0011257799974057935
-0.002220701064838342   -0.03729272115372462   -0.0011949964319467885
-0.003408003287497076   -0.03726086160271968   -0.0011928163304884476
-0.0027172197282620877   -0.039676420708582065   -0.0011257799974057935
-0.00326305817429104   -0.03944060772565307   -0.0011564963972391336
-0.003365787927413782   -0.03944097166768236   -0.0011848209434636653
-0.003408003287497076   -0.03726086160271968   -0.0011928163304884476
-0.0027172197282620877   -0.039676420708582065   -0.0011257799974057935
-0.003365787927413782   -0.03944097166768236   -0.0011848209434636653
-0.002220701064838342   -0.03729272115372462   -0.0011949964319467885
-0.003408003287497076   -0.03726086160271968   -0.0011928163304884476
-0.00326305817429104   -0.03944060772565307   -0.0011564963972391336
-0.002132430898837619   -0.037297389122023676   -0.0011413325374570664
-0.003333390169523762   -0.03730136168689094   -0.0011933230100055969
-0.00326305817429104   -0.03944060772565307   -0.0011564963972391336
-0.0027172197282620877   -0.039676420708582065   -0.0011257799974057935
-0.002132430898837619   -0.037297389122023676   -0.0011413325374570664
-0.002587874565622134   -0.03970566705414094   -0.0010255200626367589
-0.003333390169523762   -0.03730136168689094   -0.0011933230100055969
-0.0020589256370609947   -0.03732949510005472   -0.0010955478233047034
-0.002587874565622134   -0.03970566705414094   -0.0010255200626367589
-0.002132430898837619   -0.037297389122023676   -0.0011413325374570664
-0.003333390169523762   -0.03730136168689094   -0.0011933230100055969
-0.002587874565622134   -0.03970566705414094   -0.0010255200626367589
-0.003156018302399924   -0.03947831109495758   -0.0011293190854689333
-0.00326305817429104   -0.03944060772565307   -0.0011564963972391336
-0.003333390169523762   -0.03730136168689094   -0.0011933230100055969
-0.002587874565622134   -0.03970566705414094   -0.0010255200626367589
-0.00326305817429104   -0.03944060772565307   -0.0011564963972391336
-0.002132430898837619   -0.037297389122023676   -0.0011413325374570664
-0.0023132501954324144   -0.037311106336044654   -0.0012535449909158716
-0.002967888307283748   -0.03971227629198971   -0.001326364640169205
-0.0009772612576292349   -0.03729591397514902   -0.0013043545773997365
-0.002220701064838342   -0.03729272115372462   -0.0011949964319467885
-0.002967888307283748   -0.03971227629198971   -0.001326364640169205
-0.0024717890103575745   -0.04   -0.001414529932325719
-0.0009772612576292349   -0.03729591397514902   -0.0013043545773997365
-0.0023079598335165544   -0.04   -0.001261269028567141
-0.002220701064838342   -0.03729272115372462   -0.0011949964319467885
-0.0008584322219639525   -0.03726705297709369   -0.0012008623567663613
-0.0023079598335165544   -0.04   -0.001261269028567141
-0.0009772612576292349   -0.03729591397514902   -0.0013043545773997365
-0.002220701064838342   -0.03729272115372462   -0.0011949964319467885
-0.0023079598335165544   -0.04   -0.001261269028567141
-0.0028378404890295706   -0.03967805441914334   -0.001225938474642638
-0.002967888307283748   -0.03971227629198971   -0.001326364640169205
-0.002220701064838342   -0.03729272115372462   -0.0011949964319467885
-0.0023079598335165544   -0.04   -0.001261269028567141
-0.002967888307283748   -0.03971227629198971   -0.001326364640169205
-0.0009772612576292349   -0.03729591397514902   -0.0013043545773997365
-0.002220701064838342   -0.03729272115372462   -0.0011949964319467885
-0.0028378404890295706   -0.03967805441914334   -0.001225938474642638
-0.0008584322219639525   -0.03726705297709369   -0.0012008623567663613
-0.002132430898837619   -0.037297389122023676   -0.0011413325374570664
-0.0028378404890295706   -0.03967805441914334   -0.001225938474642638
-0.0023079598335165544   -0.04   -0.001261269028567141
-0.0008584322219639525   -0.03726705297709369   -0.0012008623567663613
-0.002143138952250358   -0.04   -0.001106197815123343
-0.002132430898837619   -0.037297389122023676   -0.0011413325374570664
-0.0007367238706344502   -0.037262091651313306   -0.001102580705631512
-0.002143138952250358   -0.04   -0.001106197815123343
-0.0008584322219639525   -0.03726705297709369   -0.0012008623567663613
-0.002132430898837619   -0.037297389122023676   -0.0011413325374570664
-0.002143138952250358   -0.04   -0.001106197815123343
-0.0027172197282620877   -0.039676420708582065   -0.0011257799974057935
-0.0028378404890295706   -0.03967805441914334   -0.001225938474642638
-0.002132430898837619   -0.037297389122023676   -0.0011413325374570664
-0.002143138952250358   -0.04   -0.001106197815123343
-0.0028378404890295706   -0.03967805441914334   -0.001225938474642638
-0.0008584322219639525   -0.03726705297709369   -0.0012008623567663613
-0.002132430898837619   -0.037297389122023676   -0.0011413325374570664
-0.0027172197282620877   -0.039676420708582065   -0.0011257799974057935
-0.0007367238706344502   -0.037262091651313306   -0.001102580705631512
-0.0020589256370609947   -0.03732949510005472   -0.0010955478233047034
-0.0027172197282620877   -0.039676420708582065   -0.0011257799974057935
-0.002143138952250358   -0.04   -0.001106197815123343
-0.0007367238706344502   -0.037262091651313306   -0.001102580705631512
-0.001982289801117109   -0.04   -0.0009531950346529001
-0.0020589256370609947   -0.03732949510005472   -0.0010955478233047034
-0.0006467082987605333   -0.0372860830196772   -0.001013208031390976
-0.001982289801117109   -0.04   -0.0009531950346529001
-0.0007367238706344502   -0.037262091651313306   -0.001102580705631512
-0.0020589256370609947   -0.03732949510005472   -0.0010955478233047034
-0.001982289801117109   -0.04   -0.0009531950346529001
-0.002587874565622134   -0.03970566705414094   -0.0010255200626367589
-0.0027172197282620877   -0.039676420708582065   -0.0011257799974057935
-0.0020589256370609947   -0.03732949510005472   -0.0010955478233047034
-0.001982289801117109   -0.04   -0.0009531950346529001
-0.0027172197282620877   -0.039676420708582065   -0.0011257799974057935
-0.0007367238706344502   -0.037262091651313306   -0.001102580705631512
-0.0009772612576292349   -0.03729591397514902   -0.0013043545773997365
-0.0024717890103575745   -0.04   -0.001414529932325719
0.00045740509753092927   -0.03716687861434881   -0.0014077912509495017
-0.0008584322219639525   -0.03726705297709369   -0.0012008623567663613
-0.0024717890103575745   -0.04   -0.001414529932325719
-0.0021095997997548073   -0.04   -0.001521300125439881
0.00045740509753092927   -0.03716687861434881   -0.0014077912509495017
-0.0017653413461094292   -0.04   -0.0012991933307140093
-0.0008584322219639525   -0.03726705297709369   -0.0012008623567663613
0.0007360206482359496   -0.037104294035969675   -0.0012386163484716447
-0.0017653413461094292   -0.04   -0.0012991933307140093
0.00045740509753092927   -0.03716687861434881   -0.0014077912509495017
-0.0008584322219639525   -0.03726705297709369   -0.0012008623567663613
-0.0017653413461094292   -0.04   -0.0012991933307140093
-0.0023079598335165544   -0.04   -0.001261269028567141
-0.0024717890103575745   -0.04   -0.001414529932325719
-0.0008584322219639525   -0.03726705297709369   -0.0012008623567663613
-0.0017653413461094292   -0.04   -0.0012991933307140093
-0.0024717890103575745   -0.04   -0.001414529932325719
0.00045740509753092927   -0.03716687861434881   -0.0014077912509495017
-0.0008584322219639525   -0.03726705297709369   -0.0012008623567663613
-0.0023079598335165544   -0.04   -0.001261269028567141
0.0007360206482359496   -0.037104294035969675   -0.0012386163484716447
-0.0007367238706344502   -0.037262091651313306   -0.001102580705631512
-0.0023079598335165544   -0.04   -0.001261269028567141
-0.0017653413461094292   -0.04   -0.0012991933307140093
0.0007360206482359496   -0.037104294035969675   -0.0012386163484716447
-0.0014908176816018   -0.04   -0.0010867421710135524
-0.0007367238706344502   -0.037262091651313306   -0.001102580705631512
0.0009548846260854972   -0.037091726911090486   -0.0010796316103675475
-0.0014908176816018   -0.04   -0.0010867421710135524
0.0007360206482359496   -0.037104294035969675   -0.0012386163484716447
-0.0007367238706344502   -0.037262091651313306   -0.001102580705631512
-0.0014908176816018   -0.04   -0.0010867421710135524
-0.002143138952250358   -0.04   -0.001106197815123343
-0.0023079598335165544   -0.04   -0.001261269028567141
-0.0007367238706344502   -0.037262091651313306   -0.001102580705631512
-0.0014908176816018   -0.04   -0.0010867421710135524
-0.0023079598335165544   -0.04   -0.001261269028567141
0.0007360206482359496   -0.037104294035969675   -0.0012386163484716447
-0.0007367238706344502   -0.037262091651313306   -0.001102580705631512
-0.002143138952250358   -0.04   -0.001106197815123343
0.0009548846260854972   -0.037091726911090486   -0.0010796316103675475
-0.0006467082987605333   -0.0372860830196772   -0.001013208031390976
-0.002143138952250358   -0.04   -0.001106197815123343
-0.0014908176816018   -0.04   -0.0010867421710135524
0.0009548846260854972   -0.037091726911090486   -0.0010796316103675475
-0.001151766961012559   -0.04   -0.0008661751592393205
-0.0006467082987605333   -0.0372860830196772   -0.001013208031390976
0.0011827511912946007   -0.03710283276189303   -0.0009342657379293293
-0.001151766961012559   -0.04   -0.0008661751592393205
0.0009548846260854972   -0.037091726911090486   -0.0010796316103675475
-0.0006467082987605333   -0.0372860830196772   -0.001013208031390976
-0.001151766961012559   -0.04   -0.0008661751592393205
-0.001982289801117109   -0.04   -0.0009531950346529001
-0.002143138952250358   -0.04   -0.001106197815123343
-0.0006467082987605333   -0.0372860830196772   -0.001013208031390976
-0.001151766961012559   -0.04   -0.0008661751592393205
-0.002143138952250358   -0.04   -0.001106197815123343
0.0009548846260854972   -0.037091726911090486   -0.0010796316103675475
-0.004773503062621782   -0.039091656537205796   -0.0009933497154052098
-0.002876090403697032   -0.039211770103708396   -0.0008505436860842994
-0.004023221689049576   -0.03928640833637117   -0.001109909684457317
-0.004557888944249838   -0.03904864268536899   -0.001116401328177039
-0.002876090403697032   -0.039211770103708396   -0.0008505436860842994
-0.0030402269509426875   -0.039362513433883445   -0.0010006705213818827
-0.004023221689049576   -0.03928640833637117   -0.001109909684457317
-0.0029638738942125865   -0.039310352333399155   -0.0010558839950571626
-0.004557888944249838   -0.03904864268536899   -0.001116401328177039
-0.003922434220174936   -0.03924826867698003   -0.0011505458687388979
-0.0029638738942125865   -0.039310352333399155   -0.0010558839950571626
-0.004023221689049576   -0.03928640833637117   -0.001109909684457317
-0.004557888944249838   -0.03904864268536899   -0.001116401328177039
-0.0029638738942125865   -0.039310352333399155   -0.0010558839950571626
-0.002680360531849777   -0.03914474116687031   -0.0009798784475397392
-0.002876090403697032   -0.039211770103708396   -0.0008505436860842994
-0.004557888944249838   -0.03904864268536899   -0.001116401328177039
-0.0029638738942125865   -0.039310352333399155   -0.0010558839950571626
-0.002876090403697032   -0.039211770103708396   -0.0008505436860842994
-0.004023221689049576   -0.03928640833637117   -0.001109909684457317
-0.004557888944249838   -0.03904864268536899   -0.001116401328177039
-0.002680360531849777   -0.03914474116687031   -0.0009798784475397392
-0.003922434220174936   -0.03924826867698003   -0.0011505458687388979
-0.00437189823348445   -0.039052835114968557   -0.0012390192149055131
-0.002680360531849777   -0.03914474116687031   -0.0009798784475397392
-0.0029638738942125865   -0.039310352333399155   -0.0010558839950571626
-0.003922434220174936   -0.03924826867698003   -0.0011505458687388979
-0.0028742098162158882   -0.03929155792826486   -0.0011068972200782017
-0.00437189823348445   -0.039052835114968557   -0.0012390192149055131
-0.00381063846032847   -0.03925060932878853   -0.0011916018165065438
-0.0028742098162158882   -0.03929155792826486   -0.0011068972200782017
-0.003922434220174936   -0.03924826867698003   -0.0011505458687388979
-0.00437189823348445   -0.039052835114968557   -0.0012390192149055131
-0.0028742098162158882   -0.03929155792826486   -0.0011068972200782017
-0.002517473079737235   -0.03912462980496441   -0.0011040050678083134
-0.002680360531849777   -0.03914474116687031   -0.0009798784475397392
-0.00437189823348445   -0.039052835114968557   -0.0012390192149055131
-0.0028742098162158882   -0.03929155792826486   -0.0011068972200782017
-0.002680360531849777   -0.03914474116687031   -0.0009798784475397392
-0.003922434220174936   -0.03924826867698003   -0.0011505458687388979
-0.00437189823348445   -0.039052835114968557   -0.0012390192149055131
-0.002517473079737235   -0.03912462980496441   -0.0011040050678083134
-0.00381063846032847   -0.03925060932878853   -0.0011916018165065438
-0.0041511564665810165   -0.03910699354402922   -0.0013642654761350673
-0.002517473079737235   -0.03912462980496441   -0.0011040050678083134
-0.0028742098162158882   -0.03929155792826486   -0.0011068972200782017
-0.00381063846032847   -0.03925060932878853   -0.0011916018165065438
-0.0027974632191567245   -0.03930642282703019   -0.0011534510835043241
-0.0041511564665810165   -0.03910699354402922   -0.0013642654761350673
-0.0037068756408982304   -0.03929363961663036   -0.0012332483551238981
-0.0027974632191567245   -0.03930642282703019   -0.0011534510835043241
-0.00381063846032847   -0.03925060932878853   -0.0011916018165065438
-0.0041511564665810165   -0.03910699354402922   -0.0013642654761350673
-0.0027974632191567245   -0.03930642282703019   -0.0011534510835043241
-0.0023329398288659676   -0.039143151698479504   -0.0012223878621816504
-0.002517473079737235   -0.03912462980496441   -0.0011040050678083134
-0.0041511564665810165   -0.03910699354402922   -0.0013642654761350673
-0.0027974632191567245   -0.03930642282703019   -0.0011534510835043241
-0.002517473079737235   -0.03912462980496441   -0.0011040050678083134
-0.00381063846032847   -0.03925060932878853   -0.0011916018165065438
-0.004023221689049576   -0.03928640833637117   -0.001109909684457317
-0.0030402269509426875   -0.039362513433883445   -0.0010006705213818827
-0.0034719599389432675   -0.03948019296898283   -0.0012128091364595726
-0.003922434220174936   -0.03924826867698003   -0.0011505458687388979
-0.0030402269509426875   -0.039362513433883445   -0.0010006705213818827
-0.003266673674016342   -0.03945495104421054   -0.0011205903381370959
-0.0034719599389432675   -0.03948019296898283   -0.0012128091364595726
-0.0031991658614767015   -0.039408341660192775   -0.001121929064268416
-0.003922434220174936   -0.03924826867698003   -0.0011505458687388979
-0.003365787927413782   -0.03944097166768236   -0.0011848209434636653
-0.0031991658614767015   -0.039408341660192775   -0.001121929064268416
-0.0034719599389432675   -0.03948019296898283   -0.0012128091364595726
-0.003922434220174936   -0.03924826867698003   -0.0011505458687388979
-0.0031991658614767015   -0.039408341660192775   -0.001121929064268416
-0.0029638738942125865   -0.039310352333399155   -0.0010558839950571626
-0.0030402269509426875   -0.039362513433883445   -0.0010006705213818827
-0.003922434220174936   -0.03924826867698003   -0.0011505458687388979
-0.0031991658614767015   -0.039408341660192775   -0.001121929064268416
-0.0030402269509426875   -0.039362513433883445   -0.0010006705213818827
-0.0034719599389432675   -0.03948019296898283   -0.0012128091364595726
-0.003922434220174936   -0.03924826867698003   -0.0011505458687388979
-0.0029638738942125865   -0.039310352333399155   -0.0010558839950571626
-0.003365787927413782   -0.03944097166768236   -0.0011848209434636653
-0.00381063846032847   -0.03925060932878853   -0.0011916018165065438
-0.0029638738942125865   -0.039310352333399155   -0.0010558839950571626
-0.0031991658614767015   -0.039408341660192775   -0.001121929064268416
-0.003365787927413782   -0.03944097166768236   -0.0011848209434636653
-0.003124053149855891   -0.039391947498345764   -0.001117823259395321
-0.00381063846032847   -0.03925060932878853   -0.0011916018165065438
-0.00326305817429104   -0.03944060772565307   -0.0011564963972391336
-0.003124053149855891   -0.039391947498345764   -0.001117823259395321
-0.003365787927413782   -0.03944097166768236   -0.0011848209434636653
-0.00381063846032847   -0.03925060932878853   -0.0011916018165065438
-0.003124053149855891   -0.039391947498345764   -0.001117823259395321
-0.0028742098162158882   -0.03929155792826486   -0.0011068972200782017
-0.0029638738942125865   -0.039310352333399155   -0.0010558839950571626
-0.00381063846032847   -0.03925060932878853   -0.0011916018165065438
-0.003124053149855891   -0.039391947498345764   -0.001117823259395321
-0.0029638738942125865   -0.039310352333399155   -0.0010558839950571626
-0.003365787927413782   -0.03944097166768236   -0.0011848209434636653
-0.00381063846032847   -0.03925060932878853   -0.0011916018165065438
-0.0028742098162158882   -0.03929155792826486   -0.0011068972200782017
-0.00326305817429104   -0.03944060772565307   -0.0011564963972391336
-0.0037068756408982304   -0.03929363961663036   -0.0012332483551238981
-0.0028742098162158882   -0.03929155792826486   -0.0011068972200782017
-0.003124053149855891   -0.039391947498345764   -0.001117823259395321
-0.00326305817429104   -0.03944060772565307   -0.0011564963972391336
-0.003047715960846167   -0.039404426941442215   -0.001109443455024169
-0.0037068756408982304   -0.03929363961663036   -0.0012332483551238981
-0.003156018302399924   -0.03947831109495758   -0.0011293190854689333
-0.003047715960846167   -0.039404426941442215   -0.001109443455024169
-0.00326305817429104   -0.03944060772565307   -0.0011564963972391336
-0.0037068756408982304   -0.03929363961663036   -0.0012332483551238981
-0.003047715960846167   -0.039404426941442215   -0.001109443455024169
-0.0027974632191567245   -0.03930642282703019   -0.0011534510835043241
-0.0028742098162158882   -0.03929155792826486   -0.0011068972200782017
-0.0037068756408982304   -0.03929363961663036   -0.0012332483551238981
-0.003047715960846167   -0.039404426941442215   -0.001109443455024169
-0.0028742098162158882   -0.03929155792826486   -0.0011068972200782017
-0.00326305817429104   -0.03944060772565307   -0.0011564963972391336
-0.0034719599389432675   -0.03948019296898283   -0.0012128091364595726
-0.003266673674016342   -0.03945495104421054   -0.0011205903381370959
-0.002967888307283748   -0.03971227629198971   -0.001326364640169205
-0.003365787927413782   -0.03944097166768236   -0.0011848209434636653
-0.003266673674016342   -0.03945495104421054   -0.0011205903381370959
-0.0035099825155925045   -0.03949263204464823   -0.0012387409373849352
-0.002967888307283748   -0.03971227629198971   -0.001326364640169205
-0.0034400474350953798   -0.039448092957861905   -0.0011882653426807373
-0.003365787927413782   -0.03944097166768236   -0.0011848209434636653
-0.0028378404890295706   -0.03967805441914334   -0.001225938474642638
-0.0034400474350953798   -0.039448092957861905   -0.0011882653426807373
-0.002967888307283748   -0.03971227629198971   -0.001326364640169205
-0.003365787927413782   -0.03944097166768236   -0.0011848209434636653
-0.0034400474350953798   -0.039448092957861905   -0.0011882653426807373
-0.0031991658614767015   -0.039408341660192775   -0.001121929064268416
-0.003266673674016342   -0.03945495104421054   -0.0011205903381370959
-0.003365787927413782   -0.03944097166768236   -0.0011848209434636653
-0.0034400474350953798   -0.039448092957861905   -0.0011882653426807373
-0.003266673674016342   -0.03945495104421054   -0.0011205903381370959
-0.002967888307283748   -0.03971227629198971   -0.001326364640169205
-0.003365787927413782   -0.03944097166768236   -0.0011848209434636653
-0.0031991658614767015   -0.039408341660192775   -0.001121929064268416
-0.0028378404890295706   -0.03967805441914334   -0.001225938474642638
-0.00326305817429104   -0.03944060772565307   -0.0011564963972391336
-0.0031991658614767015   -0.039408341660192775   -0.001121929064268416
-0.0034400474350953798   -0.039448092957861905   -0.0011882653426807373
-0.0028378404890295706   -0.03967805441914334   -0.001225938474642638
-0.0033562430160551217   -0.03943425299532116   -0.0011311561134589058
-0.00326305817429104   -0.03944060772565307   -0.0011564963972391336
-0.0027172197282620877   -0.039676420708582065   -0.0011257799974057935
-0.0033562430160551217   -0.03943425299532116   -0.0011311561134589058
-0.0028378404890295706   -0.03967805441914334   -0.001225938474642638
-0.00326305817429104   -0.03944060772565307   -0.0011564963972391336
-0.0033562430160551217   -0.03943425299532116   -0.0011311561134589058
-0.003124053149855891   -0.039391947498345764   -0.001117823259395321
-0.0031991658614767015   -0.039408341660192775   -0.001121929064268416
-0.00326305817429104   -0.03944060772565307   -0.0011564963972391336
-0.0033562430160551217   -0.03943425299532116   -0.0011311561134589058
-0.0031991658614767015   -0.039408341660192775   -0.001121929064268416
-0.0028378404890295706   -0.03967805441914334   -0.001225938474642638
-0.00326305817429104   -0.03944060772565307   -0.0011564963972391336
-0.003124053149855891   -0.039391947498345764   -0.001117823259395321
-0.0027172197282620877   -0.039676420708582065   -0.0011257799974057935
-0.003156018302399924   -0.03947831109495758   -0.0011293190854689333
-0.003124053149855891   -0.039391947498345764   -0.001117823259395321
-0.0033562430160551217   -0.03943425299532116   -0.0011311561134589058
-0.0027172197282620877   -0.039676420708582065   -0.0011257799974057935
-0.003270109811213736   -0.03944638486954759   -0.0010703762924701445
-0.003156018302399924   -0.03947831109495758   -0.0011293190854689333
-0.002587874565622134   -0.03970566705414094   -0.0010255200626367589
-0.003270109811213736   -0.03944638486954759   -0.0010703762924701445
-0.0027172197282620877   -0.039676420708582065   -0.0011257799974057935
-0.003156018302399924   -0.03947831109495758   -0.0011293190854689333
-0.003270109811213736   -0.03944638486954759   -0.0010703762924701445
-0.003047715960846167   -0.039404426941442215   -0.001109443455024169
-0.003124053149855891   -0.039391947498345764   -0.001117823259395321
-0.003156018302399924   -0.03947831109495758   -0.0011293190854689333
-0.003270109811213736   -0.03944638486954759   -0.0010703762924701445
-0.003124053149855891   -0.039391947498345764   -0.001117823259395321
-0.0027172197282620877   -0.039676420708582065   -0.0011257799974057935
-0.002967888307283748   -0.03971227629198971   -0.001326364640169205
-0.0035099825155925045   -0.03949263204464823   -0.0012387409373849352
-0.0024717890103575745   -0.04   -0.001414529932325719
-0.0028378404890295706   -0.03967805441914334   -0.001225938474642638
-0.0035099825155925045   -0.03949263204464823   -0.0012387409373849352
-0.003862723038710238   -0.039448712717380374   -0.001351313689074134
-0.0024717890103575745   -0.04   -0.001414529932325719
-0.003771410162798095   -0.0394064871085219   -0.0012514333786016777
-0.0028378404890295706   -0.03967805441914334   -0.001225938474642638
-0.0023079598335165544   -0.04   -0.001261269028567141
-0.003771410162798095   -0.0394064871085219   -0.0012514333786016777
-0.0024717890103575745   -0.04   -0.001414529932325719
-0.0028378404890295706   -0.03967805441914334   -0.001225938474642638
-0.003771410162798095   -0.0394064871085219   -0.0012514333786016777
-0.0034400474350953798   -0.039448092957861905   -0.0011882653426807373
-0.0035099825155925045   -0.03949263204464823   -0.0012387409373849352
-0.0028378404890295706   -0.03967805441914334   -0.001225938474642638
-0.003771410162798095   -0.0394064871085219   -0.0012514333786016777
-0.0035099825155925045   -0.03949263204464823   -0.0012387409373849352
-0.0024717890103575745   -0.04   -0.001414529932325719
-0.0028378404890295706   -0.03967805441914334   -0.001225938474642638
-0.0034400474350953798   -0.039448092957861905   -0.0011882653426807373
-0.0023079598335165544   -0.04   -0.001261269028567141
-0.0027172197282620877   -0.039676420708582065   -0.0011257799974057935
-0.0034400474350953798   -0.039448092957861905   -0.0011882653426807373
-0.003771410162798095   -0.0394064871085219   -0.0012514333786016777
-0.0023079598335165544   -0.04   -0.001261269028567141
-0.0036507330893511564   -0.03939712591224285   -0.0011441365362504143
-0.0027172197282620877   -0.039676420708582065   -0.0011257799974057935
-0.002143138952250358   -0.04   -0.001106197815123343
-0.0036507330893511564   -0.03939712591224285   -0.0011441365362504143
-0.0023079598335165544   -0.04   -0.001261269028567141
-0.0027172197282620877   -0.039676420708582065   -0.0011257799974057935
-0.0036507330893511564   -0.03939712591224285   -0.0011441365362504143
-0.0033562430160551217   -0.03943425299532116   -0.0011311561134589058
-0.0034400474350953798   -0.039448092957861905   -0.0011882653426807373
-0.0027172197282620877   -0.039676420708582065   -0.0011257799974057935
-0.0036507330893511564   -0.03939712591224285   -0.0011441365362504143
-0.0034400474350953798   -0.039448092957861905   -0.0011882653426807373
-0.0023079598335165544   -0.04   -0.001261269028567141
-0.0027172197282620877   -0.039676420708582065   -0.0011257799974057935
-0.0033562430160551217   -0.03943425299532116   -0.0011311561134589058
-0.002143138952250358   -0.04   -0.001106197815123343
-0.002587874565622134   -0.03970566705414094   -0.0010255200626367589
-0.0033562430160551217   -0.03943425299532116   -0.0011311561134589058
-0.0036507330893511564   -0.03939712591224285   -0.0011441365362504143
-0.002143138952250358   -0.04   -0.001106197815123343
-0.003537511149228162   -0.0394143565641436   -0.0010327624744192131
-0.002587874565622134   -0.03970566705414094   -0.0010255200626367589
-0.001982289801117109   -0.04   -0.0009531950346529001
-0.003537511149228162   -0.0394143565641436   -0.0010327624744192131
-0.002143138952250358   -0.04   -0.001106197815123343
-0.002587874565622134   -0.03970566705414094   -0.0010255200626367589
-0.003537511149228162   -0.0394143565641436   -0.0010327624744192131
-0.003270109811213736   -0.03944638486954759   -0.0010703762924701445
-0.0033562430160551217   -0.03943425299532116   -0.0011311561134589058
-0.002587874565622134   -0.03970566705414094   -0.0010255200626367589
-0.003537511149228162   -0.0394143565641436   -0.0010327624744192131
-0.0033562430160551217   -0.03943425299532116   -0.0011311561134589058
-0.002143138952250358   -0.04   -0.001106197815123343
-0.0024717890103575745   -0.04   -0.001414529932325719
-0.003862723038710238   -0.039448712717380374   -0.001351313689074134
-0.0021095997997548073   -0.04   -0.001521300125439881
-0.0023079598335165544   -0.04   -0.001261269028567141
-0.003862723038710238   -0.039448712717380374   -0.001351313689074134
-0.004552716253750927   -0.039256051106676695   -0.001471286115535502
-0.0021095997997548073   -0.04   -0.001521300125439881
-0.004307937698343936   -0.03922015895971436   -0.0013074610378760148
-0.0023079598335165544   -0.04   -0.001261269028567141
-0.0017653413461094292   -0.04   -0.0012991933307140093
-0.004307937698343936   -0.03922015895971436   -0.0013074610378760148
-0.0021095997997548073   -0.04   -0.001521300125439881
-0.0023079598335165544   -0.04   -0.001261269028567141
-0.004307937698343936   -0.03922015895971436   -0.0013074610378760148
-0.003771410162798095   -0.0394064871085219   -0.0012514333786016777
-0.003862723038710238   -0.039448712717380374   -0.001351313689074134
-0.0023079598335165544   -0.04   -0.001261269028567141
-0.004307937698343936   -0.03922015895971436   -0.0013074610378760148
-0.003862723038710238   -0.039448712717380374   -0.001351313689074134
-0.0021095997997548073   -0.04   -0.001521300125439881
-0.0023079598335165544   -0.04   -0.001261269028567141
-0.003771410162798095   -0.0394064871085219   -0.0012514333786016777
-0.0017653413461094292   -0.04   -0.0012991933307140093
-0.002143138952250358   -0.04   -0.001106197815123343
-0.003771410162798095   -0.0394064871085219   -0.0012514333786016777
-0.004307937698343936   -0.03922015895971436   -0.0013074610378760148
-0.0017653413461094292   -0.04   -0.0012991933307140093
-0.004083450431594845   -0.039215435444218814   -0.0011327863206278166
-0.002143138952250358   -0.04   -0.001106197815123343
-0.0014908176816018   -0.04   -0.0010867421710135524
-0.004083450431594845   -0.039215435444218814   -0.0011327863206278166
-0.0017653413461094292   -0.04   -0.0012991933307140093
-0.002143138952250358   -0.04   -0.001106197815123343
-0.004083450431594845   -0.039215435444218814   -0.0011327863206278166
-0.0036507330893511564   -0.03939712591224285   -0.0011441365362504143
-0.003771410162798095   -0.0394064871085219   -0.0012514333786016777
-0.002143138952250358   -0.04   -0.001106197815123343
-0.004083450431594845   -0.039215435444218814   -0.0011327863206278166
-0.003771410162798095   -0.0394064871085219   -0.0012514333786016777
-0.0017653413461094292   -0.04   -0.0012991933307140093
-0.002143138952250358   -0.04   -0.001106197815123343
-0.0036507330893511564   -0.03939712591224285   -0.0011441365362504143
-0.0014908176816018   -0.04   -0.0010867421710135524
-0.001982289801117109   -0.04   -0.0009531950346529001
-0.0036507330893511564   -0.03939712591224285   -0.0011441365362504143
-0.004083450431594845   -0.039215435444218814   -0.0011327863206278166
-0.0014908176816018   -0.04   -0.0010867421710135524
-0.0037998699568558038   -0.039262458071422375   -0.0009502664200491313
-0.001982289801117109   -0.04   -0.0009531950346529001
-0.001151766961012559   -0.04   -0.0008661751592393205
-0.0037998699568558038   -0.039262458071422375   -0.0009502664200491313
-0.0014908176816018   -0.04   -0.0010867421710135524
-0.001982289801117109   -0.04   -0.0009531950346529001
-0.0037998699568558038   -0.039262458071422375   -0.0009502664200491313
-0.003537511149228162   -0.0394143565641436   -0.0010327624744192131
-0.0036507330893511564   -0.03939712591224285   -0.0011441365362504143
-0.001982289801117109   -0.04   -0.0009531950346529001
-0.0037998699568558038   -0.039262458071422375   -0.0009502664200491313
-0.0036507330893511564   -0.03939712591224285   -0.0011441365362504143
-0.0014908176816018   -0.04   -0.0010867421710135524
-0.002876090403697032   -0.039211770103708396   -0.0008505436860842994
-0.0012023338000026204   -0.037754192755476534   -0.0007340810295299021
-0.0030402269509426875   -0.039362513433883445   -0.0010006705213818827
-0.002680360531849777   -0.03914474116687031   -0.0009798784475397392
-0.0012023338000026204   -0.037754192755476534   -0.0007340810295299021
-0.002194727442309722   -0.0378684352550147   -0.0008936801831461662
-0.0030402269509426875   -0.039362513433883445   -0.0010006705213818827
-0.002140402085236499   -0.03780528289350987   -0.000943031021112373
-0.002680360531849777   -0.03914474116687031   -0.0009798784475397392
-0.0029638738942125865   -0.039310352333399155   -0.0010558839950571626
-0.002140402085236499   -0.03780528289350987   -0.000943031021112373
-0.0030402269509426875   -0.039362513433883445   -0.0010006705213818827
-0.002680360531849777   -0.03914474116687031   -0.0009798784475397392
-0.002140402085236499   -0.03780528289350987   -0.000943031021112373
-0.0010458066110720704   -0.037675949835060965   -0.0008461997180143089
-0.0012023338000026204   -0.037754192755476534   -0.0007340810295299021
-0.002680360531849777   -0.03914474116687031   -0.0009798784475397392
-0.002140402085236499   -0.03780528289350987   -0.000943031021112373
-0.0012023338000026204   -0.037754192755476534   -0.0007340810295299021
-0.0030402269509426875   -0.039362513433883445   -0.0010006705213818827
-0.002680360531849777   -0.03914474116687031   -0.0009798784475397392
-0.0010458066110720704   -0.037675949835060965   -0.0008461997180143089
-0.0029638738942125865   -0.039310352333399155   -0.0010558839950571626
-0.002517473079737235   -0.03912462980496441   -0.0011040050678083134
-0.0010458066110720704   -0.037675949835060965   -0.0008461997180143089
-0.002140402085236499   -0.03780528289350987   -0.000943031021112373
-0.0029638738942125865   -0.039310352333399155   -0.0010558839950571626
-0.0020791164746567807   -0.03777076064946349   -0.0009880004136521043
-0.002517473079737235   -0.03912462980496441   -0.0011040050678083134
-0.0028742098162158882   -0.03929155792826486   -0.0011068972200782017
-0.0020791164746567807   -0.03777076064946349   -0.0009880004136521043
-0.0029638738942125865   -0.039310352333399155   -0.0010558839950571626
-0.002517473079737235   -0.03912462980496441   -0.0011040050678083134
-0.0020791164746567807   -0.03777076064946349   -0.0009880004136521043
-0.0009226257654117721   -0.03763921995919328   -0.0009518280122774421
-0.0010458066110720704   -0.037675949835060965   -0.0008461997180143089
-0.002517473079737235   -0.03912462980496441   -0.0011040050678083134
-0.0020791164746567807   -0.03777076064946349   -0.0009880004136521043
-0.0010458066110720704   -0.037675949835060965   -0.0008461997180143089
-0.0029638738942125865   -0.039310352333399155   -0.0010558839950571626
-0.002517473079737235   -0.03912462980496441   -0.0011040050678083134
-0.0009226257654117721   -0.03763921995919328   -0.0009518280122774421
-0.0028742098162158882   -0.03929155792826486   -0.0011068972200782017
-0.0023329398288659676   -0.039143151698479504   -0.0012223878621816504
-0.0009226257654117721   -0.03763921995919328   -0.0009518280122774421
-0.0020791164746567807   -0.03777076064946349   -0.0009880004136521043
-0.0028742098162158882   -0.03929155792826486   -0.0011068972200782017
-0.002032165511491972   -0.037763898165581594   -0.0010287325969321078
-0.0023329398288659676   -0.039143151698479504   -0.0012223878621816504
-0.0027974632191567245   -0.03930642282703019   -0.0011534510835043241
-0.002032165511491972   -0.037763898165581594   -0.0010287325969321078
-0.0028742098162158882   -0.03929155792826486   -0.0011068972200782017
-0.0023329398288659676   -0.039143151698479504   -0.0012223878621816504
-0.002032165511491972   -0.037763898165581594   -0.0010287325969321078
-0.0007878146220748634   -0.037633346928231254   -0.0010506969499164793
-0.0009226257654117721   -0.03763921995919328   -0.0009518280122774421
-0.0023329398288659676   -0.039143151698479504   -0.0012223878621816504
-0.002032165511491972   -0.037763898165581594   -0.0010287325969321078
-0.0009226257654117721   -0.03763921995919328   -0.0009518280122774421
-0.0028742098162158882   -0.03929155792826486   -0.0011068972200782017
-0.0030402269509426875   -0.039362513433883445   -0.0010006705213818827
-0.002194727442309722   -0.0378684352550147   -0.0008936801831461662
-0.003266673674016342   -0.03945495104421054   -0.0011205903381370959
-0.0029638738942125865   -0.039310352333399155   -0.0010558839950571626
-0.002194727442309722   -0.0378684352550147   -0.0008936801831461662
-0.0031764406094434675   -0.037908552481614476   -0.0010236563333707999
-0.003266673674016342   -0.03945495104421054   -0.0011205903381370959
-0.0031308437156990837   -0.03785347469379943   -0.0010262607789533874
-0.0029638738942125865   -0.039310352333399155   -0.0010558839950571626
-0.0031991658614767015   -0.039408341660192775   -0.001121929064268416
-0.0031308437156990837   -0.03785347469379943   -0.0010262607789533874
-0.003266673674016342   -0.03945495104421054   -0.0011205903381370959
-0.0029638738942125865   -0.039310352333399155   -0.0010558839950571626
-0.0031308437156990837   -0.03785347469379943   -0.0010262607789533874
-0.002140402085236499   -0.03780528289350987   -0.000943031021112373
-0.002194727442309722   -0.0378684352550147   -0.0008936801831461662
-0.0029638738942125865   -0.039310352333399155   -0.0010558839950571626
-0.0031308437156990837   -0.03785347469379943   -0.0010262607789533874
-0.002194727442309722   -0.0378684352550147   -0.0008936801831461662
-0.003266673674016342   -0.03945495104421054   -0.0011205903381370959
-0.0029638738942125865   -0.039310352333399155   -0.0010558839950571626
-0.002140402085236499   -0.03780528289350987   -0.000943031021112373
-0.0031991658614767015   -0.039408341660192775   -0.001121929064268416
-0.0028742098162158882   -0.03929155792826486   -0.0011068972200782017
-0.002140402085236499   -0.03780528289350987   -0.000943031021112373
-0.0031308437156990837   -0.03785347469379943   -0.0010262607789533874
-0.0031991658614767015   -0.039408341660192775   -0.001121929064268416
-0.003083669861692794   -0.03782419951922134   -0.0010248056545229243
-0.0028742098162158882   -0.03929155792826486   -0.0011068972200782017
-0.003124053149855891   -0.039391947498345764   -0.001117823259395321
-0.003083669861692794   -0.03782419951922134   -0.0010248056545229243
-0.0031991658614767015   -0.039408341660192775   -0.001121929064268416
-0.0028742098162158882   -0.03929155792826486   -0.0011068972200782017
-0.003083669861692794   -0.03782419951922134   -0.0010248056545229243
-0.0020791164746567807   -0.03777076064946349   -0.0009880004136521043
-0.002140402085236499   -0.03780528289350987   -0.000943031021112373
-0.0028742098162158882   -0.03929155792826486   -0.0011068972200782017
-0.003083669861692794   -0.03782419951922134   -0.0010248056545229243
-0.002140402085236499   -0.03780528289350987   -0.000943031021112373
-0.0031991658614767015   -0.039408341660192775   -0.001121929064268416
-0.0028742098162158882   -0.03929155792826486   -0.0011068972200782017
-0.0020791164746567807   -0.03777076064946349   -0.0009880004136521043
-0.003124053149855891   -0.039391947498345764   -0.001117823259395321
-0.0027974632191567245   -0.03930642282703019   -0.0011534510835043241
-0.0020791164746567807   -0.03777076064946349   -0.0009880004136521043
-0.003083669861692794   -0.03782419951922134   -0.0010248056545229243
-0.003124053149855891   -0.039391947498345764   -0.001117823259395321
-0.0030381928280206706   -0.037819515368681146   -0.0010192613242379206
-0.0027974632191567245   -0.03930642282703019   -0.0011534510835043241
-0.003047715960846167   -0.039404426941442215   -0.001109443455024169
-0.0030381928280206706   -0.037819515368681146   -0.0010192613242379206
-0.003124053149855891   -0.039391947498345764   -0.001117823259395321
-0.0027974632191567245   -0.03930642282703019   -0.0011534510835043241
-0.0030381928280206706   -0.037819515368681146   -0.0010192613242379206
-0.002032165511491972   -0.037763898165581594   -0.0010287325969321078
-0.0020791164746567807   -0.03777076064946349   -0.0009880004136521043
-0.0027974632191567245   -0.03930642282703019   -0.0011534510835043241
-0.0030381928280206706   -0.037819515368681146   -0.0010192613242379206
-0.0020791164746567807   -0.03777076064946349   -0.0009880004136521043
-0.003124053149855891   -0.039391947498345764   -0.001117823259395321
-0.003266673674016342   -0.03945495104421054   -0.0011205903381370959
-0.0031764406094434675   -0.037908552481614476   -0.0010236563333707999
-0.0035099825155925045   -0.03949263204464823   -0.0012387409373849352
-0.0031991658614767015   -0.039408341660192775   -0.001121929064268416
-0.0031764406094434675   -0.037908552481614476   -0.0010236563333707999
-0.004151675274521651   -0.03787248015774348   -0.001145352059794422
-0.0035099825155925045   -0.03949263204464823   -0.0012387409373849352
-0.004106439414558042   -0.03782351884476808   -0.0011031146156069407
-0.0031991658614767015   -0.039408341660192775   -0.001121929064268416
-0.0034400474350953798   -0.039448092957861905   -0.0011882653426807373
-0.004106439414558042   -0.03782351884476808   -0.0011031146156069407
-0.0035099825155925045   -0.03949263204464823   -0.0012387409373849352
-0.0031991658614767015   -0.039408341660192775   -0.001121929064268416
-0.004106439414558042   -0.03782351884476808   -0.0011031146156069407
-0.0031308437156990837   -0.03785347469379943   -0.0010262607789533874
-0.0031764406094434675   -0.037908552481614476   -0.0010236563333707999
-0.0031991658614767015   -0.039408341660192775   -0.001121929064268416
-0.004106439414558042   -0.03782351884476808   -0.0011031146156069407
-0.0031764406094434675   -0.037908552481614476   -0.0010236563333707999
-0.0035099825155925045   -0.03949263204464823   -0.0012387409373849352
-0.0031991658614767015   -0.039408341660192775   -0.001121929064268416
-0.0031308437156990837   -0.03785347469379943   -0.0010262607789533874
-0.0034400474350953798   -0.039448092957861905   -0.0011882653426807373
-0.003124053149855891   -0.039391947498345764   -0.001117823259395321
-0.0031308437156990837   -0.03785347469379943   -0.0010262607789533874
-0.004106439414558042   -0.03782351884476808   -0.0011031146156069407
-0.0034400474350953798   -0.039448092957861905   -0.0011882653426807373
-0.004055677390757429   -0.03779993688934039   -0.0010568815355544825
-0.003124053149855891   -0.039391947498345764   -0.001117823259395321
-0.0033562430160551217   -0.03943425299532116   -0.0011311561134589058
-0.004055677390757429   -0.03779993688934039   -0.0010568815355544825
-0.0034400474350953798   -0.039448092957861905   -0.0011882653426807373
-0.003124053149855891   -0.039391947498345764   -0.001117823259395321
-0.004055677390757429   -0.03779993688934039   -0.0010568815355544825
-0.003083669861692794   -0.03782419951922134   -0.0010248056545229243
-0.0031308437156990837   -0.03785347469379943   -0.0010262607789533874
-0.003124053149855891   -0.039391947498345764   -0.001117823259395321
-0.004055677390757429   -0.03779993688934039   -0.0010568815355544825
-0.0031308437156990837   -0.03785347469379943   -0.0010262607789533874
-0.0034400474350953798   -0.039448092957861905   -0.0011882653426807373
-0.003124053149855891   -0.039391947498345764   -0.001117823259395321
-0.003083669861692794   -0.03782419951922134   -0.0010248056545229243
-0.0033562430160551217   -0.03943425299532116   -0.0011311561134589058
-0.003047715960846167   -0.039404426941442215   -0.001109443455024169
-0.003083669861692794   -0.03782419951922134   -0.0010248056545229243
-0.004055677390757429   -0.03779993688934039   -0.0010568815355544825
-0.0033562430160551217   -0.03943425299532116   -0.0011311561134589058
-0.004004746683362945   -0.037799337718743525   -0.0010061667043057844
-0.003047715960846167   -0.039404426941442215   -0.001109443455024169
-0.003270109811213736   -0.03944638486954759   -0.0010703762924701445
-0.004004746683362945   -0.037799337718743525   -0.0010061667043057844
-0.0033562430160551217   -0.03943425299532116   -0.0011311561134589058
-0.003047715960846167   -0.039404426941442215   -0.001109443455024169
-0.004004746683362945   -0.037799337718743525   -0.0010061667043057844
-0.0030381928280206706   -0.037819515368681146   -0.0010192613242379206
-0.003083669861692794   -0.03782419951922134   -0.0010248056545229243
-0.003047715960846167   -0.039404426941442215   -0.001109443455024169
-0.004004746683362945   -0.037799337718743525   -0.0010061667043057844
-0.003083669861692794   -0.03782419951922134   -0.0010248056545229243
-0.0033562430160551217   -0.03943425299532116   -0.0011311561134589058
-0.0035099825155925045   -0.03949263204464823   -0.0012387409373849352
-0.004151675274521651   -0.03787248015774348   -0.001145352059794422
-0.003862723038710238   -0.039448712717380374   -0.001351313689074134
-0.0034400474350953798   -0.039448092957861905   -0.0011882653426807373
-0.004151675274521651   -0.03787248015774348   -0.001145352059794422
-0.005222278171201053   -0.037755514064085054   -0.0012572961516940193
-0.003862723038710238   -0.039448712717380374   -0.001351313689074134
-0.00516678761618493   -0.037712649202257496   -0.0011711713742188754
-0.0034400474350953798   -0.039448092957861905   -0.0011882653426807373
-0.003771410162798095   -0.0394064871085219   -0.0012514333786016777
-0.00516678761618493   -0.037712649202257496   -0.0011711713742188754
-0.003862723038710238   -0.039448712717380374   -0.001351313689074134
-0.0034400474350953798   -0.039448092957861905   -0.0011882653426807373
-0.00516678761618493   -0.037712649202257496   -0.0011711713742188754
-0.004106439414558042   -0.03782351884476808   -0.0011031146156069407
-0.004151675274521651   -0.03787248015774348   -0.001145352059794422
-0.0034400474350953798   -0.039448092957861905   -0.0011882653426807373
-0.00516678761618493   -0.037712649202257496   -0.0011711713742188754
-0.004151675274521651   -0.03787248015774348   -0.001145352059794422
-0.003862723038710238   -0.039448712717380374   -0.001351313689074134
-0.0034400474350953798   -0.039448092957861905   -0.0011882653426807373
-0.004106439414558042   -0.03782351884476808   -0.0011031146156069407
-0.003771410162798095   -0.0394064871085219   -0.0012514333786016777
-0.0033562430160551217   -0.03943425299532116   -0.0011311561134589058
-0.004106439414558042   -0.03782351884476808   -0.0011031146156069407
-0.00516678761618493   -0.037712649202257496   -0.0011711713742188754
-0.003771410162798095   -0.0394064871085219   -0.0012514333786016777
-0.0050900626116580925   -0.03769473806894202   -0.0010813559005557129
-0.0033562430160551217   -0.03943425299532116   -0.0011311561134589058
-0.0036507330893511564   -0.03939712591224285   -0.0011441365362504143
-0.0050900626116580925   -0.03769473806894202   -0.0010813559005557129
-0.003771410162798095   -0.0394064871085219   -0.0012514333786016777
-0.0033562430160551217   -0.03943425299532116   -0.0011311561134589058
-0.0050900626116580925   -0.03769473806894202   -0.0010813559005557129
-0.004055677390757429   -0.03779993688934039   -0.0010568815355544825
-0.004106439414558042   -0.03782351884476808   -0.0011031146156069407
-0.0033562430160551217   -0.03943425299532116   -0.0011311561134589058
-0.0050900626116580925   -0.03769473806894202   -0.0010813559005557129
-0.004106439414558042   -0.03782351884476808   -0.0011031146156069407
-0.003771410162798095   -0.0394064871085219   -0.0012514333786016777
-0.0033562430160551217   -0.03943425299532116   -0.0011311561134589058
-0.004055677390757429   -0.03779993688934039   -0.0010568815355544825
-0.0036507330893511564   -0.03939712591224285   -0.0011441365362504143
-0.003270109811213736   -0.03944638486954759   -0.0010703762924701445
-0.004055677390757429   -0.03779993688934039   -0.0010568815355544825
-0.0050900626116580925   -0.03769473806894202   -0.0010813559005557129
-0.0036507330893511564   -0.03939712591224285   -0.0011441365362504143
-0.005023287552754762   -0.03770179934633965   -0.0009853780173415831
-0.003270109811213736   -0.03944638486954759   -0.0010703762924701445
-0.003537511149228162   -0.0394143565641436   -0.0010327624744192131
-0.005023287552754762   -0.03770179934633965   -0.0009853780173415831
-0.0036507330893511564   -0.03939712591224285   -0.0011441365362504143
-0.003270109811213736   -0.03944638486954759   -0.0010703762924701445
-0.005023287552754762   -0.03770179934633965   -0.0009853780173415831
-0.004004746683362945   -0.037799337718743525   -0.0010061667043057844
-0.004055677390757429   -0.03779993688934039   -0.0010568815355544825
-0.003270109811213736   -0.03944638486954759   -0.0010703762924701445
-0.005023287552754762   -0.03770179934633965   -0.0009853780173415831
-0.004055677390757429   -0.03779993688934039   -0.0010568815355544825
-0.0036507330893511564   -0.03939712591224285   -0.0011441365362504143
-0.003862723038710238   -0.039448712717380374   -0.001351313689074134
-0.005222278171201053   -0.037755514064085054   -0.0012572961516940193
-0.004552716253750927   -0.039256051106676695   -0.001471286115535502
-0.003771410162798095   -0.0394064871085219   -0.0012514333786016777
-0.005222278171201053   -0.037755514064085054   -0.0012572961516940193
-0.006600782486969793   -0.0375652877573204   -0.0013652289091747834
-0.004552716253750927   -0.039256051106676695   -0.001471286115535502
-0.006420395549807633   -0.03751860938241774   -0.0012292005538411099
-0.003771410162798095   -0.0394064871085219   -0.0012514333786016777
-0.004307937698343936   -0.03922015895971436   -0.0013074610378760148
-0.006420395549807633   -0.03751860938241774   -0.0012292005538411099
-0.004552716253750927   -0.039256051106676695   -0.001471286115535502
-0.003771410162798095   -0.0394064871085219   -0.0012514333786016777
-0.006420395549807633   -0.03751860938241774   -0.0012292005538411099
-0.00516678761618493   -0.037712649202257496   -0.0011711713742188754
-0.005222278171201053   -0.037755514064085054   -0.0012572961516940193
-0.003771410162798095   -0.0394064871085219   -0.0012514333786016777
-0.006420395549807633   -0.03751860938241774   -0.0012292005538411099
-0.005222278171201053   -0.037755514064085054   -0.0012572961516940193
-0.004552716253750927   -0.039256051106676695   -0.001471286115535502
-0.003771410162798095   -0.0394064871085219   -0.0012514333786016777
-0.00516678761618493   -0.037712649202257496   -0.0011711713742188754
-0.004307937698343936   -0.03922015895971436   -0.0013074610378760148
-0.0036507330893511564   -0.03939712591224285   -0.0011441365362504143
-0.00516678761618493   -0.037712649202257496   -0.0011711713742188754
-0.006420395549807633   -0.03751860938241774   -0.0012292005538411099
-0.004307937698343936   -0.03922015895971436   -0.0013074610378760148
-0.006259047797288456   -0.03750204222000969   -0.0010854067510880732
-0.0036507330893511564   -0.03939712591224285   -0.0011441365362504143
-0.004083450431594845   -0.039215435444218814   -0.0011327863206278166
-0.006259047797288456   -0.03750204222000969   -0.0010854067510880732
-0.004307937698343936   -0.03922015895971436   -0.0013074610378760148
-0.0036507330893511564   -0.03939712591224285   -0.0011441365362504143
-0.006259047797288456   -0.03750204222000969   -0.0010854067510880732
-0.0050900626116580925   -0.03769473806894202   -0.0010813559005557129
-0.00516678761618493   -0.037712649202257496   -0.0011711713742188754
-0.0036507330893511564   -0.03939712591224285   -0.0011441365362504143
-0.006259047797288456   -0.03750204222000969   -0.0010854067510880732
-0.00516678761618493   -0.037712649202257496   -0.0011711713742188754
-0.004307937698343936   -0.03922015895971436   -0.0013074610378760148
-0.0036507330893511564   -0.03939712591224285   -0.0011441365362504143
-0.0050900626116580925   -0.03769473806894202   -0.0010813559005557129
-0.004083450431594845   -0.039215435444218814   -0.0011327863206278166
-0.003537511149228162   -0.0394143565641436   -0.0010327624744192131
-0.0050900626116580925   -0.03769473806894202   -0.0010813559005557129
-0.006259047797288456   -0.03750204222000969   -0.0010854067510880732
-0.004083450431594845   -0.039215435444218814   -0.0011327863206278166
-0.006049977135168998   -0.03752424547406205   -0.0009352003207412601
-0.003537511149228162   -0.0394143565641436   -0.0010327624744192131
-0.0037998699568558038   -0.039262458071422375   -0.0009502664200491313
-0.006049977135168998   -0.03752424547406205   -0.0009352003207412601
-0.004083450431594845   -0.039215435444218814   -0.0011327863206278166
-0.003537511149228162   -0.0394143565641436   -0.0010327624744192131
-0.006049977135168998   -0.03752424547406205   -0.0009352003207412601
-0.005023287552754762   -0.03770179934633965   -0.0009853780173415831
-0.0050900626116580925   -0.03769473806894202   -0.0010813559005557129
-0.003537511149228162   -0.0394143565641436   -0.0010327624744192131
-0.006049977135168998   -0.03752424547406205   -0.0009352003207412601
-0.0050900626116580925   -0.03769473806894202   -0.0010813559005557129
-0.004083450431594845   -0.039215435444218814   -0.0011327863206278166
-0.0012023338000026204   -0.037754192755476534   -0.0007340810295299021
0.00016048587685193216   -0.03505298474008004   -0.0006065124274831568
-0.002194727442309722   -0.0378684352550147   -0.0008936801831461662
-0.0010458066110720704   -0.037675949835060965   -0.0008461997180143089
0.00016048587685193216   -0.03505298474008004   -0.0006065124274831568
-0.0015208325978364257   -0.03513717092876056   -0.0007633254494543489
-0.002194727442309722   -0.0378684352550147   -0.0008936801831461662
-0.0014918967549368844   -0.035070958382406224   -0.0008026266423659384
-0.0010458066110720704   -0.037675949835060965   -0.0008461997180143089
-0.002140402085236499   -0.03780528289350987   -0.000943031021112373
-0.0014918967549368844   -0.035070958382406224   -0.0008026266423659384
-0.002194727442309722   -0.0378684352550147   -0.0008936801831461662
-0.0010458066110720704   -0.037675949835060965   -0.0008461997180143089
-0.0014918967549368844   -0.035070958382406224   -0.0008026266423659384
0.00027035845055301276   -0.03497341131103858   -0.0006961604193703529
0.00016048587685193216   -0.03505298474008004   -0.0006065124274831568
-0.0010458066110720704   -0.037675949835060965   -0.0008461997180143089
-0.0014918967549368844   -0.035070958382406224   -0.0008026266423659384
0.00016048587685193216   -0.03505298474008004   -0.0006065124274831568
-0.002194727442309722   -0.0378684352550147   -0.0008936801831461662
-0.0010458066110720704   -0.037675949835060965   -0.0008461997180143089
0.00027035845055301276   -0.03497341131103858   -0.0006961604193703529
-0.002140402085236499   -0.03780528289350987   -0.000943031021112373
-0.0009226257654117721   -0.03763921995919328   -0.0009518280122774421
0.00027035845055301276   -0.03497341131103858   -0.0006961604193703529
-0.0014918967549368844   -0.035070958382406224   -0.0008026266423659384
-0.002140402085236499   -0.03780528289350987   -0.000943031021112373
-0.0014588476843844826   -0.03502818531295774   -0.0008374211299313885
-0.0009226257654117721   -0.03763921995919328   -0.0009518280122774421
-0.0020791164746567807   -0.03777076064946349   -0.0009880004136521043
-0.0014588476843844826   -0.03502818531295774   -0.0008374211299313885
-0.002140402085236499   -0.03780528289350987   -0.000943031021112373
-0.0009226257654117721   -0.03763921995919328   -0.0009518280122774421
-0.0014588476843844826   -0.03502818531295774   -0.0008374211299313885
0.00035124209302877173   -0.03492797807251225   -0.0007794999688647604
0.00027035845055301276   -0.03497341131103858   -0.0006961604193703529
-0.0009226257654117721   -0.03763921995919328   -0.0009518280122774421
-0.0014588476843844826   -0.03502818531295774   -0.0008374211299313885
0.00027035845055301276   -0.03497341131103858   -0.0006961604193703529
-0.002140402085236499   -0.03780528289350987   -0.000943031021112373
-0.0009226257654117721   -0.03763921995919328   -0.0009518280122774421
0.00035124209302877173   -0.03492797807251225   -0.0007794999688647604
-0.0020791164746567807   -0.03777076064946349   -0.0009880004136521043
-0.0007878146220748634   -0.037633346928231254   -0.0010506969499164793
0.00035124209302877173   -0.03492797807251225   -0.0007794999688647604
-0.0014588476843844826   -0.03502818531295774   -0.0008374211299313885
-0.0020791164746567807   -0.03777076064946349   -0.0009880004136521043
-0.0014390769889448057   -0.035007569553464124   -0.0008681545541231156
-0.0007878146220748634   -0.037633346928231254   -0.0010506969499164793
-0.002032165511491972   -0.037763898165581594   -0.0010287325969321078
-0.0014390769889448057   -0.035007569553464124   -0.0008681545541231156
-0.0020791164746567807   -0.03777076064946349   -0.0009880004136521043
-0.0007878146220748634   -0.037633346928231254   -0.0010506969499164793
-0.0014390769889448057   -0.035007569553464124   -0.0008681545541231156
0.0004381010132302746   -0.034906409196635194   -0.0008565046861665201
0.00035124209302877173   -0.03492797807251225   -0.0007794999688647604
-0.0007878146220748634   -0.037633346928231254   -0.0010506969499164793
-0.0014390769889448057   -0.035007569553464124   -0.0008681545541231156
0.00035124209302877173   -0.03492797807251225   -0.0007794999688647604
-0.0020791164746567807   -0.03777076064946349   -0.0009880004136521043
-0.002194727442309722   -0.0378684352550147   -0.0008936801831461662
-0.0015208325978364257   -0.03513717092876056   -0.0007633254494543489
-0.0031764406094434675   -0.037908552481614476   -0.0010236563333707999
-0.002140402085236499   -0.03780528289350987   -0.000943031021112373
-0.0015208325978364257   -0.03513717092876056   -0.0007633254494543489
-0.003149246992425478   -0.03515332136481751   -0.0008922420254506516
-0.0031764406094434675   -0.037908552481614476   -0.0010236563333707999
-0.0031280485908284847   -0.035096552206369404   -0.0008931698539860507
-0.002140402085236499   -0.03780528289350987   -0.000943031021112373
-0.0031308437156990837   -0.03785347469379943   -0.0010262607789533874
-0.0031280485908284847   -0.035096552206369404   -0.0008931698539860507
-0.0031764406094434675   -0.037908552481614476   -0.0010236563333707999
-0.002140402085236499   -0.03780528289350987   -0.000943031021112373
-0.0031280485908284847   -0.035096552206369404   -0.0008931698539860507
-0.0014918967549368844   -0.035070958382406224   -0.0008026266423659384
-0.0015208325978364257   -0.03513717092876056   -0.0007633254494543489
-0.002140402085236499   -0.03780528289350987   -0.000943031021112373
-0.0031280485908284847   -0.035096552206369404   -0.0008931698539860507
-0.0015208325978364257   -0.03513717092876056   -0.0007633254494543489
-0.0031764406094434675   -0.037908552481614476   -0.0010236563333707999
-0.002140402085236499   -0.03780528289350987   -0.000943031021112373
-0.0014918967549368844   -0.035070958382406224   -0.0008026266423659384
-0.0031308437156990837   -0.03785347469379943   -0.0010262607789533874
-0.0020791164746567807   -0.03777076064946349   -0.0009880004136521043
-0.0014918967549368844   -0.035070958382406224   -0.0008026266423659384
-0.0031280485908284847   -0.035096552206369404   -0.0008931698539860507
-0.0031308437156990837   -0.03785347469379943   -0.0010262607789533874
-0.003106237291504199   -0.035060755384414735   -0.0008897758510171335
-0.0020791164746567807   -0.03777076064946349   -0.0009880004136521043
-0.003083669861692794   -0.03782419951922134   -0.0010248056545229243
-0.003106237291504199   -0.035060755384414735   -0.0008897758510171335
-0.0031308437156990837   -0.03785347469379943   -0.0010262607789533874
-0.0020791164746567807   -0.03777076064946349   -0.0009880004136521043
-0.003106237291504199   -0.035060755384414735   -0.0008897758510171335
-0.0014588476843844826   -0.03502818531295774   -0.0008374211299313885
-0.0014918967549368844   -0.035070958382406224   -0.0008026266423659384
-0.0020791164746567807   -0.03777076064946349   -0.0009880004136521043
-0.003106237291504199   -0.035060755384414735   -0.0008897758510171335
-0.0014918967549368844   -0.035070958382406224   -0.0008026266423659384
-0.0031308437156990837   -0.03785347469379943   -0.0010262607789533874
-0.0020791164746567807   -0.03777076064946349   -0.0009880004136521043
-0.0014588476843844826   -0.03502818531295774   -0.0008374211299313885
-0.003083669861692794   -0.03782419951922134   -0.0010248056545229243
-0.002032165511491972   -0.037763898165581594   -0.0010287325969321078
-0.0014588476843844826   -0.03502818531295774   -0.0008374211299313885
-0.003106237291504199   -0.035060755384414735   -0.0008897758510171335
-0.003083669861692794   -0.03782419951922134   -0.0010248056545229243
-0.003087165166215197   -0.03504559624611549   -0.0008823539510302381
-0.002032165511491972   -0.037763898165581594   -0.0010287325969321078
-0.0030381928280206706   -0.037819515368681146   -0.0010192613242379206
-0.003087165166215197   -0.03504559624611549   -0.0008823539510302381
-0.003083669861692794   -0.03782419951922134   -0.0010248056545229243
-0.002032165511491972   -0.037763898165581594   -0.0010287325969321078
-0.003087165166215197   -0.03504559624611549   -0.0008823539510302381
-0.0014390769889448057   -0.035007569553464124   -0.0008681545541231156
-0.0014588476843844826   -0.03502818531295774   -0.0008374211299313885
-0.002032165511491972   -0.037763898165581594   -0.0010287325969321078
-0.003087165166215197   -0.03504559624611549   -0.0008823539510302381
-0.0014588476843844826   -0.03502818531295774   -0.0008374211299313885
-0.003083669861692794   -0.03782419951922134   -0.0010248056545229243
-0.0031764406094434675   -0.037908552481614476   -0.0010236563333707999
-0.003149246992425478   -0.03515332136481751   -0.0008922420254506516
-0.004151675274521651   -0.03787248015774348   -0.001145352059794422
-0.0031308437156990837   -0.03785347469379943   -0.0010262607789533874
-0.003149246992425478   -0.03515332136481751   -0.0008922420254506516
-0.004752469367534328   -0.035101273802635176   -0.0010085814151216
-0.004151675274521651   -0.03787248015774348   -0.001145352059794422
-0.004732740990281795   -0.03505231797872531   -0.0009720561261849608
-0.0031308437156990837   -0.03785347469379943   -0.0010262607789533874
-0.004106439414558042   -0.03782351884476808   -0.0011031146156069407
-0.004732740990281795   -0.03505231797872531   -0.0009720561261849608
-0.004151675274521651   -0.03787248015774348   -0.001145352059794422
-0.0031308437156990837   -0.03785347469379943   -0.0010262607789533874
-0.004732740990281795   -0.03505231797872531   -0.0009720561261849608
-0.0031280485908284847   -0.035096552206369404   -0.0008931698539860507
-0.003149246992425478   -0.03515332136481751   -0.0008922420254506516
-0.0031308437156990837   -0.03785347469379943   -0.0010262607789533874
-0.004732740990281795   -0.03505231797872531   -0.0009720561261849608
-0.003149246992425478   -0.03515332136481751   -0.0008922420254506516
-0.004151675274521651   -0.03787248015774348   -0.001145352059794422
-0.0031308437156990837   -0.03785347469379943   -0.0010262607789533874
-0.0031280485908284847   -0.035096552206369404   -0.0008931698539860507
-0.004106439414558042   -0.03782351884476808   -0.0011031146156069407
-0.003083669861692794   -0.03782419951922134   -0.0010248056545229243
-0.0031280485908284847   -0.035096552206369404   -0.0008931698539860507
-0.004732740990281795   -0.03505231797872531   -0.0009720561261849608
-0.004106439414558042   -0.03782351884476808   -0.0011031146156069407
-0.004708894396468924   -0.035024105874351084   -0.0009313062043291053
-0.003083669861692794   -0.03782419951922134   -0.0010248056545229243
-0.004055677390757429   -0.03779993688934039   -0.0010568815355544825
-0.004708894396468924   -0.035024105874351084   -0.0009313062043291053
-0.004106439414558042   -0.03782351884476808   -0.0011031146156069407
-0.003083669861692794   -0.03782419951922134   -0.0010248056545229243
-0.004708894396468924   -0.035024105874351084   -0.0009313062043291053
-0.003106237291504199   -0.035060755384414735   -0.0008897758510171335
-0.0031280485908284847   -0.035096552206369404   -0.0008931698539860507
-0.003083669861692794   -0.03782419951922134   -0.0010248056545229243
-0.004708894396468924   -0.035024105874351084   -0.0009313062043291053
-0.0031280485908284847   -0.035096552206369404   -0.0008931698539860507
-0.004106439414558042   -0.03782351884476808   -0.0011031146156069407
-0.003083669861692794   -0.03782419951922134   -0.0010248056545229243
-0.003106237291504199   -0.035060755384414735   -0.0008897758510171335
-0.004055677390757429   -0.03779993688934039   -0.0010568815355544825
-0.0030381928280206706   -0.037819515368681146   -0.0010192613242379206
-0.003106237291504199   -0.035060755384414735   -0.0008897758510171335
-0.004708894396468924   -0.035024105874351084   -0.0009313062043291053
-0.004055677390757429   -0.03779993688934039   -0.0010568815355544825
-0.004685726857208181   -0.03501569522789099   -0.0008864609103258285
-0.0030381928280206706   -0.037819515368681146   -0.0010192613242379206
-0.004004746683362945   -0.037799337718743525   -0.0010061667043057844
-0.004685726857208181   -0.03501569522789099   -0.0008864609103258285
-0.004055677390757429   -0.03779993688934039   -0.0010568815355544825
-0.0030381928280206706   -0.037819515368681146   -0.0010192613242379206
-0.004685726857208181   -0.03501569522789099   -0.0008864609103258285
-0.003087165166215197   -0.03504559624611549   -0.0008823539510302381
-0.003106237291504199   -0.035060755384414735   -0.0008897758510171335
-0.0030381928280206706   -0.037819515368681146   -0.0010192613242379206
-0.004685726857208181   -0.03501569522789099   -0.0008864609103258285
-0.003106237291504199   -0.035060755384414735   -0.0008897758510171335
-0.004055677390757429   -0.03779993688934039   -0.0010568815355544825
-0.004151675274521651   -0.03787248015774348   -0.001145352059794422
-0.004752469367534328   -0.035101273802635176   -0.0010085814151216
-0.005222278171201053   -0.037755514064085054   -0.0012572961516940193
-0.004106439414558042   -0.03782351884476808   -0.0011031146156069407
-0.004752469367534328   -0.035101273802635176   -0.0010085814151216
-0.006432042505446402   -0.034982816600653895   -0.0011119699300242236
-0.005222278171201053   -0.037755514064085054   -0.0012572961516940193
-0.006406154692249497   -0.03494128217661879   -0.0010379254885625228
-0.004106439414558042   -0.03782351884476808   -0.0011031146156069407
-0.00516678761618493   -0.037712649202257496   -0.0011711713742188754
-0.006406154692249497   -0.03494128217661879   -0.0010379254885625228
-0.005222278171201053   -0.037755514064085054   -0.0012572961516940193
-0.004106439414558042   -0.03782351884476808   -0.0011031146156069407
-0.006406154692249497   -0.03494128217661879   -0.0010379254885625228
-0.004732740990281795   -0.03505231797872531   -0.0009720561261849608
-0.004752469367534328   -0.035101273802635176   -0.0010085814151216
-0.004106439414558042   -0.03782351884476808   -0.0011031146156069407
-0.006406154692249497   -0.03494128217661879   -0.0010379254885625228
-0.004752469367534328   -0.035101273802635176   -0.0010085814151216
-0.005222278171201053   -0.037755514064085054   -0.0012572961516940193
-0.004106439414558042   -0.03782351884476808   -0.0011031146156069407
-0.004732740990281795   -0.03505231797872531   -0.0009720561261849608
-0.00516678761618493   -0.037712649202257496   -0.0011711713742188754
-0.004055677390757429   -0.03779993688934039   -0.0010568815355544825
-0.004732740990281795   -0.03505231797872531   -0.0009720561261849608
-0.006406154692249497   -0.03494128217661879   -0.0010379254885625228
-0.00516678761618493   -0.037712649202257496   -0.0011711713742188754
-0.006362202031186051   -0.0349199459560027   -0.0009603110930190919
-0.004055677390757429   -0.03779993688934039   -0.0010568815355544825
-0.0050900626116580925   -0.03769473806894202   -0.0010813559005557129
-0.006362202031186051   -0.0349199459560027   -0.0009603110930190919
-0.00516678761618493   -0.037712649202257496   -0.0011711713742188754
-0.004055677390757429   -0.03779993688934039   -0.0010568815355544825
-0.006362202031186051   -0.0349199459560027   -0.0009603110930190919
-0.004708894396468924   -0.035024105874351084   -0.0009313062043291053
-0.004732740990281795   -0.03505231797872531   -0.0009720561261849608
-0.004055677390757429   -0.03779993688934039   -0.0010568815355544825
-0.006362202031186051   -0.0349199459560027   -0.0009603110930190919
-0.004732740990281795   -0.03505231797872531   -0.0009720561261849608
-0.00516678761618493   -0.037712649202257496   -0.0011711713742188754
-0.004055677390757429   -0.03779993688934039   -0.0010568815355544825
-0.004708894396468924   -0.035024105874351084   -0.0009313062043291053
-0.0050900626116580925   -0.03769473806894202   -0.0010813559005557129
-0.004004746683362945   -0.037799337718743525   -0.0010061667043057844
-0.004708894396468924   -0.035024105874351084   -0.0009313062043291053
-0.006362202031186051   -0.0349199459560027   -0.0009603110930190919
-0.0050900626116580925   -0.03769473806894202   -0.0010813559005557129
-0.00632663842632179   -0.03491996338618266   -0.0008780020807342332
-0.004004746683362945   -0.037799337718743525   -0.0010061667043057844
-0.005023287552754762   -0.03770179934633965   -0.0009853780173415831
-0.00632663842632179   -0.03491996338618266   -0.0008780020807342332
-0.0050900626116580925   -0.03769473806894202   -0.0010813559005557129
-0.004004746683362945   -0.037799337718743525   -0.0010061667043057844
-0.00632663842632179   -0.03491996338618266   -0.0008780020807342332
-0.004685726857208181   -0.03501569522789099   -0.0008864609103258285
-0.004708894396468924   -0.035024105874351084   -0.0009313062043291053
-0.004004746683362945   -0.037799337718743525   -0.0010061667043057844
-0.00632663842632179   -0.03491996338618266   -0.0008780020807342332
-0.004708894396468924   -0.035024105874351084   -0.0009313062043291053
-0.0050900626116580925   -0.03769473806894202   -0.0010813559005557129
-0.005222278171201053   -0.037755514064085054   -0.0012572961516940193
-0.006432042505446402   -0.034982816600653895   -0.0011119699300242236
-0.006600782486969793   -0.0375652877573204   -0.0013652289091747834
-0.00516678761618493   -0.037712649202257496   -0.0011711713742188754
-0.006432042505446402   -0.034982816600653895   -0.0011119699300242236
-0.008390536890493159   -0.03481187846100383   -0.0012087066050879588
-0.006600782486969793   -0.0375652877573204   -0.0013652289091747834
-0.00825678343747322   -0.03476840619790957   -0.0010927293280480485
-0.00516678761618493   -0.037712649202257496   -0.0011711713742188754
-0.006420395549807633   -0.03751860938241774   -0.0012292005538411099
-0.00825678343747322   -0.03476840619790957   -0.0010927293280480485
-0.006600782486969793   -0.0375652877573204   -0.0013652289091747834
-0.00516678761618493   -0.037712649202257496   -0.0011711713742188754
-0.00825678343747322   -0.03476840619790957   -0.0010927293280480485
-0.006406154692249497   -0.03494128217661879   -0.0010379254885625228
-0.006432042505446402   -0.034982816600653895   -0.0011119699300242236
-0.00516678761618493   -0.037712649202257496   -0.0011711713742188754
-0.00825678343747322   -0.03476840619790957   -0.0010927293280480485
-0.006432042505446402   -0.034982816600653895   -0.0011119699300242236
-0.006600782486969793   -0.0375652877573204   -0.0013652289091747834
-0.00516678761618493   -0.037712649202257496   -0.0011711713742188754
-0.006406154692249497   -0.03494128217661879   -0.0010379254885625228
-0.006420395549807633   -0.03751860938241774   -0.0012292005538411099
-0.0050900626116580925   -0.03769473806894202   -0.0010813559005557129
-0.006406154692249497   -0.03494128217661879   -0.0010379254885625228
-0.00825678343747322   -0.03476840619790957   -0.0010927293280480485
-0.006420395549807633   -0.03751860938241774   -0.0012292005538411099
-0.008140916027322845   -0.03474893770801163   -0.0009708497785718678
-0.0050900626116580925   -0.03769473806894202   -0.0010813559005557129
-0.006259047797288456   -0.03750204222000969   -0.0010854067510880732
-0.008140916027322845   -0.03474893770801163   -0.0009708497785718678
-0.006420395549807633   -0.03751860938241774   -0.0012292005538411099
-0.0050900626116580925   -0.03769473806894202   -0.0010813559005557129
-0.008140916027322845   -0.03474893770801163   -0.0009708497785718678
-0.006362202031186051   -0.0349199459560027   -0.0009603110930190919
-0.006406154692249497   -0.03494128217661879   -0.0010379254885625228
-0.0050900626116580925   -0.03769473806894202   -0.0010813559005557129
-0.008140916027322845   -0.03474893770801163   -0.0009708497785718678
-0.006406154692249497   -0.03494128217661879   -0.0010379254885625228
-0.006420395549807633   -0.03751860938241774   -0.0012292005538411099
-0.0050900626116580925   -0.03769473806894202   -0.0010813559005557129
-0.006362202031186051   -0.0349199459560027   -0.0009603110930190919
-0.006259047797288456   -0.03750204222000969   -0.0010854067510880732
-0.005023287552754762   -0.03770179934633965   -0.0009853780173415831
-0.006362202031186051   -0.0349199459560027   -0.0009603110930190919
-0.008140916027322845   -0.03474893770801163   -0.0009708497785718678
-0.006259047797288456   -0.03750204222000969   -0.0010854067510880732
-0.007984905725592675   -0.034762052352668896   -0.0008438415422084986
-0.005023287552754762   -0.03770179934633965   -0.0009853780173415831
-0.006049977135168998   -0.03752424547406205   -0.0009352003207412601
-0.007984905725592675   -0.034762052352668896   -0.0008438415422084986
-0.006259047797288456   -0.03750204222000969   -0.0010854067510880732
-0.005023287552754762   -0.03770179934633965   -0.0009853780173415831
-0.007984905725592675   -0.034762052352668896   -0.0008438415422084986
-0.00632663842632179   -0.03491996338618266   -0.0008780020807342332
-0.006362202031186051   -0.0349199459560027   -0.0009603110930190919
-0.005023287552754762   -0.03770179934633965   -0.0009853780173415831
-0.007984905725592675   -0.034762052352668896   -0.0008438415422084986
-0.006362202031186051   -0.0349199459560027   -0.0009603110930190919
-0.006259047797288456   -0.03750204222000969   -0.0010854067510880732
0.00016048587685193216   -0.03505298474008004   -0.0006065124274831568
0.0012001014260115167   -0.03137281926567217   -0.00046193533808269234
-0.0015208325978364257   -0.03513717092876056   -0.0007633254494543489
0.00027035845055301276   -0.03497341131103858   -0.0006961604193703529
0.0012001014260115167   -0.03137281926567217   -0.00046193533808269234
-0.001031858363241055   -0.03142882889153993   -0.0006116713869437747
-0.0015208325978364257   -0.03513717092876056   -0.0007633254494543489
-0.001025641286538213   -0.03136296486283579   -0.0006390800745018509
0.00027035845055301276   -0.03497341131103858   -0.0006961604193703529
-0.0014918967549368844   -0.035070958382406224   -0.0008026266423659384
-0.001025641286538213   -0.03136296486283579   -0.0006390800745018509
-0.0015208325978364257   -0.03513717092876056   -0.0007633254494543489
0.00027035845055301276   -0.03497341131103858   -0.0006961604193703529
-0.001025641286538213   -0.03136296486283579   -0.0006390800745018509
0.001265983285930114   -0.031295120226331914   -0.0005285989361550509
0.0012001014260115167   -0.03137281926567217   -0.00046193533808269234
0.00027035845055301276   -0.03497341131103858   -0.0006961604193703529
-0.001025641286538213   -0.03136296486283579   -0.0006390800745018509
0.0012001014260115167   -0.03137281926567217   -0.00046193533808269234
-0.0015208325978364257   -0.03513717092876056   -0.0007633254494543489
0.00027035845055301276   -0.03497341131103858   -0.0006961604193703529
0.001265983285930114   -0.031295120226331914   -0.0005285989361550509
-0.0014918967549368844   -0.035070958382406224   -0.0008026266423659384
0.00035124209302877173   -0.03492797807251225   -0.0007794999688647604
0.001265983285930114   -0.031295120226331914   -0.0005285989361550509
-0.001025641286538213   -0.03136296486283579   -0.0006390800745018509
-0.0014918967549368844   -0.035070958382406224   -0.0008026266423659384
-0.0010177016341322437   -0.03131567122796609   -0.0006623528596046144
0.00035124209302877173   -0.03492797807251225   -0.0007794999688647604
-0.0014588476843844826   -0.03502818531295774   -0.0008374211299313885
-0.0010177016341322437   -0.03131567122796609   -0.0006623528596046144
-0.0014918967549368844   -0.035070958382406224   -0.0008026266423659384
0.00035124209302877173   -0.03492797807251225   -0.0007794999688647604
-0.0010177016341322437   -0.03131567122796609   -0.0006623528596046144
0.0013082712695986394   -0.031244685105613842   -0.0005894138350245456
0.001265983285930114   -0.031295120226331914   -0.0005285989361550509
0.00035124209302877173   -0.03492797807251225   -0.0007794999688647604
-0.0010177016341322437   -0.03131567122796609   -0.0006623528596046144
0.001265983285930114   -0.031295120226331914   -0.0005285989361550509
-0.0014918967549368844   -0.035070958382406224   -0.0008026266423659384
0.00035124209302877173   -0.03492797807251225   -0.0007794999688647604
0.0013082712695986394   -0.031244685105613842   -0.0005894138350245456
-0.0014588476843844826   -0.03502818531295774   -0.0008374211299313885
0.0004381010132302746   -0.034906409196635194   -0.0008565046861665201
0.0013082712695986394   -0.031244685105613842   -0.0005894138350245456
-0.0010177016341322437   -0.03131567122796609   -0.0006623528596046144
-0.0014588476843844826   -0.03502818531295774   -0.0008374211299313885
-0.0010211349634718328   -0.031285409168168736   -0.0006817907557452434
0.0004381010132302746   -0.034906409196635194   -0.0008565046861665201
-0.0014390769889448057   -0.035007569553464124   -0.0008681545541231156
-0.0010211349634718328   -0.031285409168168736   -0.0006817907557452434
-0.0014588476843844826   -0.03502818531295774   -0.0008374211299313885
0.0004381010132302746   -0.034906409196635194   -0.0008565046861665201
-0.0010211349634718328   -0.031285409168168736   -0.0006817907557452434
0.001351945412501351   -0.03121158097304117   -0.0006445063916961961
0.0013082712695986394   -0.031244685105613842   -0.0005894138350245456
0.0004381010132302746   -0.034906409196635194   -0.0008565046861665201
-0.0010211349634718328   -0.031285409168168736   -0.0006817907557452434
0.0013082712695986394   -0.031244685105613842   -0.0005894138350245456
-0.0014588476843844826   -0.03502818531295774   -0.0008374211299313885
-0.0015208325978364257   -0.03513717092876056   -0.0007633254494543489
-0.001031858363241055   -0.03142882889153993   -0.0006116713869437747
-0.003149246992425478   -0.03515332136481751   -0.0008922420254506516
-0.0014918967549368844   -0.035070958382406224   -0.0008026266423659384
-0.001031858363241055   -0.03142882889153993   -0.0006116713869437747
-0.0031812090401115867   -0.031429311920735045   -0.0007347942081900794
-0.003149246992425478   -0.03515332136481751   -0.0008922420254506516
-0.0031813881435488567   -0.03137370688625479   -0.0007321968401501386
-0.0014918967549368844   -0.035070958382406224   -0.0008026266423659384
-0.0031280485908284847   -0.035096552206369404   -0.0008931698539860507
-0.0031813881435488567   -0.03137370688625479   -0.0007321968401501386
-0.003149246992425478   -0.03515332136481751   -0.0008922420254506516
-0.0014918967549368844   -0.035070958382406224   -0.0008026266423659384
-0.0031813881435488567   -0.03137370688625479   -0.0007321968401501386
-0.001025641286538213   -0.03136296486283579   -0.0006390800745018509
-0.001031858363241055   -0.03142882889153993   -0.0006116713869437747
-0.0014918967549368844   -0.035070958382406224   -0.0008026266423659384
-0.0031813881435488567   -0.03137370688625479   -0.0007321968401501386
-0.001031858363241055   -0.03142882889153993   -0.0006116713869437747
-0.003149246992425478   -0.03515332136481751   -0.0008922420254506516
-0.0014918967549368844   -0.035070958382406224   -0.0008026266423659384
-0.001025641286538213   -0.03136296486283579   -0.0006390800745018509
-0.0031280485908284847   -0.035096552206369404   -0.0008931698539860507
-0.0014588476843844826   -0.03502818531295774   -0.0008374211299313885
-0.001025641286538213   -0.03136296486283579   -0.0006390800745018509
-0.0031813881435488567   -0.03137370688625479   -0.0007321968401501386
-0.0031280485908284847   -0.035096552206369404   -0.0008931698539860507
-0.0031814168235830393   -0.03133446623684656   -0.0007254753391561105
-0.0014588476843844826   -0.03502818531295774   -0.0008374211299313885
-0.003106237291504199   -0.035060755384414735   -0.0008897758510171335
-0.0031814168235830393   -0.03133446623684656   -0.0007254753391561105
-0.0031280485908284847   -0.035096552206369404   -0.0008931698539860507
-0.0014588476843844826   -0.03502818531295774   -0.0008374211299313885
-0.0031814168235830393   -0.03133446623684656   -0.0007254753391561105
-0.0010177016341322437   -0.03131567122796609   -0.0006623528596046144
-0.001025641286538213   -0.03136296486283579   -0.0006390800745018509
-0.0014588476843844826   -0.03502818531295774   -0.0008374211299313885
-0.0031814168235830393   -0.03133446623684656   -0.0007254753391561105
-0.001025641286538213   -0.03136296486283579   -0.0006390800745018509
-0.0031280485908284847   -0.035096552206369404   -0.0008931698539860507
-0.0014588476843844826   -0.03502818531295774   -0.0008374211299313885
-0.0010177016341322437   -0.03131567122796609   -0.0006623528596046144
-0.003106237291504199   -0.035060755384414735   -0.0008897758510171335
-0.0014390769889448057   -0.035007569553464124   -0.0008681545541231156
-0.0010177016341322437   -0.03131567122796609   -0.0006623528596046144
-0.0031814168235830393   -0.03133446623684656   -0.0007254753391561105
-0.003106237291504199   -0.035060755384414735   -0.0008897758510171335
-0.0031843078430625338   -0.03131162071926609   -0.000714849308998555
-0.0014390769889448057   -0.035007569553464124   -0.0008681545541231156
-0.003087165166215197   -0.03504559624611549   -0.0008823539510302381
-0.0031843078430625338   -0.03131162071926609   -0.000714849308998555
-0.003106237291504199   -0.035060755384414735   -0.0008897758510171335
-0.0014390769889448057   -0.035007569553464124   -0.0008681545541231156
-0.0031843078430625338   -0.03131162071926609   -0.000714849308998555
-0.0010211349634718328   -0.031285409168168736   -0.0006817907557452434
-0.0010177016341322437   -0.03131567122796609   -0.0006623528596046144
-0.0014390769889448057   -0.035007569553464124   -0.0008681545541231156
-0.0031843078430625338   -0.03131162071926609   -0.000714849308998555
-0.0010177016341322437   -0.03131567122796609   -0.0006623528596046144
-0.003106237291504199   -0.035060755384414735   -0.0008897758510171335
-0.003149246992425478   -0.03515332136481751   -0.0008922420254506516
-0.0031812090401115867   -0.031429311920735045   -0.0007347942081900794
-0.004752469367534328   -0.035101273802635176   -0.0010085814151216
-0.0031280485908284847   -0.035096552206369404   -0.0008931698539860507
-0.0031812090401115867   -0.031429311920735045   -0.0007347942081900794
-0.005294430684189001   -0.03137566394126608   -0.000842530392054697
-0.004752469367534328   -0.035101273802635176   -0.0010085814151216
-0.005296213757873893   -0.031329035649917285   -0.0008102939130220215
-0.0031280485908284847   -0.035096552206369404   -0.0008931698539860507
-0.004732740990281795   -0.03505231797872531   -0.0009720561261849608
-0.005296213757873893   -0.031329035649917285   -0.0008102939130220215
-0.004752469367534328   -0.035101273802635176   -0.0010085814151216
-0.0031280485908284847   -0.035096552206369404   -0.0008931698539860507
-0.005296213757873893   -0.031329035649917285   -0.0008102939130220215
-0.0031813881435488567   -0.03137370688625479   -0.0007321968401501386
-0.0031812090401115867   -0.031429311920735045   -0.0007347942081900794
-0.0031280485908284847   -0.035096552206369404   -0.0008931698539860507
-0.005296213757873893   -0.031329035649917285   -0.0008102939130220215
-0.0031812090401115867   -0.031429311920735045   -0.0007347942081900794
-0.004752469367534328   -0.035101273802635176   -0.0010085814151216
-0.0031280485908284847   -0.035096552206369404   -0.0008931698539860507
-0.0031813881435488567   -0.03137370688625479   -0.0007321968401501386
-0.004732740990281795   -0.03505231797872531   -0.0009720561261849608
-0.003106237291504199   -0.035060755384414735   -0.0008897758510171335
-0.0031813881435488567   -0.03137370688625479   -0.0007321968401501386
-0.005296213757873893   -0.031329035649917285   -0.0008102939130220215
-0.004732740990281795   -0.03505231797872531   -0.0009720561261849608
-0.005294405536947237   -0.031298627512775276   -0.0007740163289351275
-0.003106237291504199   -0.035060755384414735   -0.0008897758510171335
-0.004708894396468924   -0.035024105874351084   -0.0009313062043291053
-0.005294405536947237   -0.031298627512775276   -0.0007740163289351275
-0.004732740990281795   -0.03505231797872531   -0.0009720561261849608
-0.003106237291504199   -0.035060755384414735   -0.0008897758510171335
-0.005294405536947237   -0.031298627512775276   -0.0007740163289351275
-0.0031814168235830393   -0.03133446623684656   -0.0007254753391561105
-0.0031813881435488567   -0.03137370688625479   -0.0007321968401501386
-0.003106237291504199   -0.035060755384414735   -0.0008897758510171335
-0.005294405536947237   -0.031298627512775276   -0.0007740163289351275
-0.0031813881435488567   -0.03137370688625479   -0.0007321968401501386
-0.004732740990281795   -0.03505231797872531   -0.0009720561261849608
-0.003106237291504199   -0.035060755384414735   -0.0008897758510171335
-0.0031814168235830393   -0.03133446623684656   -0.0007254753391561105
-0.004708894396468924   -0.035024105874351084   -0.0009313062043291053
-0.003087165166215197   -0.03504559624611549   -0.0008823539510302381
-0.0031814168235830393   -0.03133446623684656   -0.0007254753391561105
-0.005294405536947237   -0.031298627512775276   -0.0007740163289351275
-0.004708894396468924   -0.035024105874351084   -0.0009313062043291053
-0.005293258219329179   -0.03128416040310052   -0.0007338140162696284
-0.003087165166215197   -0.03504559624611549   -0.0008823539510302381
-0.004685726857208181   -0.03501569522789099   -0.0008864609103258285
-0.005293258219329179   -0.03128416040310052   -0.0007338140162696284
-0.004708894396468924   -0.035024105874351084   -0.0009313062043291053
-0.003087165166215197   -0.03504559624611549   -0.0008823539510302381
-0.005293258219329179   -0.03128416040310052   -0.0007338140162696284
-0.0031843078430625338   -0.03131162071926609   -0.000714849308998555
-0.0031814168235830393   -0.03133446623684656   -0.0007254753391561105
-0.003087165166215197   -0.03504559624611549   -0.0008823539510302381
-0.005293258219329179   -0.03128416040310052   -0.0007338140162696284
-0.0031814168235830393   -0.03133446623684656   -0.0007254753391561105
-0.004708894396468924   -0.035024105874351084   -0.0009313062043291053
-0.004752469367534328   -0.035101273802635176   -0.0010085814151216
-0.005294430684189001   -0.03137566394126608   -0.000842530392054697
-0.006432042505446402   -0.034982816600653895   -0.0011119699300242236
-0.004732740990281795   -0.03505231797872531   -0.0009720561261849608
-0.005294430684189001   -0.03137566394126608   -0.000842530392054697
-0.0074732725899713335   -0.03126987045331581   -0.000935137121808296
-0.006432042505446402   -0.034982816600653895   -0.0011119699300242236
-0.007470547514741642   -0.03123180667262004   -0.0008729020615933241
-0.004732740990281795   -0.03505231797872531   -0.0009720561261849608
-0.006406154692249497   -0.03494128217661879   -0.0010379254885625228
-0.007470547514741642   -0.03123180667262004   -0.0008729020615933241
-0.006432042505446402   -0.034982816600653895   -0.0011119699300242236
-0.004732740990281795   -0.03505231797872531   -0.0009720561261849608
-0.007470547514741642   -0.03123180667262004   -0.0008729020615933241
-0.005296213757873893   -0.031329035649917285   -0.0008102939130220215
-0.005294430684189001   -0.03137566394126608   -0.000842530392054697
-0.004732740990281795   -0.03505231797872531   -0.0009720561261849608
-0.007470547514741642   -0.03123180667262004   -0.0008729020615933241
-0.005294430684189001   -0.03137566394126608   -0.000842530392054697
-0.006432042505446402   -0.034982816600653895   -0.0011119699300242236
-0.004732740990281795   -0.03505231797872531   -0.0009720561261849608
-0.005296213757873893   -0.031329035649917285   -0.0008102939130220215
-0.006406154692249497   -0.03494128217661879   -0.0010379254885625228
-0.004708894396468924   -0.035024105874351084   -0.0009313062043291053
-0.005296213757873893   -0.031329035649917285   -0.0008102939130220215
-0.007470547514741642   -0.03123180667262004   -0.0008729020615933241
-0.006406154692249497   -0.03494128217661879   -0.0010379254885625228
-0.007452067945191041   -0.031209408846520046   -0.0008072370402146337
-0.004708894396468924   -0.035024105874351084   -0.0009313062043291053
-0.006362202031186051   -0.0349199459560027   -0.0009603110930190919
-0.007452067945191041   -0.031209408846520046   -0.0008072370402146337
-0.006406154692249497   -0.03494128217661879   -0.0010379254885625228
-0.004708894396468924   -0.035024105874351084   -0.0009313062043291053
-0.007452067945191041   -0.031209408846520046   -0.0008072370402146337
-0.005294405536947237   -0.031298627512775276   -0.0007740163289351275
-0.005296213757873893   -0.031329035649917285   -0.0008102939130220215
-0.004708894396468924   -0.035024105874351084   -0.0009313062043291053
-0.007452067945191041   -0.031209408846520046   -0.0008072370402146337
-0.005296213757873893   -0.031329035649917285   -0.0008102939130220215
-0.006406154692249497   -0.03494128217661879   -0.0010379254885625228
-0.004708894396468924   -0.035024105874351084   -0.0009313062043291053
-0.005294405536947237   -0.031298627512775276   -0.0007740163289351275
-0.006362202031186051   -0.0349199459560027   -0.0009603110930190919
-0.004685726857208181   -0.03501569522789099   -0.0008864609103258285
-0.005294405536947237   -0.031298627512775276   -0.0007740163289351275
-0.007452067945191041   -0.031209408846520046   -0.0008072370402146337
-0.006362202031186051   -0.0349199459560027   -0.0009603110930190919
-0.007439765631771013   -0.031204297654723722   -0.0007373287269699702
-0.004685726857208181   -0.03501569522789099   -0.0008864609103258285
-0.00632663842632179   -0.03491996338618266   -0.0008780020807342332
-0.007439765631771013   -0.031204297654723722   -0.0007373287269699702
-0.006362202031186051   -0.0349199459560027   -0.0009603110930190919
-0.004685726857208181   -0.03501569522789099   -0.0008864609103258285
-0.007439765631771013   -0.031204297654723722   -0.0007373287269699702
-0.005293258219329179   -0.03128416040310052   -0.0007338140162696284
-0.005294405536947237   -0.031298627512775276   -0.0007740163289351275
-0.004685726857208181   -0.03501569522789099   -0.0008864609103258285
-0.007439765631771013   -0.031204297654723722   -0.0007373287269699702
-0.005294405536947237   -0.031298627512775276   -0.0007740163289351275
-0.006362202031186051   -0.0349199459560027   -0.0009603110930190919
-0.006432042505446402   -0.034982816600653895   -0.0011119699300242236
-0.0074732725899713335   -0.03126987045331581   -0.000935137121808296
-0.008390536890493159   -0.03481187846100383   -0.0012087066050879588
-0.006406154692249497   -0.03494128217661879   -0.0010379254885625228
-0.0074732725899713335   -0.03126987045331581   -0.000935137121808296
-0.009907099373977065   -0.03112367320055851   -0.0010188319468092922
-0.008390536890493159   -0.03481187846100383   -0.0012087066050879588
-0.009815033660593305   -0.031086223875737885   -0.0009235124926587261
-0.006406154692249497   -0.03494128217661879   -0.0010379254885625228
-0.00825678343747322   -0.03476840619790957   -0.0010927293280480485
-0.009815033660593305   -0.031086223875737885   -0.0009235124926587261
-0.008390536890493159   -0.03481187846100383   -0.0012087066050879588
-0.006406154692249497   -0.03494128217661879   -0.0010379254885625228
-0.009815033660593305   -0.031086223875737885   -0.0009235124926587261
-0.007470547514741642   -0.03123180667262004   -0.0008729020615933241
-0.0074732725899713335   -0.03126987045331581   -0.000935137121808296
-0.006406154692249497   -0.03494128217661879   -0.0010379254885625228
-0.009815033660593305   -0.031086223875737885   -0.0009235124926587261
-0.0074732725899713335   -0.03126987045331581   -0.000935137121808296
-0.008390536890493159   -0.03481187846100383   -0.0012087066050879588
-0.006406154692249497   -0.03494128217661879   -0.0010379254885625228
-0.007470547514741642   -0.03123180667262004   -0.0008729020615933241
-0.00825678343747322   -0.03476840619790957   -0.0010927293280480485
-0.006362202031186051   -0.0349199459560027   -0.0009603110930190919
-0.007470547514741642   -0.03123180667262004   -0.0008729020615933241
-0.009815033660593305   -0.031086223875737885   -0.0009235124926587261
-0.00825678343747322   -0.03476840619790957   -0.0010927293280480485
-0.009736435604018163   -0.031066754000126238   -0.0008224149628546105
-0.006362202031186051   -0.0349199459560027   -0.0009603110930190919
-0.008140916027322845   -0.03474893770801163   -0.0009708497785718678
-0.009736435604018163   -0.031066754000126238   -0.0008224149628546105
-0.00825678343747322   -0.03476840619790957   -0.0010927293280480485
-0.006362202031186051   -0.0349199459560027   -0.0009603110930190919
-0.009736435604018163   -0.031066754000126238   -0.0008224149628546105
-0.007452067945191041   -0.031209408846520046   -0.0008072370402146337
-0.007470547514741642   -0.03123180667262004   -0.0008729020615933241
-0.006362202031186051   -0.0349199459560027   -0.0009603110930190919
-0.009736435604018163   -0.031066754000126238   -0.0008224149628546105
-0.007470547514741642   -0.03123180667262004   -0.0008729020615933241
-0.00825678343747322   -0.03476840619790957   -0.0010927293280480485
-0.006362202031186051   -0.0349199459560027   -0.0009603110930190919
-0.007452067945191041   -0.031209408846520046   -0.0008072370402146337
-0.008140916027322845   -0.03474893770801163   -0.0009708497785718678
-0.00632663842632179   -0.03491996338618266   -0.0008780020807342332
-0.007452067945191041   -0.031209408846520046   -0.0008072370402146337
-0.009736435604018163   -0.031066754000126238   -0.0008224149628546105
-0.008140916027322845   -0.03474893770801163   -0.0009708497785718678
-0.009623196130881731   -0.031074651607605648   -0.0007163374974604863
-0.00632663842632179   -0.03491996338618266   -0.0008780020807342332
-0.007984905725592675   -0.034762052352668896   -0.0008438415422084986
-0.009623196130881731   -0.031074651607605648   -0.0007163374974604863
-0.008140916027322845   -0.03474893770801163   -0.0009708497785718678
-0.00632663842632179   -0.03491996338618266   -0.0008780020807342332
-0.009623196130881731   -0.031074651607605648   -0.0007163374974604863
-0.007439765631771013   -0.031204297654723722   -0.0007373287269699702
-0.007452067945191041   -0.031209408846520046   -0.0008072370402146337
-0.00632663842632179   -0.03491996338618266   -0.0008780020807342332
-0.009623196130881731   -0.031074651607605648   -0.0007163374974604863
-0.007452067945191041   -0.031209408846520046   -0.0008072370402146337
-0.008140916027322845   -0.03474893770801163   -0.0009708497785718678
0.0012001014260115167   -0.03137281926567217   -0.00046193533808269234
0.0019211413783499338   -0.02693489462336169   -0.0003079411547904286
-0.001031858363241055   -0.03142882889153993   -0.0006116713869437747
0.001265983285930114   -0.031295120226331914   -0.0005285989361550509
0.0019211413783499338   -0.02693489462336169   -0.0003079411547904286
-0.0007323710097176625   -0.02696283824655629   -0.00044878177289972457
-0.001031858363241055   -0.03142882889153993   -0.0006116713869437747
-0.0007444866807840185   -0.026898605367118265   -0.00046373730115342813
0.001265983285930114   -0.031295120226331914   -0.0005285989361550509
-0.001025641286538213   -0.03136296486283579   -0.0006390800745018509
-0.0007444866807840185   -0.026898605367118265   -0.00046373730115342813
-0.001031858363241055   -0.03142882889153993   -0.0006116713869437747
0.001265983285930114   -0.031295120226331914   -0.0005285989361550509
-0.0007444866807840185   -0.026898605367118265   -0.00046373730115342813
0.0019479223882155128   -0.02686003124877641   -0.0003519704997937146
0.0019211413783499338   -0.02693489462336169   -0.0003079411547904286
0.001265983285930114   -0.031295120226331914   -0.0005285989361550509
-0.0007444866807840185   -0.026898605367118265   -0.00046373730115342813
0.0019211413783499338   -0.02693489462336169   -0.0003079411547904286
-0.001031858363241055   -0.03142882889153993   -0.0006116713869437747
0.001265983285930114   -0.031295120226331914   -0.0005285989361550509
0.0019479223882155128   -0.02686003124877641   -0.0003519704997937146
-0.001025641286538213   -0.03136296486283579   -0.0006390800745018509
0.0013082712695986394   -0.031244685105613842   -0.0005894138350245456
0.0019479223882155128   -0.02686003124877641   -0.0003519704997937146
-0.0007444866807840185   -0.026898605367118265   -0.00046373730115342813
-0.001025641286538213   -0.03136296486283579   -0.0006390800745018509
-0.0007571753065431045   -0.02684820588216093   -0.0004749826450679288
0.0013082712695986394   -0.031244685105613842   -0.0005894138350245456
-0.0010177016341322437   -0.03131567122796609   -0.0006623528596046144
-0.0007571753065431045   -0.02684820588216093   -0.0004749826450679288
-0.001025641286538213   -0.03136296486283579   -0.0006390800745018509
0.0013082712695986394   -0.031244685105613842   -0.0005894138350245456
-0.0007571753065431045   -0.02684820588216093   -0.0004749826450679288
0.0019566060616885202   -0.02680599591239552   -0.0003905217927024763
0.0019479223882155128   -0.02686003124877641   -0.0003519704997937146
0.0013082712695986394   -0.031244685105613842   -0.0005894138350245456
-0.0007571753065431045   -0.02684820588216093   -0.0004749826450679288
0.0019479223882155128   -0.02686003124877641   -0.0003519704997937146
-0.001025641286538213   -0.03136296486283579   -0.0006390800745018509
0.0013082712695986394   -0.031244685105613842   -0.0005894138350245456
0.0019566060616885202   -0.02680599591239552   -0.0003905217927024763
-0.0010177016341322437   -0.03131567122796609   -0.0006623528596046144
0.001351945412501351   -0.03121158097304117   -0.0006445063916961961
0.0019566060616885202   -0.02680599591239552   -0.0003905217927024763
-0.0007571753065431045   -0.02684820588216093   -0.0004749826450679288
-0.0010177016341322437   -0.03131567122796609   -0.0006623528596046144
-0.0007791157941000273   -0.02681002638024976   -0.00048264225386242737
0.001351945412501351   -0.03121158097304117   -0.0006445063916961961
-0.0010211349634718328   -0.031285409168168736   -0.0006817907557452434
-0.0007791157941000273   -0.02681002638024976   -0.00048264225386242737
-0.0010177016341322437   -0.03131567122796609   -0.0006623528596046144
0.001351945412501351   -0.03121158097304117   -0.0006445063916961961
-0.0007791157941000273   -0.02681002638024976   -0.00048264225386242737
0.001962099691691318   -0.02676308621499118   -0.00042385653847951707
0.0019566060616885202   -0.02680599591239552   -0.0003905217927024763
0.001351945412501351   -0.03121158097304117   -0.0006445063916961961
-0.0007791157941000273   -0.02681002638024976   -0.00048264225386242737
0.0019566060616885202   -0.02680599591239552   -0.0003905217927024763
-0.0010177016341322437   -0.03131567122796609   -0.0006623528596046144
-0.001031858363241055   -0.03142882889153993   -0.0006116713869437747
-0.0007323710097176625   -0.02696283824655629   -0.00044878177289972457
-0.0031812090401115867   -0.031429311920735045   -0.0007347942081900794
-0.001025641286538213   -0.03136296486283579   -0.0006390800745018509
-0.0007323710097176625   -0.02696283824655629   -0.00044878177289972457
-0.003276949566023352   -0.026949007696967505   -0.0005643200038265878
-0.0031812090401115867   -0.031429311920735045   -0.0007347942081900794
-0.0032939904805828766   -0.02689549476768389   -0.000557474442240017
-0.001025641286538213   -0.03136296486283579   -0.0006390800745018509
-0.0031813881435488567   -0.03137370688625479   -0.0007321968401501386
-0.0032939904805828766   -0.02689549476768389   -0.000557474442240017
-0.0031812090401115867   -0.031429311920735045   -0.0007347942081900794
-0.001025641286538213   -0.03136296486283579   -0.0006390800745018509
-0.0032939904805828766   -0.02689549476768389   -0.000557474442240017
-0.0007444866807840185   -0.026898605367118265   -0.00046373730115342813
-0.0007323710097176625   -0.02696283824655629   -0.00044878177289972457
-0.001025641286538213   -0.03136296486283579   -0.0006390800745018509
-0.0032939904805828766   -0.02689549476768389   -0.000557474442240017
-0.0007323710097176625   -0.02696283824655629   -0.00044878177289972457
-0.0031812090401115867   -0.031429311920735045   -0.0007347942081900794
-0.001025641286538213   -0.03136296486283579   -0.0006390800745018509
-0.0007444866807840185   -0.026898605367118265   -0.00046373730115342813
-0.0031813881435488567   -0.03137370688625479   -0.0007321968401501386
-0.0010177016341322437   -0.03131567122796609   -0.0006623528596046144
-0.0007444866807840185   -0.026898605367118265   -0.00046373730115342813
-0.0032939904805828766   -0.02689549476768389   -0.000557474442240017
-0.0031813881435488567   -0.03137370688625479   -0.0007321968401501386
-0.003311267646238089   -0.026853835478514932   -0.000546805172435105
-0.0010177016341322437   -0.03131567122796609   -0.0006623528596046144
-0.0031814168235830393   -0.03133446623684656   -0.0007254753391561105
-0.003311267646238089   -0.026853835478514932   -0.000546805172435105
-0.0031813881435488567   -0.03137370688625479   -0.0007321968401501386
-0.0010177016341322437   -0.03131567122796609   -0.0006623528596046144
-0.003311267646238089   -0.026853835478514932   -0.000546805172435105
-0.0007571753065431045   -0.02684820588216093   -0.0004749826450679288
-0.0007444866807840185   -0.026898605367118265   -0.00046373730115342813
-0.0010177016341322437   -0.03131567122796609   -0.0006623528596046144
-0.003311267646238089   -0.026853835478514932   -0.000546805172435105
-0.0007444866807840185   -0.026898605367118265   -0.00046373730115342813
-0.0031813881435488567   -0.03137370688625479   -0.0007321968401501386
-0.0010177016341322437   -0.03131567122796609   -0.0006623528596046144
-0.0007571753065431045   -0.02684820588216093   -0.0004749826450679288
-0.0031814168235830393   -0.03133446623684656   -0.0007254753391561105
-0.0010211349634718328   -0.031285409168168736   -0.0006817907557452434
-0.0007571753065431045   -0.02684820588216093   -0.0004749826450679288
-0.003311267646238089   -0.026853835478514932   -0.000546805172435105
-0.0031814168235830393   -0.03133446623684656   -0.0007254753391561105
-0.0033312687072866924   -0.02682422896519449   -0.0005325018006330662
-0.0010211349634718328   -0.031285409168168736   -0.0006817907557452434
-0.0031843078430625338   -0.03131162071926609   -0.000714849308998555
-0.0033312687072866924   -0.02682422896519449   -0.0005325018006330662
-0.0031814168235830393   -0.03133446623684656   -0.0007254753391561105
-0.0010211349634718328   -0.031285409168168736   -0.0006817907557452434
-0.0033312687072866924   -0.02682422896519449   -0.0005325018006330662
-0.0007791157941000273   -0.02681002638024976   -0.00048264225386242737
-0.0007571753065431045   -0.02684820588216093   -0.0004749826450679288
-0.0010211349634718328   -0.031285409168168736   -0.0006817907557452434
-0.0033312687072866924   -0.02682422896519449   -0.0005325018006330662
-0.0007571753065431045   -0.02684820588216093   -0.0004749826450679288
-0.0031814168235830393   -0.03133446623684656   -0.0007254753391561105
-0.0031812090401115867   -0.031429311920735045   -0.0007347942081900794
-0.003276949566023352   -0.026949007696967505   -0.0005643200038265878
-0.005294430684189001   -0.03137566394126608   -0.000842530392054697
-0.0031813881435488567   -0.03137370688625479   -0.0007321968401501386
-0.003276949566023352   -0.026949007696967505   -0.0005643200038265878
-0.0057787556886811   -0.026896105812097035   -0.0006629774229653791
-0.005294430684189001   -0.03137566394126608   -0.000842530392054697
-0.005797192859465348   -0.02685229886390758   -0.0006344467249407697
-0.0031813881435488567   -0.03137370688625479   -0.0007321968401501386
-0.005296213757873893   -0.031329035649917285   -0.0008102939130220215
-0.005797192859465348   -0.02685229886390758   -0.0006344467249407697
-0.005294430684189001   -0.03137566394126608   -0.000842530392054697
-0.0031813881435488567   -0.03137370688625479   -0.0007321968401501386
-0.005797192859465348   -0.02685229886390758   -0.0006344467249407697
-0.0032939904805828766   -0.02689549476768389   -0.000557474442240017
-0.003276949566023352   -0.026949007696967505   -0.0005643200038265878
-0.0031813881435488567   -0.03137370688625479   -0.0007321968401501386
-0.005797192859465348   -0.02685229886390758   -0.0006344467249407697
-0.003276949566023352   -0.026949007696967505   -0.0005643200038265878
-0.005294430684189001   -0.03137566394126608   -0.000842530392054697
-0.0031813881435488567   -0.03137370688625479   -0.0007321968401501386
-0.0032939904805828766   -0.02689549476768389   -0.000557474442240017
-0.005296213757873893   -0.031329035649917285   -0.0008102939130220215
-0.0031814168235830393   -0.03133446623684656   -0.0007254753391561105
-0.0032939904805828766   -0.02689549476768389   -0.000557474442240017
-0.005797192859465348   -0.02685229886390758   -0.0006344467249407697
-0.005296213757873893   -0.031329035649917285   -0.0008102939130220215
-0.005812431817623067   -0.026820233106192505   -0.0006021624498110694
-0.0031814168235830393   -0.03133446623684656   -0.0007254753391561105
-0.005294405536947237   -0.031298627512775276   -0.0007740163289351275
-0.005812431817623067   -0.026820233106192505   -0.0006021624498110694
-0.005296213757873893   -0.031329035649917285   -0.0008102939130220215
-0.0031814168235830393   -0.03133446623684656   -0.0007254753391561105
-0.005812431817623067   -0.026820233106192505   -0.0006021624498110694
-0.003311267646238089   -0.026853835478514932   -0.000546805172435105
-0.0032939904805828766   -0.02689549476768389   -0.000557474442240017
-0.0031814168235830393   -0.03133446623684656   -0.0007254753391561105
-0.005812431817623067   -0.026820233106192505   -0.0006021624498110694
-0.0032939904805828766   -0.02689549476768389   -0.000557474442240017
-0.005296213757873893   -0.031329035649917285   -0.0008102939130220215
-0.0031814168235830393   -0.03133446623684656   -0.0007254753391561105
-0.003311267646238089   -0.026853835478514932   -0.000546805172435105
-0.005294405536947237   -0.031298627512775276   -0.0007740163289351275
-0.0031843078430625338   -0.03131162071926609   -0.000714849308998555
-0.003311267646238089   -0.026853835478514932   -0.000546805172435105
-0.005812431817623067   -0.026820233106192505   -0.0006021624498110694
-0.005294405536947237   -0.031298627512775276   -0.0007740163289351275
-0.005828125777206724   -0.02679985752161764   -0.0005662334412303103
-0.0031843078430625338   -0.03131162071926609   -0.000714849308998555
-0.005293258219329179   -0.03128416040310052   -0.0007338140162696284
-0.005828125777206724   -0.02679985752161764   -0.0005662334412303103
-0.005294405536947237   -0.031298627512775276   -0.0007740163289351275
-0.0031843078430625338   -0.03131162071926609   -0.000714849308998555
-0.005828125777206724   -0.02679985752161764   -0.0005662334412303103
-0.0033312687072866924   -0.02682422896519449   -0.0005325018006330662
-0.003311267646238089   -0.026853835478514932   -0.000546805172435105
-0.0031843078430625338   -0.03131162071926609   -0.000714849308998555
-0.005828125777206724   -0.02679985752161764   -0.0005662334412303103
-0.003311267646238089   -0.026853835478514932   -0.000546805172435105
-0.005294405536947237   -0.031298627512775276   -0.0007740163289351275
-0.005294430684189001   -0.03137566394126608   -0.000842530392054697
-0.0057787556886811   -0.026896105812097035   -0.0006629774229653791
-0.0074732725899713335   -0.03126987045331581   -0.000935137121808296
-0.005296213757873893   -0.031329035649917285   -0.0008102939130220215
-0.0057787556886811   -0.026896105812097035   -0.0006629774229653791
-0.00834003862593343   -0.02680516688561267   -0.0007451742856226201
-0.0074732725899713335   -0.03126987045331581   -0.000935137121808296
-0.008355199931050047   -0.026770817196860648   -0.0006946581947914366
-0.005296213757873893   -0.031329035649917285   -0.0008102939130220215
-0.007470547514741642   -0.03123180667262004   -0.0008729020615933241
-0.008355199931050047   -0.026770817196860648   -0.0006946581947914366
-0.0074732725899713335   -0.03126987045331581   -0.000935137121808296
-0.005296213757873893   -0.031329035649917285   -0.0008102939130220215
-0.008355199931050047   -0.026770817196860648   -0.0006946581947914366
-0.005797192859465348   -0.02685229886390758   -0.0006344467249407697
-0.0057787556886811   -0.026896105812097035   -0.0006629774229653791
-0.005296213757873893   -0.031329035649917285   -0.0008102939130220215
-0.008355199931050047   -0.026770817196860648   -0.0006946581947914366
-0.0057787556886811   -0.026896105812097035   -0.0006629774229653791
-0.0074732725899713335   -0.03126987045331581   -0.000935137121808296
-0.005296213757873893   -0.031329035649917285   -0.0008102939130220215
-0.005797192859465348   -0.02685229886390758   -0.0006344467249407697
-0.007470547514741642   -0.03123180667262004   -0.0008729020615933241
-0.005294405536947237   -0.031298627512775276   -0.0007740163289351275
-0.005797192859465348   -0.02685229886390758   -0.0006344467249407697
-0.008355199931050047   -0.026770817196860648   -0.0006946581947914366
-0.007470547514741642   -0.03123180667262004   -0.0008729020615933241
-0.008356830046274438   -0.026747528075872516   -0.0006409070700573408
-0.005294405536947237   -0.031298627512775276   -0.0007740163289351275
-0.007452067945191041   -0.031209408846520046   -0.0008072370402146337
-0.008356830046274438   -0.026747528075872516   -0.0006409070700573408
-0.007470547514741642   -0.03123180667262004   -0.0008729020615933241
-0.005294405536947237   -0.031298627512775276   -0.0007740163289351275
-0.008356830046274438   -0.026747528075872516   -0.0006409070700573408
-0.005812431817623067   -0.026820233106192505   -0.0006021624498110694
-0.005797192859465348   -0.02685229886390758   -0.0006344467249407697
-0.005294405536947237   -0.031298627512775276   -0.0007740163289351275
-0.008356830046274438   -0.026747528075872516   -0.0006409070700573408
-0.005797192859465348   -0.02685229886390758   -0.0006344467249407697
-0.007470547514741642   -0.03123180667262004   -0.0008729020615933241
-0.005294405536947237   -0.031298627512775276   -0.0007740163289351275
-0.005812431817623067   -0.026820233106192505   -0.0006021624498110694
-0.007452067945191041   -0.031209408846520046   -0.0008072370402146337
-0.005293258219329179   -0.03128416040310052   -0.0007338140162696284
-0.005812431817623067   -0.026820233106192505   -0.0006021624498110694
-0.008356830046274438   -0.026747528075872516   -0.0006409070700573408
-0.007452067945191041   -0.031209408846520046   -0.0008072370402146337
-0.008362374935467185   -0.02673698914113387   -0.0005832330884673861
-0.005293258219329179   -0.03128416040310052   -0.0007338140162696284
-0.007439765631771013   -0.031204297654723722   -0.0007373287269699702
-0.008362374935467185   -0.02673698914113387   -0.0005832330884673861
-0.007452067945191041   -0.031209408846520046   -0.0008072370402146337
-0.005293258219329179   -0.03128416040310052   -0.0007338140162696284
-0.008362374935467185   -0.02673698914113387   -0.0005832330884673861
-0.005828125777206724   -0.02679985752161764   -0.0005662334412303103
-0.005812431817623067   -0.026820233106192505   -0.0006021624498110694
-0.005293258219329179   -0.03128416040310052   -0.0007338140162696284
-0.008362374935467185   -0.02673698914113387   -0.0005832330884673861
-0.005812431817623067   -0.026820233106192505   -0.0006021624498110694
-0.007452067945191041   -0.031209408846520046   -0.0008072370402146337
-0.0074732725899713335   -0.03126987045331581   -0.000935137121808296
-0.00834003862593343   -0.02680516688561267   -0.0007451742856226201
-0.009907099373977065   -0.03112367320055851   -0.0010188319468092922
-0.007470547514741642   -0.03123180667262004   -0.0008729020615933241
-0.00834003862593343   -0.02680516688561267   -0.0007451742856226201
-0.011133604045523085   -0.026685504944311423   -0.0008154107872151846
-0.009907099373977065   -0.03112367320055851   -0.0010188319468092922
-0.011079018701038612   -0.0266541235043013   -0.0007415306948681677
-0.007470547514741642   -0.03123180667262004   -0.0008729020615933241
-0.009815033660593305   -0.031086223875737885   -0.0009235124926587261
-0.011079018701038612   -0.0266541235043013   -0.0007415306948681677
-0.009907099373977065   -0.03112367320055851   -0.0010188319468092922
-0.007470547514741642   -0.03123180667262004   -0.0008729020615933241
-0.011079018701038612   -0.0266541235043013   -0.0007415306948681677
-0.008355199931050047   -0.026770817196860648   -0.0006946581947914366
-0.00834003862593343   -0.02680516688561267   -0.0007451742856226201
-0.007470547514741642   -0.03123180667262004   -0.0008729020615933241
-0.011079018701038612   -0.0266541235043013   -0.0007415306948681677
-0.00834003862593343   -0.02680516688561267   -0.0007451742856226201
-0.009907099373977065   -0.03112367320055851   -0.0010188319468092922
-0.007470547514741642   -0.03123180667262004   -0.0008729020615933241
-0.008355199931050047   -0.026770817196860648   -0.0006946581947914366
-0.009815033660593305   -0.031086223875737885   -0.0009235124926587261
-0.007452067945191041   -0.031209408846520046   -0.0008072370402146337
-0.008355199931050047   -0.026770817196860648   -0.0006946581947914366
-0.011079018701038612   -0.0266541235043013   -0.0007415306948681677
-0.009815033660593305   -0.031086223875737885   -0.0009235124926587261
-0.011033066756691965   -0.026634560840962683   -0.000661994753131434
-0.007452067945191041   -0.031209408846520046   -0.0008072370402146337
-0.009736435604018163   -0.031066754000126238   -0.0008224149628546105
-0.011033066756691965   -0.026634560840962683   -0.000661994753131434
-0.009815033660593305   -0.031086223875737885   -0.0009235124926587261
-0.007452067945191041   -0.031209408846520046   -0.0008072370402146337
-0.011033066756691965   -0.026634560840962683   -0.000661994753131434
-0.008356830046274438   -0.026747528075872516   -0.0006409070700573408
-0.008355199931050047   -0.026770817196860648   -0.0006946581947914366
-0.007452067945191041   -0.031209408846520046   -0.0008072370402146337
-0.011033066756691965   -0.026634560840962683   -0.000661994753131434
-0.008355199931050047   -0.026770817196860648   -0.0006946581947914366
-0.009815033660593305   -0.031086223875737885   -0.0009235124926587261
-0.007452067945191041   -0.031209408846520046   -0.0008072370402146337
-0.008356830046274438   -0.026747528075872516   -0.0006409070700573408
-0.009736435604018163   -0.031066754000126238   -0.0008224149628546105
-0.007439765631771013   -0.031204297654723722   -0.0007373287269699702
-0.008356830046274438   -0.026747528075872516   -0.0006409070700573408
-0.011033066756691965   -0.026634560840962683   -0.000661994753131434
-0.009736435604018163   -0.031066754000126238   -0.0008224149628546105
-0.01095764886016689   -0.026636603601322983   -0.0005775103571249157
-0.007439765631771013   -0.031204297654723722   -0.0007373287269699702
-0.009623196130881731   -0.031074651607605648   -0.0007163374974604863
-0.01095764886016689   -0.026636603601322983   -0.0005775103571249157
-0.009736435604018163   -0.031066754000126238   -0.0008224149628546105
-0.007439765631771013   -0.031204297654723722   -0.0007373287269699702
-0.01095764886016689   -0.026636603601322983   -0.0005775103571249157
-0.008362374935467185   -0.02673698914113387   -0.0005832330884673861
-0.008356830046274438   -0.026747528075872516   -0.0006409070700573408
-0.007439765631771013   -0.031204297654723722   -0.0007373287269699702
-0.01095764886016689   -0.026636603601322983   -0.0005775103571249157
-0.008356830046274438   -0.026747528075872516   -0.0006409070700573408
-0.009736435604018163   -0.031066754000126238   -0.0008224149628546105
0.0019211413783499338   -0.02693489462336169   -0.0003079411547904286
0.0023266460898565978   -0.021944562987020463   -0.00015752736626007034
-0.0007323710097176625   -0.02696283824655629   -0.00044878177289972457
0.0019479223882155128   -0.02686003124877641   -0.0003519704997937146
0.0023266460898565978   -0.021944562987020463   -0.00015752736626007034
-0.0006243671725971586   -0.02194459572158265   -0.0002879836175374726
-0.0007323710097176625   -0.02696283824655629   -0.00044878177289972457
-0.0006502766809140127   -0.02188252884861024   -0.00029026329577186086
0.0019479223882155128   -0.02686003124877641   -0.0003519704997937146
-0.0007444866807840185   -0.026898605367118265   -0.00046373730115342813
-0.0006502766809140127   -0.02188252884861024   -0.00029026329577186086
-0.0007323710097176625   -0.02696283824655629   -0.00044878177289972457
0.0019479223882155128   -0.02686003124877641   -0.0003519704997937146
-0.0006502766809140127   -0.02188252884861024   -0.00029026329577186086
0.00231927323588993   -0.021872941036506166   -0.00017906261321261137
0.0023266460898565978   -0.021944562987020463   -0.00015752736626007034
0.0019479223882155128   -0.02686003124877641   -0.0003519704997937146
-0.0006502766809140127   -0.02188252884861024   -0.00029026329577186086
0.0023266460898565978   -0.021944562987020463   -0.00015752736626007034
-0.0007323710097176625   -0.02696283824655629   -0.00044878177289972457
0.0019479223882155128   -0.02686003124877641   -0.0003519704997937146
0.00231927323588993   -0.021872941036506166   -0.00017906261321261137
-0.0007444866807840185   -0.026898605367118265   -0.00046373730115342813
0.0019566060616885202   -0.02680599591239552   -0.0003905217927024763
0.00231927323588993   -0.021872941036506166   -0.00017906261321261137
-0.0006502766809140127   -0.02188252884861024   -0.00029026329577186086
-0.0007444866807840185   -0.026898605367118265   -0.00046373730115342813
-0.0006790758489875447   -0.021829452695405108   -0.00028923532140258824
0.0019566060616885202   -0.02680599591239552   -0.0003905217927024763
-0.0007571753065431045   -0.02684820588216093   -0.0004749826450679288
-0.0006790758489875447   -0.021829452695405108   -0.00028923532140258824
-0.0007444866807840185   -0.026898605367118265   -0.00046373730115342813
0.0019566060616885202   -0.02680599591239552   -0.0003905217927024763
-0.0006790758489875447   -0.021829452695405108   -0.00028923532140258824
0.002298999014325037   -0.0218157786199915   -0.00019529614990870846
0.00231927323588993   -0.021872941036506166   -0.00017906261321261137
0.0019566060616885202   -0.02680599591239552   -0.0003905217927024763
-0.0006790758489875447   -0.021829452695405108   -0.00028923532140258824
0.00231927323588993   -0.021872941036506166   -0.00017906261321261137
-0.0007444866807840185   -0.026898605367118265   -0.00046373730115342813
0.0019566060616885202   -0.02680599591239552   -0.0003905217927024763
0.002298999014325037   -0.0218157786199915   -0.00019529614990870846
-0.0007571753065431045   -0.02684820588216093   -0.0004749826450679288
0.001962099691691318   -0.02676308621499118   -0.00042385653847951707
0.002298999014325037   -0.0218157786199915   -0.00019529614990870846
-0.0006790758489875447   -0.021829452695405108   -0.00028923532140258824
-0.0007571753065431045   -0.02684820588216093   -0.0004749826450679288
-0.0007149929439686019   -0.021783964325727635   -0.0002847692935404783
0.001962099691691318   -0.02676308621499118   -0.00042385653847951707
-0.0007791157941000273   -0.02681002638024976   -0.00048264225386242737
-0.0007149929439686019   -0.021783964325727635   -0.0002847692935404783
-0.0007571753065431045   -0.02684820588216093   -0.0004749826450679288
0.001962099691691318   -0.02676308621499118   -0.00042385653847951707
-0.0007149929439686019   -0.021783964325727635   -0.0002847692935404783
0.002270525288997916   -0.021763547056363006   -0.000206598403175487
0.002298999014325037   -0.0218157786199915   -0.00019529614990870846
0.001962099691691318   -0.02676308621499118   -0.00042385653847951707
-0.0007149929439686019   -0.021783964325727635   -0.0002847692935404783
0.002298999014325037   -0.0218157786199915   -0.00019529614990870846
-0.0007571753065431045   -0.02684820588216093   -0.0004749826450679288
-0.0007323710097176625   -0.02696283824655629   -0.00044878177289972457
-0.0006243671725971586   -0.02194459572158265   -0.0002879836175374726
-0.003276949566023352   -0.026949007696967505   -0.0005643200038265878
-0.0007444866807840185   -0.026898605367118265   -0.00046373730115342813
-0.0006243671725971586   -0.02194459572158265   -0.0002879836175374726
-0.003439649892394376   -0.021918058500947003   -0.0003951515133224097
-0.003276949566023352   -0.026949007696967505   -0.0005643200038265878
-0.0034688273781514935   -0.021866744333478468   -0.0003836784667121439
-0.0007444866807840185   -0.026898605367118265   -0.00046373730115342813
-0.0032939904805828766   -0.02689549476768389   -0.000557474442240017
-0.0034688273781514935   -0.021866744333478468   -0.0003836784667121439
-0.003276949566023352   -0.026949007696967505   -0.0005643200038265878
-0.0007444866807840185   -0.026898605367118265   -0.00046373730115342813
-0.0034688273781514935   -0.021866744333478468   -0.0003836784667121439
-0.0006502766809140127   -0.02188252884861024   -0.00029026329577186086
-0.0006243671725971586   -0.02194459572158265   -0.0002879836175374726
-0.0007444866807840185   -0.026898605367118265   -0.00046373730115342813
-0.0034688273781514935   -0.021866744333478468   -0.0003836784667121439
-0.0006243671725971586   -0.02194459572158265   -0.0002879836175374726
-0.003276949566023352   -0.026949007696967505   -0.0005643200038265878
-0.0007444866807840185   -0.026898605367118265   -0.00046373730115342813
-0.0006502766809140127   -0.02188252884861024   -0.00029026329577186086
-0.0032939904805828766   -0.02689549476768389   -0.000557474442240017
-0.0007571753065431045   -0.02684820588216093   -0.0004749826450679288
-0.0006502766809140127   -0.02188252884861024   -0.00029026329577186086
-0.0034688273781514935   -0.021866744333478468   -0.0003836784667121439
-0.0032939904805828766   -0.02689549476768389   -0.000557474442240017
-0.0034986035044577246   -0.021822747999932075   -0.0003687555286751903
-0.0007571753065431045   -0.02684820588216093   -0.0004749826450679288
-0.003311267646238089   -0.026853835478514932   -0.000546805172435105
-0.0034986035044577246   -0.021822747999932075   -0.0003687555286751903
-0.0032939904805828766   -0.02689549476768389   -0.000557474442240017
-0.0007571753065431045   -0.02684820588216093   -0.0004749826450679288
-0.0034986035044577246   -0.021822747999932075   -0.0003687555286751903
-0.0006790758489875447   -0.021829452695405108   -0.00028923532140258824
-0.0006502766809140127   -0.02188252884861024   -0.00029026329577186086
-0.0007571753065431045   -0.02684820588216093   -0.0004749826450679288
-0.0034986035044577246   -0.021822747999932075   -0.0003687555286751903
-0.0006502766809140127   -0.02188252884861024   -0.00029026329577186086
-0.0032939904805828766   -0.02689549476768389   -0.000557474442240017
-0.0007571753065431045   -0.02684820588216093   -0.0004749826450679288
-0.0006790758489875447   -0.021829452695405108   -0.00028923532140258824
-0.003311267646238089   -0.026853835478514932   -0.000546805172435105
-0.0007791157941000273   -0.02681002638024976   -0.00048264225386242737
-0.0006790758489875447   -0.021829452695405108   -0.00028923532140258824
-0.0034986035044577246   -0.021822747999932075   -0.0003687555286751903
-0.003311267646238089   -0.026853835478514932   -0.000546805172435105
-0.0035309261738688358   -0.021786498026301764   -0.0003505495604260053
-0.0007791157941000273   -0.02681002638024976   -0.00048264225386242737
-0.0033312687072866924   -0.02682422896519449   -0.0005325018006330662
-0.0035309261738688358   -0.021786498026301764   -0.0003505495604260053
-0.003311267646238089   -0.026853835478514932   -0.000546805172435105
-0.0007791157941000273   -0.02681002638024976   -0.00048264225386242737
-0.0035309261738688358   -0.021786498026301764   -0.0003505495604260053
-0.0007149929439686019   -0.021783964325727635   -0.0002847692935404783
-0.0006790758489875447   -0.021829452695405108   -0.00028923532140258824
-0.0007791157941000273   -0.02681002638024976   -0.00048264225386242737
-0.0035309261738688358   -0.021786498026301764   -0.0003505495604260053
-0.0006790758489875447   -0.021829452695405108   -0.00028923532140258824
-0.003311267646238089   -0.026853835478514932   -0.000546805172435105
-0.003276949566023352   -0.026949007696967505   -0.0005643200038265878
-0.003439649892394376   -0.021918058500947003   -0.0003951515133224097
-0.0057787556886811   -0.026896105812097035   -0.0006629774229653791
-0.0032939904805828766   -0.02689549476768389   -0.000557474442240017
-0.003439649892394376   -0.021918058500947003   -0.0003951515133224097
-0.0062073573420549635   -0.021868084062452768   -0.00048528403573534437
-0.0057787556886811   -0.026896105812097035   -0.0006629774229653791
-0.006237456370140825   -0.02182664934732556   -0.0004600983368566413
-0.0032939904805828766   -0.02689549476768389   -0.000557474442240017
-0.005797192859465348   -0.02685229886390758   -0.0006344467249407697
-0.006237456370140825   -0.02182664934732556   -0.0004600983368566413
-0.0057787556886811   -0.026896105812097035   -0.0006629774229653791
-0.0032939904805828766   -0.02689549476768389   -0.000557474442240017
-0.006237456370140825   -0.02182664934732556   -0.0004600983368566413
-0.0034688273781514935   -0.021866744333478468   -0.0003836784667121439
-0.003439649892394376   -0.021918058500947003   -0.0003951515133224097
-0.0032939904805828766   -0.02689549476768389   -0.000557474442240017
-0.006237456370140825   -0.02182664934732556   -0.0004600983368566413
-0.003439649892394376   -0.021918058500947003   -0.0003951515133224097
-0.0057787556886811   -0.026896105812097035   -0.0006629774229653791
-0.0032939904805828766   -0.02689549476768389   -0.000557474442240017
-0.0034688273781514935   -0.021866744333478468   -0.0003836784667121439
-0.005797192859465348   -0.02685229886390758   -0.0006344467249407697
-0.003311267646238089   -0.026853835478514932   -0.000546805172435105
-0.0034688273781514935   -0.021866744333478468   -0.0003836784667121439
-0.006237456370140825   -0.02182664934732556   -0.0004600983368566413
-0.005797192859465348   -0.02685229886390758   -0.0006344467249407697
-0.006264732999971374   -0.02179248088473909   -0.0004315447805218356
-0.003311267646238089   -0.026853835478514932   -0.000546805172435105
-0.005812431817623067   -0.026820233106192505   -0.0006021624498110694
-0.006264732999971374   -0.02179248088473909   -0.0004315447805218356
-0.005797192859465348   -0.02685229886390758   -0.0006344467249407697
-0.003311267646238089   -0.026853835478514932   -0.000546805172435105
-0.006264732999971374   -0.02179248088473909   -0.0004315447805218356
-0.0034986035044577246   -0.021822747999932075   -0.0003687555286751903
-0.0034688273781514935   -0.021866744333478468   -0.0003836784667121439
-0.003311267646238089   -0.026853835478514932   -0.000546805172435105
-0.006264732999971374   -0.02179248088473909   -0.0004315447805218356
-0.0034688273781514935   -0.021866744333478468   -0.0003836784667121439
-0.005797192859465348   -0.02685229886390758   -0.0006344467249407697
-0.003311267646238089   -0.026853835478514932   -0.000546805172435105
-0.0034986035044577246   -0.021822747999932075   -0.0003687555286751903
-0.005812431817623067   -0.026820233106192505   -0.0006021624498110694
-0.0033312687072866924   -0.02682422896519449   -0.0005325018006330662
-0.0034986035044577246   -0.021822747999932075   -0.0003687555286751903
-0.006264732999971374   -0.02179248088473909   -0.0004315447805218356
-0.005812431817623067   -0.026820233106192505   -0.0006021624498110694
-0.006292272161932621   -0.021765632579093138   -0.0003997498406630822
-0.0033312687072866924   -0.02682422896519449   -0.0005325018006330662
-0.005828125777206724   -0.02679985752161764   -0.0005662334412303103
-0.006292272161932621   -0.021765632579093138   -0.0003997498406630822
-0.005812431817623067   -0.026820233106192505   -0.0006021624498110694
-0.0033312687072866924   -0.02682422896519449   -0.0005325018006330662
-0.006292272161932621   -0.021765632579093138   -0.0003997498406630822
-0.0035309261738688358   -0.021786498026301764   -0.0003505495604260053
-0.0034986035044577246   -0.021822747999932075   -0.0003687555286751903
-0.0033312687072866924   -0.02682422896519449   -0.0005325018006330662
-0.006292272161932621   -0.021765632579093138   -0.0003997498406630822
-0.0034986035044577246   -0.021822747999932075   -0.0003687555286751903
-0.005812431817623067   -0.026820233106192505   -0.0006021624498110694
-0.0057787556886811   -0.026896105812097035   -0.0006629774229653791
-0.0062073573420549635   -0.021868084062452768   -0.00048528403573534437
-0.00834003862593343   -0.02680516688561267   -0.0007451742856226201
-0.005797192859465348   -0.02685229886390758   -0.0006344467249407697
-0.0062073573420549635   -0.021868084062452768   -0.00048528403573534437
-0.009030007781524187   -0.02179361865840045   -0.0005586161929561406
-0.00834003862593343   -0.02680516688561267   -0.0007451742856226201
-0.009057898865166164   -0.021762131883925354   -0.0005196102438133509
-0.005797192859465348   -0.02685229886390758   -0.0006344467249407697
-0.008355199931050047   -0.026770817196860648   -0.0006946581947914366
-0.009057898865166164   -0.021762131883925354   -0.0005196102438133509
-0.00834003862593343   -0.02680516688561267   -0.0007451742856226201
-0.005797192859465348   -0.02685229886390758   -0.0006344467249407697
-0.009057898865166164   -0.021762131883925354   -0.0005196102438133509
-0.006237456370140825   -0.02182664934732556   -0.0004600983368566413
-0.0062073573420549635   -0.021868084062452768   -0.00048528403573534437
-0.005797192859465348   -0.02685229886390758   -0.0006344467249407697
-0.009057898865166164   -0.021762131883925354   -0.0005196102438133509
-0.0062073573420549635   -0.021868084062452768   -0.00048528403573534437
-0.00834003862593343   -0.02680516688561267   -0.0007451742856226201
-0.005797192859465348   -0.02685229886390758   -0.0006344467249407697
-0.006237456370140825   -0.02182664934732556   -0.0004600983368566413
-0.008355199931050047   -0.026770817196860648   -0.0006946581947914366
-0.005812431817623067   -0.026820233106192505   -0.0006021624498110694
-0.006237456370140825   -0.02182664934732556   -0.0004600983368566413
-0.009057898865166164   -0.021762131883925354   -0.0005196102438133509
-0.008355199931050047   -0.026770817196860648   -0.0006946581947914366
-0.009074582357136146   -0.0217370293819109   -0.00047768655100050977
-0.005812431817623067   -0.026820233106192505   -0.0006021624498110694
-0.008356830046274438   -0.026747528075872516   -0.0006409070700573408
-0.009074582357136146   -0.0217370293819109   -0.00047768655100050977
-0.008355199931050047   -0.026770817196860648   -0.0006946581947914366
-0.005812431817623067   -0.026820233106192505   -0.0006021624498110694
-0.009074582357136146   -0.0217370293819109   -0.00047768655100050977
-0.006264732999971374   -0.02179248088473909   -0.0004315447805218356
-0.006237456370140825   -0.02182664934732556   -0.0004600983368566413
-0.005812431817623067   -0.026820233106192505   -0.0006021624498110694
-0.009074582357136146   -0.0217370293819109   -0.00047768655100050977
-0.006237456370140825   -0.02182664934732556   -0.0004600983368566413
-0.008355199931050047   -0.026770817196860648   -0.0006946581947914366
-0.005812431817623067   -0.026820233106192505   -0.0006021624498110694
-0.006264732999971374   -0.02179248088473909   -0.0004315447805218356
-0.008356830046274438   -0.026747528075872516   -0.0006409070700573408
-0.005828125777206724   -0.02679985752161764   -0.0005662334412303103
-0.006264732999971374   -0.02179248088473909   -0.0004315447805218356
-0.009074582357136146   -0.0217370293819109   -0.00047768655100050977
-0.008356830046274438   -0.026747528075872516   -0.0006409070700573408
-0.009093016814040447   -0.021719892364917313   -0.0004322439200241469
-0.005828125777206724   -0.02679985752161764   -0.0005662334412303103
-0.008362374935467185   -0.02673698914113387   -0.0005832330884673861
-0.009093016814040447   -0.021719892364917313   -0.0004322439200241469
-0.008356830046274438   -0.026747528075872516   -0.0006409070700573408
-0.005828125777206724   -0.02679985752161764   -0.0005662334412303103
-0.009093016814040447   -0.021719892364917313   -0.0004322439200241469
-0.006292272161932621   -0.021765632579093138   -0.0003997498406630822
-0.006264732999971374   -0.02179248088473909   -0.0004315447805218356
-0.005828125777206724   -0.02679985752161764   -0.0005662334412303103
-0.009093016814040447   -0.021719892364917313   -0.0004322439200241469
-0.006264732999971374   -0.02179248088473909   -0.0004315447805218356
-0.008356830046274438   -0.026747528075872516   -0.0006409070700573408
-0.00834003862593343   -0.02680516688561267   -0.0007451742856226201
-0.009030007781524187   -0.02179361865840045   -0.0005586161929561406
-0.011133604045523085   -0.026685504944311423   -0.0008154107872151846
-0.008355199931050047   -0.026770817196860648   -0.0006946581947914366
-0.009030007781524187   -0.02179361865840045   -0.0005586161929561406
-0.012060437383620762   -0.021701648826400737   -0.000616728703861509
-0.011133604045523085   -0.026685504944311423   -0.0008154107872151846
-0.012038535824217298   -0.02167522603138763   -0.0005645429344627989
-0.008355199931050047   -0.026770817196860648   -0.0006946581947914366
-0.011079018701038612   -0.0266541235043013   -0.0007415306948681677
-0.012038535824217298   -0.02167522603138763   -0.0005645429344627989
-0.011133604045523085   -0.026685504944311423   -0.0008154107872151846
-0.008355199931050047   -0.026770817196860648   -0.0006946581947914366
-0.012038535824217298   -0.02167522603138763   -0.0005645429344627989
-0.009057898865166164   -0.021762131883925354   -0.0005196102438133509
-0.009030007781524187   -0.02179361865840045   -0.0005586161929561406
-0.008355199931050047   -0.026770817196860648   -0.0006946581947914366
-0.012038535824217298   -0.02167522603138763   -0.0005645429344627989
-0.009030007781524187   -0.02179361865840045   -0.0005586161929561406
-0.011133604045523085   -0.026685504944311423   -0.0008154107872151846
-0.008355199931050047   -0.026770817196860648   -0.0006946581947914366
-0.009057898865166164   -0.021762131883925354   -0.0005196102438133509
-0.011079018701038612   -0.0266541235043013   -0.0007415306948681677
-0.008356830046274438   -0.026747528075872516   -0.0006409070700573408
-0.009057898865166164   -0.021762131883925354   -0.0005196102438133509
-0.012038535824217298   -0.02167522603138763   -0.0005645429344627989
-0.011079018701038612   -0.0266541235043013   -0.0007415306948681677
-0.01202067306310153   -0.021654398659798218   -0.0005070025160511261
-0.008356830046274438   -0.026747528075872516   -0.0006409070700573408
-0.011033066756691965   -0.026634560840962683   -0.000661994753131434
-0.01202067306310153   -0.021654398659798218   -0.0005070025160511261
-0.011079018701038612   -0.0266541235043013   -0.0007415306948681677
-0.008356830046274438   -0.026747528075872516   -0.0006409070700573408
-0.01202067306310153   -0.021654398659798218   -0.0005070025160511261
-0.009074582357136146   -0.0217370293819109   -0.00047768655100050977
-0.009057898865166164   -0.021762131883925354   -0.0005196102438133509
-0.008356830046274438   -0.026747528075872516   -0.0006409070700573408
-0.01202067306310153   -0.021654398659798218   -0.0005070025160511261
-0.009057898865166164   -0.021762131883925354   -0.0005196102438133509
-0.011079018701038612   -0.0266541235043013   -0.0007415306948681677
-0.008356830046274438   -0.026747528075872516   -0.0006409070700573408
-0.009074582357136146   -0.0217370293819109   -0.00047768655100050977
-0.011033066756691965   -0.026634560840962683   -0.000661994753131434
-0.008362374935467185   -0.02673698914113387   -0.0005832330884673861
-0.009074582357136146   -0.0217370293819109   -0.00047768655100050977
-0.01202067306310153   -0.021654398659798218   -0.0005070025160511261
-0.011033066756691965   -0.026634560840962683   -0.000661994753131434
-0.01197881667868213   -0.021648961300786196   -0.0004447168364596757
-0.008362374935467185   -0.02673698914113387   -0.0005832330884673861
-0.01095764886016689   -0.026636603601322983   -0.0005775103571249157
-0.01197881667868213   -0.021648961300786196   -0.0004447168364596757
-0.011033066756691965   -0.026634560840962683   -0.000661994753131434
-0.008362374935467185   -0.02673698914113387   -0.0005832330884673861
-0.01197881667868213   -0.021648961300786196   -0.0004447168364596757
-0.009093016814040447   -0.021719892364917313   -0.0004322439200241469
-0.009074582357136146   -0.0217370293819109   -0.00047768655100050977
-0.008362374935467185   -0.02673698914113387   -0.0005832330884673861
-0.01197881667868213   -0.021648961300786196   -0.0004447168364596757
-0.009074582357136146   -0.0217370293819109   -0.00047768655100050977
-0.011033066756691965   -0.026634560840962683   -0.000661994753131434
0.0023266460898565978   -0.021944562987020463   -0.00015752736626007034
0.0024152134113345543   -0.016599871582488077   -2.5933070989194785e-05
-0.0006243671725971586   -0.02194459572158265   -0.0002879836175374726
0.00231927323588993   -0.021872941036506166   -0.00017906261321261137
0.0024152134113345543   -0.016599871582488077   -2.5933070989194785e-05
-0.0007082235260934799   -0.016572997755789378   -0.00014292378194653455
-0.0006243671725971586   -0.02194459572158265   -0.0002879836175374726
-0.0007440139374029251   -0.01651369858978514   -0.00013246308849011704
0.00231927323588993   -0.021872941036506166   -0.00017906261321261137
-0.0006502766809140127   -0.02188252884861024   -0.00029026329577186086
-0.0007440139374029251   -0.01651369858978514   -0.00013246308849011704
-0.0006243671725971586   -0.02194459572158265   -0.0002879836175374726
0.00231927323588993   -0.021872941036506166   -0.00017906261321261137
-0.0007440139374029251   -0.01651369858978514   -0.00013246308849011704
0.002377860717261593   -0.016531654166694422   -2.4482535591888626e-05
0.0024152134113345543   -0.016599871582488077   -2.5933070989194785e-05
0.00231927323588993   -0.021872941036506166   -0.00017906261321261137
-0.0007440139374029251   -0.01651369858978514   -0.00013246308849011704
0.0024152134113345543   -0.016599871582488077   -2.5933070989194785e-05
-0.0006243671725971586   -0.02194459572158265   -0.0002879836175374726
0.00231927323588993   -0.021872941036506166   -0.00017906261321261137
0.002377860717261593   -0.016531654166694422   -2.4482535591888626e-05
-0.0006502766809140127   -0.02188252884861024   -0.00029026329577186086
0.002298999014325037   -0.0218157786199915   -0.00019529614990870846
0.002377860717261593   -0.016531654166694422   -2.4482535591888626e-05
-0.0007440139374029251   -0.01651369858978514   -0.00013246308849011704
-0.0006502766809140127   -0.02188252884861024   -0.00029026329577186086
-0.0007850379153500119   -0.016457978595232483   -0.00011898754347963467
0.002298999014325037   -0.0218157786199915   -0.00019529614990870846
-0.0006790758489875447   -0.021829452695405108   -0.00028923532140258824
-0.0007850379153500119   -0.016457978595232483   -0.00011898754347963467
-0.0006502766809140127   -0.02188252884861024   -0.00029026329577186086
0.002298999014325037   -0.0218157786199915   -0.00019529614990870846
-0.0007850379153500119   -0.016457978595232483   -0.00011898754347963467
0.00233152267503766   -0.016471072430616858   -1.6882413394027155e-05
0.002377860717261593   -0.016531654166694422   -2.4482535591888626e-05
0.002298999014325037   -0.0218157786199915   -0.00019529614990870846
-0.0007850379153500119   -0.016457978595232483   -0.00011898754347963467
0.002377860717261593   -0.016531654166694422   -2.4482535591888626e-05
-0.0006502766809140127   -0.02188252884861024   -0.00029026329577186086
0.002298999014325037   -0.0218157786199915   -0.00019529614990870846
0.00233152267503766   -0.016471072430616858   -1.6882413394027155e-05
-0.0006790758489875447   -0.021829452695405108   -0.00028923532140258824
0.002270525288997916   -0.021763547056363006   -0.000206598403175487
0.00233152267503766   -0.016471072430616858   -1.6882413394027155e-05
-0.0007850379153500119   -0.016457978595232483   -0.00011898754347963467
-0.0006790758489875447   -0.021829452695405108   -0.00028923532140258824
-0.0008312037156049082   -0.016405062484462864   -0.00010174347021332922
0.002270525288997916   -0.021763547056363006   -0.000206598403175487
-0.0007149929439686019   -0.021783964325727635   -0.0002847692935404783
-0.0008312037156049082   -0.016405062484462864   -0.00010174347021332922
-0.0006790758489875447   -0.021829452695405108   -0.00028923532140258824
0.002270525288997916   -0.021763547056363006   -0.000206598403175487
-0.0008312037156049082   -0.016405062484462864   -0.00010174347021332922
0.002270311551378703   -0.016407890687814983   -3.407698384329664e-06
0.00233152267503766   -0.016471072430616858   -1.6882413394027155e-05
0.002270525288997916   -0.021763547056363006   -0.000206598403175487
-0.0008312037156049082   -0.016405062484462864   -0.00010174347021332922
0.00233152267503766   -0.016471072430616858   -1.6882413394027155e-05
-0.0006790758489875447   -0.021829452695405108   -0.00028923532140258824
-0.0006243671725971586   -0.02194459572158265   -0.0002879836175374726
-0.0007082235260934799   -0.016572997755789378   -0.00014292378194653455
-0.003439649892394376   -0.021918058500947003   -0.0003951515133224097
-0.0006502766809140127   -0.02188252884861024   -0.00029026329577186086
-0.0007082235260934799   -0.016572997755789378   -0.00014292378194653455
-0.0036676706104927675   -0.016541061488590976   -0.00024141307236242695
-0.003439649892394376   -0.021918058500947003   -0.0003951515133224097
-0.00370433914607891   -0.01649169612832739   -0.00022498692400583123
-0.0006502766809140127   -0.02188252884861024   -0.00029026329577186086
-0.0034688273781514935   -0.021866744333478468   -0.0003836784667121439
-0.00370433914607891   -0.01649169612832739   -0.00022498692400583123
-0.003439649892394376   -0.021918058500947003   -0.0003951515133224097
-0.0006502766809140127   -0.02188252884861024   -0.00029026329577186086
-0.00370433914607891   -0.01649169612832739   -0.00022498692400583123
-0.0007440139374029251   -0.01651369858978514   -0.00013246308849011704
-0.0007082235260934799   -0.016572997755789378   -0.00014292378194653455
-0.0006502766809140127   -0.02188252884861024   -0.00029026329577186086
-0.00370433914607891   -0.01649169612832739   -0.00022498692400583123
-0.0007082235260934799   -0.016572997755789378   -0.00014292378194653455
-0.003439649892394376   -0.021918058500947003   -0.0003951515133224097
-0.0006502766809140127   -0.02188252884861024   -0.00029026329577186086
-0.0007440139374029251   -0.01651369858978514   -0.00013246308849011704
-0.0034688273781514935   -0.021866744333478468   -0.0003836784667121439
-0.0006790758489875447   -0.021829452695405108   -0.00028923532140258824
-0.0007440139374029251   -0.01651369858978514   -0.00013246308849011704
-0.00370433914607891   -0.01649169612832739   -0.00022498692400583123
-0.0034688273781514935   -0.021866744333478468   -0.0003836784667121439
-0.0037418475051058608   -0.016445103455105695   -0.00020567934371800925
-0.0006790758489875447   -0.021829452695405108   -0.00028923532140258824
-0.0034986035044577246   -0.021822747999932075   -0.0003687555286751903
-0.0037418475051058608   -0.016445103455105695   -0.00020567934371800925
-0.0034688273781514935   -0.021866744333478468   -0.0003836784667121439
-0.0006790758489875447   -0.021829452695405108   -0.00028923532140258824
-0.0037418475051058608   -0.016445103455105695   -0.00020567934371800925
-0.0007850379153500119   -0.016457978595232483   -0.00011898754347963467
-0.0007440139374029251   -0.01651369858978514   -0.00013246308849011704
-0.0006790758489875447   -0.021829452695405108   -0.00028923532140258824
-0.0037418475051058608   -0.016445103455105695   -0.00020567934371800925
-0.0007440139374029251   -0.01651369858978514   -0.00013246308849011704
-0.0034688273781514935   -0.021866744333478468   -0.0003836784667121439
-0.0006790758489875447   -0.021829452695405108   -0.00028923532140258824
-0.0007850379153500119   -0.016457978595232483   -0.00011898754347963467
-0.0034986035044577246   -0.021822747999932075   -0.0003687555286751903
-0.0007149929439686019   -0.021783964325727635   -0.0002847692935404783
-0.0007850379153500119   -0.016457978595232483   -0.00011898754347963467
-0.0037418475051058608   -0.016445103455105695   -0.00020567934371800925
-0.0034986035044577246   -0.021822747999932075   -0.0003687555286751903
-0.0037817699475647015   -0.01640203059105226   -0.00018346565459257142
-0.0007149929439686019   -0.021783964325727635   -0.0002847692935404783
-0.0035309261738688358   -0.021786498026301764   -0.0003505495604260053
-0.0037817699475647015   -0.01640203059105226   -0.00018346565459257142
-0.0034986035044577246   -0.021822747999932075   -0.0003687555286751903
-0.0007149929439686019   -0.021783964325727635   -0.0002847692935404783
-0.0037817699475647015   -0.01640203059105226   -0.00018346565459257142
-0.0008312037156049082   -0.016405062484462864   -0.00010174347021332922
-0.0007850379153500119   -0.016457978595232483   -0.00011898754347963467
-0.0007149929439686019   -0.021783964325727635   -0.0002847692935404783
-0.0037817699475647015   -0.01640203059105226   -0.00018346565459257142
-0.0007850379153500119   -0.016457978595232483   -0.00011898754347963467
-0.0034986035044577246   -0.021822747999932075   -0.0003687555286751903
-0.003439649892394376   -0.021918058500947003   -0.0003951515133224097
-0.0036676706104927675   -0.016541061488590976   -0.00024141307236242695
-0.0062073573420549635   -0.021868084062452768   -0.00048528403573534437
-0.0034688273781514935   -0.021866744333478468   -0.0003836784667121439
-0.0036676706104927675   -0.016541061488590976   -0.00024141307236242695
-0.0065786526518561315   -0.016502482617313272   -0.00032474602161965073
-0.0062073573420549635   -0.021868084062452768   -0.00048528403573534437
-0.006615117662644492   -0.0164622892012162   -0.0003023829599025997
-0.0034688273781514935   -0.021866744333478468   -0.0003836784667121439
-0.006237456370140825   -0.02182664934732556   -0.0004600983368566413
-0.006615117662644492   -0.0164622892012162   -0.0003023829599025997
-0.0062073573420549635   -0.021868084062452768   -0.00048528403573534437
-0.0034688273781514935   -0.021866744333478468   -0.0003836784667121439
-0.006615117662644492   -0.0164622892012162   -0.0003023829599025997
-0.00370433914607891   -0.01649169612832739   -0.00022498692400583123
-0.0036676706104927675   -0.016541061488590976   -0.00024141307236242695
-0.0034688273781514935   -0.021866744333478468   -0.0003836784667121439
-0.006615117662644492   -0.0164622892012162   -0.0003023829599025997
-0.0036676706104927675   -0.016541061488590976   -0.00024141307236242695
-0.0062073573420549635   -0.021868084062452768   -0.00048528403573534437
-0.0034688273781514935   -0.021866744333478468   -0.0003836784667121439
-0.00370433914607891   -0.01649169612832739   -0.00022498692400583123
-0.006237456370140825   -0.02182664934732556   -0.0004600983368566413
-0.0034986035044577246   -0.021822747999932075   -0.0003687555286751903
-0.00370433914607891   -0.01649169612832739   -0.00022498692400583123
-0.006615117662644492   -0.0164622892012162   -0.0003023829599025997
-0.006237456370140825   -0.02182664934732556   -0.0004600983368566413
-0.006649205809573771   -0.01642501489532011   -0.0002772365917312318
-0.0034986035044577246   -0.021822747999932075   -0.0003687555286751903
-0.006264732999971374   -0.02179248088473909   -0.0004315447805218356
-0.006649205809573771   -0.01642501489532011   -0.0002772365917312318
-0.006237456370140825   -0.02182664934732556   -0.0004600983368566413
-0.0034986035044577246   -0.021822747999932075   -0.0003687555286751903
-0.006649205809573771   -0.01642501489532011   -0.0002772365917312318
-0.0037418475051058608   -0.016445103455105695   -0.00020567934371800925
-0.00370433914607891   -0.01649169612832739   -0.00022498692400583123
-0.0034986035044577246   -0.021822747999932075   -0.0003687555286751903
-0.006649205809573771   -0.01642501489532011   -0.0002772365917312318
-0.00370433914607891   -0.01649169612832739   -0.00022498692400583123
-0.006237456370140825   -0.02182664934732556   -0.0004600983368566413
-0.0034986035044577246   -0.021822747999932075   -0.0003687555286751903
-0.0037418475051058608   -0.016445103455105695   -0.00020567934371800925
-0.006264732999971374   -0.02179248088473909   -0.0004315447805218356
-0.0035309261738688358   -0.021786498026301764   -0.0003505495604260053
-0.0037418475051058608   -0.016445103455105695   -0.00020567934371800925
-0.006649205809573771   -0.01642501489532011   -0.0002772365917312318
-0.006264732999971374   -0.02179248088473909   -0.0004315447805218356
-0.006683416468033091   -0.016390759034083602   -0.0002494428528142117
-0.0035309261738688358   -0.021786498026301764   -0.0003505495604260053
-0.006292272161932621   -0.021765632579093138   -0.0003997498406630822
-0.006683416468033091   -0.016390759034083602   -0.0002494428528142117
-0.006264732999971374   -0.02179248088473909   -0.0004315447805218356
-0.0035309261738688358   -0.021786498026301764   -0.0003505495604260053
-0.006683416468033091   -0.016390759034083602   -0.0002494428528142117
-0.0037817699475647015   -0.01640203059105226   -0.00018346565459257142
-0.0037418475051058608   -0.016445103455105695   -0.00020567934371800925
-0.0035309261738688358   -0.021786498026301764   -0.0003505495604260053
-0.006683416468033091   -0.016390759034083602   -0.0002494428528142117
-0.0037418475051058608   -0.016445103455105695   -0.00020567934371800925
-0.006264732999971374   -0.02179248088473909   -0.0004315447805218356
-0.0062073573420549635   -0.021868084062452768   -0.00048528403573534437
-0.0065786526518561315   -0.016502482617313272   -0.00032474602161965073
-0.009030007781524187   -0.02179361865840045   -0.0005586161929561406
-0.006237456370140825   -0.02182664934732556   -0.0004600983368566413
-0.0065786526518561315   -0.016502482617313272   -0.00032474602161965073
-0.00954240610023095   -0.01645014554483143   -0.0003922056956184022
-0.009030007781524187   -0.02179361865840045   -0.0005586161929561406
-0.009577300849048035   -0.016419597688107652   -0.0003639776376476322
-0.006237456370140825   -0.02182664934732556   -0.0004600983368566413
-0.009057898865166164   -0.021762131883925354   -0.0005196102438133509
-0.009577300849048035   -0.016419597688107652   -0.0003639776376476322
-0.009030007781524187   -0.02179361865840045   -0.0005586161929561406
-0.006237456370140825   -0.02182664934732556   -0.0004600983368566413
-0.009577300849048035   -0.016419597688107652   -0.0003639776376476322
-0.006615117662644492   -0.0164622892012162   -0.0003023829599025997
-0.0065786526518561315   -0.016502482617313272   -0.00032474602161965073
-0.006237456370140825   -0.02182664934732556   -0.0004600983368566413
-0.009577300849048035   -0.016419597688107652   -0.0003639776376476322
-0.0065786526518561315   -0.016502482617313272   -0.00032474602161965073
-0.009030007781524187   -0.02179361865840045   -0.0005586161929561406
-0.006237456370140825   -0.02182664934732556   -0.0004600983368566413
-0.006615117662644492   -0.0164622892012162   -0.0003023829599025997
-0.009057898865166164   -0.021762131883925354   -0.0005196102438133509
-0.006264732999971374   -0.02179248088473909   -0.0004315447805218356
-0.006615117662644492   -0.0164622892012162   -0.0003023829599025997
-0.009577300849048035   -0.016419597688107652   -0.0003639776376476322
-0.009057898865166164   -0.021762131883925354   -0.0005196102438133509
-0.009603609650635045   -0.016390921127671463   -0.0003334165498883576
-0.006264732999971374   -0.02179248088473909   -0.0004315447805218356
-0.009074582357136146   -0.0217370293819109   -0.00047768655100050977
-0.009603609650635045   -0.016390921127671463   -0.0003334165498883576
-0.009057898865166164   -0.021762131883925354   -0.0005196102438133509
-0.006264732999971374   -0.02179248088473909   -0.0004315447805218356
-0.009603609650635045   -0.016390921127671463   -0.0003334165498883576
-0.006649205809573771   -0.01642501489532011   -0.0002772365917312318
-0.006615117662644492   -0.0164622892012162   -0.0003023829599025997
-0.006264732999971374   -0.02179248088473909   -0.0004315447805218356
-0.009603609650635045   -0.016390921127671463   -0.0003334165498883576
-0.006615117662644492   -0.0164622892012162   -0.0003023829599025997
-0.009057898865166164   -0.021762131883925354   -0.0005196102438133509
-0.006264732999971374   -0.02179248088473909   -0.0004315447805218356
-0.006649205809573771   -0.01642501489532011   -0.0002772365917312318
-0.009074582357136146   -0.0217370293819109   -0.00047768655100050977
-0.006292272161932621   -0.021765632579093138   -0.0003997498406630822
-0.006649205809573771   -0.01642501489532011   -0.0002772365917312318
-0.009603609650635045   -0.016390921127671463   -0.0003334165498883576
-0.009074582357136146   -0.0217370293819109   -0.00047768655100050977
-0.009629748022554688   -0.016365441706930533   -0.00029992169219693755
-0.006292272161932621   -0.021765632579093138   -0.0003997498406630822
-0.009093016814040447   -0.021719892364917313   -0.0004322439200241469
-0.009629748022554688   -0.016365441706930533   -0.00029992169219693755
-0.009074582357136146   -0.0217370293819109   -0.00047768655100050977
-0.006292272161932621   -0.021765632579093138   -0.0003997498406630822
-0.009629748022554688   -0.016365441706930533   -0.00029992169219693755
-0.006683416468033091   -0.016390759034083602   -0.0002494428528142117
-0.006649205809573771   -0.01642501489532011   -0.0002772365917312318
-0.006292272161932621   -0.021765632579093138   -0.0003997498406630822
-0.009629748022554688   -0.016365441706930533   -0.00029992169219693755
-0.006649205809573771   -0.01642501489532011   -0.0002772365917312318
-0.009074582357136146   -0.0217370293819109   -0.00047768655100050977
-0.009030007781524187   -0.02179361865840045   -0.0005586161929561406
-0.00954240610023095   -0.01645014554483143   -0.0003922056956184022
-0.012060437383620762   -0.021701648826400737   -0.000616728703861509
-0.009057898865166164   -0.021762131883925354   -0.0005196102438133509
-0.00954240610023095   -0.01645014554483143   -0.0003922056956184022
-0.012684991312119226   -0.01638799461431278   -0.00044183034304931946
-0.012060437383620762   -0.021701648826400737   -0.000616728703861509
-0.012689487982592234   -0.01636386042352185   -0.00041037911518518506
-0.009057898865166164   -0.021762131883925354   -0.0005196102438133509
-0.012038535824217298   -0.02167522603138763   -0.0005645429344627989
-0.012689487982592234   -0.01636386042352185   -0.00041037911518518506
-0.012060437383620762   -0.021701648826400737   -0.000616728703861509
-0.009057898865166164   -0.021762131883925354   -0.0005196102438133509
-0.012689487982592234   -0.01636386042352185   -0.00041037911518518506
-0.009577300849048035   -0.016419597688107652   -0.0003639776376476322
-0.00954240610023095   -0.01645014554483143   -0.0003922056956184022
-0.009057898865166164   -0.021762131883925354   -0.0005196102438133509
-0.012689487982592234   -0.01636386042352185   -0.00041037911518518506
-0.00954240610023095   -0.01645014554483143   -0.0003922056956184022
-0.012060437383620762   -0.021701648826400737   -0.000616728703861509
-0.009057898865166164   -0.021762131883925354   -0.0005196102438133509
-0.009577300849048035   -0.016419597688107652   -0.0003639776376476322
-0.012038535824217298   -0.02167522603138763   -0.0005645429344627989
-0.009074582357136146   -0.0217370293819109   -0.00047768655100050977
-0.009577300849048035   -0.016419597688107652   -0.0003639776376476322
-0.012689487982592234   -0.01636386042352185   -0.00041037911518518506
-0.012038535824217298   -0.02167522603138763   -0.0005645429344627989
-0.012694248865206969   -0.016339603535384425   -0.00037424068678297654
-0.009074582357136146   -0.0217370293819109   -0.00047768655100050977
-0.01202067306310153   -0.021654398659798218   -0.0005070025160511261
-0.012694248865206969   -0.016339603535384425   -0.00037424068678297654
-0.012038535824217298   -0.02167522603138763   -0.0005645429344627989
-0.009074582357136146   -0.0217370293819109   -0.00047768655100050977
-0.012694248865206969   -0.016339603535384425   -0.00037424068678297654
-0.009603609650635045   -0.016390921127671463   -0.0003334165498883576
-0.009577300849048035   -0.016419597688107652   -0.0003639776376476322
-0.009074582357136146   -0.0217370293819109   -0.00047768655100050977
-0.012694248865206969   -0.016339603535384425   -0.00037424068678297654
-0.009577300849048035   -0.016419597688107652   -0.0003639776376476322
-0.012038535824217298   -0.02167522603138763   -0.0005645429344627989
-0.009074582357136146   -0.0217370293819109   -0.00047768655100050977
-0.009603609650635045   -0.016390921127671463   -0.0003334165498883576
-0.01202067306310153   -0.021654398659798218   -0.0005070025160511261
-0.009093016814040447   -0.021719892364917313   -0.0004322439200241469
-0.009603609650635045   -0.016390921127671463   -0.0003334165498883576
-0.012694248865206969   -0.016339603535384425   -0.00037424068678297654
-0.01202067306310153   -0.021654398659798218   -0.0005070025160511261
-0.012681110797127554   -0.01632434663823657   -0.00033396531428381
-0.009093016814040447   -0.021719892364917313   -0.0004322439200241469
-0.01197881667868213   -0.021648961300786196   -0.0004447168364596757
-0.012681110797127554   -0.01632434663823657   -0.00033396531428381
-0.01202067306310153   -0.021654398659798218   -0.0005070025160511261
-0.009093016814040447   -0.021719892364917313   -0.0004322439200241469
-0.012681110797127554   -0.01632434663823657   -0.00033396531428381
-0.009629748022554688   -0.016365441706930533   -0.00029992169219693755
-0.009603609650635045   -0.016390921127671463   -0.0003334165498883576
-0.009093016814040447   -0.021719892364917313   -0.0004322439200241469
-0.012681110797127554   -0.01632434663823657   -0.00033396531428381
-0.009603609650635045   -0.016390921127671463   -0.0003334165498883576
-0.01202067306310153   -0.021654398659798218   -0.0005070025160511261
0.0024152134113345543   -0.016599871582488077   -2.5933070989194785e-05
0.0021718020005481124   -0.011087511699465579   6.498757343875353e-05
-0.0007082235260934799   -0.016572997755789378   -0.00014292378194653455
0.002377860717261593   -0.016531654166694422   -2.4482535591888626e-05
0.0021718020005481124   -0.011087511699465579   6.498757343875353e-05
-0.0009797700065578335   -0.011036168224217498   -2.7340977920743108e-05
-0.0007082235260934799   -0.016572997755789378   -0.00014292378194653455
-0.0010228133582214788   -0.010982650149988145   -5.075050642309443e-06
0.002377860717261593   -0.016531654166694422   -2.4482535591888626e-05
-0.0007440139374029251   -0.01651369858978514   -0.00013246308849011704
-0.0010228133582214788   -0.010982650149988145   -5.075050642309443e-06
-0.0007082235260934799   -0.016572997755789378   -0.00014292378194653455
0.002377860717261593   -0.016531654166694422   -2.4482535591888626e-05
-0.0010228133582214788   -0.010982650149988145   -5.075050642309443e-06
0.00210445571228171   -0.011022646524475778   9.23171812600567e-05
0.0021718020005481124   -0.011087511699465579   6.498757343875353e-05
0.002377860717261593   -0.016531654166694422   -2.4482535591888626e-05
-0.0010228133582214788   -0.010982650149988145   -5.075050642309443e-06
0.0021718020005481124   -0.011087511699465579   6.498757343875353e-05
-0.0007082235260934799   -0.016572997755789378   -0.00014292378194653455
0.002377860717261593   -0.016531654166694422   -2.4482535591888626e-05
0.00210445571228171   -0.011022646524475778   9.23171812600567e-05
-0.0007440139374029251   -0.01651369858978514   -0.00013246308849011704
0.00233152267503766   -0.016471072430616858   -1.6882413394027155e-05
0.00210445571228171   -0.011022646524475778   9.23171812600567e-05
-0.0010228133582214788   -0.010982650149988145   -5.075050642309443e-06
-0.0007440139374029251   -0.01651369858978514   -0.00013246308849011704
-0.001073240584832415   -0.0109262634148009   2.121104984492181e-05
0.00233152267503766   -0.016471072430616858   -1.6882413394027155e-05
-0.0007850379153500119   -0.016457978595232483   -0.00011898754347963467
-0.001073240584832415   -0.0109262634148009   2.121104984492181e-05
-0.0007440139374029251   -0.01651369858978514   -0.00013246308849011704
0.00233152267503766   -0.016471072430616858   -1.6882413394027155e-05
-0.001073240584832415   -0.0109262634148009   2.121104984492181e-05
0.0020288839397591433   -0.010958461630043513   0.00013191897098359774
0.00210445571228171   -0.011022646524475778   9.23171812600567e-05
0.00233152267503766   -0.016471072430616858   -1.6882413394027155e-05
-0.001073240584832415   -0.0109262634148009   2.121104984492181e-05
0.00210445571228171   -0.011022646524475778   9.23171812600567e-05
-0.0007440139374029251   -0.01651369858978514   -0.00013246308849011704
0.00233152267503766   -0.016471072430616858   -1.6882413394027155e-05
0.0020288839397591433   -0.010958461630043513   0.00013191897098359774
-0.0007850379153500119   -0.016457978595232483   -0.00011898754347963467
0.002270311551378703   -0.016407890687814983   -3.407698384329664e-06
0.0020288839397591433   -0.010958461630043513   0.00013191897098359774
-0.001073240584832415   -0.0109262634148009   2.121104984492181e-05
-0.0007850379153500119   -0.016457978595232483   -0.00011898754347963467
-0.00112548891179267   -0.010866480329436323   5.1475487722955804e-05
0.002270311551378703   -0.016407890687814983   -3.407698384329664e-06
-0.0008312037156049082   -0.016405062484462864   -0.00010174347021332922
-0.00112548891179267   -0.010866480329436323   5.1475487722955804e-05
-0.0007850379153500119   -0.016457978595232483   -0.00011898754347963467
0.002270311551378703   -0.016407890687814983   -3.407698384329664e-06
-0.00112548891179267   -0.010866480329436323   5.1475487722955804e-05
0.0019365076311048024   -0.010879523745372315   0.0001755558596957458
0.0020288839397591433   -0.010958461630043513   0.00013191897098359774
0.002270311551378703   -0.016407890687814983   -3.407698384329664e-06
-0.00112548891179267   -0.010866480329436323   5.1475487722955804e-05
0.0020288839397591433   -0.010958461630043513   0.00013191897098359774
-0.0007850379153500119   -0.016457978595232483   -0.00011898754347963467
-0.0007082235260934799   -0.016572997755789378   -0.00014292378194653455
-0.0009797700065578335   -0.011036168224217498   -2.7340977920743108e-05
-0.0036676706104927675   -0.016541061488590976   -0.00024141307236242695
-0.0007440139374029251   -0.01651369858978514   -0.00013246308849011704
-0.0009797700065578335   -0.011036168224217498   -2.7340977920743108e-05
-0.003946196072869764   -0.011022848703900894   -0.00011605111313684052
-0.0036676706104927675   -0.016541061488590976   -0.00024141307236242695
-0.003985251291173338   -0.010976355321198174   -9.514794196034962e-05
-0.0007440139374029251   -0.01651369858978514   -0.00013246308849011704
-0.00370433914607891   -0.01649169612832739   -0.00022498692400583123
-0.003985251291173338   -0.010976355321198174   -9.514794196034962e-05
-0.0036676706104927675   -0.016541061488590976   -0.00024141307236242695
-0.0007440139374029251   -0.01651369858978514   -0.00013246308849011704
-0.003985251291173338   -0.010976355321198174   -9.514794196034962e-05
-0.0010228133582214788   -0.010982650149988145   -5.075050642309443e-06
-0.0009797700065578335   -0.011036168224217498   -2.7340977920743108e-05
-0.0007440139374029251   -0.01651369858978514   -0.00013246308849011704
-0.003985251291173338   -0.010976355321198174   -9.514794196034962e-05
-0.0009797700065578335   -0.011036168224217498   -2.7340977920743108e-05
-0.0036676706104927675   -0.016541061488590976   -0.00024141307236242695
-0.0007440139374029251   -0.01651369858978514   -0.00013246308849011704
-0.0010228133582214788   -0.010982650149988145   -5.075050642309443e-06
-0.00370433914607891   -0.01649169612832739   -0.00022498692400583123
-0.0007850379153500119   -0.016457978595232483   -0.00011898754347963467
-0.0010228133582214788   -0.010982650149988145   -5.075050642309443e-06
-0.003985251291173338   -0.010976355321198174   -9.514794196034962e-05
-0.00370433914607891   -0.01649169612832739   -0.00022498692400583123
-0.004025688642729096   -0.010928031153709812   -7.213540004989127e-05
-0.0007850379153500119   -0.016457978595232483   -0.00011898754347963467
-0.0037418475051058608   -0.016445103455105695   -0.00020567934371800925
-0.004025688642729096   -0.010928031153709812   -7.213540004989127e-05
-0.00370433914607891   -0.01649169612832739   -0.00022498692400583123
-0.0007850379153500119   -0.016457978595232483   -0.00011898754347963467
-0.004025688642729096   -0.010928031153709812   -7.213540004989127e-05
-0.001073240584832415   -0.0109262634148009   2.121104984492181e-05
-0.0010228133582214788   -0.010982650149988145   -5.075050642309443e-06
-0.0007850379153500119   -0.016457978595232483   -0.00011898754347963467
-0.004025688642729096   -0.010928031153709812   -7.213540004989127e-05
-0.0010228133582214788   -0.010982650149988145   -5.075050642309443e-06
-0.00370433914607891   -0.01649169612832739   -0.00022498692400583123
-0.0007850379153500119   -0.016457978595232483   -0.00011898754347963467
-0.001073240584832415   -0.0109262634148009   2.121104984492181e-05
-0.0037418475051058608   -0.016445103455105695   -0.00020567934371800925
-0.0008312037156049082   -0.016405062484462864   -0.00010174347021332922
-0.001073240584832415   -0.0109262634148009   2.121104984492181e-05
-0.004025688642729096   -0.010928031153709812   -7.213540004989127e-05
-0.0037418475051058608   -0.016445103455105695   -0.00020567934371800925
-0.00406782397217797   -0.010878791853340945   -4.660006622045008e-05
-0.0008312037156049082   -0.016405062484462864   -0.00010174347021332922
-0.0037817699475647015   -0.01640203059105226   -0.00018346565459257142
-0.00406782397217797   -0.010878791853340945   -4.660006622045008e-05
-0.0037418475051058608   -0.016445103455105695   -0.00020567934371800925
-0.0008312037156049082   -0.016405062484462864   -0.00010174347021332922
-0.00406782397217797   -0.010878791853340945   -4.660006622045008e-05
-0.00112548891179267   -0.010866480329436323   5.1475487722955804e-05
-0.001073240584832415   -0.0109262634148009   2.121104984492181e-05
-0.0008312037156049082   -0.016405062484462864   -0.00010174347021332922
-0.00406782397217797   -0.010878791853340945   -4.660006622045008e-05
-0.001073240584832415   -0.0109262634148009   2.121104984492181e-05
-0.0037418475051058608   -0.016445103455105695   -0.00020567934371800925
-0.0036676706104927675   -0.016541061488590976   -0.00024141307236242695
-0.003946196072869764   -0.011022848703900894   -0.00011605111313684052
-0.0065786526518561315   -0.016502482617313272   -0.00032474602161965073
-0.00370433914607891   -0.01649169612832739   -0.00022498692400583123
-0.003946196072869764   -0.011022848703900894   -0.00011605111313684052
-0.006881244483219341   -0.011019100462284272   -0.0001960587369586947
-0.0065786526518561315   -0.016502482617313272   -0.00032474602161965073
-0.00691865346584038   -0.010978489448955813   -0.00017595809452655478
-0.00370433914607891   -0.01649169612832739   -0.00022498692400583123
-0.006615117662644492   -0.0164622892012162   -0.0003023829599025997
-0.00691865346584038   -0.010978489448955813   -0.00017595809452655478
-0.0065786526518561315   -0.016502482617313272   -0.00032474602161965073
-0.00370433914607891   -0.01649169612832739   -0.00022498692400583123
-0.00691865346584038   -0.010978489448955813   -0.00017595809452655478
-0.003985251291173338   -0.010976355321198174   -9.514794196034962e-05
-0.003946196072869764   -0.011022848703900894   -0.00011605111313684052
-0.00370433914607891   -0.01649169612832739   -0.00022498692400583123
-0.00691865346584038   -0.010978489448955813   -0.00017595809452655478
-0.003946196072869764   -0.011022848703900894   -0.00011605111313684052
-0.0065786526518561315   -0.016502482617313272   -0.00032474602161965073
-0.00370433914607891   -0.01649169612832739   -0.00022498692400583123
-0.003985251291173338   -0.010976355321198174   -9.514794196034962e-05
-0.006615117662644492   -0.0164622892012162   -0.0003023829599025997
-0.0037418475051058608   -0.016445103455105695   -0.00020567934371800925
-0.003985251291173338   -0.010976355321198174   -9.514794196034962e-05
-0.00691865346584038   -0.010978489448955813   -0.00017595809452655478
-0.006615117662644492   -0.0164622892012162   -0.0003023829599025997
-0.006954293741602378   -0.010937205350882767   -0.00015400698644020596
-0.0037418475051058608   -0.016445103455105695   -0.00020567934371800925
-0.006649205809573771   -0.01642501489532011   -0.0002772365917312318
-0.006954293741602378   -0.010937205350882767   -0.00015400698644020596
-0.006615117662644492   -0.0164622892012162   -0.0003023829599025997
-0.0037418475051058608   -0.016445103455105695   -0.00020567934371800925
-0.006954293741602378   -0.010937205350882767   -0.00015400698644020596
-0.004025688642729096   -0.010928031153709812   -7.213540004989127e-05
-0.003985251291173338   -0.010976355321198174   -9.514794196034962e-05
-0.0037418475051058608   -0.016445103455105695   -0.00020567934371800925
-0.006954293741602378   -0.010937205350882767   -0.00015400698644020596
-0.003985251291173338   -0.010976355321198174   -9.514794196034962e-05
-0.006615117662644492   -0.0164622892012162   -0.0003023829599025997
-0.0037418475051058608   -0.016445103455105695   -0.00020567934371800925
-0.004025688642729096   -0.010928031153709812   -7.213540004989127e-05
-0.006649205809573771   -0.01642501489532011   -0.0002772365917312318
-0.0037817699475647015   -0.01640203059105226   -0.00018346565459257142
-0.004025688642729096   -0.010928031153709812   -7.213540004989127e-05
-0.006954293741602378   -0.010937205350882767   -0.00015400698644020596
-0.006649205809573771   -0.01642501489532011   -0.0002772365917312318
-0.006989579485897773   -0.010895003113097223   -0.0001303047253843436
-0.0037817699475647015   -0.01640203059105226   -0.00018346565459257142
-0.006683416468033091   -0.016390759034083602   -0.0002494428528142117
-0.006989579485897773   -0.010895003113097223   -0.0001303047253843436
-0.006649205809573771   -0.01642501489532011   -0.0002772365917312318
-0.0037817699475647015   -0.01640203059105226   -0.00018346565459257142
-0.006989579485897773   -0.010895003113097223   -0.0001303047253843436
-0.00406782397217797   -0.010878791853340945   -4.660006622045008e-05
-0.004025688642729096   -0.010928031153709812   -7.213540004989127e-05
-0.0037817699475647015   -0.01640203059105226   -0.00018346565459257142
-0.006989579485897773   -0.010895003113097223   -0.0001303047253843436
-0.004025688642729096   -0.010928031153709812   -7.213540004989127e-05
-0.006649205809573771   -0.01642501489532011   -0.0002772365917312318
-0.0065786526518561315   -0.016502482617313272   -0.00032474602161965073
-0.006881244483219341   -0.011019100462284272   -0.0001960587369586947
-0.00954240610023095   -0.01645014554483143   -0.0003922056956184022
-0.006615117662644492   -0.0164622892012162   -0.0003023829599025997
-0.006881244483219341   -0.011019100462284272   -0.0001960587369586947
-0.0098786113093977   -0.01100182586119411   -0.0002629101321824427
-0.00954240610023095   -0.01645014554483143   -0.0003922056956184022
-0.009914271512058858   -0.010968982285239022   -0.00024373365192521966
-0.006615117662644492   -0.0164622892012162   -0.0003023829599025997
-0.009577300849048035   -0.016419597688107652   -0.0003639776376476322
-0.009914271512058858   -0.010968982285239022   -0.00024373365192521966
-0.00954240610023095   -0.01645014554483143   -0.0003922056956184022
-0.006615117662644492   -0.0164622892012162   -0.0003023829599025997
-0.009914271512058858   -0.010968982285239022   -0.00024373365192521966
-0.00691865346584038   -0.010978489448955813   -0.00017595809452655478
-0.006881244483219341   -0.011019100462284272   -0.0001960587369586947
-0.006615117662644492   -0.0164622892012162   -0.0003023829599025997
-0.009914271512058858   -0.010968982285239022   -0.00024373365192521966
-0.006881244483219341   -0.011019100462284272   -0.0001960587369586947
-0.00954240610023095   -0.01645014554483143   -0.0003922056956184022
-0.006615117662644492   -0.0164622892012162   -0.0003023829599025997
-0.00691865346584038   -0.010978489448955813   -0.00017595809452655478
-0.009577300849048035   -0.016419597688107652   -0.0003639776376476322
-0.006649205809573771   -0.01642501489532011   -0.0002772365917312318
-0.00691865346584038   -0.010978489448955813   -0.00017595809452655478
-0.009914271512058858   -0.010968982285239022   -0.00024373365192521966
-0.009577300849048035   -0.016419597688107652   -0.0003639776376476322
-0.009944407257963393   -0.010934359044802935   -0.00022322568933455595
-0.006649205809573771   -0.01642501489532011   -0.0002772365917312318
-0.009603609650635045   -0.016390921127671463   -0.0003334165498883576
-0.009944407257963393   -0.010934359044802935   -0.00022322568933455595
-0.009577300849048035   -0.016419597688107652   -0.0003639776376476322
-0.006649205809573771   -0.01642501489532011   -0.0002772365917312318
-0.009944407257963393   -0.010934359044802935   -0.00022322568933455595
-0.006954293741602378   -0.010937205350882767   -0.00015400698644020596
-0.00691865346584038   -0.010978489448955813   -0.00017595809452655478
-0.006649205809573771   -0.01642501489532011   -0.0002772365917312318
-0.009944407257963393   -0.010934359044802935   -0.00022322568933455595
-0.00691865346584038   -0.010978489448955813   -0.00017595809452655478
-0.009577300849048035   -0.016419597688107652   -0.0003639776376476322
-0.006649205809573771   -0.01642501489532011   -0.0002772365917312318
-0.006954293741602378   -0.010937205350882767   -0.00015400698644020596
-0.009603609650635045   -0.016390921127671463   -0.0003334165498883576
-0.006683416468033091   -0.016390759034083602   -0.0002494428528142117
-0.006954293741602378   -0.010937205350882767   -0.00015400698644020596
-0.009944407257963393   -0.010934359044802935   -0.00022322568933455595
-0.009603609650635045   -0.016390921127671463   -0.0003334165498883576
-0.009972885430605764   -0.01089887776658467   -0.00020082291328267293
-0.006683416468033091   -0.016390759034083602   -0.0002494428528142117
-0.009629748022554688   -0.016365441706930533   -0.00029992169219693755
-0.009972885430605764   -0.01089887776658467   -0.00020082291328267293
-0.009603609650635045   -0.016390921127671463   -0.0003334165498883576
-0.006683416468033091   -0.016390759034083602   -0.0002494428528142117
-0.009972885430605764   -0.01089887776658467   -0.00020082291328267293
-0.006989579485897773   -0.010895003113097223   -0.0001303047253843436
-0.006954293741602378   -0.010937205350882767   -0.00015400698644020596
-0.006683416468033091   -0.016390759034083602   -0.0002494428528142117
-0.009972885430605764   -0.01089887776658467   -0.00020082291328267293
-0.006954293741602378   -0.010937205350882767   -0.00015400698644020596
-0.009603609650635045   -0.016390921127671463   -0.0003334165498883576
-0.00954240610023095   -0.01645014554483143   -0.0003922056956184022
-0.0098786113093977   -0.01100182586119411   -0.0002629101321824427
-0.012684991312119226   -0.01638799461431278   -0.00044183034304931946
-0.009577300849048035   -0.016419597688107652   -0.0003639776376476322
-0.0098786113093977   -0.01100182586119411   -0.0002629101321824427
-0.01302005646816544   -0.010973139037472305   -0.00031179871696945165
-0.012684991312119226   -0.01638799461431278   -0.00044183034304931946
-0.013041797841187239   -0.010945819708006493   -0.00029716189003318116
-0.009577300849048035   -0.016419597688107652   -0.0003639776376476322
-0.012689487982592234   -0.01636386042352185   -0.00041037911518518506
-0.013041797841187239   -0.010945819708006493   -0.00029716189003318116
-0.012684991312119226   -0.01638799461431278   -0.00044183034304931946
-0.009577300849048035   -0.016419597688107652   -0.0003639776376476322
-0.013041797841187239   -0.010945819708006493   -0.00029716189003318116
-0.009914271512058858   -0.010968982285239022   -0.00024373365192521966
-0.0098786113093977   -0.01100182586119411   -0.0002629101321824427
-0.009577300849048035   -0.016419597688107652   -0.0003639776376476322
-0.013041797841187239   -0.010945819708006493   -0.00029716189003318116
-0.0098786113093977   -0.01100182586119411   -0.0002629101321824427
-0.012684991312119226   -0.01638799461431278   -0.00044183034304931946
-0.009577300849048035   -0.016419597688107652   -0.0003639776376476322
-0.009914271512058858   -0.010968982285239022   -0.00024373365192521966
-0.012689487982592234   -0.01636386042352185   -0.00041037911518518506
-0.009603609650635045   -0.016390921127671463   -0.0003334165498883576
-0.009914271512058858   -0.010968982285239022   -0.00024373365192521966
-0.013041797841187239   -0.010945819708006493   -0.00029716189003318116
-0.012689487982592234   -0.01636386042352185   -0.00041037911518518506
-0.013061678103621528   -0.010914801782463335   -0.0002792942231770157
-0.009603609650635045   -0.016390921127671463   -0.0003334165498883576
-0.012694248865206969   -0.016339603535384425   -0.00037424068678297654
-0.013061678103621528   -0.010914801782463335   -0.0002792942231770157
-0.012689487982592234   -0.01636386042352185   -0.00041037911518518506
-0.009603609650635045   -0.016390921127671463   -0.0003334165498883576
-0.013061678103621528   -0.010914801782463335   -0.0002792942231770157
-0.009944407257963393   -0.010934359044802935   -0.00022322568933455595
-0.009914271512058858   -0.010968982285239022   -0.00024373365192521966
-0.009603609650635045   -0.016390921127671463   -0.0003334165498883576
-0.013061678103621528   -0.010914801782463335   -0.0002792942231770157
-0.009914271512058858   -0.010968982285239022   -0.00024373365192521966
-0.012689487982592234   -0.01636386042352185   -0.00041037911518518506
-0.009603609650635045   -0.016390921127671463   -0.0003334165498883576
-0.009944407257963393   -0.010934359044802935   -0.00022322568933455595
-0.012694248865206969   -0.016339603535384425   -0.00037424068678297654
-0.009629748022554688   -0.016365441706930533   -0.00029992169219693755
-0.009944407257963393   -0.010934359044802935   -0.00022322568933455595
-0.013061678103621528   -0.010914801782463335   -0.0002792942231770157
-0.012694248865206969   -0.016339603535384425   -0.00037424068678297654
-0.013070839785862601   -0.010886651296480284   -0.00025898357491168674
-0.009629748022554688   -0.016365441706930533   -0.00029992169219693755
-0.012681110797127554   -0.01632434663823657   -0.00033396531428381
-0.013070839785862601   -0.010886651296480284   -0.00025898357491168674
-0.012694248865206969   -0.016339603535384425   -0.00037424068678297654
-0.009629748022554688   -0.016365441706930533   -0.00029992169219693755
-0.013070839785862601   -0.010886651296480284   -0.00025898357491168674
-0.009972885430605764   -0.01089887776658467   -0.00020082291328267293
-0.009944407257963393   -0.010934359044802935   -0.00022322568933455595
-0.009629748022554688   -0.016365441706930533   -0.00029992169219693755
-0.013070839785862601   -0.010886651296480284   -0.00025898357491168674
-0.009944407257963393   -0.010934359044802935   -0.00022322568933455595
-0.012694248865206969   -0.016339603535384425   -0.00037424068678297654
0.0021718020005481124   -0.011087511699465579   6.498757343875353e-05
0.0015260488416522409   -0.00557645840958435   7.034078336588302e-05
-0.0009797700065578335   -0.011036168224217498   -2.7340977920743108e-05
0.00210445571228171   -0.011022646524475778   9.23171812600567e-05
0.0015260488416522409   -0.00557645840958435   7.034078336588302e-05
-0.0014181399184523935   -0.005505541524896105   3.805731804548177e-05
-0.0009797700065578335   -0.011036168224217498   -2.7340977920743108e-05
-0.0014611406840118574   -0.0054792187300744056   6.927617784708055e-05
0.00210445571228171   -0.011022646524475778   9.23171812600567e-05
-0.0010228133582214788   -0.010982650149988145   -5.075050642309443e-06
-0.0014611406840118574   -0.0054792187300744056   6.927617784708055e-05
-0.0009797700065578335   -0.011036168224217498   -2.7340977920743108e-05
0.00210445571228171   -0.011022646524475778   9.23171812600567e-05
-0.0014611406840118574   -0.0054792187300744056   6.927617784708055e-05
0.0013918132207444353   -0.005507235865014236   0.00014734822389256654
0.0015260488416522409   -0.00557645840958435   7.034078336588302e-05
0.00210445571228171   -0.011022646524475778   9.23171812600567e-05
-0.0014611406840118574   -0.0054792187300744056   6.927617784708055e-05
0.0015260488416522409   -0.00557645840958435   7.034078336588302e-05
-0.0009797700065578335   -0.011036168224217498   -2.7340977920743108e-05
0.00210445571228171   -0.011022646524475778   9.23171812600567e-05
0.0013918132207444353   -0.005507235865014236   0.00014734822389256654
-0.0010228133582214788   -0.010982650149988145   -5.075050642309443e-06
0.0020288839397591433   -0.010958461630043513   0.00013191897098359774
0.0013918132207444353   -0.005507235865014236   0.00014734822389256654
-0.0014611406840118574   -0.0054792187300744056   6.927617784708055e-05
-0.0010228133582214788   -0.010982650149988145   -5.075050642309443e-06
-0.0015179709810426182   -0.005431268861087034   0.00010727591855950643
0.0020288839397591433   -0.010958461630043513   0.00013191897098359774
-0.001073240584832415   -0.0109262634148009   2.121104984492181e-05
-0.0015179709810426182   -0.005431268861087034   0.00010727591855950643
-0.0010228133582214788   -0.010982650149988145   -5.075050642309443e-06
0.0020288839397591433   -0.010958461630043513   0.00013191897098359774
-0.0015179709810426182   -0.005431268861087034   0.00010727591855950643
0.00131334911646495   -0.005451120717028496   0.00020463984420718937
0.0013918132207444353   -0.005507235865014236   0.00014734822389256654
0.0020288839397591433   -0.010958461630043513   0.00013191897098359774
-0.0015179709810426182   -0.005431268861087034   0.00010727591855950643
0.0013918132207444353   -0.005507235865014236   0.00014734822389256654
-0.0010228133582214788   -0.010982650149988145   -5.075050642309443e-06
0.0020288839397591433   -0.010958461630043513   0.00013191897098359774
0.00131334911646495   -0.005451120717028496   0.00020463984420718937
-0.001073240584832415   -0.0109262634148009   2.121104984492181e-05
0.0019365076311048024   -0.010879523745372315   0.0001755558596957458
0.00131334911646495   -0.005451120717028496   0.00020463984420718937
-0.0015179709810426182   -0.005431268861087034   0.00010727591855950643
-0.001073240584832415   -0.0109262634148009   2.121104984492181e-05
-0.0015658893702411392   -0.005379904508277703   0.00014070752898131844
0.0019365076311048024   -0.010879523745372315   0.0001755558596957458
-0.00112548891179267   -0.010866480329436323   5.1475487722955804e-05
-0.0015658893702411392   -0.005379904508277703   0.00014070752898131844
-0.001073240584832415   -0.0109262634148009   2.121104984492181e-05
0.0019365076311048024   -0.010879523745372315   0.0001755558596957458
-0.0015658893702411392   -0.005379904508277703   0.00014070752898131844
0.001212566111878978   -0.005364883185212632   0.0002703236838026161
0.00131334911646495   -0.005451120717028496   0.00020463984420718937
0.0019365076311048024   -0.010879523745372315   0.0001755558596957458
-0.0015658893702411392   -0.005379904508277703   0.00014070752898131844
0.00131334911646495   -0.005451120717028496   0.00020463984420718937
-0.001073240584832415   -0.0109262634148009   2.121104984492181e-05
-0.0009797700065578335   -0.011036168224217498   -2.7340977920743108e-05
-0.0014181399184523935   -0.005505541524896105   3.805731804548177e-05
-0.003946196072869764   -0.011022848703900894   -0.00011605111313684052
-0.0010228133582214788   -0.010982650149988145   -5.075050642309443e-06
-0.0014181399184523935   -0.005505541524896105   3.805731804548177e-05
-0.004216334971911962   -0.00558791108483932   -3.180034327130044e-05
-0.003946196072869764   -0.011022848703900894   -0.00011605111313684052
-0.004256210013989284   -0.005546904087099861   -9.572263008595142e-06
-0.0010228133582214788   -0.010982650149988145   -5.075050642309443e-06
-0.003985251291173338   -0.010976355321198174   -9.514794196034962e-05
-0.004256210013989284   -0.005546904087099861   -9.572263008595142e-06
-0.003946196072869764   -0.011022848703900894   -0.00011605111313684052
-0.0010228133582214788   -0.010982650149988145   -5.075050642309443e-06
-0.004256210013989284   -0.005546904087099861   -9.572263008595142e-06
-0.0014611406840118574   -0.0054792187300744056   6.927617784708055e-05
-0.0014181399184523935   -0.005505541524896105   3.805731804548177e-05
-0.0010228133582214788   -0.010982650149988145   -5.075050642309443e-06
-0.004256210013989284   -0.005546904087099861   -9.572263008595142e-06
-0.0014181399184523935   -0.005505541524896105   3.805731804548177e-05
-0.003946196072869764   -0.011022848703900894   -0.00011605111313684052
-0.0010228133582214788   -0.010982650149988145   -5.075050642309443e-06
-0.0014611406840118574   -0.0054792187300744056   6.927617784708055e-05
-0.003985251291173338   -0.010976355321198174   -9.514794196034962e-05
-0.001073240584832415   -0.0109262634148009   2.121104984492181e-05
-0.0014611406840118574   -0.0054792187300744056   6.927617784708055e-05
-0.004256210013989284   -0.005546904087099861   -9.572263008595142e-06
-0.003985251291173338   -0.010976355321198174   -9.514794196034962e-05
-0.004298100481583629   -0.005500408978270657   1.402860319475782e-05
-0.001073240584832415   -0.0109262634148009   2.121104984492181e-05
-0.004025688642729096   -0.010928031153709812   -7.213540004989127e-05
-0.004298100481583629   -0.005500408978270657   1.402860319475782e-05
-0.003985251291173338   -0.010976355321198174   -9.514794196034962e-05
-0.001073240584832415   -0.0109262634148009   2.121104984492181e-05
-0.004298100481583629   -0.005500408978270657   1.402860319475782e-05
-0.0015179709810426182   -0.005431268861087034   0.00010727591855950643
-0.0014611406840118574   -0.0054792187300744056   6.927617784708055e-05
-0.001073240584832415   -0.0109262634148009   2.121104984492181e-05
-0.004298100481583629   -0.005500408978270657   1.402860319475782e-05
-0.0014611406840118574   -0.0054792187300744056   6.927617784708055e-05
-0.003985251291173338   -0.010976355321198174   -9.514794196034962e-05
-0.001073240584832415   -0.0109262634148009   2.121104984492181e-05
-0.0015179709810426182   -0.005431268861087034   0.00010727591855950643
-0.004025688642729096   -0.010928031153709812   -7.213540004989127e-05
-0.00112548891179267   -0.010866480329436323   5.1475487722955804e-05
-0.0015179709810426182   -0.005431268861087034   0.00010727591855950643
-0.004298100481583629   -0.005500408978270657   1.402860319475782e-05
-0.004025688642729096   -0.010928031153709812   -7.213540004989127e-05
-0.004338043175466792   -0.005449448066474067   4.010220080208778e-05
-0.00112548891179267   -0.010866480329436323   5.1475487722955804e-05
-0.00406782397217797   -0.010878791853340945   -4.660006622045008e-05
-0.004338043175466792   -0.005449448066474067   4.010220080208778e-05
-0.004025688642729096   -0.010928031153709812   -7.213540004989127e-05
-0.00112548891179267   -0.010866480329436323   5.1475487722955804e-05
-0.004338043175466792   -0.005449448066474067   4.010220080208778e-05
-0.0015658893702411392   -0.005379904508277703   0.00014070752898131844
-0.0015179709810426182   -0.005431268861087034   0.00010727591855950643
-0.00112548891179267   -0.010866480329436323   5.1475487722955804e-05
-0.004338043175466792   -0.005449448066474067   4.010220080208778e-05
-0.0015179709810426182   -0.005431268861087034   0.00010727591855950643
-0.004025688642729096   -0.010928031153709812   -7.213540004989127e-05
-0.003946196072869764   -0.011022848703900894   -0.00011605111313684052
-0.004216334971911962   -0.00558791108483932   -3.180034327130044e-05
-0.006881244483219341   -0.011019100462284272   -0.0001960587369586947
-0.003985251291173338   -0.010976355321198174   -9.514794196034962e-05
-0.004216334971911962   -0.00558791108483932   -3.180034327130044e-05
-0.0070814286461105165   -0.005652284060075756   -0.00010971322760588444
-0.006881244483219341   -0.011019100462284272   -0.0001960587369586947
-0.007117365310938418   -0.005610126971177929   -9.239491667834246e-05
-0.003985251291173338   -0.010976355321198174   -9.514794196034962e-05
-0.00691865346584038   -0.010978489448955813   -0.00017595809452655478
-0.007117365310938418   -0.005610126971177929   -9.239491667834246e-05
-0.006881244483219341   -0.011019100462284272   -0.0001960587369586947
-0.003985251291173338   -0.010976355321198174   -9.514794196034962e-05
-0.007117365310938418   -0.005610126971177929   -9.239491667834246e-05
-0.004256210013989284   -0.005546904087099861   -9.572263008595142e-06
-0.004216334971911962   -0.00558791108483932   -3.180034327130044e-05
-0.003985251291173338   -0.010976355321198174   -9.514794196034962e-05
-0.007117365310938418   -0.005610126971177929   -9.239491667834246e-05
-0.004216334971911962   -0.00558791108483932   -3.180034327130044e-05
-0.006881244483219341   -0.011019100462284272   -0.0001960587369586947
-0.003985251291173338   -0.010976355321198174   -9.514794196034962e-05
-0.004256210013989284   -0.005546904087099861   -9.572263008595142e-06
-0.00691865346584038   -0.010978489448955813   -0.00017595809452655478
-0.004025688642729096   -0.010928031153709812   -7.213540004989127e-05
-0.004256210013989284   -0.005546904087099861   -9.572263008595142e-06
-0.007117365310938418   -0.005610126971177929   -9.239491667834246e-05
-0.00691865346584038   -0.010978489448955813   -0.00017595809452655478
-0.007151849252212645   -0.005565515988945378   -7.507832394459598e-05
-0.004025688642729096   -0.010928031153709812   -7.213540004989127e-05
-0.006954293741602378   -0.010937205350882767   -0.00015400698644020596
-0.007151849252212645   -0.005565515988945378   -7.507832394459598e-05
-0.00691865346584038   -0.010978489448955813   -0.00017595809452655478
-0.004025688642729096   -0.010928031153709812   -7.213540004989127e-05
-0.007151849252212645   -0.005565515988945378   -7.507832394459598e-05
-0.004298100481583629   -0.005500408978270657   1.402860319475782e-05
-0.004256210013989284   -0.005546904087099861   -9.572263008595142e-06
-0.004025688642729096   -0.010928031153709812   -7.213540004989127e-05
-0.007151849252212645   -0.005565515988945378   -7.507832394459598e-05
-0.004256210013989284   -0.005546904087099861   -9.572263008595142e-06
-0.00691865346584038   -0.010978489448955813   -0.00017595809452655478
-0.004025688642729096   -0.010928031153709812   -7.213540004989127e-05
-0.004298100481583629   -0.005500408978270657   1.402860319475782e-05
-0.006954293741602378   -0.010937205350882767   -0.00015400698644020596
-0.00406782397217797   -0.010878791853340945   -4.660006622045008e-05
-0.004298100481583629   -0.005500408978270657   1.402860319475782e-05
-0.007151849252212645   -0.005565515988945378   -7.507832394459598e-05
-0.006954293741602378   -0.010937205350882767   -0.00015400698644020596
-0.007183705449790209   -0.005517148462996049   -5.616794423087153e-05
-0.00406782397217797   -0.010878791853340945   -4.660006622045008e-05
-0.006989579485897773   -0.010895003113097223   -0.0001303047253843436
-0.007183705449790209   -0.005517148462996049   -5.616794423087153e-05
-0.006954293741602378   -0.010937205350882767   -0.00015400698644020596
-0.00406782397217797   -0.010878791853340945   -4.660006622045008e-05
-0.007183705449790209   -0.005517148462996049   -5.616794423087153e-05
-0.004338043175466792   -0.005449448066474067   4.010220080208778e-05
-0.004298100481583629   -0.005500408978270657   1.402860319475782e-05
-0.00406782397217797   -0.010878791853340945   -4.660006622045008e-05
-0.007183705449790209   -0.005517148462996049   -5.616794423087153e-05
-0.004298100481583629   -0.005500408978270657   1.402860319475782e-05
-0.006954293741602378   -0.010937205350882767   -0.00015400698644020596
-0.006881244483219341   -0.011019100462284272   -0.0001960587369586947
-0.0070814286461105165   -0.005652284060075756   -0.00010971322760588444
-0.0098786113093977   -0.01100182586119411   -0.0002629101321824427
-0.00691865346584038   -0.010978489448955813   -0.00017595809452655478
-0.0070814286461105165   -0.005652284060075756   -0.00010971322760588444
-0.010047212153852519   -0.0056787859117578224   -0.00018152628075027925
-0.0098786113093977   -0.01100182586119411   -0.0002629101321824427
-0.010079615091415766   -0.005641068064091938   -0.0001688246692562361
-0.00691865346584038   -0.010978489448955813   -0.00017595809452655478
-0.009914271512058858   -0.010968982285239022   -0.00024373365192521966
-0.010079615091415766   -0.005641068064091938   -0.0001688246692562361
-0.0098786113093977   -0.01100182586119411   -0.0002629101321824427
-0.00691865346584038   -0.010978489448955813   -0.00017595809452655478
-0.010079615091415766   -0.005641068064091938   -0.0001688246692562361
-0.007117365310938418   -0.005610126971177929   -9.239491667834246e-05
-0.0070814286461105165   -0.005652284060075756   -0.00010971322760588444
-0.00691865346584038   -0.010978489448955813   -0.00017595809452655478
-0.010079615091415766   -0.005641068064091938   -0.0001688246692562361
-0.0070814286461105165   -0.005652284060075756   -0.00010971322760588444
-0.0098786113093977   -0.01100182586119411   -0.0002629101321824427
-0.00691865346584038   -0.010978489448955813   -0.00017595809452655478
-0.007117365310938418   -0.005610126971177929   -9.239491667834246e-05
-0.009914271512058858   -0.010968982285239022   -0.00024373365192521966
-0.006954293741602378   -0.010937205350882767   -0.00015400698644020596
-0.007117365310938418   -0.005610126971177929   -9.239491667834246e-05
-0.010079615091415766   -0.005641068064091938   -0.0001688246692562361
-0.009914271512058858   -0.010968982285239022   -0.00024373365192521966
-0.010108495036059418   -0.005599871079149092   -0.000156435188010713
-0.006954293741602378   -0.010937205350882767   -0.00015400698644020596
-0.009944407257963393   -0.010934359044802935   -0.00022322568933455595
-0.010108495036059418   -0.005599871079149092   -0.000156435188010713
-0.009914271512058858   -0.010968982285239022   -0.00024373365192521966
-0.006954293741602378   -0.010937205350882767   -0.00015400698644020596
-0.010108495036059418   -0.005599871079149092   -0.000156435188010713
-0.007151849252212645   -0.005565515988945378   -7.507832394459598e-05
-0.007117365310938418   -0.005610126971177929   -9.239491667834246e-05
-0.006954293741602378   -0.010937205350882767   -0.00015400698644020596
-0.010108495036059418   -0.005599871079149092   -0.000156435188010713
-0.007117365310938418   -0.005610126971177929   -9.239491667834246e-05
-0.009914271512058858   -0.010968982285239022   -0.00024373365192521966
-0.006954293741602378   -0.010937205350882767   -0.00015400698644020596
-0.007151849252212645   -0.005565515988945378   -7.507832394459598e-05
-0.009944407257963393   -0.010934359044802935   -0.00022322568933455595
-0.006989579485897773   -0.010895003113097223   -0.0001303047253843436
-0.007151849252212645   -0.005565515988945378   -7.507832394459598e-05
-0.010108495036059418   -0.005599871079149092   -0.000156435188010713
-0.009944407257963393   -0.010934359044802935   -0.00022322568933455595
-0.010134667734629624   -0.005555960520848454   -0.0001436194307364825
-0.006989579485897773   -0.010895003113097223   -0.0001303047253843436
-0.009972885430605764   -0.01089887776658467   -0.00020082291328267293
-0.010134667734629624   -0.005555960520848454   -0.0001436194307364825
-0.009944407257963393   -0.010934359044802935   -0.00022322568933455595
-0.006989579485897773   -0.010895003113097223   -0.0001303047253843436
-0.010134667734629624   -0.005555960520848454   -0.0001436194307364825
-0.007183705449790209   -0.005517148462996049   -5.616794423087153e-05
-0.007151849252212645   -0.005565515988945378   -7.507832394459598e-05
-0.006989579485897773   -0.010895003113097223   -0.0001303047253843436
-0.010134667734629624   -0.005555960520848454   -0.0001436194307364825
-0.007151849252212645   -0.005565515988945378   -7.507832394459598e-05
-0.009944407257963393   -0.010934359044802935   -0.00022322568933455595
-0.0098786113093977   -0.01100182586119411   -0.0002629101321824427
-0.010047212153852519   -0.0056787859117578224   -0.00018152628075027925
-0.01302005646816544   -0.010973139037472305   -0.00031179871696945165
-0.009914271512058858   -0.010968982285239022   -0.00024373365192521966
-0.010047212153852519   -0.0056787859117578224   -0.00018152628075027925
-0.01312019312463248   -0.005681610233922155   -0.0002407587509937625
-0.01302005646816544   -0.010973139037472305   -0.00031179871696945165
-0.013147908049868647   -0.005645065024461776   -0.00023515737327098294
-0.009914271512058858   -0.010968982285239022   -0.00024373365192521966
-0.013041797841187239   -0.010945819708006493   -0.00029716189003318116
-0.013147908049868647   -0.005645065024461776   -0.00023515737327098294
-0.01302005646816544   -0.010973139037472305   -0.00031179871696945165
-0.009914271512058858   -0.010968982285239022   -0.00024373365192521966
-0.013147908049868647   -0.005645065024461776   -0.00023515737327098294
-0.010079615091415766   -0.005641068064091938   -0.0001688246692562361
-0.010047212153852519   -0.0056787859117578224   -0.00018152628075027925
-0.009914271512058858   -0.010968982285239022   -0.00024373365192521966
-0.013147908049868647   -0.005645065024461776   -0.00023515737327098294
-0.010047212153852519   -0.0056787859117578224   -0.00018152628075027925
-0.01302005646816544   -0.010973139037472305   -0.00031179871696945165
-0.009914271512058858   -0.010968982285239022   -0.00024373365192521966
-0.010079615091415766   -0.005641068064091938   -0.0001688246692562361
-0.013041797841187239   -0.010945819708006493   -0.00029716189003318116
-0.009944407257963393   -0.010934359044802935   -0.00022322568933455595
-0.010079615091415766   -0.005641068064091938   -0.0001688246692562361
-0.013147908049868647   -0.005645065024461776   -0.00023515737327098294
-0.013041797841187239   -0.010945819708006493   -0.00029716189003318116
-0.013172738353395724   -0.005605435833892134   -0.0002285787649306986
-0.009944407257963393   -0.010934359044802935   -0.00022322568933455595
-0.013061678103621528   -0.010914801782463335   -0.0002792942231770157
-0.013172738353395724   -0.005605435833892134   -0.0002285787649306986
-0.013041797841187239   -0.010945819708006493   -0.00029716189003318116
-0.009944407257963393   -0.010934359044802935   -0.00022322568933455595
-0.013172738353395724   -0.005605435833892134   -0.0002285787649306986
-0.010108495036059418   -0.005599871079149092   -0.000156435188010713
-0.010079615091415766   -0.005641068064091938   -0.0001688246692562361
-0.009944407257963393   -0.010934359044802935   -0.00022322568933455595
-0.013172738353395724   -0.005605435833892134   -0.0002285787649306986
-0.010079615091415766   -0.005641068064091938   -0.0001688246692562361
-0.013041797841187239   -0.010945819708006493   -0.00029716189003318116
-0.009944407257963393   -0.010934359044802935   -0.00022322568933455595
-0.010108495036059418   -0.005599871079149092   -0.000156435188010713
-0.013061678103621528   -0.010914801782463335   -0.0002792942231770157
-0.009972885430605764   -0.01089887776658467   -0.00020082291328267293
-0.010108495036059418   -0.005599871079149092   -0.000156435188010713
-0.013172738353395724   -0.005605435833892134   -0.0002285787649306986
-0.013061678103621528   -0.010914801782463335   -0.0002792942231770157
-0.013193456759522179   -0.005563494438509676   -0.0002223659821859223
-0.009972885430605764   -0.01089887776658467   -0.00020082291328267293
-0.013070839785862601   -0.010886651296480284   -0.00025898357491168674
-0.013193456759522179   -0.005563494438509676   -0.0002223659821859223
-0.013061678103621528   -0.010914801782463335   -0.0002792942231770157
-0.009972885430605764   -0.01089887776658467   -0.00020082291328267293
-0.013193456759522179   -0.005563494438509676   -0.0002223659821859223
-0.010134667734629624   -0.005555960520848454   -0.0001436194307364825
-0.010108495036059418   -0.005599871079149092   -0.000156435188010713
-0.009972885430605764   -0.01089887776658467   -0.00020082291328267293
-0.013193456759522179   -0.005563494438509676   -0.0002223659821859223
-0.010108495036059418   -0.005599871079149092   -0.000156435188010713
-0.013061678103621528   -0.010914801782463335   -0.0002792942231770157
0.0015260488416522409   -0.00557645840958435   7.034078336588302e-05
0.0   0.0   0.0
-0.0014181399184523935   -0.005505541524896105   3.805731804548177e-05
0.0013918132207444353   -0.005507235865014236   0.00014734822389256654
0.0   0.0   0.0
-0.0017751095421516714   -0.0004588419812407005   -1.288064387611256e-05
-0.0014181399184523935   -0.005505541524896105   3.805731804548177e-05
-0.0018813552508710177   -0.00035835904379996294   4.915841968901362e-05
0.0013918132207444353   -0.005507235865014236   0.00014734822389256654
-0.0014611406840118574   -0.0054792187300744056   6.927617784708055e-05
-0.0018813552508710177   -0.00035835904379996294   4.915841968901362e-05
-0.0014181399184523935   -0.005505541524896105   3.805731804548177e-05
0.0013918132207444353   -0.005507235865014236   0.00014734822389256654
-0.0018813552508710177   -0.00035835904379996294   4.915841968901362e-05
0.0   0.0   0.0
0.0   0.0   0.0
0.0013918132207444353   -0.005507235865014236   0.00014734822389256654
-0.0018813552508710177   -0.00035835904379996294   4.915841968901362e-05
0.0   0.0   0.0
-0.0014181399184523935   -0.005505541524896105   3.805731804548177e-05
0.0013918132207444353   -0.005507235865014236   0.00014734822389256654
0.0   0.0   0.0
-0.0014611406840118574   -0.0054792187300744056   6.927617784708055e-05
0.00131334911646495   -0.005451120717028496   0.00020463984420718937
0.0   0.0   0.0
-0.0018813552508710177   -0.00035835904379996294   4.915841968901362e-05
-0.0014611406840118574   -0.0054792187300744056   6.927617784708055e-05
-0.0019482989342369788   -0.00031017083788864103   8.526448720346624e-05
0.00131334911646495   -0.005451120717028496   0.00020463984420718937
-0.0015179709810426182   -0.005431268861087034   0.00010727591855950643
-0.0019482989342369788   -0.00031017083788864103   8.526448720346624e-05
-0.0014611406840118574   -0.0054792187300744056   6.927617784708055e-05
0.00131334911646495   -0.005451120717028496   0.00020463984420718937
-0.0019482989342369788   -0.00031017083788864103   8.526448720346624e-05
0.0   0.0   0.0
0.0   0.0   0.0
0.00131334911646495   -0.005451120717028496   0.00020463984420718937
-0.0019482989342369788   -0.00031017083788864103   8.526448720346624e-05
0.0   0.0   0.0
-0.0014611406840118574   -0.0054792187300744056   6.927617784708055e-05
0.00131334911646495   -0.005451120717028496   0.00020463984420718937
0.0   0.0   0.0
-0.0015179709810426182   -0.005431268861087034   0.00010727591855950643
0.001212566111878978   -0.005364883185212632   0.0002703236838026161
0.0   0.0   0.0
-0.0019482989342369788   -0.00031017083788864103   8.526448720346624e-05
-0.0015179709810426182   -0.005431268861087034   0.00010727591855950643
-0.0020385136124732254   -0.0002460296921400865   0.00012676454151953196
0.001212566111878978   -0.005364883185212632   0.0002703236838026161
-0.0015658893702411392   -0.005379904508277703   0.00014070752898131844
-0.0020385136124732254   -0.0002460296921400865   0.00012676454151953196
-0.0015179709810426182   -0.005431268861087034   0.00010727591855950643
0.001212566111878978   -0.005364883185212632   0.0002703236838026161
-0.0020385136124732254   -0.0002460296921400865   0.00012676454151953196
0.0   0.0   0.0
0.0   0.0   0.0
0.001212566111878978   -0.005364883185212632   0.0002703236838026161
-0.0020385136124732254   -0.0002460296921400865   0.00012676454151953196
0.0   0.0   0.0
-0.0015179709810426182   -0.005431268861087034   0.00010727591855950643
-0.0014181399184523935   -0.005505541524896105   3.805731804548177e-05
-0.0017751095421516714   -0.0004588419812407005   -1.288064387611256e-05
-0.004216334971911962   -0.00558791108483932   -3.180034327130044e-05
-0.0014611406840118574   -0.0054792187300744056   6.927617784708055e-05
-0.0017751095421516714   -0.0004588419812407005   -1.288064387611256e-05
-0.004340159131195897   -0.0006042359463307402   -9.133336698422282e-06
-0.004216334971911962   -0.00558791108483932   -3.180034327130044e-05
-0.0043952535407291455   -0.000549808460036657   7.164886509023619e-06
-0.0014611406840118574   -0.0054792187300744056   6.927617784708055e-05
-0.004256210013989284   -0.005546904087099861   -9.572263008595142e-06
-0.0043952535407291455   -0.000549808460036657   7.164886509023619e-06
-0.004216334971911962   -0.00558791108483932   -3.180034327130044e-05
-0.0014611406840118574   -0.0054792187300744056   6.927617784708055e-05
-0.0043952535407291455   -0.000549808460036657   7.164886509023619e-06
-0.0018813552508710177   -0.00035835904379996294   4.915841968901362e-05
-0.0017751095421516714   -0.0004588419812407005   -1.288064387611256e-05
-0.0014611406840118574   -0.0054792187300744056   6.927617784708055e-05
-0.0043952535407291455   -0.000549808460036657   7.164886509023619e-06
-0.0017751095421516714   -0.0004588419812407005   -1.288064387611256e-05
-0.004216334971911962   -0.00558791108483932   -3.180034327130044e-05
-0.0014611406840118574   -0.0054792187300744056   6.927617784708055e-05
-0.0018813552508710177   -0.00035835904379996294   4.915841968901362e-05
-0.004256210013989284   -0.005546904087099861   -9.572263008595142e-06
-0.0015179709810426182   -0.005431268861087034   0.00010727591855950643
-0.0018813552508710177   -0.00035835904379996294   4.915841968901362e-05
-0.0043952535407291455   -0.000549808460036657   7.164886509023619e-06
-0.004256210013989284   -0.005546904087099861   -9.572263008595142e-06
-0.0044502384468847085   -0.0004859958449788482   3.605973964866351e-05
-0.0015179709810426182   -0.005431268861087034   0.00010727591855950643
-0.004298100481583629   -0.005500408978270657   1.402860319475782e-05
-0.0044502384468847085   -0.0004859958449788482   3.605973964866351e-05
-0.004256210013989284   -0.005546904087099861   -9.572263008595142e-06
-0.0015179709810426182   -0.005431268861087034   0.00010727591855950643
-0.0044502384468847085   -0.0004859958449788482   3.605973964866351e-05
-0.0019482989342369788   -0.00031017083788864103   8.526448720346624e-05
-0.0018813552508710177   -0.00035835904379996294   4.915841968901362e-05
-0.0015179709810426182   -0.005431268861087034   0.00010727591855950643
-0.0044502384468847085   -0.0004859958449788482   3.605973964866351e-05
-0.0018813552508710177   -0.00035835904379996294   4.915841968901362e-05
-0.004256210013989284   -0.005546904087099861   -9.572263008595142e-06
-0.0015179709810426182   -0.005431268861087034   0.00010727591855950643
-0.0019482989342369788   -0.00031017083788864103   8.526448720346624e-05
-0.004298100481583629   -0.005500408978270657   1.402860319475782e-05
-0.0015658893702411392   -0.005379904508277703   0.00014070752898131844
-0.0019482989342369788   -0.00031017083788864103   8.526448720346624e-05
-0.0044502384468847085   -0.0004859958449788482   3.605973964866351e-05
-0.004298100481583629   -0.005500408978270657   1.402860319475782e-05
-0.004511601802209996   -0.00041192232908743314   6.391348376503779e-05
-0.0015658893702411392   -0.005379904508277703   0.00014070752898131844
-0.004338043175466792   -0.005449448066474067   4.010220080208778e-05
-0.004511601802209996   -0.00041192232908743314   6.391348376503779e-05
-0.004298100481583629   -0.005500408978270657   1.402860319475782e-05
-0.0015658893702411392   -0.005379904508277703   0.00014070752898131844
-0.004511601802209996   -0.00041192232908743314   6.391348376503779e-05
-0.0020385136124732254   -0.0002460296921400865   0.00012676454151953196
-0.0019482989342369788   -0.00031017083788864103   8.526448720346624e-05
-0.0015658893702411392   -0.005379904508277703   0.00014070752898131844
-0.004511601802209996   -0.00041192232908743314   6.391348376503779e-05
-0.0019482989342369788   -0.00031017083788864103   8.526448720346624e-05
-0.004298100481583629   -0.005500408978270657   1.402860319475782e-05
-0.004216334971911962   -0.00558791108483932   -3.180034327130044e-05
-0.004340159131195897   -0.0006042359463307402   -9.133336698422282e-06
-0.0070814286461105165   -0.005652284060075756   -0.00010971322760588444
-0.004256210013989284   -0.005546904087099861   -9.572263008595142e-06
-0.004340159131195897   -0.0006042359463307402   -9.133336698422282e-06
-0.007150836900805502   -0.0006466399002436188   -5.734479493438124e-05
-0.0070814286461105165   -0.005652284060075756   -0.00010971322760588444
-0.0071844549345719735   -0.0006047277617088828   -5.266241159592519e-05
-0.004256210013989284   -0.005546904087099861   -9.572263008595142e-06
-0.007117365310938418   -0.005610126971177929   -9.239491667834246e-05
-0.0071844549345719735   -0.0006047277617088828   -5.266241159592519e-05
-0.0070814286461105165   -0.005652284060075756   -0.00010971322760588444
-0.004256210013989284   -0.005546904087099861   -9.572263008595142e-06
-0.0071844549345719735   -0.0006047277617088828   -5.266241159592519e-05
-0.0043952535407291455   -0.000549808460036657   7.164886509023619e-06
-0.004340159131195897   -0.0006042359463307402   -9.133336698422282e-06
-0.004256210013989284   -0.005546904087099861   -9.572263008595142e-06
-0.0071844549345719735   -0.0006047277617088828   -5.266241159592519e-05
-0.004340159131195897   -0.0006042359463307402   -9.133336698422282e-06
-0.0070814286461105165   -0.005652284060075756   -0.00010971322760588444
-0.004256210013989284   -0.005546904087099861   -9.572263008595142e-06
-0.0043952535407291455   -0.000549808460036657   7.164886509023619e-06
-0.007117365310938418   -0.005610126971177929   -9.239491667834246e-05
-0.004298100481583629   -0.005500408978270657   1.402860319475782e-05
-0.0043952535407291455   -0.000549808460036657   7.164886509023619e-06
-0.0071844549345719735   -0.0006047277617088828   -5.266241159592519e-05
-0.007117365310938418   -0.005610126971177929   -9.239491667834246e-05
-0.0072194453453017825   -0.0005558187124198785   -4.454124099879204e-05
-0.004298100481583629   -0.005500408978270657   1.402860319475782e-05
-0.007151849252212645   -0.005565515988945378   -7.507832394459598e-05
-0.0072194453453017825   -0.0005558187124198785   -4.454124099879204e-05
-0.007117365310938418   -0.005610126971177929   -9.239491667834246e-05
-0.004298100481583629   -0.005500408978270657   1.402860319475782e-05
-0.0072194453453017825   -0.0005558187124198785   -4.454124099879204e-05
-0.0044502384468847085   -0.0004859958449788482   3.605973964866351e-05
-0.0043952535407291455   -0.000549808460036657   7.164886509023619e-06
-0.004298100481583629   -0.005500408978270657   1.402860319475782e-05
-0.0072194453453017825   -0.0005558187124198785   -4.454124099879204e-05
-0.0043952535407291455   -0.000549808460036657   7.164886509023619e-06
-0.007117365310938418   -0.005610126971177929   -9.239491667834246e-05
-0.004298100481583629   -0.005500408978270657   1.402860319475782e-05
-0.0044502384468847085   -0.0004859958449788482   3.605973964866351e-05
-0.007151849252212645   -0.005565515988945378   -7.507832394459598e-05
-0.004338043175466792   -0.005449448066474067   4.010220080208778e-05
-0.0044502384468847085   -0.0004859958449788482   3.605973964866351e-05
-0.0072194453453017825   -0.0005558187124198785   -4.454124099879204e-05
-0.007151849252212645   -0.005565515988945378   -7.507832394459598e-05
-0.007253039354033727   -0.0004958734986478242   -3.37946815107691e-05
-0.004338043175466792   -0.005449448066474067   4.010220080208778e-05
-0.007183705449790209   -0.005517148462996049   -5.616794423087153e-05
-0.007253039354033727   -0.0004958734986478242   -3.37946815107691e-05
-0.007151849252212645   -0.005565515988945378   -7.507832394459598e-05
-0.004338043175466792   -0.005449448066474067   4.010220080208778e-05
-0.007253039354033727   -0.0004958734986478242   -3.37946815107691e-05
-0.004511601802209996   -0.00041192232908743314   6.391348376503779e-05
-0.0044502384468847085   -0.0004859958449788482   3.605973964866351e-05
-0.004338043175466792   -0.005449448066474067   4.010220080208778e-05
-0.007253039354033727   -0.0004958734986478242   -3.37946815107691e-05
-0.0044502384468847085   -0.0004859958449788482   3.605973964866351e-05
-0.007151849252212645   -0.005565515988945378   -7.507832394459598e-05
-0.0070814286461105165   -0.005652284060075756   -0.00010971322760588444
-0.007150836900805502   -0.0006466399002436188   -5.734479493438124e-05
-0.010047212153852519   -0.0056787859117578224   -0.00018152628075027925
-0.007117365310938418   -0.005610126971177929   -9.239491667834246e-05
-0.007150836900805502   -0.0006466399002436188   -5.734479493438124e-05
-0.010099500411806149   -0.0006413797598941666   -0.00012804729763074067
-0.010047212153852519   -0.0056787859117578224   -0.00018152628075027925
-0.0101222558971685   -0.0006041126702324379   -0.00012601726019217005
-0.007117365310938418   -0.005610126971177929   -9.239491667834246e-05
-0.010079615091415766   -0.005641068064091938   -0.0001688246692562361
-0.0101222558971685   -0.0006041126702324379   -0.00012601726019217005
-0.010047212153852519   -0.0056787859117578224   -0.00018152628075027925
-0.007117365310938418   -0.005610126971177929   -9.239491667834246e-05
-0.0101222558971685   -0.0006041126702324379   -0.00012601726019217005
-0.0071844549345719735   -0.0006047277617088828   -5.266241159592519e-05
-0.007150836900805502   -0.0006466399002436188   -5.734479493438124e-05
-0.007117365310938418   -0.005610126971177929   -9.239491667834246e-05
-0.0101222558971685   -0.0006041126702324379   -0.00012601726019217005
-0.007150836900805502   -0.0006466399002436188   -5.734479493438124e-05
-0.010047212153852519   -0.0056787859117578224   -0.00018152628075027925
-0.007117365310938418   -0.005610126971177929   -9.239491667834246e-05
-0.0071844549345719735   -0.0006047277617088828   -5.266241159592519e-05
-0.010079615091415766   -0.005641068064091938   -0.0001688246692562361
-0.007151849252212645   -0.005565515988945378   -7.507832394459598e-05
-0.0071844549345719735   -0.0006047277617088828   -5.266241159592519e-05
-0.0101222558971685   -0.0006041126702324379   -0.00012601726019217005
-0.010079615091415766   -0.005641068064091938   -0.0001688246692562361
-0.010145984916526928   -0.0005623782342151949   -0.00012446348323968652
-0.007151849252212645   -0.005565515988945378   -7.507832394459598e-05
-0.010108495036059418   -0.005599871079149092   -0.000156435188010713
-0.010145984916526928   -0.0005623782342151949   -0.00012446348323968652
-0.010079615091415766   -0.005641068064091938   -0.0001688246692562361
-0.007151849252212645   -0.005565515988945378   -7.507832394459598e-05
-0.010145984916526928   -0.0005623782342151949   -0.00012446348323968652
-0.0072194453453017825   -0.0005558187124198785   -4.454124099879204e-05
-0.0071844549345719735   -0.0006047277617088828   -5.266241159592519e-05
-0.007151849252212645   -0.005565515988945378   -7.507832394459598e-05
-0.010145984916526928   -0.0005623782342151949   -0.00012446348323968652
-0.0071844549345719735   -0.0006047277617088828   -5.266241159592519e-05
-0.010079615091415766   -0.005641068064091938   -0.0001688246692562361
-0.007151849252212645   -0.005565515988945378   -7.507832394459598e-05
-0.0072194453453017825   -0.0005558187124198785   -4.454124099879204e-05
-0.010108495036059418   -0.005599871079149092   -0.000156435188010713
-0.007183705449790209   -0.005517148462996049   -5.616794423087153e-05
-0.0072194453453017825   -0.0005558187124198785   -4.454124099879204e-05
-0.010145984916526928   -0.0005623782342151949   -0.00012446348323968652
-0.010108495036059418   -0.005599871079149092   -0.000156435188010713
-0.010164277323443327   -0.0005169321405260574   -0.00012347357730859175
-0.007183705449790209   -0.005517148462996049   -5.616794423087153e-05
-0.010134667734629624   -0.005555960520848454   -0.0001436194307364825
-0.010164277323443327   -0.0005169321405260574   -0.00012347357730859175
-0.010108495036059418   -0.005599871079149092   -0.000156435188010713
-0.007183705449790209   -0.005517148462996049   -5.616794423087153e-05
-0.010164277323443327   -0.0005169321405260574   -0.00012347357730859175
-0.007253039354033727   -0.0004958734986478242   -3.37946815107691e-05
-0.0072194453453017825   -0.0005558187124198785   -4.454124099879204e-05
-0.007183705449790209   -0.005517148462996049   -5.616794423087153e-05
-0.010164277323443327   -0.0005169321405260574   -0.00012347357730859175
-0.0072194453453017825   -0.0005558187124198785   -4.454124099879204e-05
-0.010108495036059418   -0.005599871079149092   -0.000156435188010713
-0.010047212153852519   -0.0056787859117578224   -0.00018152628075027925
-0.010099500411806149   -0.0006413797598941666   -0.00012804729763074067
-0.01312019312463248   -0.005681610233922155   -0.0002407587509937625
-0.010079615091415766   -0.005641068064091938   -0.0001688246692562361
-0.010099500411806149   -0.0006413797598941666   -0.00012804729763074067
-0.013130707571411632   -0.0006370777278558758   -0.00019777707163701305
-0.01312019312463248   -0.005681610233922155   -0.0002407587509937625
-0.013148977965518371   -0.0005967451622268146   -0.00019765922600110651
-0.010079615091415766   -0.005641068064091938   -0.0001688246692562361
-0.013147908049868647   -0.005645065024461776   -0.00023515737327098294
-0.013148977965518371   -0.0005967451622268146   -0.00019765922600110651
-0.01312019312463248   -0.005681610233922155   -0.0002407587509937625
-0.010079615091415766   -0.005641068064091938   -0.0001688246692562361
-0.013148977965518371   -0.0005967451622268146   -0.00019765922600110651
-0.0101222558971685   -0.0006041126702324379   -0.00012601726019217005
-0.010099500411806149   -0.0006413797598941666   -0.00012804729763074067
-0.010079615091415766   -0.005641068064091938   -0.0001688246692562361
-0.013148977965518371   -0.0005967451622268146   -0.00019765922600110651
-0.010099500411806149   -0.0006413797598941666   -0.00012804729763074067
-0.01312019312463248   -0.005681610233922155   -0.0002407587509937625
-0.010079615091415766   -0.005641068064091938   -0.0001688246692562361
-0.0101222558971685   -0.0006041126702324379   -0.00012601726019217005
-0.013147908049868647   -0.005645065024461776   -0.00023515737327098294
-0.010108495036059418   -0.005599871079149092   -0.000156435188010713
-0.0101222558971685   -0.0006041126702324379   -0.00012601726019217005
-0.013148977965518371   -0.0005967451622268146   -0.00019765922600110651
-0.013147908049868647   -0.005645065024461776   -0.00023515737327098294
-0.01316901074275309   -0.000556280257624666   -0.0002006976003819359
-0.010108495036059418   -0.005599871079149092   -0.000156435188010713
-0.013172738353395724   -0.005605435833892134   -0.0002285787649306986
-0.01316901074275309   -0.000556280257624666   -0.0002006976003819359
-0.013147908049868647   -0.005645065024461776   -0.00023515737327098294
-0.010108495036059418   -0.005599871079149092   -0.000156435188010713
-0.01316901074275309   -0.000556280257624666   -0.0002006976003819359
-0.010145984916526928   -0.0005623782342151949   -0.00012446348323968652
-0.0101222558971685   -0.0006041126702324379   -0.00012601726019217005
-0.010108495036059418   -0.005599871079149092   -0.000156435188010713
-0.01316901074275309   -0.000556280257624666   -0.0002006976003819359
-0.0101222558971685   -0.0006041126702324379   -0.00012601726019217005
-0.013147908049868647   -0.005645065024461776   -0.00023515737327098294
-0.010108495036059418   -0.005599871079149092   -0.000156435188010713
-0.010145984916526928   -0.0005623782342151949   -0.00012446348323968652
-0.013172738353395724   -0.005605435833892134   -0.0002285787649306986
-0.010134667734629624   -0.005555960520848454   -0.0001436194307364825
-0.010145984916526928   -0.0005623782342151949   -0.00012446348323968652
-0.01316901074275309   -0.000556280257624666   -0.0002006976003819359
-0.013172738353395724   -0.005605435833892134   -0.0002285787649306986
-0.013183857930579291   -0.0005121050088164465   -0.00020388759594348896
-0.010134667734629624   -0.005555960520848454   -0.0001436194307364825
-0.013193456759522179   -0.005563494438509676   -0.0002223659821859223
-0.013183857930579291   -0.0005121050088164465   -0.00020388759594348896
-0.013172738353395724   -0.005605435833892134   -0.0002285787649306986
-0.010134667734629624   -0.005555960520848454   -0.0001436194307364825
-0.013183857930579291   -0.0005121050088164465   -0.00020388759594348896
-0.010164277323443327   -0.0005169321405260574   -0.00012347357730859175
-0.010145984916526928   -0.0005623782342151949   -0.00012446348323968652
-0.010134667734629624   -0.005555960520848454   -0.0001436194307364825
-0.013183857930579291   -0.0005121050088164465   -0.00020388759594348896
-0.010145984916526928   -0.0005623782342151949   -0.00012446348323968652
-0.013172738353395724   -0.005605435833892134   -0.0002285787649306986
              </DataArray>   
          </PointData>  
       </Piece>  
   </UnstructuredGrid> 
</VTKFile> 
