<?xml version="1.0"?> 
<VTKFile type="UnstructuredGrid"> 
   <UnstructuredGrid> 
      <Piece NumberOfPoints="6000"  NumberOfCells="1500">  
          <Points>  
             <DataArray type="Float64" NumberOfComponents="3" format="ascii">   
-500.0   0.0   0.0
-450.0   0.0   0.0
-500.0   30.0   0.0
-500.0   0.0   16.666666666666668
-450.0   0.0   0.0
-450.0   30.0   0.0
-500.0   30.0   0.0
-450.0   30.0   16.666666666666668
-500.0   0.0   16.666666666666668
-500.0   30.0   16.666666666666668
-450.0   30.0   16.666666666666668
-500.0   30.0   0.0
-500.0   0.0   16.666666666666668
-450.0   30.0   16.666666666666668
-450.0   0.0   16.666666666666668
-450.0   0.0   0.0
-500.0   0.0   16.666666666666668
-450.0   30.0   16.666666666666668
-450.0   0.0   0.0
-500.0   30.0   0.0
-500.0   0.0   16.666666666666668
-450.0   0.0   16.666666666666668
-500.0   30.0   16.666666666666668
-500.0   0.0   33.333333333333336
-450.0   0.0   16.666666666666668
-450.0   30.0   16.666666666666668
-500.0   30.0   16.666666666666668
-450.0   30.0   33.333333333333336
-500.0   0.0   33.333333333333336
-500.0   30.0   33.333333333333336
-450.0   30.0   33.333333333333336
-500.0   30.0   16.666666666666668
-500.0   0.0   33.333333333333336
-450.0   30.0   33.333333333333336
-450.0   0.0   33.333333333333336
-450.0   0.0   16.666666666666668
-500.0   0.0   33.333333333333336
-450.0   30.0   33.333333333333336
-450.0   0.0   16.666666666666668
-500.0   30.0   16.666666666666668
-500.0   0.0   33.333333333333336
-450.0   0.0   33.333333333333336
-500.0   30.0   33.333333333333336
-500.0   0.0   50.0
-450.0   0.0   33.333333333333336
-450.0   30.0   33.333333333333336
-500.0   30.0   33.333333333333336
-450.0   30.0   50.0
-500.0   0.0   50.0
-500.0   30.0   50.0
-450.0   30.0   50.0
-500.0   30.0   33.333333333333336
-500.0   0.0   50.0
-450.0   30.0   50.0
-450.0   0.0   50.0
-450.0   0.0   33.333333333333336
-500.0   0.0   50.0
-450.0   30.0   50.0
-450.0   0.0   33.333333333333336
-500.0   30.0   33.333333333333336
-500.0   30.0   0.0
-450.0   30.0   0.0
-500.0   60.0   0.0
-500.0   30.0   16.666666666666668
-450.0   30.0   0.0
-450.0   60.0   0.0
-500.0   60.0   0.0
-450.0   60.0   16.666666666666668
-500.0   30.0   16.666666666666668
-500.0   60.0   16.666666666666668
-450.0   60.0   16.666666666666668
-500.0   60.0   0.0
-500.0   30.0   16.666666666666668
-450.0   60.0   16.666666666666668
-450.0   30.0   16.666666666666668
-450.0   30.0   0.0
-500.0   30.0   16.666666666666668
-450.0   60.0   16.666666666666668
-450.0   30.0   0.0
-500.0   60.0   0.0
-500.0   30.0   16.666666666666668
-450.0   30.0   16.666666666666668
-500.0   60.0   16.666666666666668
-500.0   30.0   33.333333333333336
-450.0   30.0   16.666666666666668
-450.0   60.0   16.666666666666668
-500.0   60.0   16.666666666666668
-450.0   60.0   33.333333333333336
-500.0   30.0   33.333333333333336
-500.0   60.0   33.333333333333336
-450.0   60.0   33.333333333333336
-500.0   60.0   16.666666666666668
-500.0   30.0   33.333333333333336
-450.0   60.0   33.333333333333336
-450.0   30.0   33.333333333333336
-450.0   30.0   16.666666666666668
-500.0   30.0   33.333333333333336
-450.0   60.0   33.333333333333336
-450.0   30.0   16.666666666666668
-500.0   60.0   16.666666666666668
-500.0   30.0   33.333333333333336
-450.0   30.0   33.333333333333336
-500.0   60.0   33.333333333333336
-500.0   30.0   50.0
-450.0   30.0   33.333333333333336
-450.0   60.0   33.333333333333336
-500.0   60.0   33.333333333333336
-450.0   60.0   50.0
-500.0   30.0   50.0
-500.0   60.0   50.0
-450.0   60.0   50.0
-500.0   60.0   33.333333333333336
-500.0   30.0   50.0
-450.0   60.0   50.0
-450.0   30.0   50.0
-450.0   30.0   33.333333333333336
-500.0   30.0   50.0
-450.0   60.0   50.0
-450.0   30.0   33.333333333333336
-500.0   60.0   33.333333333333336
-500.0   60.0   0.0
-450.0   60.0   0.0
-500.0   90.0   0.0
-500.0   60.0   16.666666666666668
-450.0   60.0   0.0
-450.0   90.0   0.0
-500.0   90.0   0.0
-450.0   90.0   16.666666666666668
-500.0   60.0   16.666666666666668
-500.0   90.0   16.666666666666668
-450.0   90.0   16.666666666666668
-500.0   90.0   0.0
-500.0   60.0   16.666666666666668
-450.0   90.0   16.666666666666668
-450.0   60.0   16.666666666666668
-450.0   60.0   0.0
-500.0   60.0   16.666666666666668
-450.0   90.0   16.666666666666668
-450.0   60.0   0.0
-500.0   90.0   0.0
-500.0   60.0   16.666666666666668
-450.0   60.0   16.666666666666668
-500.0   90.0   16.666666666666668
-500.0   60.0   33.333333333333336
-450.0   60.0   16.666666666666668
-450.0   90.0   16.666666666666668
-500.0   90.0   16.666666666666668
-450.0   90.0   33.333333333333336
-500.0   60.0   33.333333333333336
-500.0   90.0   33.333333333333336
-450.0   90.0   33.333333333333336
-500.0   90.0   16.666666666666668
-500.0   60.0   33.333333333333336
-450.0   90.0   33.333333333333336
-450.0   60.0   33.333333333333336
-450.0   60.0   16.666666666666668
-500.0   60.0   33.333333333333336
-450.0   90.0   33.333333333333336
-450.0   60.0   16.666666666666668
-500.0   90.0   16.666666666666668
-500.0   60.0   33.333333333333336
-450.0   60.0   33.333333333333336
-500.0   90.0   33.333333333333336
-500.0   60.0   50.0
-450.0   60.0   33.333333333333336
-450.0   90.0   33.333333333333336
-500.0   90.0   33.333333333333336
-450.0   90.0   50.0
-500.0   60.0   50.0
-500.0   90.0   50.0
-450.0   90.0   50.0
-500.0   90.0   33.333333333333336
-500.0   60.0   50.0
-450.0   90.0   50.0
-450.0   60.0   50.0
-450.0   60.0   33.333333333333336
-500.0   60.0   50.0
-450.0   90.0   50.0
-450.0   60.0   33.333333333333336
-500.0   90.0   33.333333333333336
-500.0   90.0   0.0
-450.0   90.0   0.0
-500.0   120.0   0.0
-500.0   90.0   16.666666666666668
-450.0   90.0   0.0
-450.0   120.0   0.0
-500.0   120.0   0.0
-450.0   120.0   16.666666666666668
-500.0   90.0   16.666666666666668
-500.0   120.0   16.666666666666668
-450.0   120.0   16.666666666666668
-500.0   120.0   0.0
-500.0   90.0   16.666666666666668
-450.0   120.0   16.666666666666668
-450.0   90.0   16.666666666666668
-450.0   90.0   0.0
-500.0   90.0   16.666666666666668
-450.0   120.0   16.666666666666668
-450.0   90.0   0.0
-500.0   120.0   0.0
-500.0   90.0   16.666666666666668
-450.0   90.0   16.666666666666668
-500.0   120.0   16.666666666666668
-500.0   90.0   33.333333333333336
-450.0   90.0   16.666666666666668
-450.0   120.0   16.666666666666668
-500.0   120.0   16.666666666666668
-450.0   120.0   33.333333333333336
-500.0   90.0   33.333333333333336
-500.0   120.0   33.333333333333336
-450.0   120.0   33.333333333333336
-500.0   120.0   16.666666666666668
-500.0   90.0   33.333333333333336
-450.0   120.0   33.333333333333336
-450.0   90.0   33.333333333333336
-450.0   90.0   16.666666666666668
-500.0   90.0   33.333333333333336
-450.0   120.0   33.333333333333336
-450.0   90.0   16.666666666666668
-500.0   120.0   16.666666666666668
-500.0   90.0   33.333333333333336
-450.0   90.0   33.333333333333336
-500.0   120.0   33.333333333333336
-500.0   90.0   50.0
-450.0   90.0   33.333333333333336
-450.0   120.0   33.333333333333336
-500.0   120.0   33.333333333333336
-450.0   120.0   50.0
-500.0   90.0   50.0
-500.0   120.0   50.0
-450.0   120.0   50.0
-500.0   120.0   33.333333333333336
-500.0   90.0   50.0
-450.0   120.0   50.0
-450.0   90.0   50.0
-450.0   90.0   33.333333333333336
-500.0   90.0   50.0
-450.0   120.0   50.0
-450.0   90.0   33.333333333333336
-500.0   120.0   33.333333333333336
-500.0   120.0   0.0
-450.0   120.0   0.0
-500.0   150.0   0.0
-500.0   120.0   16.666666666666668
-450.0   120.0   0.0
-450.0   150.0   0.0
-500.0   150.0   0.0
-450.0   150.0   16.666666666666668
-500.0   120.0   16.666666666666668
-500.0   150.0   16.666666666666668
-450.0   150.0   16.666666666666668
-500.0   150.0   0.0
-500.0   120.0   16.666666666666668
-450.0   150.0   16.666666666666668
-450.0   120.0   16.666666666666668
-450.0   120.0   0.0
-500.0   120.0   16.666666666666668
-450.0   150.0   16.666666666666668
-450.0   120.0   0.0
-500.0   150.0   0.0
-500.0   120.0   16.666666666666668
-450.0   120.0   16.666666666666668
-500.0   150.0   16.666666666666668
-500.0   120.0   33.333333333333336
-450.0   120.0   16.666666666666668
-450.0   150.0   16.666666666666668
-500.0   150.0   16.666666666666668
-450.0   150.0   33.333333333333336
-500.0   120.0   33.333333333333336
-500.0   150.0   33.333333333333336
-450.0   150.0   33.333333333333336
-500.0   150.0   16.666666666666668
-500.0   120.0   33.333333333333336
-450.0   150.0   33.333333333333336
-450.0   120.0   33.333333333333336
-450.0   120.0   16.666666666666668
-500.0   120.0   33.333333333333336
-450.0   150.0   33.333333333333336
-450.0   120.0   16.666666666666668
-500.0   150.0   16.666666666666668
-500.0   120.0   33.333333333333336
-450.0   120.0   33.333333333333336
-500.0   150.0   33.333333333333336
-500.0   120.0   50.0
-450.0   120.0   33.333333333333336
-450.0   150.0   33.333333333333336
-500.0   150.0   33.333333333333336
-450.0   150.0   50.0
-500.0   120.0   50.0
-500.0   150.0   50.0
-450.0   150.0   50.0
-500.0   150.0   33.333333333333336
-500.0   120.0   50.0
-450.0   150.0   50.0
-450.0   120.0   50.0
-450.0   120.0   33.333333333333336
-500.0   120.0   50.0
-450.0   150.0   50.0
-450.0   120.0   33.333333333333336
-500.0   150.0   33.333333333333336
-450.0   0.0   0.0
-400.0   0.0   0.0
-450.0   30.0   0.0
-450.0   0.0   16.666666666666668
-400.0   0.0   0.0
-400.0   30.0   0.0
-450.0   30.0   0.0
-400.0   30.0   16.666666666666668
-450.0   0.0   16.666666666666668
-450.0   30.0   16.666666666666668
-400.0   30.0   16.666666666666668
-450.0   30.0   0.0
-450.0   0.0   16.666666666666668
-400.0   30.0   16.666666666666668
-400.0   0.0   16.666666666666668
-400.0   0.0   0.0
-450.0   0.0   16.666666666666668
-400.0   30.0   16.666666666666668
-400.0   0.0   0.0
-450.0   30.0   0.0
-450.0   0.0   16.666666666666668
-400.0   0.0   16.666666666666668
-450.0   30.0   16.666666666666668
-450.0   0.0   33.333333333333336
-400.0   0.0   16.666666666666668
-400.0   30.0   16.666666666666668
-450.0   30.0   16.666666666666668
-400.0   30.0   33.333333333333336
-450.0   0.0   33.333333333333336
-450.0   30.0   33.333333333333336
-400.0   30.0   33.333333333333336
-450.0   30.0   16.666666666666668
-450.0   0.0   33.333333333333336
-400.0   30.0   33.333333333333336
-400.0   0.0   33.333333333333336
-400.0   0.0   16.666666666666668
-450.0   0.0   33.333333333333336
-400.0   30.0   33.333333333333336
-400.0   0.0   16.666666666666668
-450.0   30.0   16.666666666666668
-450.0   0.0   33.333333333333336
-400.0   0.0   33.333333333333336
-450.0   30.0   33.333333333333336
-450.0   0.0   50.0
-400.0   0.0   33.333333333333336
-400.0   30.0   33.333333333333336
-450.0   30.0   33.333333333333336
-400.0   30.0   50.0
-450.0   0.0   50.0
-450.0   30.0   50.0
-400.0   30.0   50.0
-450.0   30.0   33.333333333333336
-450.0   0.0   50.0
-400.0   30.0   50.0
-400.0   0.0   50.0
-400.0   0.0   33.333333333333336
-450.0   0.0   50.0
-400.0   30.0   50.0
-400.0   0.0   33.333333333333336
-450.0   30.0   33.333333333333336
-450.0   30.0   0.0
-400.0   30.0   0.0
-450.0   60.0   0.0
-450.0   30.0   16.666666666666668
-400.0   30.0   0.0
-400.0   60.0   0.0
-450.0   60.0   0.0
-400.0   60.0   16.666666666666668
-450.0   30.0   16.666666666666668
-450.0   60.0   16.666666666666668
-400.0   60.0   16.666666666666668
-450.0   60.0   0.0
-450.0   30.0   16.666666666666668
-400.0   60.0   16.666666666666668
-400.0   30.0   16.666666666666668
-400.0   30.0   0.0
-450.0   30.0   16.666666666666668
-400.0   60.0   16.666666666666668
-400.0   30.0   0.0
-450.0   60.0   0.0
-450.0   30.0   16.666666666666668
-400.0   30.0   16.666666666666668
-450.0   60.0   16.666666666666668
-450.0   30.0   33.333333333333336
-400.0   30.0   16.666666666666668
-400.0   60.0   16.666666666666668
-450.0   60.0   16.666666666666668
-400.0   60.0   33.333333333333336
-450.0   30.0   33.333333333333336
-450.0   60.0   33.333333333333336
-400.0   60.0   33.333333333333336
-450.0   60.0   16.666666666666668
-450.0   30.0   33.333333333333336
-400.0   60.0   33.333333333333336
-400.0   30.0   33.333333333333336
-400.0   30.0   16.666666666666668
-450.0   30.0   33.333333333333336
-400.0   60.0   33.333333333333336
-400.0   30.0   16.666666666666668
-450.0   60.0   16.666666666666668
-450.0   30.0   33.333333333333336
-400.0   30.0   33.333333333333336
-450.0   60.0   33.333333333333336
-450.0   30.0   50.0
-400.0   30.0   33.333333333333336
-400.0   60.0   33.333333333333336
-450.0   60.0   33.333333333333336
-400.0   60.0   50.0
-450.0   30.0   50.0
-450.0   60.0   50.0
-400.0   60.0   50.0
-450.0   60.0   33.333333333333336
-450.0   30.0   50.0
-400.0   60.0   50.0
-400.0   30.0   50.0
-400.0   30.0   33.333333333333336
-450.0   30.0   50.0
-400.0   60.0   50.0
-400.0   30.0   33.333333333333336
-450.0   60.0   33.333333333333336
-450.0   60.0   0.0
-400.0   60.0   0.0
-450.0   90.0   0.0
-450.0   60.0   16.666666666666668
-400.0   60.0   0.0
-400.0   90.0   0.0
-450.0   90.0   0.0
-400.0   90.0   16.666666666666668
-450.0   60.0   16.666666666666668
-450.0   90.0   16.666666666666668
-400.0   90.0   16.666666666666668
-450.0   90.0   0.0
-450.0   60.0   16.666666666666668
-400.0   90.0   16.666666666666668
-400.0   60.0   16.666666666666668
-400.0   60.0   0.0
-450.0   60.0   16.666666666666668
-400.0   90.0   16.666666666666668
-400.0   60.0   0.0
-450.0   90.0   0.0
-450.0   60.0   16.666666666666668
-400.0   60.0   16.666666666666668
-450.0   90.0   16.666666666666668
-450.0   60.0   33.333333333333336
-400.0   60.0   16.666666666666668
-400.0   90.0   16.666666666666668
-450.0   90.0   16.666666666666668
-400.0   90.0   33.333333333333336
-450.0   60.0   33.333333333333336
-450.0   90.0   33.333333333333336
-400.0   90.0   33.333333333333336
-450.0   90.0   16.666666666666668
-450.0   60.0   33.333333333333336
-400.0   90.0   33.333333333333336
-400.0   60.0   33.333333333333336
-400.0   60.0   16.666666666666668
-450.0   60.0   33.333333333333336
-400.0   90.0   33.333333333333336
-400.0   60.0   16.666666666666668
-450.0   90.0   16.666666666666668
-450.0   60.0   33.333333333333336
-400.0   60.0   33.333333333333336
-450.0   90.0   33.333333333333336
-450.0   60.0   50.0
-400.0   60.0   33.333333333333336
-400.0   90.0   33.333333333333336
-450.0   90.0   33.333333333333336
-400.0   90.0   50.0
-450.0   60.0   50.0
-450.0   90.0   50.0
-400.0   90.0   50.0
-450.0   90.0   33.333333333333336
-450.0   60.0   50.0
-400.0   90.0   50.0
-400.0   60.0   50.0
-400.0   60.0   33.333333333333336
-450.0   60.0   50.0
-400.0   90.0   50.0
-400.0   60.0   33.333333333333336
-450.0   90.0   33.333333333333336
-450.0   90.0   0.0
-400.0   90.0   0.0
-450.0   120.0   0.0
-450.0   90.0   16.666666666666668
-400.0   90.0   0.0
-400.0   120.0   0.0
-450.0   120.0   0.0
-400.0   120.0   16.666666666666668
-450.0   90.0   16.666666666666668
-450.0   120.0   16.666666666666668
-400.0   120.0   16.666666666666668
-450.0   120.0   0.0
-450.0   90.0   16.666666666666668
-400.0   120.0   16.666666666666668
-400.0   90.0   16.666666666666668
-400.0   90.0   0.0
-450.0   90.0   16.666666666666668
-400.0   120.0   16.666666666666668
-400.0   90.0   0.0
-450.0   120.0   0.0
-450.0   90.0   16.666666666666668
-400.0   90.0   16.666666666666668
-450.0   120.0   16.666666666666668
-450.0   90.0   33.333333333333336
-400.0   90.0   16.666666666666668
-400.0   120.0   16.666666666666668
-450.0   120.0   16.666666666666668
-400.0   120.0   33.333333333333336
-450.0   90.0   33.333333333333336
-450.0   120.0   33.333333333333336
-400.0   120.0   33.333333333333336
-450.0   120.0   16.666666666666668
-450.0   90.0   33.333333333333336
-400.0   120.0   33.333333333333336
-400.0   90.0   33.333333333333336
-400.0   90.0   16.666666666666668
-450.0   90.0   33.333333333333336
-400.0   120.0   33.333333333333336
-400.0   90.0   16.666666666666668
-450.0   120.0   16.666666666666668
-450.0   90.0   33.333333333333336
-400.0   90.0   33.333333333333336
-450.0   120.0   33.333333333333336
-450.0   90.0   50.0
-400.0   90.0   33.333333333333336
-400.0   120.0   33.333333333333336
-450.0   120.0   33.333333333333336
-400.0   120.0   50.0
-450.0   90.0   50.0
-450.0   120.0   50.0
-400.0   120.0   50.0
-450.0   120.0   33.333333333333336
-450.0   90.0   50.0
-400.0   120.0   50.0
-400.0   90.0   50.0
-400.0   90.0   33.333333333333336
-450.0   90.0   50.0
-400.0   120.0   50.0
-400.0   90.0   33.333333333333336
-450.0   120.0   33.333333333333336
-450.0   120.0   0.0
-400.0   120.0   0.0
-450.0   150.0   0.0
-450.0   120.0   16.666666666666668
-400.0   120.0   0.0
-400.0   150.0   0.0
-450.0   150.0   0.0
-400.0   150.0   16.666666666666668
-450.0   120.0   16.666666666666668
-450.0   150.0   16.666666666666668
-400.0   150.0   16.666666666666668
-450.0   150.0   0.0
-450.0   120.0   16.666666666666668
-400.0   150.0   16.666666666666668
-400.0   120.0   16.666666666666668
-400.0   120.0   0.0
-450.0   120.0   16.666666666666668
-400.0   150.0   16.666666666666668
-400.0   120.0   0.0
-450.0   150.0   0.0
-450.0   120.0   16.666666666666668
-400.0   120.0   16.666666666666668
-450.0   150.0   16.666666666666668
-450.0   120.0   33.333333333333336
-400.0   120.0   16.666666666666668
-400.0   150.0   16.666666666666668
-450.0   150.0   16.666666666666668
-400.0   150.0   33.333333333333336
-450.0   120.0   33.333333333333336
-450.0   150.0   33.333333333333336
-400.0   150.0   33.333333333333336
-450.0   150.0   16.666666666666668
-450.0   120.0   33.333333333333336
-400.0   150.0   33.333333333333336
-400.0   120.0   33.333333333333336
-400.0   120.0   16.666666666666668
-450.0   120.0   33.333333333333336
-400.0   150.0   33.333333333333336
-400.0   120.0   16.666666666666668
-450.0   150.0   16.666666666666668
-450.0   120.0   33.333333333333336
-400.0   120.0   33.333333333333336
-450.0   150.0   33.333333333333336
-450.0   120.0   50.0
-400.0   120.0   33.333333333333336
-400.0   150.0   33.333333333333336
-450.0   150.0   33.333333333333336
-400.0   150.0   50.0
-450.0   120.0   50.0
-450.0   150.0   50.0
-400.0   150.0   50.0
-450.0   150.0   33.333333333333336
-450.0   120.0   50.0
-400.0   150.0   50.0
-400.0   120.0   50.0
-400.0   120.0   33.333333333333336
-450.0   120.0   50.0
-400.0   150.0   50.0
-400.0   120.0   33.333333333333336
-450.0   150.0   33.333333333333336
-400.0   0.0   0.0
-350.0   0.0   0.0
-400.0   30.0   0.0
-400.0   0.0   16.666666666666668
-350.0   0.0   0.0
-350.0   30.0   0.0
-400.0   30.0   0.0
-350.0   30.0   16.666666666666668
-400.0   0.0   16.666666666666668
-400.0   30.0   16.666666666666668
-350.0   30.0   16.666666666666668
-400.0   30.0   0.0
-400.0   0.0   16.666666666666668
-350.0   30.0   16.666666666666668
-350.0   0.0   16.666666666666668
-350.0   0.0   0.0
-400.0   0.0   16.666666666666668
-350.0   30.0   16.666666666666668
-350.0   0.0   0.0
-400.0   30.0   0.0
-400.0   0.0   16.666666666666668
-350.0   0.0   16.666666666666668
-400.0   30.0   16.666666666666668
-400.0   0.0   33.333333333333336
-350.0   0.0   16.666666666666668
-350.0   30.0   16.666666666666668
-400.0   30.0   16.666666666666668
-350.0   30.0   33.333333333333336
-400.0   0.0   33.333333333333336
-400.0   30.0   33.333333333333336
-350.0   30.0   33.333333333333336
-400.0   30.0   16.666666666666668
-400.0   0.0   33.333333333333336
-350.0   30.0   33.333333333333336
-350.0   0.0   33.333333333333336
-350.0   0.0   16.666666666666668
-400.0   0.0   33.333333333333336
-350.0   30.0   33.333333333333336
-350.0   0.0   16.666666666666668
-400.0   30.0   16.666666666666668
-400.0   0.0   33.333333333333336
-350.0   0.0   33.333333333333336
-400.0   30.0   33.333333333333336
-400.0   0.0   50.0
-350.0   0.0   33.333333333333336
-350.0   30.0   33.333333333333336
-400.0   30.0   33.333333333333336
-350.0   30.0   50.0
-400.0   0.0   50.0
-400.0   30.0   50.0
-350.0   30.0   50.0
-400.0   30.0   33.333333333333336
-400.0   0.0   50.0
-350.0   30.0   50.0
-350.0   0.0   50.0
-350.0   0.0   33.333333333333336
-400.0   0.0   50.0
-350.0   30.0   50.0
-350.0   0.0   33.333333333333336
-400.0   30.0   33.333333333333336
-400.0   30.0   0.0
-350.0   30.0   0.0
-400.0   60.0   0.0
-400.0   30.0   16.666666666666668
-350.0   30.0   0.0
-350.0   60.0   0.0
-400.0   60.0   0.0
-350.0   60.0   16.666666666666668
-400.0   30.0   16.666666666666668
-400.0   60.0   16.666666666666668
-350.0   60.0   16.666666666666668
-400.0   60.0   0.0
-400.0   30.0   16.666666666666668
-350.0   60.0   16.666666666666668
-350.0   30.0   16.666666666666668
-350.0   30.0   0.0
-400.0   30.0   16.666666666666668
-350.0   60.0   16.666666666666668
-350.0   30.0   0.0
-400.0   60.0   0.0
-400.0   30.0   16.666666666666668
-350.0   30.0   16.666666666666668
-400.0   60.0   16.666666666666668
-400.0   30.0   33.333333333333336
-350.0   30.0   16.666666666666668
-350.0   60.0   16.666666666666668
-400.0   60.0   16.666666666666668
-350.0   60.0   33.333333333333336
-400.0   30.0   33.333333333333336
-400.0   60.0   33.333333333333336
-350.0   60.0   33.333333333333336
-400.0   60.0   16.666666666666668
-400.0   30.0   33.333333333333336
-350.0   60.0   33.333333333333336
-350.0   30.0   33.333333333333336
-350.0   30.0   16.666666666666668
-400.0   30.0   33.333333333333336
-350.0   60.0   33.333333333333336
-350.0   30.0   16.666666666666668
-400.0   60.0   16.666666666666668
-400.0   30.0   33.333333333333336
-350.0   30.0   33.333333333333336
-400.0   60.0   33.333333333333336
-400.0   30.0   50.0
-350.0   30.0   33.333333333333336
-350.0   60.0   33.333333333333336
-400.0   60.0   33.333333333333336
-350.0   60.0   50.0
-400.0   30.0   50.0
-400.0   60.0   50.0
-350.0   60.0   50.0
-400.0   60.0   33.333333333333336
-400.0   30.0   50.0
-350.0   60.0   50.0
-350.0   30.0   50.0
-350.0   30.0   33.333333333333336
-400.0   30.0   50.0
-350.0   60.0   50.0
-350.0   30.0   33.333333333333336
-400.0   60.0   33.333333333333336
-400.0   60.0   0.0
-350.0   60.0   0.0
-400.0   90.0   0.0
-400.0   60.0   16.666666666666668
-350.0   60.0   0.0
-350.0   90.0   0.0
-400.0   90.0   0.0
-350.0   90.0   16.666666666666668
-400.0   60.0   16.666666666666668
-400.0   90.0   16.666666666666668
-350.0   90.0   16.666666666666668
-400.0   90.0   0.0
-400.0   60.0   16.666666666666668
-350.0   90.0   16.666666666666668
-350.0   60.0   16.666666666666668
-350.0   60.0   0.0
-400.0   60.0   16.666666666666668
-350.0   90.0   16.666666666666668
-350.0   60.0   0.0
-400.0   90.0   0.0
-400.0   60.0   16.666666666666668
-350.0   60.0   16.666666666666668
-400.0   90.0   16.666666666666668
-400.0   60.0   33.333333333333336
-350.0   60.0   16.666666666666668
-350.0   90.0   16.666666666666668
-400.0   90.0   16.666666666666668
-350.0   90.0   33.333333333333336
-400.0   60.0   33.333333333333336
-400.0   90.0   33.333333333333336
-350.0   90.0   33.333333333333336
-400.0   90.0   16.666666666666668
-400.0   60.0   33.333333333333336
-350.0   90.0   33.333333333333336
-350.0   60.0   33.333333333333336
-350.0   60.0   16.666666666666668
-400.0   60.0   33.333333333333336
-350.0   90.0   33.333333333333336
-350.0   60.0   16.666666666666668
-400.0   90.0   16.666666666666668
-400.0   60.0   33.333333333333336
-350.0   60.0   33.333333333333336
-400.0   90.0   33.333333333333336
-400.0   60.0   50.0
-350.0   60.0   33.333333333333336
-350.0   90.0   33.333333333333336
-400.0   90.0   33.333333333333336
-350.0   90.0   50.0
-400.0   60.0   50.0
-400.0   90.0   50.0
-350.0   90.0   50.0
-400.0   90.0   33.333333333333336
-400.0   60.0   50.0
-350.0   90.0   50.0
-350.0   60.0   50.0
-350.0   60.0   33.333333333333336
-400.0   60.0   50.0
-350.0   90.0   50.0
-350.0   60.0   33.333333333333336
-400.0   90.0   33.333333333333336
-400.0   90.0   0.0
-350.0   90.0   0.0
-400.0   120.0   0.0
-400.0   90.0   16.666666666666668
-350.0   90.0   0.0
-350.0   120.0   0.0
-400.0   120.0   0.0
-350.0   120.0   16.666666666666668
-400.0   90.0   16.666666666666668
-400.0   120.0   16.666666666666668
-350.0   120.0   16.666666666666668
-400.0   120.0   0.0
-400.0   90.0   16.666666666666668
-350.0   120.0   16.666666666666668
-350.0   90.0   16.666666666666668
-350.0   90.0   0.0
-400.0   90.0   16.666666666666668
-350.0   120.0   16.666666666666668
-350.0   90.0   0.0
-400.0   120.0   0.0
-400.0   90.0   16.666666666666668
-350.0   90.0   16.666666666666668
-400.0   120.0   16.666666666666668
-400.0   90.0   33.333333333333336
-350.0   90.0   16.666666666666668
-350.0   120.0   16.666666666666668
-400.0   120.0   16.666666666666668
-350.0   120.0   33.333333333333336
-400.0   90.0   33.333333333333336
-400.0   120.0   33.333333333333336
-350.0   120.0   33.333333333333336
-400.0   120.0   16.666666666666668
-400.0   90.0   33.333333333333336
-350.0   120.0   33.333333333333336
-350.0   90.0   33.333333333333336
-350.0   90.0   16.666666666666668
-400.0   90.0   33.333333333333336
-350.0   120.0   33.333333333333336
-350.0   90.0   16.666666666666668
-400.0   120.0   16.666666666666668
-400.0   90.0   33.333333333333336
-350.0   90.0   33.333333333333336
-400.0   120.0   33.333333333333336
-400.0   90.0   50.0
-350.0   90.0   33.333333333333336
-350.0   120.0   33.333333333333336
-400.0   120.0   33.333333333333336
-350.0   120.0   50.0
-400.0   90.0   50.0
-400.0   120.0   50.0
-350.0   120.0   50.0
-400.0   120.0   33.333333333333336
-400.0   90.0   50.0
-350.0   120.0   50.0
-350.0   90.0   50.0
-350.0   90.0   33.333333333333336
-400.0   90.0   50.0
-350.0   120.0   50.0
-350.0   90.0   33.333333333333336
-400.0   120.0   33.333333333333336
-400.0   120.0   0.0
-350.0   120.0   0.0
-400.0   150.0   0.0
-400.0   120.0   16.666666666666668
-350.0   120.0   0.0
-350.0   150.0   0.0
-400.0   150.0   0.0
-350.0   150.0   16.666666666666668
-400.0   120.0   16.666666666666668
-400.0   150.0   16.666666666666668
-350.0   150.0   16.666666666666668
-400.0   150.0   0.0
-400.0   120.0   16.666666666666668
-350.0   150.0   16.666666666666668
-350.0   120.0   16.666666666666668
-350.0   120.0   0.0
-400.0   120.0   16.666666666666668
-350.0   150.0   16.666666666666668
-350.0   120.0   0.0
-400.0   150.0   0.0
-400.0   120.0   16.666666666666668
-350.0   120.0   16.666666666666668
-400.0   150.0   16.666666666666668
-400.0   120.0   33.333333333333336
-350.0   120.0   16.666666666666668
-350.0   150.0   16.666666666666668
-400.0   150.0   16.666666666666668
-350.0   150.0   33.333333333333336
-400.0   120.0   33.333333333333336
-400.0   150.0   33.333333333333336
-350.0   150.0   33.333333333333336
-400.0   150.0   16.666666666666668
-400.0   120.0   33.333333333333336
-350.0   150.0   33.333333333333336
-350.0   120.0   33.333333333333336
-350.0   120.0   16.666666666666668
-400.0   120.0   33.333333333333336
-350.0   150.0   33.333333333333336
-350.0   120.0   16.666666666666668
-400.0   150.0   16.666666666666668
-400.0   120.0   33.333333333333336
-350.0   120.0   33.333333333333336
-400.0   150.0   33.333333333333336
-400.0   120.0   50.0
-350.0   120.0   33.333333333333336
-350.0   150.0   33.333333333333336
-400.0   150.0   33.333333333333336
-350.0   150.0   50.0
-400.0   120.0   50.0
-400.0   150.0   50.0
-350.0   150.0   50.0
-400.0   150.0   33.333333333333336
-400.0   120.0   50.0
-350.0   150.0   50.0
-350.0   120.0   50.0
-350.0   120.0   33.333333333333336
-400.0   120.0   50.0
-350.0   150.0   50.0
-350.0   120.0   33.333333333333336
-400.0   150.0   33.333333333333336
-350.0   0.0   0.0
-300.0   0.0   0.0
-350.0   30.0   0.0
-350.0   0.0   16.666666666666668
-300.0   0.0   0.0
-300.0   30.0   0.0
-350.0   30.0   0.0
-300.0   30.0   16.666666666666668
-350.0   0.0   16.666666666666668
-350.0   30.0   16.666666666666668
-300.0   30.0   16.666666666666668
-350.0   30.0   0.0
-350.0   0.0   16.666666666666668
-300.0   30.0   16.666666666666668
-300.0   0.0   16.666666666666668
-300.0   0.0   0.0
-350.0   0.0   16.666666666666668
-300.0   30.0   16.666666666666668
-300.0   0.0   0.0
-350.0   30.0   0.0
-350.0   0.0   16.666666666666668
-300.0   0.0   16.666666666666668
-350.0   30.0   16.666666666666668
-350.0   0.0   33.333333333333336
-300.0   0.0   16.666666666666668
-300.0   30.0   16.666666666666668
-350.0   30.0   16.666666666666668
-300.0   30.0   33.333333333333336
-350.0   0.0   33.333333333333336
-350.0   30.0   33.333333333333336
-300.0   30.0   33.333333333333336
-350.0   30.0   16.666666666666668
-350.0   0.0   33.333333333333336
-300.0   30.0   33.333333333333336
-300.0   0.0   33.333333333333336
-300.0   0.0   16.666666666666668
-350.0   0.0   33.333333333333336
-300.0   30.0   33.333333333333336
-300.0   0.0   16.666666666666668
-350.0   30.0   16.666666666666668
-350.0   0.0   33.333333333333336
-300.0   0.0   33.333333333333336
-350.0   30.0   33.333333333333336
-350.0   0.0   50.0
-300.0   0.0   33.333333333333336
-300.0   30.0   33.333333333333336
-350.0   30.0   33.333333333333336
-300.0   30.0   50.0
-350.0   0.0   50.0
-350.0   30.0   50.0
-300.0   30.0   50.0
-350.0   30.0   33.333333333333336
-350.0   0.0   50.0
-300.0   30.0   50.0
-300.0   0.0   50.0
-300.0   0.0   33.333333333333336
-350.0   0.0   50.0
-300.0   30.0   50.0
-300.0   0.0   33.333333333333336
-350.0   30.0   33.333333333333336
-350.0   30.0   0.0
-300.0   30.0   0.0
-350.0   60.0   0.0
-350.0   30.0   16.666666666666668
-300.0   30.0   0.0
-300.0   60.0   0.0
-350.0   60.0   0.0
-300.0   60.0   16.666666666666668
-350.0   30.0   16.666666666666668
-350.0   60.0   16.666666666666668
-300.0   60.0   16.666666666666668
-350.0   60.0   0.0
-350.0   30.0   16.666666666666668
-300.0   60.0   16.666666666666668
-300.0   30.0   16.666666666666668
-300.0   30.0   0.0
-350.0   30.0   16.666666666666668
-300.0   60.0   16.666666666666668
-300.0   30.0   0.0
-350.0   60.0   0.0
-350.0   30.0   16.666666666666668
-300.0   30.0   16.666666666666668
-350.0   60.0   16.666666666666668
-350.0   30.0   33.333333333333336
-300.0   30.0   16.666666666666668
-300.0   60.0   16.666666666666668
-350.0   60.0   16.666666666666668
-300.0   60.0   33.333333333333336
-350.0   30.0   33.333333333333336
-350.0   60.0   33.333333333333336
-300.0   60.0   33.333333333333336
-350.0   60.0   16.666666666666668
-350.0   30.0   33.333333333333336
-300.0   60.0   33.333333333333336
-300.0   30.0   33.333333333333336
-300.0   30.0   16.666666666666668
-350.0   30.0   33.333333333333336
-300.0   60.0   33.333333333333336
-300.0   30.0   16.666666666666668
-350.0   60.0   16.666666666666668
-350.0   30.0   33.333333333333336
-300.0   30.0   33.333333333333336
-350.0   60.0   33.333333333333336
-350.0   30.0   50.0
-300.0   30.0   33.333333333333336
-300.0   60.0   33.333333333333336
-350.0   60.0   33.333333333333336
-300.0   60.0   50.0
-350.0   30.0   50.0
-350.0   60.0   50.0
-300.0   60.0   50.0
-350.0   60.0   33.333333333333336
-350.0   30.0   50.0
-300.0   60.0   50.0
-300.0   30.0   50.0
-300.0   30.0   33.333333333333336
-350.0   30.0   50.0
-300.0   60.0   50.0
-300.0   30.0   33.333333333333336
-350.0   60.0   33.333333333333336
-350.0   60.0   0.0
-300.0   60.0   0.0
-350.0   90.0   0.0
-350.0   60.0   16.666666666666668
-300.0   60.0   0.0
-300.0   90.0   0.0
-350.0   90.0   0.0
-300.0   90.0   16.666666666666668
-350.0   60.0   16.666666666666668
-350.0   90.0   16.666666666666668
-300.0   90.0   16.666666666666668
-350.0   90.0   0.0
-350.0   60.0   16.666666666666668
-300.0   90.0   16.666666666666668
-300.0   60.0   16.666666666666668
-300.0   60.0   0.0
-350.0   60.0   16.666666666666668
-300.0   90.0   16.666666666666668
-300.0   60.0   0.0
-350.0   90.0   0.0
-350.0   60.0   16.666666666666668
-300.0   60.0   16.666666666666668
-350.0   90.0   16.666666666666668
-350.0   60.0   33.333333333333336
-300.0   60.0   16.666666666666668
-300.0   90.0   16.666666666666668
-350.0   90.0   16.666666666666668
-300.0   90.0   33.333333333333336
-350.0   60.0   33.333333333333336
-350.0   90.0   33.333333333333336
-300.0   90.0   33.333333333333336
-350.0   90.0   16.666666666666668
-350.0   60.0   33.333333333333336
-300.0   90.0   33.333333333333336
-300.0   60.0   33.333333333333336
-300.0   60.0   16.666666666666668
-350.0   60.0   33.333333333333336
-300.0   90.0   33.333333333333336
-300.0   60.0   16.666666666666668
-350.0   90.0   16.666666666666668
-350.0   60.0   33.333333333333336
-300.0   60.0   33.333333333333336
-350.0   90.0   33.333333333333336
-350.0   60.0   50.0
-300.0   60.0   33.333333333333336
-300.0   90.0   33.333333333333336
-350.0   90.0   33.333333333333336
-300.0   90.0   50.0
-350.0   60.0   50.0
-350.0   90.0   50.0
-300.0   90.0   50.0
-350.0   90.0   33.333333333333336
-350.0   60.0   50.0
-300.0   90.0   50.0
-300.0   60.0   50.0
-300.0   60.0   33.333333333333336
-350.0   60.0   50.0
-300.0   90.0   50.0
-300.0   60.0   33.333333333333336
-350.0   90.0   33.333333333333336
-350.0   90.0   0.0
-300.0   90.0   0.0
-350.0   120.0   0.0
-350.0   90.0   16.666666666666668
-300.0   90.0   0.0
-300.0   120.0   0.0
-350.0   120.0   0.0
-300.0   120.0   16.666666666666668
-350.0   90.0   16.666666666666668
-350.0   120.0   16.666666666666668
-300.0   120.0   16.666666666666668
-350.0   120.0   0.0
-350.0   90.0   16.666666666666668
-300.0   120.0   16.666666666666668
-300.0   90.0   16.666666666666668
-300.0   90.0   0.0
-350.0   90.0   16.666666666666668
-300.0   120.0   16.666666666666668
-300.0   90.0   0.0
-350.0   120.0   0.0
-350.0   90.0   16.666666666666668
-300.0   90.0   16.666666666666668
-350.0   120.0   16.666666666666668
-350.0   90.0   33.333333333333336
-300.0   90.0   16.666666666666668
-300.0   120.0   16.666666666666668
-350.0   120.0   16.666666666666668
-300.0   120.0   33.333333333333336
-350.0   90.0   33.333333333333336
-350.0   120.0   33.333333333333336
-300.0   120.0   33.333333333333336
-350.0   120.0   16.666666666666668
-350.0   90.0   33.333333333333336
-300.0   120.0   33.333333333333336
-300.0   90.0   33.333333333333336
-300.0   90.0   16.666666666666668
-350.0   90.0   33.333333333333336
-300.0   120.0   33.333333333333336
-300.0   90.0   16.666666666666668
-350.0   120.0   16.666666666666668
-350.0   90.0   33.333333333333336
-300.0   90.0   33.333333333333336
-350.0   120.0   33.333333333333336
-350.0   90.0   50.0
-300.0   90.0   33.333333333333336
-300.0   120.0   33.333333333333336
-350.0   120.0   33.333333333333336
-300.0   120.0   50.0
-350.0   90.0   50.0
-350.0   120.0   50.0
-300.0   120.0   50.0
-350.0   120.0   33.333333333333336
-350.0   90.0   50.0
-300.0   120.0   50.0
-300.0   90.0   50.0
-300.0   90.0   33.333333333333336
-350.0   90.0   50.0
-300.0   120.0   50.0
-300.0   90.0   33.333333333333336
-350.0   120.0   33.333333333333336
-350.0   120.0   0.0
-300.0   120.0   0.0
-350.0   150.0   0.0
-350.0   120.0   16.666666666666668
-300.0   120.0   0.0
-300.0   150.0   0.0
-350.0   150.0   0.0
-300.0   150.0   16.666666666666668
-350.0   120.0   16.666666666666668
-350.0   150.0   16.666666666666668
-300.0   150.0   16.666666666666668
-350.0   150.0   0.0
-350.0   120.0   16.666666666666668
-300.0   150.0   16.666666666666668
-300.0   120.0   16.666666666666668
-300.0   120.0   0.0
-350.0   120.0   16.666666666666668
-300.0   150.0   16.666666666666668
-300.0   120.0   0.0
-350.0   150.0   0.0
-350.0   120.0   16.666666666666668
-300.0   120.0   16.666666666666668
-350.0   150.0   16.666666666666668
-350.0   120.0   33.333333333333336
-300.0   120.0   16.666666666666668
-300.0   150.0   16.666666666666668
-350.0   150.0   16.666666666666668
-300.0   150.0   33.333333333333336
-350.0   120.0   33.333333333333336
-350.0   150.0   33.333333333333336
-300.0   150.0   33.333333333333336
-350.0   150.0   16.666666666666668
-350.0   120.0   33.333333333333336
-300.0   150.0   33.333333333333336
-300.0   120.0   33.333333333333336
-300.0   120.0   16.666666666666668
-350.0   120.0   33.333333333333336
-300.0   150.0   33.333333333333336
-300.0   120.0   16.666666666666668
-350.0   150.0   16.666666666666668
-350.0   120.0   33.333333333333336
-300.0   120.0   33.333333333333336
-350.0   150.0   33.333333333333336
-350.0   120.0   50.0
-300.0   120.0   33.333333333333336
-300.0   150.0   33.333333333333336
-350.0   150.0   33.333333333333336
-300.0   150.0   50.0
-350.0   120.0   50.0
-350.0   150.0   50.0
-300.0   150.0   50.0
-350.0   150.0   33.333333333333336
-350.0   120.0   50.0
-300.0   150.0   50.0
-300.0   120.0   50.0
-300.0   120.0   33.333333333333336
-350.0   120.0   50.0
-300.0   150.0   50.0
-300.0   120.0   33.333333333333336
-350.0   150.0   33.333333333333336
-300.0   0.0   0.0
-250.0   0.0   0.0
-300.0   30.0   0.0
-300.0   0.0   16.666666666666668
-250.0   0.0   0.0
-250.0   30.0   0.0
-300.0   30.0   0.0
-250.0   30.0   16.666666666666668
-300.0   0.0   16.666666666666668
-300.0   30.0   16.666666666666668
-250.0   30.0   16.666666666666668
-300.0   30.0   0.0
-300.0   0.0   16.666666666666668
-250.0   30.0   16.666666666666668
-250.0   0.0   16.666666666666668
-250.0   0.0   0.0
-300.0   0.0   16.666666666666668
-250.0   30.0   16.666666666666668
-250.0   0.0   0.0
-300.0   30.0   0.0
-300.0   0.0   16.666666666666668
-250.0   0.0   16.666666666666668
-300.0   30.0   16.666666666666668
-300.0   0.0   33.333333333333336
-250.0   0.0   16.666666666666668
-250.0   30.0   16.666666666666668
-300.0   30.0   16.666666666666668
-250.0   30.0   33.333333333333336
-300.0   0.0   33.333333333333336
-300.0   30.0   33.333333333333336
-250.0   30.0   33.333333333333336
-300.0   30.0   16.666666666666668
-300.0   0.0   33.333333333333336
-250.0   30.0   33.333333333333336
-250.0   0.0   33.333333333333336
-250.0   0.0   16.666666666666668
-300.0   0.0   33.333333333333336
-250.0   30.0   33.333333333333336
-250.0   0.0   16.666666666666668
-300.0   30.0   16.666666666666668
-300.0   0.0   33.333333333333336
-250.0   0.0   33.333333333333336
-300.0   30.0   33.333333333333336
-300.0   0.0   50.0
-250.0   0.0   33.333333333333336
-250.0   30.0   33.333333333333336
-300.0   30.0   33.333333333333336
-250.0   30.0   50.0
-300.0   0.0   50.0
-300.0   30.0   50.0
-250.0   30.0   50.0
-300.0   30.0   33.333333333333336
-300.0   0.0   50.0
-250.0   30.0   50.0
-250.0   0.0   50.0
-250.0   0.0   33.333333333333336
-300.0   0.0   50.0
-250.0   30.0   50.0
-250.0   0.0   33.333333333333336
-300.0   30.0   33.333333333333336
-300.0   30.0   0.0
-250.0   30.0   0.0
-300.0   60.0   0.0
-300.0   30.0   16.666666666666668
-250.0   30.0   0.0
-250.0   60.0   0.0
-300.0   60.0   0.0
-250.0   60.0   16.666666666666668
-300.0   30.0   16.666666666666668
-300.0   60.0   16.666666666666668
-250.0   60.0   16.666666666666668
-300.0   60.0   0.0
-300.0   30.0   16.666666666666668
-250.0   60.0   16.666666666666668
-250.0   30.0   16.666666666666668
-250.0   30.0   0.0
-300.0   30.0   16.666666666666668
-250.0   60.0   16.666666666666668
-250.0   30.0   0.0
-300.0   60.0   0.0
-300.0   30.0   16.666666666666668
-250.0   30.0   16.666666666666668
-300.0   60.0   16.666666666666668
-300.0   30.0   33.333333333333336
-250.0   30.0   16.666666666666668
-250.0   60.0   16.666666666666668
-300.0   60.0   16.666666666666668
-250.0   60.0   33.333333333333336
-300.0   30.0   33.333333333333336
-300.0   60.0   33.333333333333336
-250.0   60.0   33.333333333333336
-300.0   60.0   16.666666666666668
-300.0   30.0   33.333333333333336
-250.0   60.0   33.333333333333336
-250.0   30.0   33.333333333333336
-250.0   30.0   16.666666666666668
-300.0   30.0   33.333333333333336
-250.0   60.0   33.333333333333336
-250.0   30.0   16.666666666666668
-300.0   60.0   16.666666666666668
-300.0   30.0   33.333333333333336
-250.0   30.0   33.333333333333336
-300.0   60.0   33.333333333333336
-300.0   30.0   50.0
-250.0   30.0   33.333333333333336
-250.0   60.0   33.333333333333336
-300.0   60.0   33.333333333333336
-250.0   60.0   50.0
-300.0   30.0   50.0
-300.0   60.0   50.0
-250.0   60.0   50.0
-300.0   60.0   33.333333333333336
-300.0   30.0   50.0
-250.0   60.0   50.0
-250.0   30.0   50.0
-250.0   30.0   33.333333333333336
-300.0   30.0   50.0
-250.0   60.0   50.0
-250.0   30.0   33.333333333333336
-300.0   60.0   33.333333333333336
-300.0   60.0   0.0
-250.0   60.0   0.0
-300.0   90.0   0.0
-300.0   60.0   16.666666666666668
-250.0   60.0   0.0
-250.0   90.0   0.0
-300.0   90.0   0.0
-250.0   90.0   16.666666666666668
-300.0   60.0   16.666666666666668
-300.0   90.0   16.666666666666668
-250.0   90.0   16.666666666666668
-300.0   90.0   0.0
-300.0   60.0   16.666666666666668
-250.0   90.0   16.666666666666668
-250.0   60.0   16.666666666666668
-250.0   60.0   0.0
-300.0   60.0   16.666666666666668
-250.0   90.0   16.666666666666668
-250.0   60.0   0.0
-300.0   90.0   0.0
-300.0   60.0   16.666666666666668
-250.0   60.0   16.666666666666668
-300.0   90.0   16.666666666666668
-300.0   60.0   33.333333333333336
-250.0   60.0   16.666666666666668
-250.0   90.0   16.666666666666668
-300.0   90.0   16.666666666666668
-250.0   90.0   33.333333333333336
-300.0   60.0   33.333333333333336
-300.0   90.0   33.333333333333336
-250.0   90.0   33.333333333333336
-300.0   90.0   16.666666666666668
-300.0   60.0   33.333333333333336
-250.0   90.0   33.333333333333336
-250.0   60.0   33.333333333333336
-250.0   60.0   16.666666666666668
-300.0   60.0   33.333333333333336
-250.0   90.0   33.333333333333336
-250.0   60.0   16.666666666666668
-300.0   90.0   16.666666666666668
-300.0   60.0   33.333333333333336
-250.0   60.0   33.333333333333336
-300.0   90.0   33.333333333333336
-300.0   60.0   50.0
-250.0   60.0   33.333333333333336
-250.0   90.0   33.333333333333336
-300.0   90.0   33.333333333333336
-250.0   90.0   50.0
-300.0   60.0   50.0
-300.0   90.0   50.0
-250.0   90.0   50.0
-300.0   90.0   33.333333333333336
-300.0   60.0   50.0
-250.0   90.0   50.0
-250.0   60.0   50.0
-250.0   60.0   33.333333333333336
-300.0   60.0   50.0
-250.0   90.0   50.0
-250.0   60.0   33.333333333333336
-300.0   90.0   33.333333333333336
-300.0   90.0   0.0
-250.0   90.0   0.0
-300.0   120.0   0.0
-300.0   90.0   16.666666666666668
-250.0   90.0   0.0
-250.0   120.0   0.0
-300.0   120.0   0.0
-250.0   120.0   16.666666666666668
-300.0   90.0   16.666666666666668
-300.0   120.0   16.666666666666668
-250.0   120.0   16.666666666666668
-300.0   120.0   0.0
-300.0   90.0   16.666666666666668
-250.0   120.0   16.666666666666668
-250.0   90.0   16.666666666666668
-250.0   90.0   0.0
-300.0   90.0   16.666666666666668
-250.0   120.0   16.666666666666668
-250.0   90.0   0.0
-300.0   120.0   0.0
-300.0   90.0   16.666666666666668
-250.0   90.0   16.666666666666668
-300.0   120.0   16.666666666666668
-300.0   90.0   33.333333333333336
-250.0   90.0   16.666666666666668
-250.0   120.0   16.666666666666668
-300.0   120.0   16.666666666666668
-250.0   120.0   33.333333333333336
-300.0   90.0   33.333333333333336
-300.0   120.0   33.333333333333336
-250.0   120.0   33.333333333333336
-300.0   120.0   16.666666666666668
-300.0   90.0   33.333333333333336
-250.0   120.0   33.333333333333336
-250.0   90.0   33.333333333333336
-250.0   90.0   16.666666666666668
-300.0   90.0   33.333333333333336
-250.0   120.0   33.333333333333336
-250.0   90.0   16.666666666666668
-300.0   120.0   16.666666666666668
-300.0   90.0   33.333333333333336
-250.0   90.0   33.333333333333336
-300.0   120.0   33.333333333333336
-300.0   90.0   50.0
-250.0   90.0   33.333333333333336
-250.0   120.0   33.333333333333336
-300.0   120.0   33.333333333333336
-250.0   120.0   50.0
-300.0   90.0   50.0
-300.0   120.0   50.0
-250.0   120.0   50.0
-300.0   120.0   33.333333333333336
-300.0   90.0   50.0
-250.0   120.0   50.0
-250.0   90.0   50.0
-250.0   90.0   33.333333333333336
-300.0   90.0   50.0
-250.0   120.0   50.0
-250.0   90.0   33.333333333333336
-300.0   120.0   33.333333333333336
-300.0   120.0   0.0
-250.0   120.0   0.0
-300.0   150.0   0.0
-300.0   120.0   16.666666666666668
-250.0   120.0   0.0
-250.0   150.0   0.0
-300.0   150.0   0.0
-250.0   150.0   16.666666666666668
-300.0   120.0   16.666666666666668
-300.0   150.0   16.666666666666668
-250.0   150.0   16.666666666666668
-300.0   150.0   0.0
-300.0   120.0   16.666666666666668
-250.0   150.0   16.666666666666668
-250.0   120.0   16.666666666666668
-250.0   120.0   0.0
-300.0   120.0   16.666666666666668
-250.0   150.0   16.666666666666668
-250.0   120.0   0.0
-300.0   150.0   0.0
-300.0   120.0   16.666666666666668
-250.0   120.0   16.666666666666668
-300.0   150.0   16.666666666666668
-300.0   120.0   33.333333333333336
-250.0   120.0   16.666666666666668
-250.0   150.0   16.666666666666668
-300.0   150.0   16.666666666666668
-250.0   150.0   33.333333333333336
-300.0   120.0   33.333333333333336
-300.0   150.0   33.333333333333336
-250.0   150.0   33.333333333333336
-300.0   150.0   16.666666666666668
-300.0   120.0   33.333333333333336
-250.0   150.0   33.333333333333336
-250.0   120.0   33.333333333333336
-250.0   120.0   16.666666666666668
-300.0   120.0   33.333333333333336
-250.0   150.0   33.333333333333336
-250.0   120.0   16.666666666666668
-300.0   150.0   16.666666666666668
-300.0   120.0   33.333333333333336
-250.0   120.0   33.333333333333336
-300.0   150.0   33.333333333333336
-300.0   120.0   50.0
-250.0   120.0   33.333333333333336
-250.0   150.0   33.333333333333336
-300.0   150.0   33.333333333333336
-250.0   150.0   50.0
-300.0   120.0   50.0
-300.0   150.0   50.0
-250.0   150.0   50.0
-300.0   150.0   33.333333333333336
-300.0   120.0   50.0
-250.0   150.0   50.0
-250.0   120.0   50.0
-250.0   120.0   33.333333333333336
-300.0   120.0   50.0
-250.0   150.0   50.0
-250.0   120.0   33.333333333333336
-300.0   150.0   33.333333333333336
-250.0   0.0   0.0
-200.0   0.0   0.0
-250.0   30.0   0.0
-250.0   0.0   16.666666666666668
-200.0   0.0   0.0
-200.0   30.0   0.0
-250.0   30.0   0.0
-200.0   30.0   16.666666666666668
-250.0   0.0   16.666666666666668
-250.0   30.0   16.666666666666668
-200.0   30.0   16.666666666666668
-250.0   30.0   0.0
-250.0   0.0   16.666666666666668
-200.0   30.0   16.666666666666668
-200.0   0.0   16.666666666666668
-200.0   0.0   0.0
-250.0   0.0   16.666666666666668
-200.0   30.0   16.666666666666668
-200.0   0.0   0.0
-250.0   30.0   0.0
-250.0   0.0   16.666666666666668
-200.0   0.0   16.666666666666668
-250.0   30.0   16.666666666666668
-250.0   0.0   33.333333333333336
-200.0   0.0   16.666666666666668
-200.0   30.0   16.666666666666668
-250.0   30.0   16.666666666666668
-200.0   30.0   33.333333333333336
-250.0   0.0   33.333333333333336
-250.0   30.0   33.333333333333336
-200.0   30.0   33.333333333333336
-250.0   30.0   16.666666666666668
-250.0   0.0   33.333333333333336
-200.0   30.0   33.333333333333336
-200.0   0.0   33.333333333333336
-200.0   0.0   16.666666666666668
-250.0   0.0   33.333333333333336
-200.0   30.0   33.333333333333336
-200.0   0.0   16.666666666666668
-250.0   30.0   16.666666666666668
-250.0   0.0   33.333333333333336
-200.0   0.0   33.333333333333336
-250.0   30.0   33.333333333333336
-250.0   0.0   50.0
-200.0   0.0   33.333333333333336
-200.0   30.0   33.333333333333336
-250.0   30.0   33.333333333333336
-200.0   30.0   50.0
-250.0   0.0   50.0
-250.0   30.0   50.0
-200.0   30.0   50.0
-250.0   30.0   33.333333333333336
-250.0   0.0   50.0
-200.0   30.0   50.0
-200.0   0.0   50.0
-200.0   0.0   33.333333333333336
-250.0   0.0   50.0
-200.0   30.0   50.0
-200.0   0.0   33.333333333333336
-250.0   30.0   33.333333333333336
-250.0   30.0   0.0
-200.0   30.0   0.0
-250.0   60.0   0.0
-250.0   30.0   16.666666666666668
-200.0   30.0   0.0
-200.0   60.0   0.0
-250.0   60.0   0.0
-200.0   60.0   16.666666666666668
-250.0   30.0   16.666666666666668
-250.0   60.0   16.666666666666668
-200.0   60.0   16.666666666666668
-250.0   60.0   0.0
-250.0   30.0   16.666666666666668
-200.0   60.0   16.666666666666668
-200.0   30.0   16.666666666666668
-200.0   30.0   0.0
-250.0   30.0   16.666666666666668
-200.0   60.0   16.666666666666668
-200.0   30.0   0.0
-250.0   60.0   0.0
-250.0   30.0   16.666666666666668
-200.0   30.0   16.666666666666668
-250.0   60.0   16.666666666666668
-250.0   30.0   33.333333333333336
-200.0   30.0   16.666666666666668
-200.0   60.0   16.666666666666668
-250.0   60.0   16.666666666666668
-200.0   60.0   33.333333333333336
-250.0   30.0   33.333333333333336
-250.0   60.0   33.333333333333336
-200.0   60.0   33.333333333333336
-250.0   60.0   16.666666666666668
-250.0   30.0   33.333333333333336
-200.0   60.0   33.333333333333336
-200.0   30.0   33.333333333333336
-200.0   30.0   16.666666666666668
-250.0   30.0   33.333333333333336
-200.0   60.0   33.333333333333336
-200.0   30.0   16.666666666666668
-250.0   60.0   16.666666666666668
-250.0   30.0   33.333333333333336
-200.0   30.0   33.333333333333336
-250.0   60.0   33.333333333333336
-250.0   30.0   50.0
-200.0   30.0   33.333333333333336
-200.0   60.0   33.333333333333336
-250.0   60.0   33.333333333333336
-200.0   60.0   50.0
-250.0   30.0   50.0
-250.0   60.0   50.0
-200.0   60.0   50.0
-250.0   60.0   33.333333333333336
-250.0   30.0   50.0
-200.0   60.0   50.0
-200.0   30.0   50.0
-200.0   30.0   33.333333333333336
-250.0   30.0   50.0
-200.0   60.0   50.0
-200.0   30.0   33.333333333333336
-250.0   60.0   33.333333333333336
-250.0   60.0   0.0
-200.0   60.0   0.0
-250.0   90.0   0.0
-250.0   60.0   16.666666666666668
-200.0   60.0   0.0
-200.0   90.0   0.0
-250.0   90.0   0.0
-200.0   90.0   16.666666666666668
-250.0   60.0   16.666666666666668
-250.0   90.0   16.666666666666668
-200.0   90.0   16.666666666666668
-250.0   90.0   0.0
-250.0   60.0   16.666666666666668
-200.0   90.0   16.666666666666668
-200.0   60.0   16.666666666666668
-200.0   60.0   0.0
-250.0   60.0   16.666666666666668
-200.0   90.0   16.666666666666668
-200.0   60.0   0.0
-250.0   90.0   0.0
-250.0   60.0   16.666666666666668
-200.0   60.0   16.666666666666668
-250.0   90.0   16.666666666666668
-250.0   60.0   33.333333333333336
-200.0   60.0   16.666666666666668
-200.0   90.0   16.666666666666668
-250.0   90.0   16.666666666666668
-200.0   90.0   33.333333333333336
-250.0   60.0   33.333333333333336
-250.0   90.0   33.333333333333336
-200.0   90.0   33.333333333333336
-250.0   90.0   16.666666666666668
-250.0   60.0   33.333333333333336
-200.0   90.0   33.333333333333336
-200.0   60.0   33.333333333333336
-200.0   60.0   16.666666666666668
-250.0   60.0   33.333333333333336
-200.0   90.0   33.333333333333336
-200.0   60.0   16.666666666666668
-250.0   90.0   16.666666666666668
-250.0   60.0   33.333333333333336
-200.0   60.0   33.333333333333336
-250.0   90.0   33.333333333333336
-250.0   60.0   50.0
-200.0   60.0   33.333333333333336
-200.0   90.0   33.333333333333336
-250.0   90.0   33.333333333333336
-200.0   90.0   50.0
-250.0   60.0   50.0
-250.0   90.0   50.0
-200.0   90.0   50.0
-250.0   90.0   33.333333333333336
-250.0   60.0   50.0
-200.0   90.0   50.0
-200.0   60.0   50.0
-200.0   60.0   33.333333333333336
-250.0   60.0   50.0
-200.0   90.0   50.0
-200.0   60.0   33.333333333333336
-250.0   90.0   33.333333333333336
-250.0   90.0   0.0
-200.0   90.0   0.0
-250.0   120.0   0.0
-250.0   90.0   16.666666666666668
-200.0   90.0   0.0
-200.0   120.0   0.0
-250.0   120.0   0.0
-200.0   120.0   16.666666666666668
-250.0   90.0   16.666666666666668
-250.0   120.0   16.666666666666668
-200.0   120.0   16.666666666666668
-250.0   120.0   0.0
-250.0   90.0   16.666666666666668
-200.0   120.0   16.666666666666668
-200.0   90.0   16.666666666666668
-200.0   90.0   0.0
-250.0   90.0   16.666666666666668
-200.0   120.0   16.666666666666668
-200.0   90.0   0.0
-250.0   120.0   0.0
-250.0   90.0   16.666666666666668
-200.0   90.0   16.666666666666668
-250.0   120.0   16.666666666666668
-250.0   90.0   33.333333333333336
-200.0   90.0   16.666666666666668
-200.0   120.0   16.666666666666668
-250.0   120.0   16.666666666666668
-200.0   120.0   33.333333333333336
-250.0   90.0   33.333333333333336
-250.0   120.0   33.333333333333336
-200.0   120.0   33.333333333333336
-250.0   120.0   16.666666666666668
-250.0   90.0   33.333333333333336
-200.0   120.0   33.333333333333336
-200.0   90.0   33.333333333333336
-200.0   90.0   16.666666666666668
-250.0   90.0   33.333333333333336
-200.0   120.0   33.333333333333336
-200.0   90.0   16.666666666666668
-250.0   120.0   16.666666666666668
-250.0   90.0   33.333333333333336
-200.0   90.0   33.333333333333336
-250.0   120.0   33.333333333333336
-250.0   90.0   50.0
-200.0   90.0   33.333333333333336
-200.0   120.0   33.333333333333336
-250.0   120.0   33.333333333333336
-200.0   120.0   50.0
-250.0   90.0   50.0
-250.0   120.0   50.0
-200.0   120.0   50.0
-250.0   120.0   33.333333333333336
-250.0   90.0   50.0
-200.0   120.0   50.0
-200.0   90.0   50.0
-200.0   90.0   33.333333333333336
-250.0   90.0   50.0
-200.0   120.0   50.0
-200.0   90.0   33.333333333333336
-250.0   120.0   33.333333333333336
-250.0   120.0   0.0
-200.0   120.0   0.0
-250.0   150.0   0.0
-250.0   120.0   16.666666666666668
-200.0   120.0   0.0
-200.0   150.0   0.0
-250.0   150.0   0.0
-200.0   150.0   16.666666666666668
-250.0   120.0   16.666666666666668
-250.0   150.0   16.666666666666668
-200.0   150.0   16.666666666666668
-250.0   150.0   0.0
-250.0   120.0   16.666666666666668
-200.0   150.0   16.666666666666668
-200.0   120.0   16.666666666666668
-200.0   120.0   0.0
-250.0   120.0   16.666666666666668
-200.0   150.0   16.666666666666668
-200.0   120.0   0.0
-250.0   150.0   0.0
-250.0   120.0   16.666666666666668
-200.0   120.0   16.666666666666668
-250.0   150.0   16.666666666666668
-250.0   120.0   33.333333333333336
-200.0   120.0   16.666666666666668
-200.0   150.0   16.666666666666668
-250.0   150.0   16.666666666666668
-200.0   150.0   33.333333333333336
-250.0   120.0   33.333333333333336
-250.0   150.0   33.333333333333336
-200.0   150.0   33.333333333333336
-250.0   150.0   16.666666666666668
-250.0   120.0   33.333333333333336
-200.0   150.0   33.333333333333336
-200.0   120.0   33.333333333333336
-200.0   120.0   16.666666666666668
-250.0   120.0   33.333333333333336
-200.0   150.0   33.333333333333336
-200.0   120.0   16.666666666666668
-250.0   150.0   16.666666666666668
-250.0   120.0   33.333333333333336
-200.0   120.0   33.333333333333336
-250.0   150.0   33.333333333333336
-250.0   120.0   50.0
-200.0   120.0   33.333333333333336
-200.0   150.0   33.333333333333336
-250.0   150.0   33.333333333333336
-200.0   150.0   50.0
-250.0   120.0   50.0
-250.0   150.0   50.0
-200.0   150.0   50.0
-250.0   150.0   33.333333333333336
-250.0   120.0   50.0
-200.0   150.0   50.0
-200.0   120.0   50.0
-200.0   120.0   33.333333333333336
-250.0   120.0   50.0
-200.0   150.0   50.0
-200.0   120.0   33.333333333333336
-250.0   150.0   33.333333333333336
-200.0   0.0   0.0
-150.0   0.0   0.0
-200.0   30.0   0.0
-200.0   0.0   16.666666666666668
-150.0   0.0   0.0
-150.0   30.0   0.0
-200.0   30.0   0.0
-150.0   30.0   16.666666666666668
-200.0   0.0   16.666666666666668
-200.0   30.0   16.666666666666668
-150.0   30.0   16.666666666666668
-200.0   30.0   0.0
-200.0   0.0   16.666666666666668
-150.0   30.0   16.666666666666668
-150.0   0.0   16.666666666666668
-150.0   0.0   0.0
-200.0   0.0   16.666666666666668
-150.0   30.0   16.666666666666668
-150.0   0.0   0.0
-200.0   30.0   0.0
-200.0   0.0   16.666666666666668
-150.0   0.0   16.666666666666668
-200.0   30.0   16.666666666666668
-200.0   0.0   33.333333333333336
-150.0   0.0   16.666666666666668
-150.0   30.0   16.666666666666668
-200.0   30.0   16.666666666666668
-150.0   30.0   33.333333333333336
-200.0   0.0   33.333333333333336
-200.0   30.0   33.333333333333336
-150.0   30.0   33.333333333333336
-200.0   30.0   16.666666666666668
-200.0   0.0   33.333333333333336
-150.0   30.0   33.333333333333336
-150.0   0.0   33.333333333333336
-150.0   0.0   16.666666666666668
-200.0   0.0   33.333333333333336
-150.0   30.0   33.333333333333336
-150.0   0.0   16.666666666666668
-200.0   30.0   16.666666666666668
-200.0   0.0   33.333333333333336
-150.0   0.0   33.333333333333336
-200.0   30.0   33.333333333333336
-200.0   0.0   50.0
-150.0   0.0   33.333333333333336
-150.0   30.0   33.333333333333336
-200.0   30.0   33.333333333333336
-150.0   30.0   50.0
-200.0   0.0   50.0
-200.0   30.0   50.0
-150.0   30.0   50.0
-200.0   30.0   33.333333333333336
-200.0   0.0   50.0
-150.0   30.0   50.0
-150.0   0.0   50.0
-150.0   0.0   33.333333333333336
-200.0   0.0   50.0
-150.0   30.0   50.0
-150.0   0.0   33.333333333333336
-200.0   30.0   33.333333333333336
-200.0   30.0   0.0
-150.0   30.0   0.0
-200.0   60.0   0.0
-200.0   30.0   16.666666666666668
-150.0   30.0   0.0
-150.0   60.0   0.0
-200.0   60.0   0.0
-150.0   60.0   16.666666666666668
-200.0   30.0   16.666666666666668
-200.0   60.0   16.666666666666668
-150.0   60.0   16.666666666666668
-200.0   60.0   0.0
-200.0   30.0   16.666666666666668
-150.0   60.0   16.666666666666668
-150.0   30.0   16.666666666666668
-150.0   30.0   0.0
-200.0   30.0   16.666666666666668
-150.0   60.0   16.666666666666668
-150.0   30.0   0.0
-200.0   60.0   0.0
-200.0   30.0   16.666666666666668
-150.0   30.0   16.666666666666668
-200.0   60.0   16.666666666666668
-200.0   30.0   33.333333333333336
-150.0   30.0   16.666666666666668
-150.0   60.0   16.666666666666668
-200.0   60.0   16.666666666666668
-150.0   60.0   33.333333333333336
-200.0   30.0   33.333333333333336
-200.0   60.0   33.333333333333336
-150.0   60.0   33.333333333333336
-200.0   60.0   16.666666666666668
-200.0   30.0   33.333333333333336
-150.0   60.0   33.333333333333336
-150.0   30.0   33.333333333333336
-150.0   30.0   16.666666666666668
-200.0   30.0   33.333333333333336
-150.0   60.0   33.333333333333336
-150.0   30.0   16.666666666666668
-200.0   60.0   16.666666666666668
-200.0   30.0   33.333333333333336
-150.0   30.0   33.333333333333336
-200.0   60.0   33.333333333333336
-200.0   30.0   50.0
-150.0   30.0   33.333333333333336
-150.0   60.0   33.333333333333336
-200.0   60.0   33.333333333333336
-150.0   60.0   50.0
-200.0   30.0   50.0
-200.0   60.0   50.0
-150.0   60.0   50.0
-200.0   60.0   33.333333333333336
-200.0   30.0   50.0
-150.0   60.0   50.0
-150.0   30.0   50.0
-150.0   30.0   33.333333333333336
-200.0   30.0   50.0
-150.0   60.0   50.0
-150.0   30.0   33.333333333333336
-200.0   60.0   33.333333333333336
-200.0   60.0   0.0
-150.0   60.0   0.0
-200.0   90.0   0.0
-200.0   60.0   16.666666666666668
-150.0   60.0   0.0
-150.0   90.0   0.0
-200.0   90.0   0.0
-150.0   90.0   16.666666666666668
-200.0   60.0   16.666666666666668
-200.0   90.0   16.666666666666668
-150.0   90.0   16.666666666666668
-200.0   90.0   0.0
-200.0   60.0   16.666666666666668
-150.0   90.0   16.666666666666668
-150.0   60.0   16.666666666666668
-150.0   60.0   0.0
-200.0   60.0   16.666666666666668
-150.0   90.0   16.666666666666668
-150.0   60.0   0.0
-200.0   90.0   0.0
-200.0   60.0   16.666666666666668
-150.0   60.0   16.666666666666668
-200.0   90.0   16.666666666666668
-200.0   60.0   33.333333333333336
-150.0   60.0   16.666666666666668
-150.0   90.0   16.666666666666668
-200.0   90.0   16.666666666666668
-150.0   90.0   33.333333333333336
-200.0   60.0   33.333333333333336
-200.0   90.0   33.333333333333336
-150.0   90.0   33.333333333333336
-200.0   90.0   16.666666666666668
-200.0   60.0   33.333333333333336
-150.0   90.0   33.333333333333336
-150.0   60.0   33.333333333333336
-150.0   60.0   16.666666666666668
-200.0   60.0   33.333333333333336
-150.0   90.0   33.333333333333336
-150.0   60.0   16.666666666666668
-200.0   90.0   16.666666666666668
-200.0   60.0   33.333333333333336
-150.0   60.0   33.333333333333336
-200.0   90.0   33.333333333333336
-200.0   60.0   50.0
-150.0   60.0   33.333333333333336
-150.0   90.0   33.333333333333336
-200.0   90.0   33.333333333333336
-150.0   90.0   50.0
-200.0   60.0   50.0
-200.0   90.0   50.0
-150.0   90.0   50.0
-200.0   90.0   33.333333333333336
-200.0   60.0   50.0
-150.0   90.0   50.0
-150.0   60.0   50.0
-150.0   60.0   33.333333333333336
-200.0   60.0   50.0
-150.0   90.0   50.0
-150.0   60.0   33.333333333333336
-200.0   90.0   33.333333333333336
-200.0   90.0   0.0
-150.0   90.0   0.0
-200.0   120.0   0.0
-200.0   90.0   16.666666666666668
-150.0   90.0   0.0
-150.0   120.0   0.0
-200.0   120.0   0.0
-150.0   120.0   16.666666666666668
-200.0   90.0   16.666666666666668
-200.0   120.0   16.666666666666668
-150.0   120.0   16.666666666666668
-200.0   120.0   0.0
-200.0   90.0   16.666666666666668
-150.0   120.0   16.666666666666668
-150.0   90.0   16.666666666666668
-150.0   90.0   0.0
-200.0   90.0   16.666666666666668
-150.0   120.0   16.666666666666668
-150.0   90.0   0.0
-200.0   120.0   0.0
-200.0   90.0   16.666666666666668
-150.0   90.0   16.666666666666668
-200.0   120.0   16.666666666666668
-200.0   90.0   33.333333333333336
-150.0   90.0   16.666666666666668
-150.0   120.0   16.666666666666668
-200.0   120.0   16.666666666666668
-150.0   120.0   33.333333333333336
-200.0   90.0   33.333333333333336
-200.0   120.0   33.333333333333336
-150.0   120.0   33.333333333333336
-200.0   120.0   16.666666666666668
-200.0   90.0   33.333333333333336
-150.0   120.0   33.333333333333336
-150.0   90.0   33.333333333333336
-150.0   90.0   16.666666666666668
-200.0   90.0   33.333333333333336
-150.0   120.0   33.333333333333336
-150.0   90.0   16.666666666666668
-200.0   120.0   16.666666666666668
-200.0   90.0   33.333333333333336
-150.0   90.0   33.333333333333336
-200.0   120.0   33.333333333333336
-200.0   90.0   50.0
-150.0   90.0   33.333333333333336
-150.0   120.0   33.333333333333336
-200.0   120.0   33.333333333333336
-150.0   120.0   50.0
-200.0   90.0   50.0
-200.0   120.0   50.0
-150.0   120.0   50.0
-200.0   120.0   33.333333333333336
-200.0   90.0   50.0
-150.0   120.0   50.0
-150.0   90.0   50.0
-150.0   90.0   33.333333333333336
-200.0   90.0   50.0
-150.0   120.0   50.0
-150.0   90.0   33.333333333333336
-200.0   120.0   33.333333333333336
-200.0   120.0   0.0
-150.0   120.0   0.0
-200.0   150.0   0.0
-200.0   120.0   16.666666666666668
-150.0   120.0   0.0
-150.0   150.0   0.0
-200.0   150.0   0.0
-150.0   150.0   16.666666666666668
-200.0   120.0   16.666666666666668
-200.0   150.0   16.666666666666668
-150.0   150.0   16.666666666666668
-200.0   150.0   0.0
-200.0   120.0   16.666666666666668
-150.0   150.0   16.666666666666668
-150.0   120.0   16.666666666666668
-150.0   120.0   0.0
-200.0   120.0   16.666666666666668
-150.0   150.0   16.666666666666668
-150.0   120.0   0.0
-200.0   150.0   0.0
-200.0   120.0   16.666666666666668
-150.0   120.0   16.666666666666668
-200.0   150.0   16.666666666666668
-200.0   120.0   33.333333333333336
-150.0   120.0   16.666666666666668
-150.0   150.0   16.666666666666668
-200.0   150.0   16.666666666666668
-150.0   150.0   33.333333333333336
-200.0   120.0   33.333333333333336
-200.0   150.0   33.333333333333336
-150.0   150.0   33.333333333333336
-200.0   150.0   16.666666666666668
-200.0   120.0   33.333333333333336
-150.0   150.0   33.333333333333336
-150.0   120.0   33.333333333333336
-150.0   120.0   16.666666666666668
-200.0   120.0   33.333333333333336
-150.0   150.0   33.333333333333336
-150.0   120.0   16.666666666666668
-200.0   150.0   16.666666666666668
-200.0   120.0   33.333333333333336
-150.0   120.0   33.333333333333336
-200.0   150.0   33.333333333333336
-200.0   120.0   50.0
-150.0   120.0   33.333333333333336
-150.0   150.0   33.333333333333336
-200.0   150.0   33.333333333333336
-150.0   150.0   50.0
-200.0   120.0   50.0
-200.0   150.0   50.0
-150.0   150.0   50.0
-200.0   150.0   33.333333333333336
-200.0   120.0   50.0
-150.0   150.0   50.0
-150.0   120.0   50.0
-150.0   120.0   33.333333333333336
-200.0   120.0   50.0
-150.0   150.0   50.0
-150.0   120.0   33.333333333333336
-200.0   150.0   33.333333333333336
-150.0   0.0   0.0
-100.0   0.0   0.0
-150.0   30.0   0.0
-150.0   0.0   16.666666666666668
-100.0   0.0   0.0
-100.0   30.0   0.0
-150.0   30.0   0.0
-100.0   30.0   16.666666666666668
-150.0   0.0   16.666666666666668
-150.0   30.0   16.666666666666668
-100.0   30.0   16.666666666666668
-150.0   30.0   0.0
-150.0   0.0   16.666666666666668
-100.0   30.0   16.666666666666668
-100.0   0.0   16.666666666666668
-100.0   0.0   0.0
-150.0   0.0   16.666666666666668
-100.0   30.0   16.666666666666668
-100.0   0.0   0.0
-150.0   30.0   0.0
-150.0   0.0   16.666666666666668
-100.0   0.0   16.666666666666668
-150.0   30.0   16.666666666666668
-150.0   0.0   33.333333333333336
-100.0   0.0   16.666666666666668
-100.0   30.0   16.666666666666668
-150.0   30.0   16.666666666666668
-100.0   30.0   33.333333333333336
-150.0   0.0   33.333333333333336
-150.0   30.0   33.333333333333336
-100.0   30.0   33.333333333333336
-150.0   30.0   16.666666666666668
-150.0   0.0   33.333333333333336
-100.0   30.0   33.333333333333336
-100.0   0.0   33.333333333333336
-100.0   0.0   16.666666666666668
-150.0   0.0   33.333333333333336
-100.0   30.0   33.333333333333336
-100.0   0.0   16.666666666666668
-150.0   30.0   16.666666666666668
-150.0   0.0   33.333333333333336
-100.0   0.0   33.333333333333336
-150.0   30.0   33.333333333333336
-150.0   0.0   50.0
-100.0   0.0   33.333333333333336
-100.0   30.0   33.333333333333336
-150.0   30.0   33.333333333333336
-100.0   30.0   50.0
-150.0   0.0   50.0
-150.0   30.0   50.0
-100.0   30.0   50.0
-150.0   30.0   33.333333333333336
-150.0   0.0   50.0
-100.0   30.0   50.0
-100.0   0.0   50.0
-100.0   0.0   33.333333333333336
-150.0   0.0   50.0
-100.0   30.0   50.0
-100.0   0.0   33.333333333333336
-150.0   30.0   33.333333333333336
-150.0   30.0   0.0
-100.0   30.0   0.0
-150.0   60.0   0.0
-150.0   30.0   16.666666666666668
-100.0   30.0   0.0
-100.0   60.0   0.0
-150.0   60.0   0.0
-100.0   60.0   16.666666666666668
-150.0   30.0   16.666666666666668
-150.0   60.0   16.666666666666668
-100.0   60.0   16.666666666666668
-150.0   60.0   0.0
-150.0   30.0   16.666666666666668
-100.0   60.0   16.666666666666668
-100.0   30.0   16.666666666666668
-100.0   30.0   0.0
-150.0   30.0   16.666666666666668
-100.0   60.0   16.666666666666668
-100.0   30.0   0.0
-150.0   60.0   0.0
-150.0   30.0   16.666666666666668
-100.0   30.0   16.666666666666668
-150.0   60.0   16.666666666666668
-150.0   30.0   33.333333333333336
-100.0   30.0   16.666666666666668
-100.0   60.0   16.666666666666668
-150.0   60.0   16.666666666666668
-100.0   60.0   33.333333333333336
-150.0   30.0   33.333333333333336
-150.0   60.0   33.333333333333336
-100.0   60.0   33.333333333333336
-150.0   60.0   16.666666666666668
-150.0   30.0   33.333333333333336
-100.0   60.0   33.333333333333336
-100.0   30.0   33.333333333333336
-100.0   30.0   16.666666666666668
-150.0   30.0   33.333333333333336
-100.0   60.0   33.333333333333336
-100.0   30.0   16.666666666666668
-150.0   60.0   16.666666666666668
-150.0   30.0   33.333333333333336
-100.0   30.0   33.333333333333336
-150.0   60.0   33.333333333333336
-150.0   30.0   50.0
-100.0   30.0   33.333333333333336
-100.0   60.0   33.333333333333336
-150.0   60.0   33.333333333333336
-100.0   60.0   50.0
-150.0   30.0   50.0
-150.0   60.0   50.0
-100.0   60.0   50.0
-150.0   60.0   33.333333333333336
-150.0   30.0   50.0
-100.0   60.0   50.0
-100.0   30.0   50.0
-100.0   30.0   33.333333333333336
-150.0   30.0   50.0
-100.0   60.0   50.0
-100.0   30.0   33.333333333333336
-150.0   60.0   33.333333333333336
-150.0   60.0   0.0
-100.0   60.0   0.0
-150.0   90.0   0.0
-150.0   60.0   16.666666666666668
-100.0   60.0   0.0
-100.0   90.0   0.0
-150.0   90.0   0.0
-100.0   90.0   16.666666666666668
-150.0   60.0   16.666666666666668
-150.0   90.0   16.666666666666668
-100.0   90.0   16.666666666666668
-150.0   90.0   0.0
-150.0   60.0   16.666666666666668
-100.0   90.0   16.666666666666668
-100.0   60.0   16.666666666666668
-100.0   60.0   0.0
-150.0   60.0   16.666666666666668
-100.0   90.0   16.666666666666668
-100.0   60.0   0.0
-150.0   90.0   0.0
-150.0   60.0   16.666666666666668
-100.0   60.0   16.666666666666668
-150.0   90.0   16.666666666666668
-150.0   60.0   33.333333333333336
-100.0   60.0   16.666666666666668
-100.0   90.0   16.666666666666668
-150.0   90.0   16.666666666666668
-100.0   90.0   33.333333333333336
-150.0   60.0   33.333333333333336
-150.0   90.0   33.333333333333336
-100.0   90.0   33.333333333333336
-150.0   90.0   16.666666666666668
-150.0   60.0   33.333333333333336
-100.0   90.0   33.333333333333336
-100.0   60.0   33.333333333333336
-100.0   60.0   16.666666666666668
-150.0   60.0   33.333333333333336
-100.0   90.0   33.333333333333336
-100.0   60.0   16.666666666666668
-150.0   90.0   16.666666666666668
-150.0   60.0   33.333333333333336
-100.0   60.0   33.333333333333336
-150.0   90.0   33.333333333333336
-150.0   60.0   50.0
-100.0   60.0   33.333333333333336
-100.0   90.0   33.333333333333336
-150.0   90.0   33.333333333333336
-100.0   90.0   50.0
-150.0   60.0   50.0
-150.0   90.0   50.0
-100.0   90.0   50.0
-150.0   90.0   33.333333333333336
-150.0   60.0   50.0
-100.0   90.0   50.0
-100.0   60.0   50.0
-100.0   60.0   33.333333333333336
-150.0   60.0   50.0
-100.0   90.0   50.0
-100.0   60.0   33.333333333333336
-150.0   90.0   33.333333333333336
-150.0   90.0   0.0
-100.0   90.0   0.0
-150.0   120.0   0.0
-150.0   90.0   16.666666666666668
-100.0   90.0   0.0
-100.0   120.0   0.0
-150.0   120.0   0.0
-100.0   120.0   16.666666666666668
-150.0   90.0   16.666666666666668
-150.0   120.0   16.666666666666668
-100.0   120.0   16.666666666666668
-150.0   120.0   0.0
-150.0   90.0   16.666666666666668
-100.0   120.0   16.666666666666668
-100.0   90.0   16.666666666666668
-100.0   90.0   0.0
-150.0   90.0   16.666666666666668
-100.0   120.0   16.666666666666668
-100.0   90.0   0.0
-150.0   120.0   0.0
-150.0   90.0   16.666666666666668
-100.0   90.0   16.666666666666668
-150.0   120.0   16.666666666666668
-150.0   90.0   33.333333333333336
-100.0   90.0   16.666666666666668
-100.0   120.0   16.666666666666668
-150.0   120.0   16.666666666666668
-100.0   120.0   33.333333333333336
-150.0   90.0   33.333333333333336
-150.0   120.0   33.333333333333336
-100.0   120.0   33.333333333333336
-150.0   120.0   16.666666666666668
-150.0   90.0   33.333333333333336
-100.0   120.0   33.333333333333336
-100.0   90.0   33.333333333333336
-100.0   90.0   16.666666666666668
-150.0   90.0   33.333333333333336
-100.0   120.0   33.333333333333336
-100.0   90.0   16.666666666666668
-150.0   120.0   16.666666666666668
-150.0   90.0   33.333333333333336
-100.0   90.0   33.333333333333336
-150.0   120.0   33.333333333333336
-150.0   90.0   50.0
-100.0   90.0   33.333333333333336
-100.0   120.0   33.333333333333336
-150.0   120.0   33.333333333333336
-100.0   120.0   50.0
-150.0   90.0   50.0
-150.0   120.0   50.0
-100.0   120.0   50.0
-150.0   120.0   33.333333333333336
-150.0   90.0   50.0
-100.0   120.0   50.0
-100.0   90.0   50.0
-100.0   90.0   33.333333333333336
-150.0   90.0   50.0
-100.0   120.0   50.0
-100.0   90.0   33.333333333333336
-150.0   120.0   33.333333333333336
-150.0   120.0   0.0
-100.0   120.0   0.0
-150.0   150.0   0.0
-150.0   120.0   16.666666666666668
-100.0   120.0   0.0
-100.0   150.0   0.0
-150.0   150.0   0.0
-100.0   150.0   16.666666666666668
-150.0   120.0   16.666666666666668
-150.0   150.0   16.666666666666668
-100.0   150.0   16.666666666666668
-150.0   150.0   0.0
-150.0   120.0   16.666666666666668
-100.0   150.0   16.666666666666668
-100.0   120.0   16.666666666666668
-100.0   120.0   0.0
-150.0   120.0   16.666666666666668
-100.0   150.0   16.666666666666668
-100.0   120.0   0.0
-150.0   150.0   0.0
-150.0   120.0   16.666666666666668
-100.0   120.0   16.666666666666668
-150.0   150.0   16.666666666666668
-150.0   120.0   33.333333333333336
-100.0   120.0   16.666666666666668
-100.0   150.0   16.666666666666668
-150.0   150.0   16.666666666666668
-100.0   150.0   33.333333333333336
-150.0   120.0   33.333333333333336
-150.0   150.0   33.333333333333336
-100.0   150.0   33.333333333333336
-150.0   150.0   16.666666666666668
-150.0   120.0   33.333333333333336
-100.0   150.0   33.333333333333336
-100.0   120.0   33.333333333333336
-100.0   120.0   16.666666666666668
-150.0   120.0   33.333333333333336
-100.0   150.0   33.333333333333336
-100.0   120.0   16.666666666666668
-150.0   150.0   16.666666666666668
-150.0   120.0   33.333333333333336
-100.0   120.0   33.333333333333336
-150.0   150.0   33.333333333333336
-150.0   120.0   50.0
-100.0   120.0   33.333333333333336
-100.0   150.0   33.333333333333336
-150.0   150.0   33.333333333333336
-100.0   150.0   50.0
-150.0   120.0   50.0
-150.0   150.0   50.0
-100.0   150.0   50.0
-150.0   150.0   33.333333333333336
-150.0   120.0   50.0
-100.0   150.0   50.0
-100.0   120.0   50.0
-100.0   120.0   33.333333333333336
-150.0   120.0   50.0
-100.0   150.0   50.0
-100.0   120.0   33.333333333333336
-150.0   150.0   33.333333333333336
-100.0   0.0   0.0
-50.0   0.0   0.0
-100.0   30.0   0.0
-100.0   0.0   16.666666666666668
-50.0   0.0   0.0
-50.0   30.0   0.0
-100.0   30.0   0.0
-50.0   30.0   16.666666666666668
-100.0   0.0   16.666666666666668
-100.0   30.0   16.666666666666668
-50.0   30.0   16.666666666666668
-100.0   30.0   0.0
-100.0   0.0   16.666666666666668
-50.0   30.0   16.666666666666668
-50.0   0.0   16.666666666666668
-50.0   0.0   0.0
-100.0   0.0   16.666666666666668
-50.0   30.0   16.666666666666668
-50.0   0.0   0.0
-100.0   30.0   0.0
-100.0   0.0   16.666666666666668
-50.0   0.0   16.666666666666668
-100.0   30.0   16.666666666666668
-100.0   0.0   33.333333333333336
-50.0   0.0   16.666666666666668
-50.0   30.0   16.666666666666668
-100.0   30.0   16.666666666666668
-50.0   30.0   33.333333333333336
-100.0   0.0   33.333333333333336
-100.0   30.0   33.333333333333336
-50.0   30.0   33.333333333333336
-100.0   30.0   16.666666666666668
-100.0   0.0   33.333333333333336
-50.0   30.0   33.333333333333336
-50.0   0.0   33.333333333333336
-50.0   0.0   16.666666666666668
-100.0   0.0   33.333333333333336
-50.0   30.0   33.333333333333336
-50.0   0.0   16.666666666666668
-100.0   30.0   16.666666666666668
-100.0   0.0   33.333333333333336
-50.0   0.0   33.333333333333336
-100.0   30.0   33.333333333333336
-100.0   0.0   50.0
-50.0   0.0   33.333333333333336
-50.0   30.0   33.333333333333336
-100.0   30.0   33.333333333333336
-50.0   30.0   50.0
-100.0   0.0   50.0
-100.0   30.0   50.0
-50.0   30.0   50.0
-100.0   30.0   33.333333333333336
-100.0   0.0   50.0
-50.0   30.0   50.0
-50.0   0.0   50.0
-50.0   0.0   33.333333333333336
-100.0   0.0   50.0
-50.0   30.0   50.0
-50.0   0.0   33.333333333333336
-100.0   30.0   33.333333333333336
-100.0   30.0   0.0
-50.0   30.0   0.0
-100.0   60.0   0.0
-100.0   30.0   16.666666666666668
-50.0   30.0   0.0
-50.0   60.0   0.0
-100.0   60.0   0.0
-50.0   60.0   16.666666666666668
-100.0   30.0   16.666666666666668
-100.0   60.0   16.666666666666668
-50.0   60.0   16.666666666666668
-100.0   60.0   0.0
-100.0   30.0   16.666666666666668
-50.0   60.0   16.666666666666668
-50.0   30.0   16.666666666666668
-50.0   30.0   0.0
-100.0   30.0   16.666666666666668
-50.0   60.0   16.666666666666668
-50.0   30.0   0.0
-100.0   60.0   0.0
-100.0   30.0   16.666666666666668
-50.0   30.0   16.666666666666668
-100.0   60.0   16.666666666666668
-100.0   30.0   33.333333333333336
-50.0   30.0   16.666666666666668
-50.0   60.0   16.666666666666668
-100.0   60.0   16.666666666666668
-50.0   60.0   33.333333333333336
-100.0   30.0   33.333333333333336
-100.0   60.0   33.333333333333336
-50.0   60.0   33.333333333333336
-100.0   60.0   16.666666666666668
-100.0   30.0   33.333333333333336
-50.0   60.0   33.333333333333336
-50.0   30.0   33.333333333333336
-50.0   30.0   16.666666666666668
-100.0   30.0   33.333333333333336
-50.0   60.0   33.333333333333336
-50.0   30.0   16.666666666666668
-100.0   60.0   16.666666666666668
-100.0   30.0   33.333333333333336
-50.0   30.0   33.333333333333336
-100.0   60.0   33.333333333333336
-100.0   30.0   50.0
-50.0   30.0   33.333333333333336
-50.0   60.0   33.333333333333336
-100.0   60.0   33.333333333333336
-50.0   60.0   50.0
-100.0   30.0   50.0
-100.0   60.0   50.0
-50.0   60.0   50.0
-100.0   60.0   33.333333333333336
-100.0   30.0   50.0
-50.0   60.0   50.0
-50.0   30.0   50.0
-50.0   30.0   33.333333333333336
-100.0   30.0   50.0
-50.0   60.0   50.0
-50.0   30.0   33.333333333333336
-100.0   60.0   33.333333333333336
-100.0   60.0   0.0
-50.0   60.0   0.0
-100.0   90.0   0.0
-100.0   60.0   16.666666666666668
-50.0   60.0   0.0
-50.0   90.0   0.0
-100.0   90.0   0.0
-50.0   90.0   16.666666666666668
-100.0   60.0   16.666666666666668
-100.0   90.0   16.666666666666668
-50.0   90.0   16.666666666666668
-100.0   90.0   0.0
-100.0   60.0   16.666666666666668
-50.0   90.0   16.666666666666668
-50.0   60.0   16.666666666666668
-50.0   60.0   0.0
-100.0   60.0   16.666666666666668
-50.0   90.0   16.666666666666668
-50.0   60.0   0.0
-100.0   90.0   0.0
-100.0   60.0   16.666666666666668
-50.0   60.0   16.666666666666668
-100.0   90.0   16.666666666666668
-100.0   60.0   33.333333333333336
-50.0   60.0   16.666666666666668
-50.0   90.0   16.666666666666668
-100.0   90.0   16.666666666666668
-50.0   90.0   33.333333333333336
-100.0   60.0   33.333333333333336
-100.0   90.0   33.333333333333336
-50.0   90.0   33.333333333333336
-100.0   90.0   16.666666666666668
-100.0   60.0   33.333333333333336
-50.0   90.0   33.333333333333336
-50.0   60.0   33.333333333333336
-50.0   60.0   16.666666666666668
-100.0   60.0   33.333333333333336
-50.0   90.0   33.333333333333336
-50.0   60.0   16.666666666666668
-100.0   90.0   16.666666666666668
-100.0   60.0   33.333333333333336
-50.0   60.0   33.333333333333336
-100.0   90.0   33.333333333333336
-100.0   60.0   50.0
-50.0   60.0   33.333333333333336
-50.0   90.0   33.333333333333336
-100.0   90.0   33.333333333333336
-50.0   90.0   50.0
-100.0   60.0   50.0
-100.0   90.0   50.0
-50.0   90.0   50.0
-100.0   90.0   33.333333333333336
-100.0   60.0   50.0
-50.0   90.0   50.0
-50.0   60.0   50.0
-50.0   60.0   33.333333333333336
-100.0   60.0   50.0
-50.0   90.0   50.0
-50.0   60.0   33.333333333333336
-100.0   90.0   33.333333333333336
-100.0   90.0   0.0
-50.0   90.0   0.0
-100.0   120.0   0.0
-100.0   90.0   16.666666666666668
-50.0   90.0   0.0
-50.0   120.0   0.0
-100.0   120.0   0.0
-50.0   120.0   16.666666666666668
-100.0   90.0   16.666666666666668
-100.0   120.0   16.666666666666668
-50.0   120.0   16.666666666666668
-100.0   120.0   0.0
-100.0   90.0   16.666666666666668
-50.0   120.0   16.666666666666668
-50.0   90.0   16.666666666666668
-50.0   90.0   0.0
-100.0   90.0   16.666666666666668
-50.0   120.0   16.666666666666668
-50.0   90.0   0.0
-100.0   120.0   0.0
-100.0   90.0   16.666666666666668
-50.0   90.0   16.666666666666668
-100.0   120.0   16.666666666666668
-100.0   90.0   33.333333333333336
-50.0   90.0   16.666666666666668
-50.0   120.0   16.666666666666668
-100.0   120.0   16.666666666666668
-50.0   120.0   33.333333333333336
-100.0   90.0   33.333333333333336
-100.0   120.0   33.333333333333336
-50.0   120.0   33.333333333333336
-100.0   120.0   16.666666666666668
-100.0   90.0   33.333333333333336
-50.0   120.0   33.333333333333336
-50.0   90.0   33.333333333333336
-50.0   90.0   16.666666666666668
-100.0   90.0   33.333333333333336
-50.0   120.0   33.333333333333336
-50.0   90.0   16.666666666666668
-100.0   120.0   16.666666666666668
-100.0   90.0   33.333333333333336
-50.0   90.0   33.333333333333336
-100.0   120.0   33.333333333333336
-100.0   90.0   50.0
-50.0   90.0   33.333333333333336
-50.0   120.0   33.333333333333336
-100.0   120.0   33.333333333333336
-50.0   120.0   50.0
-100.0   90.0   50.0
-100.0   120.0   50.0
-50.0   120.0   50.0
-100.0   120.0   33.333333333333336
-100.0   90.0   50.0
-50.0   120.0   50.0
-50.0   90.0   50.0
-50.0   90.0   33.333333333333336
-100.0   90.0   50.0
-50.0   120.0   50.0
-50.0   90.0   33.333333333333336
-100.0   120.0   33.333333333333336
-100.0   120.0   0.0
-50.0   120.0   0.0
-100.0   150.0   0.0
-100.0   120.0   16.666666666666668
-50.0   120.0   0.0
-50.0   150.0   0.0
-100.0   150.0   0.0
-50.0   150.0   16.666666666666668
-100.0   120.0   16.666666666666668
-100.0   150.0   16.666666666666668
-50.0   150.0   16.666666666666668
-100.0   150.0   0.0
-100.0   120.0   16.666666666666668
-50.0   150.0   16.666666666666668
-50.0   120.0   16.666666666666668
-50.0   120.0   0.0
-100.0   120.0   16.666666666666668
-50.0   150.0   16.666666666666668
-50.0   120.0   0.0
-100.0   150.0   0.0
-100.0   120.0   16.666666666666668
-50.0   120.0   16.666666666666668
-100.0   150.0   16.666666666666668
-100.0   120.0   33.333333333333336
-50.0   120.0   16.666666666666668
-50.0   150.0   16.666666666666668
-100.0   150.0   16.666666666666668
-50.0   150.0   33.333333333333336
-100.0   120.0   33.333333333333336
-100.0   150.0   33.333333333333336
-50.0   150.0   33.333333333333336
-100.0   150.0   16.666666666666668
-100.0   120.0   33.333333333333336
-50.0   150.0   33.333333333333336
-50.0   120.0   33.333333333333336
-50.0   120.0   16.666666666666668
-100.0   120.0   33.333333333333336
-50.0   150.0   33.333333333333336
-50.0   120.0   16.666666666666668
-100.0   150.0   16.666666666666668
-100.0   120.0   33.333333333333336
-50.0   120.0   33.333333333333336
-100.0   150.0   33.333333333333336
-100.0   120.0   50.0
-50.0   120.0   33.333333333333336
-50.0   150.0   33.333333333333336
-100.0   150.0   33.333333333333336
-50.0   150.0   50.0
-100.0   120.0   50.0
-100.0   150.0   50.0
-50.0   150.0   50.0
-100.0   150.0   33.333333333333336
-100.0   120.0   50.0
-50.0   150.0   50.0
-50.0   120.0   50.0
-50.0   120.0   33.333333333333336
-100.0   120.0   50.0
-50.0   150.0   50.0
-50.0   120.0   33.333333333333336
-100.0   150.0   33.333333333333336
-50.0   0.0   0.0
0.0   0.0   0.0
-50.0   30.0   0.0
-50.0   0.0   16.666666666666668
0.0   0.0   0.0
0.0   30.0   0.0
-50.0   30.0   0.0
0.0   30.0   16.666666666666668
-50.0   0.0   16.666666666666668
-50.0   30.0   16.666666666666668
0.0   30.0   16.666666666666668
-50.0   30.0   0.0
-50.0   0.0   16.666666666666668
0.0   30.0   16.666666666666668
0.0   0.0   16.666666666666668
0.0   0.0   0.0
-50.0   0.0   16.666666666666668
0.0   30.0   16.666666666666668
0.0   0.0   0.0
-50.0   30.0   0.0
-50.0   0.0   16.666666666666668
0.0   0.0   16.666666666666668
-50.0   30.0   16.666666666666668
-50.0   0.0   33.333333333333336
0.0   0.0   16.666666666666668
0.0   30.0   16.666666666666668
-50.0   30.0   16.666666666666668
0.0   30.0   33.333333333333336
-50.0   0.0   33.333333333333336
-50.0   30.0   33.333333333333336
0.0   30.0   33.333333333333336
-50.0   30.0   16.666666666666668
-50.0   0.0   33.333333333333336
0.0   30.0   33.333333333333336
0.0   0.0   33.333333333333336
0.0   0.0   16.666666666666668
-50.0   0.0   33.333333333333336
0.0   30.0   33.333333333333336
0.0   0.0   16.666666666666668
-50.0   30.0   16.666666666666668
-50.0   0.0   33.333333333333336
0.0   0.0   33.333333333333336
-50.0   30.0   33.333333333333336
-50.0   0.0   50.0
0.0   0.0   33.333333333333336
0.0   30.0   33.333333333333336
-50.0   30.0   33.333333333333336
0.0   30.0   50.0
-50.0   0.0   50.0
-50.0   30.0   50.0
0.0   30.0   50.0
-50.0   30.0   33.333333333333336
-50.0   0.0   50.0
0.0   30.0   50.0
0.0   0.0   50.0
0.0   0.0   33.333333333333336
-50.0   0.0   50.0
0.0   30.0   50.0
0.0   0.0   33.333333333333336
-50.0   30.0   33.333333333333336
-50.0   30.0   0.0
0.0   30.0   0.0
-50.0   60.0   0.0
-50.0   30.0   16.666666666666668
0.0   30.0   0.0
0.0   60.0   0.0
-50.0   60.0   0.0
0.0   60.0   16.666666666666668
-50.0   30.0   16.666666666666668
-50.0   60.0   16.666666666666668
0.0   60.0   16.666666666666668
-50.0   60.0   0.0
-50.0   30.0   16.666666666666668
0.0   60.0   16.666666666666668
0.0   30.0   16.666666666666668
0.0   30.0   0.0
-50.0   30.0   16.666666666666668
0.0   60.0   16.666666666666668
0.0   30.0   0.0
-50.0   60.0   0.0
-50.0   30.0   16.666666666666668
0.0   30.0   16.666666666666668
-50.0   60.0   16.666666666666668
-50.0   30.0   33.333333333333336
0.0   30.0   16.666666666666668
0.0   60.0   16.666666666666668
-50.0   60.0   16.666666666666668
0.0   60.0   33.333333333333336
-50.0   30.0   33.333333333333336
-50.0   60.0   33.333333333333336
0.0   60.0   33.333333333333336
-50.0   60.0   16.666666666666668
-50.0   30.0   33.333333333333336
0.0   60.0   33.333333333333336
0.0   30.0   33.333333333333336
0.0   30.0   16.666666666666668
-50.0   30.0   33.333333333333336
0.0   60.0   33.333333333333336
0.0   30.0   16.666666666666668
-50.0   60.0   16.666666666666668
-50.0   30.0   33.333333333333336
0.0   30.0   33.333333333333336
-50.0   60.0   33.333333333333336
-50.0   30.0   50.0
0.0   30.0   33.333333333333336
0.0   60.0   33.333333333333336
-50.0   60.0   33.333333333333336
0.0   60.0   50.0
-50.0   30.0   50.0
-50.0   60.0   50.0
0.0   60.0   50.0
-50.0   60.0   33.333333333333336
-50.0   30.0   50.0
0.0   60.0   50.0
0.0   30.0   50.0
0.0   30.0   33.333333333333336
-50.0   30.0   50.0
0.0   60.0   50.0
0.0   30.0   33.333333333333336
-50.0   60.0   33.333333333333336
-50.0   60.0   0.0
0.0   60.0   0.0
-50.0   90.0   0.0
-50.0   60.0   16.666666666666668
0.0   60.0   0.0
0.0   90.0   0.0
-50.0   90.0   0.0
0.0   90.0   16.666666666666668
-50.0   60.0   16.666666666666668
-50.0   90.0   16.666666666666668
0.0   90.0   16.666666666666668
-50.0   90.0   0.0
-50.0   60.0   16.666666666666668
0.0   90.0   16.666666666666668
0.0   60.0   16.666666666666668
0.0   60.0   0.0
-50.0   60.0   16.666666666666668
0.0   90.0   16.666666666666668
0.0   60.0   0.0
-50.0   90.0   0.0
-50.0   60.0   16.666666666666668
0.0   60.0   16.666666666666668
-50.0   90.0   16.666666666666668
-50.0   60.0   33.333333333333336
0.0   60.0   16.666666666666668
0.0   90.0   16.666666666666668
-50.0   90.0   16.666666666666668
0.0   90.0   33.333333333333336
-50.0   60.0   33.333333333333336
-50.0   90.0   33.333333333333336
0.0   90.0   33.333333333333336
-50.0   90.0   16.666666666666668
-50.0   60.0   33.333333333333336
0.0   90.0   33.333333333333336
0.0   60.0   33.333333333333336
0.0   60.0   16.666666666666668
-50.0   60.0   33.333333333333336
0.0   90.0   33.333333333333336
0.0   60.0   16.666666666666668
-50.0   90.0   16.666666666666668
-50.0   60.0   33.333333333333336
0.0   60.0   33.333333333333336
-50.0   90.0   33.333333333333336
-50.0   60.0   50.0
0.0   60.0   33.333333333333336
0.0   90.0   33.333333333333336
-50.0   90.0   33.333333333333336
0.0   90.0   50.0
-50.0   60.0   50.0
-50.0   90.0   50.0
0.0   90.0   50.0
-50.0   90.0   33.333333333333336
-50.0   60.0   50.0
0.0   90.0   50.0
0.0   60.0   50.0
0.0   60.0   33.333333333333336
-50.0   60.0   50.0
0.0   90.0   50.0
0.0   60.0   33.333333333333336
-50.0   90.0   33.333333333333336
-50.0   90.0   0.0
0.0   90.0   0.0
-50.0   120.0   0.0
-50.0   90.0   16.666666666666668
0.0   90.0   0.0
0.0   120.0   0.0
-50.0   120.0   0.0
0.0   120.0   16.666666666666668
-50.0   90.0   16.666666666666668
-50.0   120.0   16.666666666666668
0.0   120.0   16.666666666666668
-50.0   120.0   0.0
-50.0   90.0   16.666666666666668
0.0   120.0   16.666666666666668
0.0   90.0   16.666666666666668
0.0   90.0   0.0
-50.0   90.0   16.666666666666668
0.0   120.0   16.666666666666668
0.0   90.0   0.0
-50.0   120.0   0.0
-50.0   90.0   16.666666666666668
0.0   90.0   16.666666666666668
-50.0   120.0   16.666666666666668
-50.0   90.0   33.333333333333336
0.0   90.0   16.666666666666668
0.0   120.0   16.666666666666668
-50.0   120.0   16.666666666666668
0.0   120.0   33.333333333333336
-50.0   90.0   33.333333333333336
-50.0   120.0   33.333333333333336
0.0   120.0   33.333333333333336
-50.0   120.0   16.666666666666668
-50.0   90.0   33.333333333333336
0.0   120.0   33.333333333333336
0.0   90.0   33.333333333333336
0.0   90.0   16.666666666666668
-50.0   90.0   33.333333333333336
0.0   120.0   33.333333333333336
0.0   90.0   16.666666666666668
-50.0   120.0   16.666666666666668
-50.0   90.0   33.333333333333336
0.0   90.0   33.333333333333336
-50.0   120.0   33.333333333333336
-50.0   90.0   50.0
0.0   90.0   33.333333333333336
0.0   120.0   33.333333333333336
-50.0   120.0   33.333333333333336
0.0   120.0   50.0
-50.0   90.0   50.0
-50.0   120.0   50.0
0.0   120.0   50.0
-50.0   120.0   33.333333333333336
-50.0   90.0   50.0
0.0   120.0   50.0
0.0   90.0   50.0
0.0   90.0   33.333333333333336
-50.0   90.0   50.0
0.0   120.0   50.0
0.0   90.0   33.333333333333336
-50.0   120.0   33.333333333333336
-50.0   120.0   0.0
0.0   120.0   0.0
-50.0   150.0   0.0
-50.0   120.0   16.666666666666668
0.0   120.0   0.0
0.0   150.0   0.0
-50.0   150.0   0.0
0.0   150.0   16.666666666666668
-50.0   120.0   16.666666666666668
-50.0   150.0   16.666666666666668
0.0   150.0   16.666666666666668
-50.0   150.0   0.0
-50.0   120.0   16.666666666666668
0.0   150.0   16.666666666666668
0.0   120.0   16.666666666666668
0.0   120.0   0.0
-50.0   120.0   16.666666666666668
0.0   150.0   16.666666666666668
0.0   120.0   0.0
-50.0   150.0   0.0
-50.0   120.0   16.666666666666668
0.0   120.0   16.666666666666668
-50.0   150.0   16.666666666666668
-50.0   120.0   33.333333333333336
0.0   120.0   16.666666666666668
0.0   150.0   16.666666666666668
-50.0   150.0   16.666666666666668
0.0   150.0   33.333333333333336
-50.0   120.0   33.333333333333336
-50.0   150.0   33.333333333333336
0.0   150.0   33.333333333333336
-50.0   150.0   16.666666666666668
-50.0   120.0   33.333333333333336
0.0   150.0   33.333333333333336
0.0   120.0   33.333333333333336
0.0   120.0   16.666666666666668
-50.0   120.0   33.333333333333336
0.0   150.0   33.333333333333336
0.0   120.0   16.666666666666668
-50.0   150.0   16.666666666666668
-50.0   120.0   33.333333333333336
0.0   120.0   33.333333333333336
-50.0   150.0   33.333333333333336
-50.0   120.0   50.0
0.0   120.0   33.333333333333336
0.0   150.0   33.333333333333336
-50.0   150.0   33.333333333333336
0.0   150.0   50.0
-50.0   120.0   50.0
-50.0   150.0   50.0
0.0   150.0   50.0
-50.0   150.0   33.333333333333336
-50.0   120.0   50.0
0.0   150.0   50.0
0.0   120.0   50.0
0.0   120.0   33.333333333333336
-50.0   120.0   50.0
0.0   150.0   50.0
0.0   120.0   33.333333333333336
-50.0   150.0   33.333333333333336
0.0   0.0   0.0
50.0   0.0   0.0
0.0   30.0   0.0
0.0   0.0   16.666666666666668
50.0   0.0   0.0
50.0   30.0   0.0
0.0   30.0   0.0
50.0   30.0   16.666666666666668
0.0   0.0   16.666666666666668
0.0   30.0   16.666666666666668
50.0   30.0   16.666666666666668
0.0   30.0   0.0
0.0   0.0   16.666666666666668
50.0   30.0   16.666666666666668
50.0   0.0   16.666666666666668
50.0   0.0   0.0
0.0   0.0   16.666666666666668
50.0   30.0   16.666666666666668
50.0   0.0   0.0
0.0   30.0   0.0
0.0   0.0   16.666666666666668
50.0   0.0   16.666666666666668
0.0   30.0   16.666666666666668
0.0   0.0   33.333333333333336
50.0   0.0   16.666666666666668
50.0   30.0   16.666666666666668
0.0   30.0   16.666666666666668
50.0   30.0   33.333333333333336
0.0   0.0   33.333333333333336
0.0   30.0   33.333333333333336
50.0   30.0   33.333333333333336
0.0   30.0   16.666666666666668
0.0   0.0   33.333333333333336
50.0   30.0   33.333333333333336
50.0   0.0   33.333333333333336
50.0   0.0   16.666666666666668
0.0   0.0   33.333333333333336
50.0   30.0   33.333333333333336
50.0   0.0   16.666666666666668
0.0   30.0   16.666666666666668
0.0   0.0   33.333333333333336
50.0   0.0   33.333333333333336
0.0   30.0   33.333333333333336
0.0   0.0   50.0
50.0   0.0   33.333333333333336
50.0   30.0   33.333333333333336
0.0   30.0   33.333333333333336
50.0   30.0   50.0
0.0   0.0   50.0
0.0   30.0   50.0
50.0   30.0   50.0
0.0   30.0   33.333333333333336
0.0   0.0   50.0
50.0   30.0   50.0
50.0   0.0   50.0
50.0   0.0   33.333333333333336
0.0   0.0   50.0
50.0   30.0   50.0
50.0   0.0   33.333333333333336
0.0   30.0   33.333333333333336
0.0   30.0   0.0
50.0   30.0   0.0
0.0   60.0   0.0
0.0   30.0   16.666666666666668
50.0   30.0   0.0
50.0   60.0   0.0
0.0   60.0   0.0
50.0   60.0   16.666666666666668
0.0   30.0   16.666666666666668
0.0   60.0   16.666666666666668
50.0   60.0   16.666666666666668
0.0   60.0   0.0
0.0   30.0   16.666666666666668
50.0   60.0   16.666666666666668
50.0   30.0   16.666666666666668
50.0   30.0   0.0
0.0   30.0   16.666666666666668
50.0   60.0   16.666666666666668
50.0   30.0   0.0
0.0   60.0   0.0
0.0   30.0   16.666666666666668
50.0   30.0   16.666666666666668
0.0   60.0   16.666666666666668
0.0   30.0   33.333333333333336
50.0   30.0   16.666666666666668
50.0   60.0   16.666666666666668
0.0   60.0   16.666666666666668
50.0   60.0   33.333333333333336
0.0   30.0   33.333333333333336
0.0   60.0   33.333333333333336
50.0   60.0   33.333333333333336
0.0   60.0   16.666666666666668
0.0   30.0   33.333333333333336
50.0   60.0   33.333333333333336
50.0   30.0   33.333333333333336
50.0   30.0   16.666666666666668
0.0   30.0   33.333333333333336
50.0   60.0   33.333333333333336
50.0   30.0   16.666666666666668
0.0   60.0   16.666666666666668
0.0   30.0   33.333333333333336
50.0   30.0   33.333333333333336
0.0   60.0   33.333333333333336
0.0   30.0   50.0
50.0   30.0   33.333333333333336
50.0   60.0   33.333333333333336
0.0   60.0   33.333333333333336
50.0   60.0   50.0
0.0   30.0   50.0
0.0   60.0   50.0
50.0   60.0   50.0
0.0   60.0   33.333333333333336
0.0   30.0   50.0
50.0   60.0   50.0
50.0   30.0   50.0
50.0   30.0   33.333333333333336
0.0   30.0   50.0
50.0   60.0   50.0
50.0   30.0   33.333333333333336
0.0   60.0   33.333333333333336
0.0   60.0   0.0
50.0   60.0   0.0
0.0   90.0   0.0
0.0   60.0   16.666666666666668
50.0   60.0   0.0
50.0   90.0   0.0
0.0   90.0   0.0
50.0   90.0   16.666666666666668
0.0   60.0   16.666666666666668
0.0   90.0   16.666666666666668
50.0   90.0   16.666666666666668
0.0   90.0   0.0
0.0   60.0   16.666666666666668
50.0   90.0   16.666666666666668
50.0   60.0   16.666666666666668
50.0   60.0   0.0
0.0   60.0   16.666666666666668
50.0   90.0   16.666666666666668
50.0   60.0   0.0
0.0   90.0   0.0
0.0   60.0   16.666666666666668
50.0   60.0   16.666666666666668
0.0   90.0   16.666666666666668
0.0   60.0   33.333333333333336
50.0   60.0   16.666666666666668
50.0   90.0   16.666666666666668
0.0   90.0   16.666666666666668
50.0   90.0   33.333333333333336
0.0   60.0   33.333333333333336
0.0   90.0   33.333333333333336
50.0   90.0   33.333333333333336
0.0   90.0   16.666666666666668
0.0   60.0   33.333333333333336
50.0   90.0   33.333333333333336
50.0   60.0   33.333333333333336
50.0   60.0   16.666666666666668
0.0   60.0   33.333333333333336
50.0   90.0   33.333333333333336
50.0   60.0   16.666666666666668
0.0   90.0   16.666666666666668
0.0   60.0   33.333333333333336
50.0   60.0   33.333333333333336
0.0   90.0   33.333333333333336
0.0   60.0   50.0
50.0   60.0   33.333333333333336
50.0   90.0   33.333333333333336
0.0   90.0   33.333333333333336
50.0   90.0   50.0
0.0   60.0   50.0
0.0   90.0   50.0
50.0   90.0   50.0
0.0   90.0   33.333333333333336
0.0   60.0   50.0
50.0   90.0   50.0
50.0   60.0   50.0
50.0   60.0   33.333333333333336
0.0   60.0   50.0
50.0   90.0   50.0
50.0   60.0   33.333333333333336
0.0   90.0   33.333333333333336
0.0   90.0   0.0
50.0   90.0   0.0
0.0   120.0   0.0
0.0   90.0   16.666666666666668
50.0   90.0   0.0
50.0   120.0   0.0
0.0   120.0   0.0
50.0   120.0   16.666666666666668
0.0   90.0   16.666666666666668
0.0   120.0   16.666666666666668
50.0   120.0   16.666666666666668
0.0   120.0   0.0
0.0   90.0   16.666666666666668
50.0   120.0   16.666666666666668
50.0   90.0   16.666666666666668
50.0   90.0   0.0
0.0   90.0   16.666666666666668
50.0   120.0   16.666666666666668
50.0   90.0   0.0
0.0   120.0   0.0
0.0   90.0   16.666666666666668
50.0   90.0   16.666666666666668
0.0   120.0   16.666666666666668
0.0   90.0   33.333333333333336
50.0   90.0   16.666666666666668
50.0   120.0   16.666666666666668
0.0   120.0   16.666666666666668
50.0   120.0   33.333333333333336
0.0   90.0   33.333333333333336
0.0   120.0   33.333333333333336
50.0   120.0   33.333333333333336
0.0   120.0   16.666666666666668
0.0   90.0   33.333333333333336
50.0   120.0   33.333333333333336
50.0   90.0   33.333333333333336
50.0   90.0   16.666666666666668
0.0   90.0   33.333333333333336
50.0   120.0   33.333333333333336
50.0   90.0   16.666666666666668
0.0   120.0   16.666666666666668
0.0   90.0   33.333333333333336
50.0   90.0   33.333333333333336
0.0   120.0   33.333333333333336
0.0   90.0   50.0
50.0   90.0   33.333333333333336
50.0   120.0   33.333333333333336
0.0   120.0   33.333333333333336
50.0   120.0   50.0
0.0   90.0   50.0
0.0   120.0   50.0
50.0   120.0   50.0
0.0   120.0   33.333333333333336
0.0   90.0   50.0
50.0   120.0   50.0
50.0   90.0   50.0
50.0   90.0   33.333333333333336
0.0   90.0   50.0
50.0   120.0   50.0
50.0   90.0   33.333333333333336
0.0   120.0   33.333333333333336
0.0   120.0   0.0
50.0   120.0   0.0
0.0   150.0   0.0
0.0   120.0   16.666666666666668
50.0   120.0   0.0
50.0   150.0   0.0
0.0   150.0   0.0
50.0   150.0   16.666666666666668
0.0   120.0   16.666666666666668
0.0   150.0   16.666666666666668
50.0   150.0   16.666666666666668
0.0   150.0   0.0
0.0   120.0   16.666666666666668
50.0   150.0   16.666666666666668
50.0   120.0   16.666666666666668
50.0   120.0   0.0
0.0   120.0   16.666666666666668
50.0   150.0   16.666666666666668
50.0   120.0   0.0
0.0   150.0   0.0
0.0   120.0   16.666666666666668
50.0   120.0   16.666666666666668
0.0   150.0   16.666666666666668
0.0   120.0   33.333333333333336
50.0   120.0   16.666666666666668
50.0   150.0   16.666666666666668
0.0   150.0   16.666666666666668
50.0   150.0   33.333333333333336
0.0   120.0   33.333333333333336
0.0   150.0   33.333333333333336
50.0   150.0   33.333333333333336
0.0   150.0   16.666666666666668
0.0   120.0   33.333333333333336
50.0   150.0   33.333333333333336
50.0   120.0   33.333333333333336
50.0   120.0   16.666666666666668
0.0   120.0   33.333333333333336
50.0   150.0   33.333333333333336
50.0   120.0   16.666666666666668
0.0   150.0   16.666666666666668
0.0   120.0   33.333333333333336
50.0   120.0   33.333333333333336
0.0   150.0   33.333333333333336
0.0   120.0   50.0
50.0   120.0   33.333333333333336
50.0   150.0   33.333333333333336
0.0   150.0   33.333333333333336
50.0   150.0   50.0
0.0   120.0   50.0
0.0   150.0   50.0
50.0   150.0   50.0
0.0   150.0   33.333333333333336
0.0   120.0   50.0
50.0   150.0   50.0
50.0   120.0   50.0
50.0   120.0   33.333333333333336
0.0   120.0   50.0
50.0   150.0   50.0
50.0   120.0   33.333333333333336
0.0   150.0   33.333333333333336
50.0   0.0   0.0
100.0   0.0   0.0
50.0   30.0   0.0
50.0   0.0   16.666666666666668
100.0   0.0   0.0
100.0   30.0   0.0
50.0   30.0   0.0
100.0   30.0   16.666666666666668
50.0   0.0   16.666666666666668
50.0   30.0   16.666666666666668
100.0   30.0   16.666666666666668
50.0   30.0   0.0
50.0   0.0   16.666666666666668
100.0   30.0   16.666666666666668
100.0   0.0   16.666666666666668
100.0   0.0   0.0
50.0   0.0   16.666666666666668
100.0   30.0   16.666666666666668
100.0   0.0   0.0
50.0   30.0   0.0
50.0   0.0   16.666666666666668
100.0   0.0   16.666666666666668
50.0   30.0   16.666666666666668
50.0   0.0   33.333333333333336
100.0   0.0   16.666666666666668
100.0   30.0   16.666666666666668
50.0   30.0   16.666666666666668
100.0   30.0   33.333333333333336
50.0   0.0   33.333333333333336
50.0   30.0   33.333333333333336
100.0   30.0   33.333333333333336
50.0   30.0   16.666666666666668
50.0   0.0   33.333333333333336
100.0   30.0   33.333333333333336
100.0   0.0   33.333333333333336
100.0   0.0   16.666666666666668
50.0   0.0   33.333333333333336
100.0   30.0   33.333333333333336
100.0   0.0   16.666666666666668
50.0   30.0   16.666666666666668
50.0   0.0   33.333333333333336
100.0   0.0   33.333333333333336
50.0   30.0   33.333333333333336
50.0   0.0   50.0
100.0   0.0   33.333333333333336
100.0   30.0   33.333333333333336
50.0   30.0   33.333333333333336
100.0   30.0   50.0
50.0   0.0   50.0
50.0   30.0   50.0
100.0   30.0   50.0
50.0   30.0   33.333333333333336
50.0   0.0   50.0
100.0   30.0   50.0
100.0   0.0   50.0
100.0   0.0   33.333333333333336
50.0   0.0   50.0
100.0   30.0   50.0
100.0   0.0   33.333333333333336
50.0   30.0   33.333333333333336
50.0   30.0   0.0
100.0   30.0   0.0
50.0   60.0   0.0
50.0   30.0   16.666666666666668
100.0   30.0   0.0
100.0   60.0   0.0
50.0   60.0   0.0
100.0   60.0   16.666666666666668
50.0   30.0   16.666666666666668
50.0   60.0   16.666666666666668
100.0   60.0   16.666666666666668
50.0   60.0   0.0
50.0   30.0   16.666666666666668
100.0   60.0   16.666666666666668
100.0   30.0   16.666666666666668
100.0   30.0   0.0
50.0   30.0   16.666666666666668
100.0   60.0   16.666666666666668
100.0   30.0   0.0
50.0   60.0   0.0
50.0   30.0   16.666666666666668
100.0   30.0   16.666666666666668
50.0   60.0   16.666666666666668
50.0   30.0   33.333333333333336
100.0   30.0   16.666666666666668
100.0   60.0   16.666666666666668
50.0   60.0   16.666666666666668
100.0   60.0   33.333333333333336
50.0   30.0   33.333333333333336
50.0   60.0   33.333333333333336
100.0   60.0   33.333333333333336
50.0   60.0   16.666666666666668
50.0   30.0   33.333333333333336
100.0   60.0   33.333333333333336
100.0   30.0   33.333333333333336
100.0   30.0   16.666666666666668
50.0   30.0   33.333333333333336
100.0   60.0   33.333333333333336
100.0   30.0   16.666666666666668
50.0   60.0   16.666666666666668
50.0   30.0   33.333333333333336
100.0   30.0   33.333333333333336
50.0   60.0   33.333333333333336
50.0   30.0   50.0
100.0   30.0   33.333333333333336
100.0   60.0   33.333333333333336
50.0   60.0   33.333333333333336
100.0   60.0   50.0
50.0   30.0   50.0
50.0   60.0   50.0
100.0   60.0   50.0
50.0   60.0   33.333333333333336
50.0   30.0   50.0
100.0   60.0   50.0
100.0   30.0   50.0
100.0   30.0   33.333333333333336
50.0   30.0   50.0
100.0   60.0   50.0
100.0   30.0   33.333333333333336
50.0   60.0   33.333333333333336
50.0   60.0   0.0
100.0   60.0   0.0
50.0   90.0   0.0
50.0   60.0   16.666666666666668
100.0   60.0   0.0
100.0   90.0   0.0
50.0   90.0   0.0
100.0   90.0   16.666666666666668
50.0   60.0   16.666666666666668
50.0   90.0   16.666666666666668
100.0   90.0   16.666666666666668
50.0   90.0   0.0
50.0   60.0   16.666666666666668
100.0   90.0   16.666666666666668
100.0   60.0   16.666666666666668
100.0   60.0   0.0
50.0   60.0   16.666666666666668
100.0   90.0   16.666666666666668
100.0   60.0   0.0
50.0   90.0   0.0
50.0   60.0   16.666666666666668
100.0   60.0   16.666666666666668
50.0   90.0   16.666666666666668
50.0   60.0   33.333333333333336
100.0   60.0   16.666666666666668
100.0   90.0   16.666666666666668
50.0   90.0   16.666666666666668
100.0   90.0   33.333333333333336
50.0   60.0   33.333333333333336
50.0   90.0   33.333333333333336
100.0   90.0   33.333333333333336
50.0   90.0   16.666666666666668
50.0   60.0   33.333333333333336
100.0   90.0   33.333333333333336
100.0   60.0   33.333333333333336
100.0   60.0   16.666666666666668
50.0   60.0   33.333333333333336
100.0   90.0   33.333333333333336
100.0   60.0   16.666666666666668
50.0   90.0   16.666666666666668
50.0   60.0   33.333333333333336
100.0   60.0   33.333333333333336
50.0   90.0   33.333333333333336
50.0   60.0   50.0
100.0   60.0   33.333333333333336
100.0   90.0   33.333333333333336
50.0   90.0   33.333333333333336
100.0   90.0   50.0
50.0   60.0   50.0
50.0   90.0   50.0
100.0   90.0   50.0
50.0   90.0   33.333333333333336
50.0   60.0   50.0
100.0   90.0   50.0
100.0   60.0   50.0
100.0   60.0   33.333333333333336
50.0   60.0   50.0
100.0   90.0   50.0
100.0   60.0   33.333333333333336
50.0   90.0   33.333333333333336
50.0   90.0   0.0
100.0   90.0   0.0
50.0   120.0   0.0
50.0   90.0   16.666666666666668
100.0   90.0   0.0
100.0   120.0   0.0
50.0   120.0   0.0
100.0   120.0   16.666666666666668
50.0   90.0   16.666666666666668
50.0   120.0   16.666666666666668
100.0   120.0   16.666666666666668
50.0   120.0   0.0
50.0   90.0   16.666666666666668
100.0   120.0   16.666666666666668
100.0   90.0   16.666666666666668
100.0   90.0   0.0
50.0   90.0   16.666666666666668
100.0   120.0   16.666666666666668
100.0   90.0   0.0
50.0   120.0   0.0
50.0   90.0   16.666666666666668
100.0   90.0   16.666666666666668
50.0   120.0   16.666666666666668
50.0   90.0   33.333333333333336
100.0   90.0   16.666666666666668
100.0   120.0   16.666666666666668
50.0   120.0   16.666666666666668
100.0   120.0   33.333333333333336
50.0   90.0   33.333333333333336
50.0   120.0   33.333333333333336
100.0   120.0   33.333333333333336
50.0   120.0   16.666666666666668
50.0   90.0   33.333333333333336
100.0   120.0   33.333333333333336
100.0   90.0   33.333333333333336
100.0   90.0   16.666666666666668
50.0   90.0   33.333333333333336
100.0   120.0   33.333333333333336
100.0   90.0   16.666666666666668
50.0   120.0   16.666666666666668
50.0   90.0   33.333333333333336
100.0   90.0   33.333333333333336
50.0   120.0   33.333333333333336
50.0   90.0   50.0
100.0   90.0   33.333333333333336
100.0   120.0   33.333333333333336
50.0   120.0   33.333333333333336
100.0   120.0   50.0
50.0   90.0   50.0
50.0   120.0   50.0
100.0   120.0   50.0
50.0   120.0   33.333333333333336
50.0   90.0   50.0
100.0   120.0   50.0
100.0   90.0   50.0
100.0   90.0   33.333333333333336
50.0   90.0   50.0
100.0   120.0   50.0
100.0   90.0   33.333333333333336
50.0   120.0   33.333333333333336
50.0   120.0   0.0
100.0   120.0   0.0
50.0   150.0   0.0
50.0   120.0   16.666666666666668
100.0   120.0   0.0
100.0   150.0   0.0
50.0   150.0   0.0
100.0   150.0   16.666666666666668
50.0   120.0   16.666666666666668
50.0   150.0   16.666666666666668
100.0   150.0   16.666666666666668
50.0   150.0   0.0
50.0   120.0   16.666666666666668
100.0   150.0   16.666666666666668
100.0   120.0   16.666666666666668
100.0   120.0   0.0
50.0   120.0   16.666666666666668
100.0   150.0   16.666666666666668
100.0   120.0   0.0
50.0   150.0   0.0
50.0   120.0   16.666666666666668
100.0   120.0   16.666666666666668
50.0   150.0   16.666666666666668
50.0   120.0   33.333333333333336
100.0   120.0   16.666666666666668
100.0   150.0   16.666666666666668
50.0   150.0   16.666666666666668
100.0   150.0   33.333333333333336
50.0   120.0   33.333333333333336
50.0   150.0   33.333333333333336
100.0   150.0   33.333333333333336
50.0   150.0   16.666666666666668
50.0   120.0   33.333333333333336
100.0   150.0   33.333333333333336
100.0   120.0   33.333333333333336
100.0   120.0   16.666666666666668
50.0   120.0   33.333333333333336
100.0   150.0   33.333333333333336
100.0   120.0   16.666666666666668
50.0   150.0   16.666666666666668
50.0   120.0   33.333333333333336
100.0   120.0   33.333333333333336
50.0   150.0   33.333333333333336
50.0   120.0   50.0
100.0   120.0   33.333333333333336
100.0   150.0   33.333333333333336
50.0   150.0   33.333333333333336
100.0   150.0   50.0
50.0   120.0   50.0
50.0   150.0   50.0
100.0   150.0   50.0
50.0   150.0   33.333333333333336
50.0   120.0   50.0
100.0   150.0   50.0
100.0   120.0   50.0
100.0   120.0   33.333333333333336
50.0   120.0   50.0
100.0   150.0   50.0
100.0   120.0   33.333333333333336
50.0   150.0   33.333333333333336
100.0   0.0   0.0
150.0   0.0   0.0
100.0   30.0   0.0
100.0   0.0   16.666666666666668
150.0   0.0   0.0
150.0   30.0   0.0
100.0   30.0   0.0
150.0   30.0   16.666666666666668
100.0   0.0   16.666666666666668
100.0   30.0   16.666666666666668
150.0   30.0   16.666666666666668
100.0   30.0   0.0
100.0   0.0   16.666666666666668
150.0   30.0   16.666666666666668
150.0   0.0   16.666666666666668
150.0   0.0   0.0
100.0   0.0   16.666666666666668
150.0   30.0   16.666666666666668
150.0   0.0   0.0
100.0   30.0   0.0
100.0   0.0   16.666666666666668
150.0   0.0   16.666666666666668
100.0   30.0   16.666666666666668
100.0   0.0   33.333333333333336
150.0   0.0   16.666666666666668
150.0   30.0   16.666666666666668
100.0   30.0   16.666666666666668
150.0   30.0   33.333333333333336
100.0   0.0   33.333333333333336
100.0   30.0   33.333333333333336
150.0   30.0   33.333333333333336
100.0   30.0   16.666666666666668
100.0   0.0   33.333333333333336
150.0   30.0   33.333333333333336
150.0   0.0   33.333333333333336
150.0   0.0   16.666666666666668
100.0   0.0   33.333333333333336
150.0   30.0   33.333333333333336
150.0   0.0   16.666666666666668
100.0   30.0   16.666666666666668
100.0   0.0   33.333333333333336
150.0   0.0   33.333333333333336
100.0   30.0   33.333333333333336
100.0   0.0   50.0
150.0   0.0   33.333333333333336
150.0   30.0   33.333333333333336
100.0   30.0   33.333333333333336
150.0   30.0   50.0
100.0   0.0   50.0
100.0   30.0   50.0
150.0   30.0   50.0
100.0   30.0   33.333333333333336
100.0   0.0   50.0
150.0   30.0   50.0
150.0   0.0   50.0
150.0   0.0   33.333333333333336
100.0   0.0   50.0
150.0   30.0   50.0
150.0   0.0   33.333333333333336
100.0   30.0   33.333333333333336
100.0   30.0   0.0
150.0   30.0   0.0
100.0   60.0   0.0
100.0   30.0   16.666666666666668
150.0   30.0   0.0
150.0   60.0   0.0
100.0   60.0   0.0
150.0   60.0   16.666666666666668
100.0   30.0   16.666666666666668
100.0   60.0   16.666666666666668
150.0   60.0   16.666666666666668
100.0   60.0   0.0
100.0   30.0   16.666666666666668
150.0   60.0   16.666666666666668
150.0   30.0   16.666666666666668
150.0   30.0   0.0
100.0   30.0   16.666666666666668
150.0   60.0   16.666666666666668
150.0   30.0   0.0
100.0   60.0   0.0
100.0   30.0   16.666666666666668
150.0   30.0   16.666666666666668
100.0   60.0   16.666666666666668
100.0   30.0   33.333333333333336
150.0   30.0   16.666666666666668
150.0   60.0   16.666666666666668
100.0   60.0   16.666666666666668
150.0   60.0   33.333333333333336
100.0   30.0   33.333333333333336
100.0   60.0   33.333333333333336
150.0   60.0   33.333333333333336
100.0   60.0   16.666666666666668
100.0   30.0   33.333333333333336
150.0   60.0   33.333333333333336
150.0   30.0   33.333333333333336
150.0   30.0   16.666666666666668
100.0   30.0   33.333333333333336
150.0   60.0   33.333333333333336
150.0   30.0   16.666666666666668
100.0   60.0   16.666666666666668
100.0   30.0   33.333333333333336
150.0   30.0   33.333333333333336
100.0   60.0   33.333333333333336
100.0   30.0   50.0
150.0   30.0   33.333333333333336
150.0   60.0   33.333333333333336
100.0   60.0   33.333333333333336
150.0   60.0   50.0
100.0   30.0   50.0
100.0   60.0   50.0
150.0   60.0   50.0
100.0   60.0   33.333333333333336
100.0   30.0   50.0
150.0   60.0   50.0
150.0   30.0   50.0
150.0   30.0   33.333333333333336
100.0   30.0   50.0
150.0   60.0   50.0
150.0   30.0   33.333333333333336
100.0   60.0   33.333333333333336
100.0   60.0   0.0
150.0   60.0   0.0
100.0   90.0   0.0
100.0   60.0   16.666666666666668
150.0   60.0   0.0
150.0   90.0   0.0
100.0   90.0   0.0
150.0   90.0   16.666666666666668
100.0   60.0   16.666666666666668
100.0   90.0   16.666666666666668
150.0   90.0   16.666666666666668
100.0   90.0   0.0
100.0   60.0   16.666666666666668
150.0   90.0   16.666666666666668
150.0   60.0   16.666666666666668
150.0   60.0   0.0
100.0   60.0   16.666666666666668
150.0   90.0   16.666666666666668
150.0   60.0   0.0
100.0   90.0   0.0
100.0   60.0   16.666666666666668
150.0   60.0   16.666666666666668
100.0   90.0   16.666666666666668
100.0   60.0   33.333333333333336
150.0   60.0   16.666666666666668
150.0   90.0   16.666666666666668
100.0   90.0   16.666666666666668
150.0   90.0   33.333333333333336
100.0   60.0   33.333333333333336
100.0   90.0   33.333333333333336
150.0   90.0   33.333333333333336
100.0   90.0   16.666666666666668
100.0   60.0   33.333333333333336
150.0   90.0   33.333333333333336
150.0   60.0   33.333333333333336
150.0   60.0   16.666666666666668
100.0   60.0   33.333333333333336
150.0   90.0   33.333333333333336
150.0   60.0   16.666666666666668
100.0   90.0   16.666666666666668
100.0   60.0   33.333333333333336
150.0   60.0   33.333333333333336
100.0   90.0   33.333333333333336
100.0   60.0   50.0
150.0   60.0   33.333333333333336
150.0   90.0   33.333333333333336
100.0   90.0   33.333333333333336
150.0   90.0   50.0
100.0   60.0   50.0
100.0   90.0   50.0
150.0   90.0   50.0
100.0   90.0   33.333333333333336
100.0   60.0   50.0
150.0   90.0   50.0
150.0   60.0   50.0
150.0   60.0   33.333333333333336
100.0   60.0   50.0
150.0   90.0   50.0
150.0   60.0   33.333333333333336
100.0   90.0   33.333333333333336
100.0   90.0   0.0
150.0   90.0   0.0
100.0   120.0   0.0
100.0   90.0   16.666666666666668
150.0   90.0   0.0
150.0   120.0   0.0
100.0   120.0   0.0
150.0   120.0   16.666666666666668
100.0   90.0   16.666666666666668
100.0   120.0   16.666666666666668
150.0   120.0   16.666666666666668
100.0   120.0   0.0
100.0   90.0   16.666666666666668
150.0   120.0   16.666666666666668
150.0   90.0   16.666666666666668
150.0   90.0   0.0
100.0   90.0   16.666666666666668
150.0   120.0   16.666666666666668
150.0   90.0   0.0
100.0   120.0   0.0
100.0   90.0   16.666666666666668
150.0   90.0   16.666666666666668
100.0   120.0   16.666666666666668
100.0   90.0   33.333333333333336
150.0   90.0   16.666666666666668
150.0   120.0   16.666666666666668
100.0   120.0   16.666666666666668
150.0   120.0   33.333333333333336
100.0   90.0   33.333333333333336
100.0   120.0   33.333333333333336
150.0   120.0   33.333333333333336
100.0   120.0   16.666666666666668
100.0   90.0   33.333333333333336
150.0   120.0   33.333333333333336
150.0   90.0   33.333333333333336
150.0   90.0   16.666666666666668
100.0   90.0   33.333333333333336
150.0   120.0   33.333333333333336
150.0   90.0   16.666666666666668
100.0   120.0   16.666666666666668
100.0   90.0   33.333333333333336
150.0   90.0   33.333333333333336
100.0   120.0   33.333333333333336
100.0   90.0   50.0
150.0   90.0   33.333333333333336
150.0   120.0   33.333333333333336
100.0   120.0   33.333333333333336
150.0   120.0   50.0
100.0   90.0   50.0
100.0   120.0   50.0
150.0   120.0   50.0
100.0   120.0   33.333333333333336
100.0   90.0   50.0
150.0   120.0   50.0
150.0   90.0   50.0
150.0   90.0   33.333333333333336
100.0   90.0   50.0
150.0   120.0   50.0
150.0   90.0   33.333333333333336
100.0   120.0   33.333333333333336
100.0   120.0   0.0
150.0   120.0   0.0
100.0   150.0   0.0
100.0   120.0   16.666666666666668
150.0   120.0   0.0
150.0   150.0   0.0
100.0   150.0   0.0
150.0   150.0   16.666666666666668
100.0   120.0   16.666666666666668
100.0   150.0   16.666666666666668
150.0   150.0   16.666666666666668
100.0   150.0   0.0
100.0   120.0   16.666666666666668
150.0   150.0   16.666666666666668
150.0   120.0   16.666666666666668
150.0   120.0   0.0
100.0   120.0   16.666666666666668
150.0   150.0   16.666666666666668
150.0   120.0   0.0
100.0   150.0   0.0
100.0   120.0   16.666666666666668
150.0   120.0   16.666666666666668
100.0   150.0   16.666666666666668
100.0   120.0   33.333333333333336
150.0   120.0   16.666666666666668
150.0   150.0   16.666666666666668
100.0   150.0   16.666666666666668
150.0   150.0   33.333333333333336
100.0   120.0   33.333333333333336
100.0   150.0   33.333333333333336
150.0   150.0   33.333333333333336
100.0   150.0   16.666666666666668
100.0   120.0   33.333333333333336
150.0   150.0   33.333333333333336
150.0   120.0   33.333333333333336
150.0   120.0   16.666666666666668
100.0   120.0   33.333333333333336
150.0   150.0   33.333333333333336
150.0   120.0   16.666666666666668
100.0   150.0   16.666666666666668
100.0   120.0   33.333333333333336
150.0   120.0   33.333333333333336
100.0   150.0   33.333333333333336
100.0   120.0   50.0
150.0   120.0   33.333333333333336
150.0   150.0   33.333333333333336
100.0   150.0   33.333333333333336
150.0   150.0   50.0
100.0   120.0   50.0
100.0   150.0   50.0
150.0   150.0   50.0
100.0   150.0   33.333333333333336
100.0   120.0   50.0
150.0   150.0   50.0
150.0   120.0   50.0
150.0   120.0   33.333333333333336
100.0   120.0   50.0
150.0   150.0   50.0
150.0   120.0   33.333333333333336
100.0   150.0   33.333333333333336
150.0   0.0   0.0
200.0   0.0   0.0
150.0   30.0   0.0
150.0   0.0   16.666666666666668
200.0   0.0   0.0
200.0   30.0   0.0
150.0   30.0   0.0
200.0   30.0   16.666666666666668
150.0   0.0   16.666666666666668
150.0   30.0   16.666666666666668
200.0   30.0   16.666666666666668
150.0   30.0   0.0
150.0   0.0   16.666666666666668
200.0   30.0   16.666666666666668
200.0   0.0   16.666666666666668
200.0   0.0   0.0
150.0   0.0   16.666666666666668
200.0   30.0   16.666666666666668
200.0   0.0   0.0
150.0   30.0   0.0
150.0   0.0   16.666666666666668
200.0   0.0   16.666666666666668
150.0   30.0   16.666666666666668
150.0   0.0   33.333333333333336
200.0   0.0   16.666666666666668
200.0   30.0   16.666666666666668
150.0   30.0   16.666666666666668
200.0   30.0   33.333333333333336
150.0   0.0   33.333333333333336
150.0   30.0   33.333333333333336
200.0   30.0   33.333333333333336
150.0   30.0   16.666666666666668
150.0   0.0   33.333333333333336
200.0   30.0   33.333333333333336
200.0   0.0   33.333333333333336
200.0   0.0   16.666666666666668
150.0   0.0   33.333333333333336
200.0   30.0   33.333333333333336
200.0   0.0   16.666666666666668
150.0   30.0   16.666666666666668
150.0   0.0   33.333333333333336
200.0   0.0   33.333333333333336
150.0   30.0   33.333333333333336
150.0   0.0   50.0
200.0   0.0   33.333333333333336
200.0   30.0   33.333333333333336
150.0   30.0   33.333333333333336
200.0   30.0   50.0
150.0   0.0   50.0
150.0   30.0   50.0
200.0   30.0   50.0
150.0   30.0   33.333333333333336
150.0   0.0   50.0
200.0   30.0   50.0
200.0   0.0   50.0
200.0   0.0   33.333333333333336
150.0   0.0   50.0
200.0   30.0   50.0
200.0   0.0   33.333333333333336
150.0   30.0   33.333333333333336
150.0   30.0   0.0
200.0   30.0   0.0
150.0   60.0   0.0
150.0   30.0   16.666666666666668
200.0   30.0   0.0
200.0   60.0   0.0
150.0   60.0   0.0
200.0   60.0   16.666666666666668
150.0   30.0   16.666666666666668
150.0   60.0   16.666666666666668
200.0   60.0   16.666666666666668
150.0   60.0   0.0
150.0   30.0   16.666666666666668
200.0   60.0   16.666666666666668
200.0   30.0   16.666666666666668
200.0   30.0   0.0
150.0   30.0   16.666666666666668
200.0   60.0   16.666666666666668
200.0   30.0   0.0
150.0   60.0   0.0
150.0   30.0   16.666666666666668
200.0   30.0   16.666666666666668
150.0   60.0   16.666666666666668
150.0   30.0   33.333333333333336
200.0   30.0   16.666666666666668
200.0   60.0   16.666666666666668
150.0   60.0   16.666666666666668
200.0   60.0   33.333333333333336
150.0   30.0   33.333333333333336
150.0   60.0   33.333333333333336
200.0   60.0   33.333333333333336
150.0   60.0   16.666666666666668
150.0   30.0   33.333333333333336
200.0   60.0   33.333333333333336
200.0   30.0   33.333333333333336
200.0   30.0   16.666666666666668
150.0   30.0   33.333333333333336
200.0   60.0   33.333333333333336
200.0   30.0   16.666666666666668
150.0   60.0   16.666666666666668
150.0   30.0   33.333333333333336
200.0   30.0   33.333333333333336
150.0   60.0   33.333333333333336
150.0   30.0   50.0
200.0   30.0   33.333333333333336
200.0   60.0   33.333333333333336
150.0   60.0   33.333333333333336
200.0   60.0   50.0
150.0   30.0   50.0
150.0   60.0   50.0
200.0   60.0   50.0
150.0   60.0   33.333333333333336
150.0   30.0   50.0
200.0   60.0   50.0
200.0   30.0   50.0
200.0   30.0   33.333333333333336
150.0   30.0   50.0
200.0   60.0   50.0
200.0   30.0   33.333333333333336
150.0   60.0   33.333333333333336
150.0   60.0   0.0
200.0   60.0   0.0
150.0   90.0   0.0
150.0   60.0   16.666666666666668
200.0   60.0   0.0
200.0   90.0   0.0
150.0   90.0   0.0
200.0   90.0   16.666666666666668
150.0   60.0   16.666666666666668
150.0   90.0   16.666666666666668
200.0   90.0   16.666666666666668
150.0   90.0   0.0
150.0   60.0   16.666666666666668
200.0   90.0   16.666666666666668
200.0   60.0   16.666666666666668
200.0   60.0   0.0
150.0   60.0   16.666666666666668
200.0   90.0   16.666666666666668
200.0   60.0   0.0
150.0   90.0   0.0
150.0   60.0   16.666666666666668
200.0   60.0   16.666666666666668
150.0   90.0   16.666666666666668
150.0   60.0   33.333333333333336
200.0   60.0   16.666666666666668
200.0   90.0   16.666666666666668
150.0   90.0   16.666666666666668
200.0   90.0   33.333333333333336
150.0   60.0   33.333333333333336
150.0   90.0   33.333333333333336
200.0   90.0   33.333333333333336
150.0   90.0   16.666666666666668
150.0   60.0   33.333333333333336
200.0   90.0   33.333333333333336
200.0   60.0   33.333333333333336
200.0   60.0   16.666666666666668
150.0   60.0   33.333333333333336
200.0   90.0   33.333333333333336
200.0   60.0   16.666666666666668
150.0   90.0   16.666666666666668
150.0   60.0   33.333333333333336
200.0   60.0   33.333333333333336
150.0   90.0   33.333333333333336
150.0   60.0   50.0
200.0   60.0   33.333333333333336
200.0   90.0   33.333333333333336
150.0   90.0   33.333333333333336
200.0   90.0   50.0
150.0   60.0   50.0
150.0   90.0   50.0
200.0   90.0   50.0
150.0   90.0   33.333333333333336
150.0   60.0   50.0
200.0   90.0   50.0
200.0   60.0   50.0
200.0   60.0   33.333333333333336
150.0   60.0   50.0
200.0   90.0   50.0
200.0   60.0   33.333333333333336
150.0   90.0   33.333333333333336
150.0   90.0   0.0
200.0   90.0   0.0
150.0   120.0   0.0
150.0   90.0   16.666666666666668
200.0   90.0   0.0
200.0   120.0   0.0
150.0   120.0   0.0
200.0   120.0   16.666666666666668
150.0   90.0   16.666666666666668
150.0   120.0   16.666666666666668
200.0   120.0   16.666666666666668
150.0   120.0   0.0
150.0   90.0   16.666666666666668
200.0   120.0   16.666666666666668
200.0   90.0   16.666666666666668
200.0   90.0   0.0
150.0   90.0   16.666666666666668
200.0   120.0   16.666666666666668
200.0   90.0   0.0
150.0   120.0   0.0
150.0   90.0   16.666666666666668
200.0   90.0   16.666666666666668
150.0   120.0   16.666666666666668
150.0   90.0   33.333333333333336
200.0   90.0   16.666666666666668
200.0   120.0   16.666666666666668
150.0   120.0   16.666666666666668
200.0   120.0   33.333333333333336
150.0   90.0   33.333333333333336
150.0   120.0   33.333333333333336
200.0   120.0   33.333333333333336
150.0   120.0   16.666666666666668
150.0   90.0   33.333333333333336
200.0   120.0   33.333333333333336
200.0   90.0   33.333333333333336
200.0   90.0   16.666666666666668
150.0   90.0   33.333333333333336
200.0   120.0   33.333333333333336
200.0   90.0   16.666666666666668
150.0   120.0   16.666666666666668
150.0   90.0   33.333333333333336
200.0   90.0   33.333333333333336
150.0   120.0   33.333333333333336
150.0   90.0   50.0
200.0   90.0   33.333333333333336
200.0   120.0   33.333333333333336
150.0   120.0   33.333333333333336
200.0   120.0   50.0
150.0   90.0   50.0
150.0   120.0   50.0
200.0   120.0   50.0
150.0   120.0   33.333333333333336
150.0   90.0   50.0
200.0   120.0   50.0
200.0   90.0   50.0
200.0   90.0   33.333333333333336
150.0   90.0   50.0
200.0   120.0   50.0
200.0   90.0   33.333333333333336
150.0   120.0   33.333333333333336
150.0   120.0   0.0
200.0   120.0   0.0
150.0   150.0   0.0
150.0   120.0   16.666666666666668
200.0   120.0   0.0
200.0   150.0   0.0
150.0   150.0   0.0
200.0   150.0   16.666666666666668
150.0   120.0   16.666666666666668
150.0   150.0   16.666666666666668
200.0   150.0   16.666666666666668
150.0   150.0   0.0
150.0   120.0   16.666666666666668
200.0   150.0   16.666666666666668
200.0   120.0   16.666666666666668
200.0   120.0   0.0
150.0   120.0   16.666666666666668
200.0   150.0   16.666666666666668
200.0   120.0   0.0
150.0   150.0   0.0
150.0   120.0   16.666666666666668
200.0   120.0   16.666666666666668
150.0   150.0   16.666666666666668
150.0   120.0   33.333333333333336
200.0   120.0   16.666666666666668
200.0   150.0   16.666666666666668
150.0   150.0   16.666666666666668
200.0   150.0   33.333333333333336
150.0   120.0   33.333333333333336
150.0   150.0   33.333333333333336
200.0   150.0   33.333333333333336
150.0   150.0   16.666666666666668
150.0   120.0   33.333333333333336
200.0   150.0   33.333333333333336
200.0   120.0   33.333333333333336
200.0   120.0   16.666666666666668
150.0   120.0   33.333333333333336
200.0   150.0   33.333333333333336
200.0   120.0   16.666666666666668
150.0   150.0   16.666666666666668
150.0   120.0   33.333333333333336
200.0   120.0   33.333333333333336
150.0   150.0   33.333333333333336
150.0   120.0   50.0
200.0   120.0   33.333333333333336
200.0   150.0   33.333333333333336
150.0   150.0   33.333333333333336
200.0   150.0   50.0
150.0   120.0   50.0
150.0   150.0   50.0
200.0   150.0   50.0
150.0   150.0   33.333333333333336
150.0   120.0   50.0
200.0   150.0   50.0
200.0   120.0   50.0
200.0   120.0   33.333333333333336
150.0   120.0   50.0
200.0   150.0   50.0
200.0   120.0   33.333333333333336
150.0   150.0   33.333333333333336
200.0   0.0   0.0
250.0   0.0   0.0
200.0   30.0   0.0
200.0   0.0   16.666666666666668
250.0   0.0   0.0
250.0   30.0   0.0
200.0   30.0   0.0
250.0   30.0   16.666666666666668
200.0   0.0   16.666666666666668
200.0   30.0   16.666666666666668
250.0   30.0   16.666666666666668
200.0   30.0   0.0
200.0   0.0   16.666666666666668
250.0   30.0   16.666666666666668
250.0   0.0   16.666666666666668
250.0   0.0   0.0
200.0   0.0   16.666666666666668
250.0   30.0   16.666666666666668
250.0   0.0   0.0
200.0   30.0   0.0
200.0   0.0   16.666666666666668
250.0   0.0   16.666666666666668
200.0   30.0   16.666666666666668
200.0   0.0   33.333333333333336
250.0   0.0   16.666666666666668
250.0   30.0   16.666666666666668
200.0   30.0   16.666666666666668
250.0   30.0   33.333333333333336
200.0   0.0   33.333333333333336
200.0   30.0   33.333333333333336
250.0   30.0   33.333333333333336
200.0   30.0   16.666666666666668
200.0   0.0   33.333333333333336
250.0   30.0   33.333333333333336
250.0   0.0   33.333333333333336
250.0   0.0   16.666666666666668
200.0   0.0   33.333333333333336
250.0   30.0   33.333333333333336
250.0   0.0   16.666666666666668
200.0   30.0   16.666666666666668
200.0   0.0   33.333333333333336
250.0   0.0   33.333333333333336
200.0   30.0   33.333333333333336
200.0   0.0   50.0
250.0   0.0   33.333333333333336
250.0   30.0   33.333333333333336
200.0   30.0   33.333333333333336
250.0   30.0   50.0
200.0   0.0   50.0
200.0   30.0   50.0
250.0   30.0   50.0
200.0   30.0   33.333333333333336
200.0   0.0   50.0
250.0   30.0   50.0
250.0   0.0   50.0
250.0   0.0   33.333333333333336
200.0   0.0   50.0
250.0   30.0   50.0
250.0   0.0   33.333333333333336
200.0   30.0   33.333333333333336
200.0   30.0   0.0
250.0   30.0   0.0
200.0   60.0   0.0
200.0   30.0   16.666666666666668
250.0   30.0   0.0
250.0   60.0   0.0
200.0   60.0   0.0
250.0   60.0   16.666666666666668
200.0   30.0   16.666666666666668
200.0   60.0   16.666666666666668
250.0   60.0   16.666666666666668
200.0   60.0   0.0
200.0   30.0   16.666666666666668
250.0   60.0   16.666666666666668
250.0   30.0   16.666666666666668
250.0   30.0   0.0
200.0   30.0   16.666666666666668
250.0   60.0   16.666666666666668
250.0   30.0   0.0
200.0   60.0   0.0
200.0   30.0   16.666666666666668
250.0   30.0   16.666666666666668
200.0   60.0   16.666666666666668
200.0   30.0   33.333333333333336
250.0   30.0   16.666666666666668
250.0   60.0   16.666666666666668
200.0   60.0   16.666666666666668
250.0   60.0   33.333333333333336
200.0   30.0   33.333333333333336
200.0   60.0   33.333333333333336
250.0   60.0   33.333333333333336
200.0   60.0   16.666666666666668
200.0   30.0   33.333333333333336
250.0   60.0   33.333333333333336
250.0   30.0   33.333333333333336
250.0   30.0   16.666666666666668
200.0   30.0   33.333333333333336
250.0   60.0   33.333333333333336
250.0   30.0   16.666666666666668
200.0   60.0   16.666666666666668
200.0   30.0   33.333333333333336
250.0   30.0   33.333333333333336
200.0   60.0   33.333333333333336
200.0   30.0   50.0
250.0   30.0   33.333333333333336
250.0   60.0   33.333333333333336
200.0   60.0   33.333333333333336
250.0   60.0   50.0
200.0   30.0   50.0
200.0   60.0   50.0
250.0   60.0   50.0
200.0   60.0   33.333333333333336
200.0   30.0   50.0
250.0   60.0   50.0
250.0   30.0   50.0
250.0   30.0   33.333333333333336
200.0   30.0   50.0
250.0   60.0   50.0
250.0   30.0   33.333333333333336
200.0   60.0   33.333333333333336
200.0   60.0   0.0
250.0   60.0   0.0
200.0   90.0   0.0
200.0   60.0   16.666666666666668
250.0   60.0   0.0
250.0   90.0   0.0
200.0   90.0   0.0
250.0   90.0   16.666666666666668
200.0   60.0   16.666666666666668
200.0   90.0   16.666666666666668
250.0   90.0   16.666666666666668
200.0   90.0   0.0
200.0   60.0   16.666666666666668
250.0   90.0   16.666666666666668
250.0   60.0   16.666666666666668
250.0   60.0   0.0
200.0   60.0   16.666666666666668
250.0   90.0   16.666666666666668
250.0   60.0   0.0
200.0   90.0   0.0
200.0   60.0   16.666666666666668
250.0   60.0   16.666666666666668
200.0   90.0   16.666666666666668
200.0   60.0   33.333333333333336
250.0   60.0   16.666666666666668
250.0   90.0   16.666666666666668
200.0   90.0   16.666666666666668
250.0   90.0   33.333333333333336
200.0   60.0   33.333333333333336
200.0   90.0   33.333333333333336
250.0   90.0   33.333333333333336
200.0   90.0   16.666666666666668
200.0   60.0   33.333333333333336
250.0   90.0   33.333333333333336
250.0   60.0   33.333333333333336
250.0   60.0   16.666666666666668
200.0   60.0   33.333333333333336
250.0   90.0   33.333333333333336
250.0   60.0   16.666666666666668
200.0   90.0   16.666666666666668
200.0   60.0   33.333333333333336
250.0   60.0   33.333333333333336
200.0   90.0   33.333333333333336
200.0   60.0   50.0
250.0   60.0   33.333333333333336
250.0   90.0   33.333333333333336
200.0   90.0   33.333333333333336
250.0   90.0   50.0
200.0   60.0   50.0
200.0   90.0   50.0
250.0   90.0   50.0
200.0   90.0   33.333333333333336
200.0   60.0   50.0
250.0   90.0   50.0
250.0   60.0   50.0
250.0   60.0   33.333333333333336
200.0   60.0   50.0
250.0   90.0   50.0
250.0   60.0   33.333333333333336
200.0   90.0   33.333333333333336
200.0   90.0   0.0
250.0   90.0   0.0
200.0   120.0   0.0
200.0   90.0   16.666666666666668
250.0   90.0   0.0
250.0   120.0   0.0
200.0   120.0   0.0
250.0   120.0   16.666666666666668
200.0   90.0   16.666666666666668
200.0   120.0   16.666666666666668
250.0   120.0   16.666666666666668
200.0   120.0   0.0
200.0   90.0   16.666666666666668
250.0   120.0   16.666666666666668
250.0   90.0   16.666666666666668
250.0   90.0   0.0
200.0   90.0   16.666666666666668
250.0   120.0   16.666666666666668
250.0   90.0   0.0
200.0   120.0   0.0
200.0   90.0   16.666666666666668
250.0   90.0   16.666666666666668
200.0   120.0   16.666666666666668
200.0   90.0   33.333333333333336
250.0   90.0   16.666666666666668
250.0   120.0   16.666666666666668
200.0   120.0   16.666666666666668
250.0   120.0   33.333333333333336
200.0   90.0   33.333333333333336
200.0   120.0   33.333333333333336
250.0   120.0   33.333333333333336
200.0   120.0   16.666666666666668
200.0   90.0   33.333333333333336
250.0   120.0   33.333333333333336
250.0   90.0   33.333333333333336
250.0   90.0   16.666666666666668
200.0   90.0   33.333333333333336
250.0   120.0   33.333333333333336
250.0   90.0   16.666666666666668
200.0   120.0   16.666666666666668
200.0   90.0   33.333333333333336
250.0   90.0   33.333333333333336
200.0   120.0   33.333333333333336
200.0   90.0   50.0
250.0   90.0   33.333333333333336
250.0   120.0   33.333333333333336
200.0   120.0   33.333333333333336
250.0   120.0   50.0
200.0   90.0   50.0
200.0   120.0   50.0
250.0   120.0   50.0
200.0   120.0   33.333333333333336
200.0   90.0   50.0
250.0   120.0   50.0
250.0   90.0   50.0
250.0   90.0   33.333333333333336
200.0   90.0   50.0
250.0   120.0   50.0
250.0   90.0   33.333333333333336
200.0   120.0   33.333333333333336
200.0   120.0   0.0
250.0   120.0   0.0
200.0   150.0   0.0
200.0   120.0   16.666666666666668
250.0   120.0   0.0
250.0   150.0   0.0
200.0   150.0   0.0
250.0   150.0   16.666666666666668
200.0   120.0   16.666666666666668
200.0   150.0   16.666666666666668
250.0   150.0   16.666666666666668
200.0   150.0   0.0
200.0   120.0   16.666666666666668
250.0   150.0   16.666666666666668
250.0   120.0   16.666666666666668
250.0   120.0   0.0
200.0   120.0   16.666666666666668
250.0   150.0   16.666666666666668
250.0   120.0   0.0
200.0   150.0   0.0
200.0   120.0   16.666666666666668
250.0   120.0   16.666666666666668
200.0   150.0   16.666666666666668
200.0   120.0   33.333333333333336
250.0   120.0   16.666666666666668
250.0   150.0   16.666666666666668
200.0   150.0   16.666666666666668
250.0   150.0   33.333333333333336
200.0   120.0   33.333333333333336
200.0   150.0   33.333333333333336
250.0   150.0   33.333333333333336
200.0   150.0   16.666666666666668
200.0   120.0   33.333333333333336
250.0   150.0   33.333333333333336
250.0   120.0   33.333333333333336
250.0   120.0   16.666666666666668
200.0   120.0   33.333333333333336
250.0   150.0   33.333333333333336
250.0   120.0   16.666666666666668
200.0   150.0   16.666666666666668
200.0   120.0   33.333333333333336
250.0   120.0   33.333333333333336
200.0   150.0   33.333333333333336
200.0   120.0   50.0
250.0   120.0   33.333333333333336
250.0   150.0   33.333333333333336
200.0   150.0   33.333333333333336
250.0   150.0   50.0
200.0   120.0   50.0
200.0   150.0   50.0
250.0   150.0   50.0
200.0   150.0   33.333333333333336
200.0   120.0   50.0
250.0   150.0   50.0
250.0   120.0   50.0
250.0   120.0   33.333333333333336
200.0   120.0   50.0
250.0   150.0   50.0
250.0   120.0   33.333333333333336
200.0   150.0   33.333333333333336
250.0   0.0   0.0
300.0   0.0   0.0
250.0   30.0   0.0
250.0   0.0   16.666666666666668
300.0   0.0   0.0
300.0   30.0   0.0
250.0   30.0   0.0
300.0   30.0   16.666666666666668
250.0   0.0   16.666666666666668
250.0   30.0   16.666666666666668
300.0   30.0   16.666666666666668
250.0   30.0   0.0
250.0   0.0   16.666666666666668
300.0   30.0   16.666666666666668
300.0   0.0   16.666666666666668
300.0   0.0   0.0
250.0   0.0   16.666666666666668
300.0   30.0   16.666666666666668
300.0   0.0   0.0
250.0   30.0   0.0
250.0   0.0   16.666666666666668
300.0   0.0   16.666666666666668
250.0   30.0   16.666666666666668
250.0   0.0   33.333333333333336
300.0   0.0   16.666666666666668
300.0   30.0   16.666666666666668
250.0   30.0   16.666666666666668
300.0   30.0   33.333333333333336
250.0   0.0   33.333333333333336
250.0   30.0   33.333333333333336
300.0   30.0   33.333333333333336
250.0   30.0   16.666666666666668
250.0   0.0   33.333333333333336
300.0   30.0   33.333333333333336
300.0   0.0   33.333333333333336
300.0   0.0   16.666666666666668
250.0   0.0   33.333333333333336
300.0   30.0   33.333333333333336
300.0   0.0   16.666666666666668
250.0   30.0   16.666666666666668
250.0   0.0   33.333333333333336
300.0   0.0   33.333333333333336
250.0   30.0   33.333333333333336
250.0   0.0   50.0
300.0   0.0   33.333333333333336
300.0   30.0   33.333333333333336
250.0   30.0   33.333333333333336
300.0   30.0   50.0
250.0   0.0   50.0
250.0   30.0   50.0
300.0   30.0   50.0
250.0   30.0   33.333333333333336
250.0   0.0   50.0
300.0   30.0   50.0
300.0   0.0   50.0
300.0   0.0   33.333333333333336
250.0   0.0   50.0
300.0   30.0   50.0
300.0   0.0   33.333333333333336
250.0   30.0   33.333333333333336
250.0   30.0   0.0
300.0   30.0   0.0
250.0   60.0   0.0
250.0   30.0   16.666666666666668
300.0   30.0   0.0
300.0   60.0   0.0
250.0   60.0   0.0
300.0   60.0   16.666666666666668
250.0   30.0   16.666666666666668
250.0   60.0   16.666666666666668
300.0   60.0   16.666666666666668
250.0   60.0   0.0
250.0   30.0   16.666666666666668
300.0   60.0   16.666666666666668
300.0   30.0   16.666666666666668
300.0   30.0   0.0
250.0   30.0   16.666666666666668
300.0   60.0   16.666666666666668
300.0   30.0   0.0
250.0   60.0   0.0
250.0   30.0   16.666666666666668
300.0   30.0   16.666666666666668
250.0   60.0   16.666666666666668
250.0   30.0   33.333333333333336
300.0   30.0   16.666666666666668
300.0   60.0   16.666666666666668
250.0   60.0   16.666666666666668
300.0   60.0   33.333333333333336
250.0   30.0   33.333333333333336
250.0   60.0   33.333333333333336
300.0   60.0   33.333333333333336
250.0   60.0   16.666666666666668
250.0   30.0   33.333333333333336
300.0   60.0   33.333333333333336
300.0   30.0   33.333333333333336
300.0   30.0   16.666666666666668
250.0   30.0   33.333333333333336
300.0   60.0   33.333333333333336
300.0   30.0   16.666666666666668
250.0   60.0   16.666666666666668
250.0   30.0   33.333333333333336
300.0   30.0   33.333333333333336
250.0   60.0   33.333333333333336
250.0   30.0   50.0
300.0   30.0   33.333333333333336
300.0   60.0   33.333333333333336
250.0   60.0   33.333333333333336
300.0   60.0   50.0
250.0   30.0   50.0
250.0   60.0   50.0
300.0   60.0   50.0
250.0   60.0   33.333333333333336
250.0   30.0   50.0
300.0   60.0   50.0
300.0   30.0   50.0
300.0   30.0   33.333333333333336
250.0   30.0   50.0
300.0   60.0   50.0
300.0   30.0   33.333333333333336
250.0   60.0   33.333333333333336
250.0   60.0   0.0
300.0   60.0   0.0
250.0   90.0   0.0
250.0   60.0   16.666666666666668
300.0   60.0   0.0
300.0   90.0   0.0
250.0   90.0   0.0
300.0   90.0   16.666666666666668
250.0   60.0   16.666666666666668
250.0   90.0   16.666666666666668
300.0   90.0   16.666666666666668
250.0   90.0   0.0
250.0   60.0   16.666666666666668
300.0   90.0   16.666666666666668
300.0   60.0   16.666666666666668
300.0   60.0   0.0
250.0   60.0   16.666666666666668
300.0   90.0   16.666666666666668
300.0   60.0   0.0
250.0   90.0   0.0
250.0   60.0   16.666666666666668
300.0   60.0   16.666666666666668
250.0   90.0   16.666666666666668
250.0   60.0   33.333333333333336
300.0   60.0   16.666666666666668
300.0   90.0   16.666666666666668
250.0   90.0   16.666666666666668
300.0   90.0   33.333333333333336
250.0   60.0   33.333333333333336
250.0   90.0   33.333333333333336
300.0   90.0   33.333333333333336
250.0   90.0   16.666666666666668
250.0   60.0   33.333333333333336
300.0   90.0   33.333333333333336
300.0   60.0   33.333333333333336
300.0   60.0   16.666666666666668
250.0   60.0   33.333333333333336
300.0   90.0   33.333333333333336
300.0   60.0   16.666666666666668
250.0   90.0   16.666666666666668
250.0   60.0   33.333333333333336
300.0   60.0   33.333333333333336
250.0   90.0   33.333333333333336
250.0   60.0   50.0
300.0   60.0   33.333333333333336
300.0   90.0   33.333333333333336
250.0   90.0   33.333333333333336
300.0   90.0   50.0
250.0   60.0   50.0
250.0   90.0   50.0
300.0   90.0   50.0
250.0   90.0   33.333333333333336
250.0   60.0   50.0
300.0   90.0   50.0
300.0   60.0   50.0
300.0   60.0   33.333333333333336
250.0   60.0   50.0
300.0   90.0   50.0
300.0   60.0   33.333333333333336
250.0   90.0   33.333333333333336
250.0   90.0   0.0
300.0   90.0   0.0
250.0   120.0   0.0
250.0   90.0   16.666666666666668
300.0   90.0   0.0
300.0   120.0   0.0
250.0   120.0   0.0
300.0   120.0   16.666666666666668
250.0   90.0   16.666666666666668
250.0   120.0   16.666666666666668
300.0   120.0   16.666666666666668
250.0   120.0   0.0
250.0   90.0   16.666666666666668
300.0   120.0   16.666666666666668
300.0   90.0   16.666666666666668
300.0   90.0   0.0
250.0   90.0   16.666666666666668
300.0   120.0   16.666666666666668
300.0   90.0   0.0
250.0   120.0   0.0
250.0   90.0   16.666666666666668
300.0   90.0   16.666666666666668
250.0   120.0   16.666666666666668
250.0   90.0   33.333333333333336
300.0   90.0   16.666666666666668
300.0   120.0   16.666666666666668
250.0   120.0   16.666666666666668
300.0   120.0   33.333333333333336
250.0   90.0   33.333333333333336
250.0   120.0   33.333333333333336
300.0   120.0   33.333333333333336
250.0   120.0   16.666666666666668
250.0   90.0   33.333333333333336
300.0   120.0   33.333333333333336
300.0   90.0   33.333333333333336
300.0   90.0   16.666666666666668
250.0   90.0   33.333333333333336
300.0   120.0   33.333333333333336
300.0   90.0   16.666666666666668
250.0   120.0   16.666666666666668
250.0   90.0   33.333333333333336
300.0   90.0   33.333333333333336
250.0   120.0   33.333333333333336
250.0   90.0   50.0
300.0   90.0   33.333333333333336
300.0   120.0   33.333333333333336
250.0   120.0   33.333333333333336
300.0   120.0   50.0
250.0   90.0   50.0
250.0   120.0   50.0
300.0   120.0   50.0
250.0   120.0   33.333333333333336
250.0   90.0   50.0
300.0   120.0   50.0
300.0   90.0   50.0
300.0   90.0   33.333333333333336
250.0   90.0   50.0
300.0   120.0   50.0
300.0   90.0   33.333333333333336
250.0   120.0   33.333333333333336
250.0   120.0   0.0
300.0   120.0   0.0
250.0   150.0   0.0
250.0   120.0   16.666666666666668
300.0   120.0   0.0
300.0   150.0   0.0
250.0   150.0   0.0
300.0   150.0   16.666666666666668
250.0   120.0   16.666666666666668
250.0   150.0   16.666666666666668
300.0   150.0   16.666666666666668
250.0   150.0   0.0
250.0   120.0   16.666666666666668
300.0   150.0   16.666666666666668
300.0   120.0   16.666666666666668
300.0   120.0   0.0
250.0   120.0   16.666666666666668
300.0   150.0   16.666666666666668
300.0   120.0   0.0
250.0   150.0   0.0
250.0   120.0   16.666666666666668
300.0   120.0   16.666666666666668
250.0   150.0   16.666666666666668
250.0   120.0   33.333333333333336
300.0   120.0   16.666666666666668
300.0   150.0   16.666666666666668
250.0   150.0   16.666666666666668
300.0   150.0   33.333333333333336
250.0   120.0   33.333333333333336
250.0   150.0   33.333333333333336
300.0   150.0   33.333333333333336
250.0   150.0   16.666666666666668
250.0   120.0   33.333333333333336
300.0   150.0   33.333333333333336
300.0   120.0   33.333333333333336
300.0   120.0   16.666666666666668
250.0   120.0   33.333333333333336
300.0   150.0   33.333333333333336
300.0   120.0   16.666666666666668
250.0   150.0   16.666666666666668
250.0   120.0   33.333333333333336
300.0   120.0   33.333333333333336
250.0   150.0   33.333333333333336
250.0   120.0   50.0
300.0   120.0   33.333333333333336
300.0   150.0   33.333333333333336
250.0   150.0   33.333333333333336
300.0   150.0   50.0
250.0   120.0   50.0
250.0   150.0   50.0
300.0   150.0   50.0
250.0   150.0   33.333333333333336
250.0   120.0   50.0
300.0   150.0   50.0
300.0   120.0   50.0
300.0   120.0   33.333333333333336
250.0   120.0   50.0
300.0   150.0   50.0
300.0   120.0   33.333333333333336
250.0   150.0   33.333333333333336
300.0   0.0   0.0
350.0   0.0   0.0
300.0   30.0   0.0
300.0   0.0   16.666666666666668
350.0   0.0   0.0
350.0   30.0   0.0
300.0   30.0   0.0
350.0   30.0   16.666666666666668
300.0   0.0   16.666666666666668
300.0   30.0   16.666666666666668
350.0   30.0   16.666666666666668
300.0   30.0   0.0
300.0   0.0   16.666666666666668
350.0   30.0   16.666666666666668
350.0   0.0   16.666666666666668
350.0   0.0   0.0
300.0   0.0   16.666666666666668
350.0   30.0   16.666666666666668
350.0   0.0   0.0
300.0   30.0   0.0
300.0   0.0   16.666666666666668
350.0   0.0   16.666666666666668
300.0   30.0   16.666666666666668
300.0   0.0   33.333333333333336
350.0   0.0   16.666666666666668
350.0   30.0   16.666666666666668
300.0   30.0   16.666666666666668
350.0   30.0   33.333333333333336
300.0   0.0   33.333333333333336
300.0   30.0   33.333333333333336
350.0   30.0   33.333333333333336
300.0   30.0   16.666666666666668
300.0   0.0   33.333333333333336
350.0   30.0   33.333333333333336
350.0   0.0   33.333333333333336
350.0   0.0   16.666666666666668
300.0   0.0   33.333333333333336
350.0   30.0   33.333333333333336
350.0   0.0   16.666666666666668
300.0   30.0   16.666666666666668
300.0   0.0   33.333333333333336
350.0   0.0   33.333333333333336
300.0   30.0   33.333333333333336
300.0   0.0   50.0
350.0   0.0   33.333333333333336
350.0   30.0   33.333333333333336
300.0   30.0   33.333333333333336
350.0   30.0   50.0
300.0   0.0   50.0
300.0   30.0   50.0
350.0   30.0   50.0
300.0   30.0   33.333333333333336
300.0   0.0   50.0
350.0   30.0   50.0
350.0   0.0   50.0
350.0   0.0   33.333333333333336
300.0   0.0   50.0
350.0   30.0   50.0
350.0   0.0   33.333333333333336
300.0   30.0   33.333333333333336
300.0   30.0   0.0
350.0   30.0   0.0
300.0   60.0   0.0
300.0   30.0   16.666666666666668
350.0   30.0   0.0
350.0   60.0   0.0
300.0   60.0   0.0
350.0   60.0   16.666666666666668
300.0   30.0   16.666666666666668
300.0   60.0   16.666666666666668
350.0   60.0   16.666666666666668
300.0   60.0   0.0
300.0   30.0   16.666666666666668
350.0   60.0   16.666666666666668
350.0   30.0   16.666666666666668
350.0   30.0   0.0
300.0   30.0   16.666666666666668
350.0   60.0   16.666666666666668
350.0   30.0   0.0
300.0   60.0   0.0
300.0   30.0   16.666666666666668
350.0   30.0   16.666666666666668
300.0   60.0   16.666666666666668
300.0   30.0   33.333333333333336
350.0   30.0   16.666666666666668
350.0   60.0   16.666666666666668
300.0   60.0   16.666666666666668
350.0   60.0   33.333333333333336
300.0   30.0   33.333333333333336
300.0   60.0   33.333333333333336
350.0   60.0   33.333333333333336
300.0   60.0   16.666666666666668
300.0   30.0   33.333333333333336
350.0   60.0   33.333333333333336
350.0   30.0   33.333333333333336
350.0   30.0   16.666666666666668
300.0   30.0   33.333333333333336
350.0   60.0   33.333333333333336
350.0   30.0   16.666666666666668
300.0   60.0   16.666666666666668
300.0   30.0   33.333333333333336
350.0   30.0   33.333333333333336
300.0   60.0   33.333333333333336
300.0   30.0   50.0
350.0   30.0   33.333333333333336
350.0   60.0   33.333333333333336
300.0   60.0   33.333333333333336
350.0   60.0   50.0
300.0   30.0   50.0
300.0   60.0   50.0
350.0   60.0   50.0
300.0   60.0   33.333333333333336
300.0   30.0   50.0
350.0   60.0   50.0
350.0   30.0   50.0
350.0   30.0   33.333333333333336
300.0   30.0   50.0
350.0   60.0   50.0
350.0   30.0   33.333333333333336
300.0   60.0   33.333333333333336
300.0   60.0   0.0
350.0   60.0   0.0
300.0   90.0   0.0
300.0   60.0   16.666666666666668
350.0   60.0   0.0
350.0   90.0   0.0
300.0   90.0   0.0
350.0   90.0   16.666666666666668
300.0   60.0   16.666666666666668
300.0   90.0   16.666666666666668
350.0   90.0   16.666666666666668
300.0   90.0   0.0
300.0   60.0   16.666666666666668
350.0   90.0   16.666666666666668
350.0   60.0   16.666666666666668
350.0   60.0   0.0
300.0   60.0   16.666666666666668
350.0   90.0   16.666666666666668
350.0   60.0   0.0
300.0   90.0   0.0
300.0   60.0   16.666666666666668
350.0   60.0   16.666666666666668
300.0   90.0   16.666666666666668
300.0   60.0   33.333333333333336
350.0   60.0   16.666666666666668
350.0   90.0   16.666666666666668
300.0   90.0   16.666666666666668
350.0   90.0   33.333333333333336
300.0   60.0   33.333333333333336
300.0   90.0   33.333333333333336
350.0   90.0   33.333333333333336
300.0   90.0   16.666666666666668
300.0   60.0   33.333333333333336
350.0   90.0   33.333333333333336
350.0   60.0   33.333333333333336
350.0   60.0   16.666666666666668
300.0   60.0   33.333333333333336
350.0   90.0   33.333333333333336
350.0   60.0   16.666666666666668
300.0   90.0   16.666666666666668
300.0   60.0   33.333333333333336
350.0   60.0   33.333333333333336
300.0   90.0   33.333333333333336
300.0   60.0   50.0
350.0   60.0   33.333333333333336
350.0   90.0   33.333333333333336
300.0   90.0   33.333333333333336
350.0   90.0   50.0
300.0   60.0   50.0
300.0   90.0   50.0
350.0   90.0   50.0
300.0   90.0   33.333333333333336
300.0   60.0   50.0
350.0   90.0   50.0
350.0   60.0   50.0
350.0   60.0   33.333333333333336
300.0   60.0   50.0
350.0   90.0   50.0
350.0   60.0   33.333333333333336
300.0   90.0   33.333333333333336
300.0   90.0   0.0
350.0   90.0   0.0
300.0   120.0   0.0
300.0   90.0   16.666666666666668
350.0   90.0   0.0
350.0   120.0   0.0
300.0   120.0   0.0
350.0   120.0   16.666666666666668
300.0   90.0   16.666666666666668
300.0   120.0   16.666666666666668
350.0   120.0   16.666666666666668
300.0   120.0   0.0
300.0   90.0   16.666666666666668
350.0   120.0   16.666666666666668
350.0   90.0   16.666666666666668
350.0   90.0   0.0
300.0   90.0   16.666666666666668
350.0   120.0   16.666666666666668
350.0   90.0   0.0
300.0   120.0   0.0
300.0   90.0   16.666666666666668
350.0   90.0   16.666666666666668
300.0   120.0   16.666666666666668
300.0   90.0   33.333333333333336
350.0   90.0   16.666666666666668
350.0   120.0   16.666666666666668
300.0   120.0   16.666666666666668
350.0   120.0   33.333333333333336
300.0   90.0   33.333333333333336
300.0   120.0   33.333333333333336
350.0   120.0   33.333333333333336
300.0   120.0   16.666666666666668
300.0   90.0   33.333333333333336
350.0   120.0   33.333333333333336
350.0   90.0   33.333333333333336
350.0   90.0   16.666666666666668
300.0   90.0   33.333333333333336
350.0   120.0   33.333333333333336
350.0   90.0   16.666666666666668
300.0   120.0   16.666666666666668
300.0   90.0   33.333333333333336
350.0   90.0   33.333333333333336
300.0   120.0   33.333333333333336
300.0   90.0   50.0
350.0   90.0   33.333333333333336
350.0   120.0   33.333333333333336
300.0   120.0   33.333333333333336
350.0   120.0   50.0
300.0   90.0   50.0
300.0   120.0   50.0
350.0   120.0   50.0
300.0   120.0   33.333333333333336
300.0   90.0   50.0
350.0   120.0   50.0
350.0   90.0   50.0
350.0   90.0   33.333333333333336
300.0   90.0   50.0
350.0   120.0   50.0
350.0   90.0   33.333333333333336
300.0   120.0   33.333333333333336
300.0   120.0   0.0
350.0   120.0   0.0
300.0   150.0   0.0
300.0   120.0   16.666666666666668
350.0   120.0   0.0
350.0   150.0   0.0
300.0   150.0   0.0
350.0   150.0   16.666666666666668
300.0   120.0   16.666666666666668
300.0   150.0   16.666666666666668
350.0   150.0   16.666666666666668
300.0   150.0   0.0
300.0   120.0   16.666666666666668
350.0   150.0   16.666666666666668
350.0   120.0   16.666666666666668
350.0   120.0   0.0
300.0   120.0   16.666666666666668
350.0   150.0   16.666666666666668
350.0   120.0   0.0
300.0   150.0   0.0
300.0   120.0   16.666666666666668
350.0   120.0   16.666666666666668
300.0   150.0   16.666666666666668
300.0   120.0   33.333333333333336
350.0   120.0   16.666666666666668
350.0   150.0   16.666666666666668
300.0   150.0   16.666666666666668
350.0   150.0   33.333333333333336
300.0   120.0   33.333333333333336
300.0   150.0   33.333333333333336
350.0   150.0   33.333333333333336
300.0   150.0   16.666666666666668
300.0   120.0   33.333333333333336
350.0   150.0   33.333333333333336
350.0   120.0   33.333333333333336
350.0   120.0   16.666666666666668
300.0   120.0   33.333333333333336
350.0   150.0   33.333333333333336
350.0   120.0   16.666666666666668
300.0   150.0   16.666666666666668
300.0   120.0   33.333333333333336
350.0   120.0   33.333333333333336
300.0   150.0   33.333333333333336
300.0   120.0   50.0
350.0   120.0   33.333333333333336
350.0   150.0   33.333333333333336
300.0   150.0   33.333333333333336
350.0   150.0   50.0
300.0   120.0   50.0
300.0   150.0   50.0
350.0   150.0   50.0
300.0   150.0   33.333333333333336
300.0   120.0   50.0
350.0   150.0   50.0
350.0   120.0   50.0
350.0   120.0   33.333333333333336
300.0   120.0   50.0
350.0   150.0   50.0
350.0   120.0   33.333333333333336
300.0   150.0   33.333333333333336
350.0   0.0   0.0
400.0   0.0   0.0
350.0   30.0   0.0
350.0   0.0   16.666666666666668
400.0   0.0   0.0
400.0   30.0   0.0
350.0   30.0   0.0
400.0   30.0   16.666666666666668
350.0   0.0   16.666666666666668
350.0   30.0   16.666666666666668
400.0   30.0   16.666666666666668
350.0   30.0   0.0
350.0   0.0   16.666666666666668
400.0   30.0   16.666666666666668
400.0   0.0   16.666666666666668
400.0   0.0   0.0
350.0   0.0   16.666666666666668
400.0   30.0   16.666666666666668
400.0   0.0   0.0
350.0   30.0   0.0
350.0   0.0   16.666666666666668
400.0   0.0   16.666666666666668
350.0   30.0   16.666666666666668
350.0   0.0   33.333333333333336
400.0   0.0   16.666666666666668
400.0   30.0   16.666666666666668
350.0   30.0   16.666666666666668
400.0   30.0   33.333333333333336
350.0   0.0   33.333333333333336
350.0   30.0   33.333333333333336
400.0   30.0   33.333333333333336
350.0   30.0   16.666666666666668
350.0   0.0   33.333333333333336
400.0   30.0   33.333333333333336
400.0   0.0   33.333333333333336
400.0   0.0   16.666666666666668
350.0   0.0   33.333333333333336
400.0   30.0   33.333333333333336
400.0   0.0   16.666666666666668
350.0   30.0   16.666666666666668
350.0   0.0   33.333333333333336
400.0   0.0   33.333333333333336
350.0   30.0   33.333333333333336
350.0   0.0   50.0
400.0   0.0   33.333333333333336
400.0   30.0   33.333333333333336
350.0   30.0   33.333333333333336
400.0   30.0   50.0
350.0   0.0   50.0
350.0   30.0   50.0
400.0   30.0   50.0
350.0   30.0   33.333333333333336
350.0   0.0   50.0
400.0   30.0   50.0
400.0   0.0   50.0
400.0   0.0   33.333333333333336
350.0   0.0   50.0
400.0   30.0   50.0
400.0   0.0   33.333333333333336
350.0   30.0   33.333333333333336
350.0   30.0   0.0
400.0   30.0   0.0
350.0   60.0   0.0
350.0   30.0   16.666666666666668
400.0   30.0   0.0
400.0   60.0   0.0
350.0   60.0   0.0
400.0   60.0   16.666666666666668
350.0   30.0   16.666666666666668
350.0   60.0   16.666666666666668
400.0   60.0   16.666666666666668
350.0   60.0   0.0
350.0   30.0   16.666666666666668
400.0   60.0   16.666666666666668
400.0   30.0   16.666666666666668
400.0   30.0   0.0
350.0   30.0   16.666666666666668
400.0   60.0   16.666666666666668
400.0   30.0   0.0
350.0   60.0   0.0
350.0   30.0   16.666666666666668
400.0   30.0   16.666666666666668
350.0   60.0   16.666666666666668
350.0   30.0   33.333333333333336
400.0   30.0   16.666666666666668
400.0   60.0   16.666666666666668
350.0   60.0   16.666666666666668
400.0   60.0   33.333333333333336
350.0   30.0   33.333333333333336
350.0   60.0   33.333333333333336
400.0   60.0   33.333333333333336
350.0   60.0   16.666666666666668
350.0   30.0   33.333333333333336
400.0   60.0   33.333333333333336
400.0   30.0   33.333333333333336
400.0   30.0   16.666666666666668
350.0   30.0   33.333333333333336
400.0   60.0   33.333333333333336
400.0   30.0   16.666666666666668
350.0   60.0   16.666666666666668
350.0   30.0   33.333333333333336
400.0   30.0   33.333333333333336
350.0   60.0   33.333333333333336
350.0   30.0   50.0
400.0   30.0   33.333333333333336
400.0   60.0   33.333333333333336
350.0   60.0   33.333333333333336
400.0   60.0   50.0
350.0   30.0   50.0
350.0   60.0   50.0
400.0   60.0   50.0
350.0   60.0   33.333333333333336
350.0   30.0   50.0
400.0   60.0   50.0
400.0   30.0   50.0
400.0   30.0   33.333333333333336
350.0   30.0   50.0
400.0   60.0   50.0
400.0   30.0   33.333333333333336
350.0   60.0   33.333333333333336
350.0   60.0   0.0
400.0   60.0   0.0
350.0   90.0   0.0
350.0   60.0   16.666666666666668
400.0   60.0   0.0
400.0   90.0   0.0
350.0   90.0   0.0
400.0   90.0   16.666666666666668
350.0   60.0   16.666666666666668
350.0   90.0   16.666666666666668
400.0   90.0   16.666666666666668
350.0   90.0   0.0
350.0   60.0   16.666666666666668
400.0   90.0   16.666666666666668
400.0   60.0   16.666666666666668
400.0   60.0   0.0
350.0   60.0   16.666666666666668
400.0   90.0   16.666666666666668
400.0   60.0   0.0
350.0   90.0   0.0
350.0   60.0   16.666666666666668
400.0   60.0   16.666666666666668
350.0   90.0   16.666666666666668
350.0   60.0   33.333333333333336
400.0   60.0   16.666666666666668
400.0   90.0   16.666666666666668
350.0   90.0   16.666666666666668
400.0   90.0   33.333333333333336
350.0   60.0   33.333333333333336
350.0   90.0   33.333333333333336
400.0   90.0   33.333333333333336
350.0   90.0   16.666666666666668
350.0   60.0   33.333333333333336
400.0   90.0   33.333333333333336
400.0   60.0   33.333333333333336
400.0   60.0   16.666666666666668
350.0   60.0   33.333333333333336
400.0   90.0   33.333333333333336
400.0   60.0   16.666666666666668
350.0   90.0   16.666666666666668
350.0   60.0   33.333333333333336
400.0   60.0   33.333333333333336
350.0   90.0   33.333333333333336
350.0   60.0   50.0
400.0   60.0   33.333333333333336
400.0   90.0   33.333333333333336
350.0   90.0   33.333333333333336
400.0   90.0   50.0
350.0   60.0   50.0
350.0   90.0   50.0
400.0   90.0   50.0
350.0   90.0   33.333333333333336
350.0   60.0   50.0
400.0   90.0   50.0
400.0   60.0   50.0
400.0   60.0   33.333333333333336
350.0   60.0   50.0
400.0   90.0   50.0
400.0   60.0   33.333333333333336
350.0   90.0   33.333333333333336
350.0   90.0   0.0
400.0   90.0   0.0
350.0   120.0   0.0
350.0   90.0   16.666666666666668
400.0   90.0   0.0
400.0   120.0   0.0
350.0   120.0   0.0
400.0   120.0   16.666666666666668
350.0   90.0   16.666666666666668
350.0   120.0   16.666666666666668
400.0   120.0   16.666666666666668
350.0   120.0   0.0
350.0   90.0   16.666666666666668
400.0   120.0   16.666666666666668
400.0   90.0   16.666666666666668
400.0   90.0   0.0
350.0   90.0   16.666666666666668
400.0   120.0   16.666666666666668
400.0   90.0   0.0
350.0   120.0   0.0
350.0   90.0   16.666666666666668
400.0   90.0   16.666666666666668
350.0   120.0   16.666666666666668
350.0   90.0   33.333333333333336
400.0   90.0   16.666666666666668
400.0   120.0   16.666666666666668
350.0   120.0   16.666666666666668
400.0   120.0   33.333333333333336
350.0   90.0   33.333333333333336
350.0   120.0   33.333333333333336
400.0   120.0   33.333333333333336
350.0   120.0   16.666666666666668
350.0   90.0   33.333333333333336
400.0   120.0   33.333333333333336
400.0   90.0   33.333333333333336
400.0   90.0   16.666666666666668
350.0   90.0   33.333333333333336
400.0   120.0   33.333333333333336
400.0   90.0   16.666666666666668
350.0   120.0   16.666666666666668
350.0   90.0   33.333333333333336
400.0   90.0   33.333333333333336
350.0   120.0   33.333333333333336
350.0   90.0   50.0
400.0   90.0   33.333333333333336
400.0   120.0   33.333333333333336
350.0   120.0   33.333333333333336
400.0   120.0   50.0
350.0   90.0   50.0
350.0   120.0   50.0
400.0   120.0   50.0
350.0   120.0   33.333333333333336
350.0   90.0   50.0
400.0   120.0   50.0
400.0   90.0   50.0
400.0   90.0   33.333333333333336
350.0   90.0   50.0
400.0   120.0   50.0
400.0   90.0   33.333333333333336
350.0   120.0   33.333333333333336
350.0   120.0   0.0
400.0   120.0   0.0
350.0   150.0   0.0
350.0   120.0   16.666666666666668
400.0   120.0   0.0
400.0   150.0   0.0
350.0   150.0   0.0
400.0   150.0   16.666666666666668
350.0   120.0   16.666666666666668
350.0   150.0   16.666666666666668
400.0   150.0   16.666666666666668
350.0   150.0   0.0
350.0   120.0   16.666666666666668
400.0   150.0   16.666666666666668
400.0   120.0   16.666666666666668
400.0   120.0   0.0
350.0   120.0   16.666666666666668
400.0   150.0   16.666666666666668
400.0   120.0   0.0
350.0   150.0   0.0
350.0   120.0   16.666666666666668
400.0   120.0   16.666666666666668
350.0   150.0   16.666666666666668
350.0   120.0   33.333333333333336
400.0   120.0   16.666666666666668
400.0   150.0   16.666666666666668
350.0   150.0   16.666666666666668
400.0   150.0   33.333333333333336
350.0   120.0   33.333333333333336
350.0   150.0   33.333333333333336
400.0   150.0   33.333333333333336
350.0   150.0   16.666666666666668
350.0   120.0   33.333333333333336
400.0   150.0   33.333333333333336
400.0   120.0   33.333333333333336
400.0   120.0   16.666666666666668
350.0   120.0   33.333333333333336
400.0   150.0   33.333333333333336
400.0   120.0   16.666666666666668
350.0   150.0   16.666666666666668
350.0   120.0   33.333333333333336
400.0   120.0   33.333333333333336
350.0   150.0   33.333333333333336
350.0   120.0   50.0
400.0   120.0   33.333333333333336
400.0   150.0   33.333333333333336
350.0   150.0   33.333333333333336
400.0   150.0   50.0
350.0   120.0   50.0
350.0   150.0   50.0
400.0   150.0   50.0
350.0   150.0   33.333333333333336
350.0   120.0   50.0
400.0   150.0   50.0
400.0   120.0   50.0
400.0   120.0   33.333333333333336
350.0   120.0   50.0
400.0   150.0   50.0
400.0   120.0   33.333333333333336
350.0   150.0   33.333333333333336
400.0   0.0   0.0
450.0   0.0   0.0
400.0   30.0   0.0
400.0   0.0   16.666666666666668
450.0   0.0   0.0
450.0   30.0   0.0
400.0   30.0   0.0
450.0   30.0   16.666666666666668
400.0   0.0   16.666666666666668
400.0   30.0   16.666666666666668
450.0   30.0   16.666666666666668
400.0   30.0   0.0
400.0   0.0   16.666666666666668
450.0   30.0   16.666666666666668
450.0   0.0   16.666666666666668
450.0   0.0   0.0
400.0   0.0   16.666666666666668
450.0   30.0   16.666666666666668
450.0   0.0   0.0
400.0   30.0   0.0
400.0   0.0   16.666666666666668
450.0   0.0   16.666666666666668
400.0   30.0   16.666666666666668
400.0   0.0   33.333333333333336
450.0   0.0   16.666666666666668
450.0   30.0   16.666666666666668
400.0   30.0   16.666666666666668
450.0   30.0   33.333333333333336
400.0   0.0   33.333333333333336
400.0   30.0   33.333333333333336
450.0   30.0   33.333333333333336
400.0   30.0   16.666666666666668
400.0   0.0   33.333333333333336
450.0   30.0   33.333333333333336
450.0   0.0   33.333333333333336
450.0   0.0   16.666666666666668
400.0   0.0   33.333333333333336
450.0   30.0   33.333333333333336
450.0   0.0   16.666666666666668
400.0   30.0   16.666666666666668
400.0   0.0   33.333333333333336
450.0   0.0   33.333333333333336
400.0   30.0   33.333333333333336
400.0   0.0   50.0
450.0   0.0   33.333333333333336
450.0   30.0   33.333333333333336
400.0   30.0   33.333333333333336
450.0   30.0   50.0
400.0   0.0   50.0
400.0   30.0   50.0
450.0   30.0   50.0
400.0   30.0   33.333333333333336
400.0   0.0   50.0
450.0   30.0   50.0
450.0   0.0   50.0
450.0   0.0   33.333333333333336
400.0   0.0   50.0
450.0   30.0   50.0
450.0   0.0   33.333333333333336
400.0   30.0   33.333333333333336
400.0   30.0   0.0
450.0   30.0   0.0
400.0   60.0   0.0
400.0   30.0   16.666666666666668
450.0   30.0   0.0
450.0   60.0   0.0
400.0   60.0   0.0
450.0   60.0   16.666666666666668
400.0   30.0   16.666666666666668
400.0   60.0   16.666666666666668
450.0   60.0   16.666666666666668
400.0   60.0   0.0
400.0   30.0   16.666666666666668
450.0   60.0   16.666666666666668
450.0   30.0   16.666666666666668
450.0   30.0   0.0
400.0   30.0   16.666666666666668
450.0   60.0   16.666666666666668
450.0   30.0   0.0
400.0   60.0   0.0
400.0   30.0   16.666666666666668
450.0   30.0   16.666666666666668
400.0   60.0   16.666666666666668
400.0   30.0   33.333333333333336
450.0   30.0   16.666666666666668
450.0   60.0   16.666666666666668
400.0   60.0   16.666666666666668
450.0   60.0   33.333333333333336
400.0   30.0   33.333333333333336
400.0   60.0   33.333333333333336
450.0   60.0   33.333333333333336
400.0   60.0   16.666666666666668
400.0   30.0   33.333333333333336
450.0   60.0   33.333333333333336
450.0   30.0   33.333333333333336
450.0   30.0   16.666666666666668
400.0   30.0   33.333333333333336
450.0   60.0   33.333333333333336
450.0   30.0   16.666666666666668
400.0   60.0   16.666666666666668
400.0   30.0   33.333333333333336
450.0   30.0   33.333333333333336
400.0   60.0   33.333333333333336
400.0   30.0   50.0
450.0   30.0   33.333333333333336
450.0   60.0   33.333333333333336
400.0   60.0   33.333333333333336
450.0   60.0   50.0
400.0   30.0   50.0
400.0   60.0   50.0
450.0   60.0   50.0
400.0   60.0   33.333333333333336
400.0   30.0   50.0
450.0   60.0   50.0
450.0   30.0   50.0
450.0   30.0   33.333333333333336
400.0   30.0   50.0
450.0   60.0   50.0
450.0   30.0   33.333333333333336
400.0   60.0   33.333333333333336
400.0   60.0   0.0
450.0   60.0   0.0
400.0   90.0   0.0
400.0   60.0   16.666666666666668
450.0   60.0   0.0
450.0   90.0   0.0
400.0   90.0   0.0
450.0   90.0   16.666666666666668
400.0   60.0   16.666666666666668
400.0   90.0   16.666666666666668
450.0   90.0   16.666666666666668
400.0   90.0   0.0
400.0   60.0   16.666666666666668
450.0   90.0   16.666666666666668
450.0   60.0   16.666666666666668
450.0   60.0   0.0
400.0   60.0   16.666666666666668
450.0   90.0   16.666666666666668
450.0   60.0   0.0
400.0   90.0   0.0
400.0   60.0   16.666666666666668
450.0   60.0   16.666666666666668
400.0   90.0   16.666666666666668
400.0   60.0   33.333333333333336
450.0   60.0   16.666666666666668
450.0   90.0   16.666666666666668
400.0   90.0   16.666666666666668
450.0   90.0   33.333333333333336
400.0   60.0   33.333333333333336
400.0   90.0   33.333333333333336
450.0   90.0   33.333333333333336
400.0   90.0   16.666666666666668
400.0   60.0   33.333333333333336
450.0   90.0   33.333333333333336
450.0   60.0   33.333333333333336
450.0   60.0   16.666666666666668
400.0   60.0   33.333333333333336
450.0   90.0   33.333333333333336
450.0   60.0   16.666666666666668
400.0   90.0   16.666666666666668
400.0   60.0   33.333333333333336
450.0   60.0   33.333333333333336
400.0   90.0   33.333333333333336
400.0   60.0   50.0
450.0   60.0   33.333333333333336
450.0   90.0   33.333333333333336
400.0   90.0   33.333333333333336
450.0   90.0   50.0
400.0   60.0   50.0
400.0   90.0   50.0
450.0   90.0   50.0
400.0   90.0   33.333333333333336
400.0   60.0   50.0
450.0   90.0   50.0
450.0   60.0   50.0
450.0   60.0   33.333333333333336
400.0   60.0   50.0
450.0   90.0   50.0
450.0   60.0   33.333333333333336
400.0   90.0   33.333333333333336
400.0   90.0   0.0
450.0   90.0   0.0
400.0   120.0   0.0
400.0   90.0   16.666666666666668
450.0   90.0   0.0
450.0   120.0   0.0
400.0   120.0   0.0
450.0   120.0   16.666666666666668
400.0   90.0   16.666666666666668
400.0   120.0   16.666666666666668
450.0   120.0   16.666666666666668
400.0   120.0   0.0
400.0   90.0   16.666666666666668
450.0   120.0   16.666666666666668
450.0   90.0   16.666666666666668
450.0   90.0   0.0
400.0   90.0   16.666666666666668
450.0   120.0   16.666666666666668
450.0   90.0   0.0
400.0   120.0   0.0
400.0   90.0   16.666666666666668
450.0   90.0   16.666666666666668
400.0   120.0   16.666666666666668
400.0   90.0   33.333333333333336
450.0   90.0   16.666666666666668
450.0   120.0   16.666666666666668
400.0   120.0   16.666666666666668
450.0   120.0   33.333333333333336
400.0   90.0   33.333333333333336
400.0   120.0   33.333333333333336
450.0   120.0   33.333333333333336
400.0   120.0   16.666666666666668
400.0   90.0   33.333333333333336
450.0   120.0   33.333333333333336
450.0   90.0   33.333333333333336
450.0   90.0   16.666666666666668
400.0   90.0   33.333333333333336
450.0   120.0   33.333333333333336
450.0   90.0   16.666666666666668
400.0   120.0   16.666666666666668
400.0   90.0   33.333333333333336
450.0   90.0   33.333333333333336
400.0   120.0   33.333333333333336
400.0   90.0   50.0
450.0   90.0   33.333333333333336
450.0   120.0   33.333333333333336
400.0   120.0   33.333333333333336
450.0   120.0   50.0
400.0   90.0   50.0
400.0   120.0   50.0
450.0   120.0   50.0
400.0   120.0   33.333333333333336
400.0   90.0   50.0
450.0   120.0   50.0
450.0   90.0   50.0
450.0   90.0   33.333333333333336
400.0   90.0   50.0
450.0   120.0   50.0
450.0   90.0   33.333333333333336
400.0   120.0   33.333333333333336
400.0   120.0   0.0
450.0   120.0   0.0
400.0   150.0   0.0
400.0   120.0   16.666666666666668
450.0   120.0   0.0
450.0   150.0   0.0
400.0   150.0   0.0
450.0   150.0   16.666666666666668
400.0   120.0   16.666666666666668
400.0   150.0   16.666666666666668
450.0   150.0   16.666666666666668
400.0   150.0   0.0
400.0   120.0   16.666666666666668
450.0   150.0   16.666666666666668
450.0   120.0   16.666666666666668
450.0   120.0   0.0
400.0   120.0   16.666666666666668
450.0   150.0   16.666666666666668
450.0   120.0   0.0
400.0   150.0   0.0
400.0   120.0   16.666666666666668
450.0   120.0   16.666666666666668
400.0   150.0   16.666666666666668
400.0   120.0   33.333333333333336
450.0   120.0   16.666666666666668
450.0   150.0   16.666666666666668
400.0   150.0   16.666666666666668
450.0   150.0   33.333333333333336
400.0   120.0   33.333333333333336
400.0   150.0   33.333333333333336
450.0   150.0   33.333333333333336
400.0   150.0   16.666666666666668
400.0   120.0   33.333333333333336
450.0   150.0   33.333333333333336
450.0   120.0   33.333333333333336
450.0   120.0   16.666666666666668
400.0   120.0   33.333333333333336
450.0   150.0   33.333333333333336
450.0   120.0   16.666666666666668
400.0   150.0   16.666666666666668
400.0   120.0   33.333333333333336
450.0   120.0   33.333333333333336
400.0   150.0   33.333333333333336
400.0   120.0   50.0
450.0   120.0   33.333333333333336
450.0   150.0   33.333333333333336
400.0   150.0   33.333333333333336
450.0   150.0   50.0
400.0   120.0   50.0
400.0   150.0   50.0
450.0   150.0   50.0
400.0   150.0   33.333333333333336
400.0   120.0   50.0
450.0   150.0   50.0
450.0   120.0   50.0
450.0   120.0   33.333333333333336
400.0   120.0   50.0
450.0   150.0   50.0
450.0   120.0   33.333333333333336
400.0   150.0   33.333333333333336
450.0   0.0   0.0
500.0   0.0   0.0
450.0   30.0   0.0
450.0   0.0   16.666666666666668
500.0   0.0   0.0
500.0   30.0   0.0
450.0   30.0   0.0
500.0   30.0   16.666666666666668
450.0   0.0   16.666666666666668
450.0   30.0   16.666666666666668
500.0   30.0   16.666666666666668
450.0   30.0   0.0
450.0   0.0   16.666666666666668
500.0   30.0   16.666666666666668
500.0   0.0   16.666666666666668
500.0   0.0   0.0
450.0   0.0   16.666666666666668
500.0   30.0   16.666666666666668
500.0   0.0   0.0
450.0   30.0   0.0
450.0   0.0   16.666666666666668
500.0   0.0   16.666666666666668
450.0   30.0   16.666666666666668
450.0   0.0   33.333333333333336
500.0   0.0   16.666666666666668
500.0   30.0   16.666666666666668
450.0   30.0   16.666666666666668
500.0   30.0   33.333333333333336
450.0   0.0   33.333333333333336
450.0   30.0   33.333333333333336
500.0   30.0   33.333333333333336
450.0   30.0   16.666666666666668
450.0   0.0   33.333333333333336
500.0   30.0   33.333333333333336
500.0   0.0   33.333333333333336
500.0   0.0   16.666666666666668
450.0   0.0   33.333333333333336
500.0   30.0   33.333333333333336
500.0   0.0   16.666666666666668
450.0   30.0   16.666666666666668
450.0   0.0   33.333333333333336
500.0   0.0   33.333333333333336
450.0   30.0   33.333333333333336
450.0   0.0   50.0
500.0   0.0   33.333333333333336
500.0   30.0   33.333333333333336
450.0   30.0   33.333333333333336
500.0   30.0   50.0
450.0   0.0   50.0
450.0   30.0   50.0
500.0   30.0   50.0
450.0   30.0   33.333333333333336
450.0   0.0   50.0
500.0   30.0   50.0
500.0   0.0   50.0
500.0   0.0   33.333333333333336
450.0   0.0   50.0
500.0   30.0   50.0
500.0   0.0   33.333333333333336
450.0   30.0   33.333333333333336
450.0   30.0   0.0
500.0   30.0   0.0
450.0   60.0   0.0
450.0   30.0   16.666666666666668
500.0   30.0   0.0
500.0   60.0   0.0
450.0   60.0   0.0
500.0   60.0   16.666666666666668
450.0   30.0   16.666666666666668
450.0   60.0   16.666666666666668
500.0   60.0   16.666666666666668
450.0   60.0   0.0
450.0   30.0   16.666666666666668
500.0   60.0   16.666666666666668
500.0   30.0   16.666666666666668
500.0   30.0   0.0
450.0   30.0   16.666666666666668
500.0   60.0   16.666666666666668
500.0   30.0   0.0
450.0   60.0   0.0
450.0   30.0   16.666666666666668
500.0   30.0   16.666666666666668
450.0   60.0   16.666666666666668
450.0   30.0   33.333333333333336
500.0   30.0   16.666666666666668
500.0   60.0   16.666666666666668
450.0   60.0   16.666666666666668
500.0   60.0   33.333333333333336
450.0   30.0   33.333333333333336
450.0   60.0   33.333333333333336
500.0   60.0   33.333333333333336
450.0   60.0   16.666666666666668
450.0   30.0   33.333333333333336
500.0   60.0   33.333333333333336
500.0   30.0   33.333333333333336
500.0   30.0   16.666666666666668
450.0   30.0   33.333333333333336
500.0   60.0   33.333333333333336
500.0   30.0   16.666666666666668
450.0   60.0   16.666666666666668
450.0   30.0   33.333333333333336
500.0   30.0   33.333333333333336
450.0   60.0   33.333333333333336
450.0   30.0   50.0
500.0   30.0   33.333333333333336
500.0   60.0   33.333333333333336
450.0   60.0   33.333333333333336
500.0   60.0   50.0
450.0   30.0   50.0
450.0   60.0   50.0
500.0   60.0   50.0
450.0   60.0   33.333333333333336
450.0   30.0   50.0
500.0   60.0   50.0
500.0   30.0   50.0
500.0   30.0   33.333333333333336
450.0   30.0   50.0
500.0   60.0   50.0
500.0   30.0   33.333333333333336
450.0   60.0   33.333333333333336
450.0   60.0   0.0
500.0   60.0   0.0
450.0   90.0   0.0
450.0   60.0   16.666666666666668
500.0   60.0   0.0
500.0   90.0   0.0
450.0   90.0   0.0
500.0   90.0   16.666666666666668
450.0   60.0   16.666666666666668
450.0   90.0   16.666666666666668
500.0   90.0   16.666666666666668
450.0   90.0   0.0
450.0   60.0   16.666666666666668
500.0   90.0   16.666666666666668
500.0   60.0   16.666666666666668
500.0   60.0   0.0
450.0   60.0   16.666666666666668
500.0   90.0   16.666666666666668
500.0   60.0   0.0
450.0   90.0   0.0
450.0   60.0   16.666666666666668
500.0   60.0   16.666666666666668
450.0   90.0   16.666666666666668
450.0   60.0   33.333333333333336
500.0   60.0   16.666666666666668
500.0   90.0   16.666666666666668
450.0   90.0   16.666666666666668
500.0   90.0   33.333333333333336
450.0   60.0   33.333333333333336
450.0   90.0   33.333333333333336
500.0   90.0   33.333333333333336
450.0   90.0   16.666666666666668
450.0   60.0   33.333333333333336
500.0   90.0   33.333333333333336
500.0   60.0   33.333333333333336
500.0   60.0   16.666666666666668
450.0   60.0   33.333333333333336
500.0   90.0   33.333333333333336
500.0   60.0   16.666666666666668
450.0   90.0   16.666666666666668
450.0   60.0   33.333333333333336
500.0   60.0   33.333333333333336
450.0   90.0   33.333333333333336
450.0   60.0   50.0
500.0   60.0   33.333333333333336
500.0   90.0   33.333333333333336
450.0   90.0   33.333333333333336
500.0   90.0   50.0
450.0   60.0   50.0
450.0   90.0   50.0
500.0   90.0   50.0
450.0   90.0   33.333333333333336
450.0   60.0   50.0
500.0   90.0   50.0
500.0   60.0   50.0
500.0   60.0   33.333333333333336
450.0   60.0   50.0
500.0   90.0   50.0
500.0   60.0   33.333333333333336
450.0   90.0   33.333333333333336
450.0   90.0   0.0
500.0   90.0   0.0
450.0   120.0   0.0
450.0   90.0   16.666666666666668
500.0   90.0   0.0
500.0   120.0   0.0
450.0   120.0   0.0
500.0   120.0   16.666666666666668
450.0   90.0   16.666666666666668
450.0   120.0   16.666666666666668
500.0   120.0   16.666666666666668
450.0   120.0   0.0
450.0   90.0   16.666666666666668
500.0   120.0   16.666666666666668
500.0   90.0   16.666666666666668
500.0   90.0   0.0
450.0   90.0   16.666666666666668
500.0   120.0   16.666666666666668
500.0   90.0   0.0
450.0   120.0   0.0
450.0   90.0   16.666666666666668
500.0   90.0   16.666666666666668
450.0   120.0   16.666666666666668
450.0   90.0   33.333333333333336
500.0   90.0   16.666666666666668
500.0   120.0   16.666666666666668
450.0   120.0   16.666666666666668
500.0   120.0   33.333333333333336
450.0   90.0   33.333333333333336
450.0   120.0   33.333333333333336
500.0   120.0   33.333333333333336
450.0   120.0   16.666666666666668
450.0   90.0   33.333333333333336
500.0   120.0   33.333333333333336
500.0   90.0   33.333333333333336
500.0   90.0   16.666666666666668
450.0   90.0   33.333333333333336
500.0   120.0   33.333333333333336
500.0   90.0   16.666666666666668
450.0   120.0   16.666666666666668
450.0   90.0   33.333333333333336
500.0   90.0   33.333333333333336
450.0   120.0   33.333333333333336
450.0   90.0   50.0
500.0   90.0   33.333333333333336
500.0   120.0   33.333333333333336
450.0   120.0   33.333333333333336
500.0   120.0   50.0
450.0   90.0   50.0
450.0   120.0   50.0
500.0   120.0   50.0
450.0   120.0   33.333333333333336
450.0   90.0   50.0
500.0   120.0   50.0
500.0   90.0   50.0
500.0   90.0   33.333333333333336
450.0   90.0   50.0
500.0   120.0   50.0
500.0   90.0   33.333333333333336
450.0   120.0   33.333333333333336
450.0   120.0   0.0
500.0   120.0   0.0
450.0   150.0   0.0
450.0   120.0   16.666666666666668
500.0   120.0   0.0
500.0   150.0   0.0
450.0   150.0   0.0
500.0   150.0   16.666666666666668
450.0   120.0   16.666666666666668
450.0   150.0   16.666666666666668
500.0   150.0   16.666666666666668
450.0   150.0   0.0
450.0   120.0   16.666666666666668
500.0   150.0   16.666666666666668
500.0   120.0   16.666666666666668
500.0   120.0   0.0
450.0   120.0   16.666666666666668
500.0   150.0   16.666666666666668
500.0   120.0   0.0
450.0   150.0   0.0
450.0   120.0   16.666666666666668
500.0   120.0   16.666666666666668
450.0   150.0   16.666666666666668
450.0   120.0   33.333333333333336
500.0   120.0   16.666666666666668
500.0   150.0   16.666666666666668
450.0   150.0   16.666666666666668
500.0   150.0   33.333333333333336
450.0   120.0   33.333333333333336
450.0   150.0   33.333333333333336
500.0   150.0   33.333333333333336
450.0   150.0   16.666666666666668
450.0   120.0   33.333333333333336
500.0   150.0   33.333333333333336
500.0   120.0   33.333333333333336
500.0   120.0   16.666666666666668
450.0   120.0   33.333333333333336
500.0   150.0   33.333333333333336
500.0   120.0   16.666666666666668
450.0   150.0   16.666666666666668
450.0   120.0   33.333333333333336
500.0   120.0   33.333333333333336
450.0   150.0   33.333333333333336
450.0   120.0   50.0
500.0   120.0   33.333333333333336
500.0   150.0   33.333333333333336
450.0   150.0   33.333333333333336
500.0   150.0   50.0
450.0   120.0   50.0
450.0   150.0   50.0
500.0   150.0   50.0
450.0   150.0   33.333333333333336
450.0   120.0   50.0
500.0   150.0   50.0
500.0   120.0   50.0
500.0   120.0   33.333333333333336
450.0   120.0   50.0
500.0   150.0   50.0
500.0   120.0   33.333333333333336
450.0   150.0   33.333333333333336
             </DataArray>   
          </Points>  
          <Cells>  
             <DataArray type="Int32" Name="connectivity" format="ascii">   
0   1   2   3
4   5   6   7
8   9   10   11
12   13   14   15
16   17   18   19
20   21   22   23
24   25   26   27
28   29   30   31
32   33   34   35
36   37   38   39
40   41   42   43
44   45   46   47
48   49   50   51
52   53   54   55
56   57   58   59
60   61   62   63
64   65   66   67
68   69   70   71
72   73   74   75
76   77   78   79
80   81   82   83
84   85   86   87
88   89   90   91
92   93   94   95
96   97   98   99
100   101   102   103
104   105   106   107
108   109   110   111
112   113   114   115
116   117   118   119
120   121   122   123
124   125   126   127
128   129   130   131
132   133   134   135
136   137   138   139
140   141   142   143
144   145   146   147
148   149   150   151
152   153   154   155
156   157   158   159
160   161   162   163
164   165   166   167
168   169   170   171
172   173   174   175
176   177   178   179
180   181   182   183
184   185   186   187
188   189   190   191
192   193   194   195
196   197   198   199
200   201   202   203
204   205   206   207
208   209   210   211
212   213   214   215
216   217   218   219
220   221   222   223
224   225   226   227
228   229   230   231
232   233   234   235
236   237   238   239
240   241   242   243
244   245   246   247
248   249   250   251
252   253   254   255
256   257   258   259
260   261   262   263
264   265   266   267
268   269   270   271
272   273   274   275
276   277   278   279
280   281   282   283
284   285   286   287
288   289   290   291
292   293   294   295
296   297   298   299
300   301   302   303
304   305   306   307
308   309   310   311
312   313   314   315
316   317   318   319
320   321   322   323
324   325   326   327
328   329   330   331
332   333   334   335
336   337   338   339
340   341   342   343
344   345   346   347
348   349   350   351
352   353   354   355
356   357   358   359
360   361   362   363
364   365   366   367
368   369   370   371
372   373   374   375
376   377   378   379
380   381   382   383
384   385   386   387
388   389   390   391
392   393   394   395
396   397   398   399
400   401   402   403
404   405   406   407
408   409   410   411
412   413   414   415
416   417   418   419
420   421   422   423
424   425   426   427
428   429   430   431
432   433   434   435
436   437   438   439
440   441   442   443
444   445   446   447
448   449   450   451
452   453   454   455
456   457   458   459
460   461   462   463
464   465   466   467
468   469   470   471
472   473   474   475
476   477   478   479
480   481   482   483
484   485   486   487
488   489   490   491
492   493   494   495
496   497   498   499
500   501   502   503
504   505   506   507
508   509   510   511
512   513   514   515
516   517   518   519
520   521   522   523
524   525   526   527
528   529   530   531
532   533   534   535
536   537   538   539
540   541   542   543
544   545   546   547
548   549   550   551
552   553   554   555
556   557   558   559
560   561   562   563
564   565   566   567
568   569   570   571
572   573   574   575
576   577   578   579
580   581   582   583
584   585   586   587
588   589   590   591
592   593   594   595
596   597   598   599
600   601   602   603
604   605   606   607
608   609   610   611
612   613   614   615
616   617   618   619
620   621   622   623
624   625   626   627
628   629   630   631
632   633   634   635
636   637   638   639
640   641   642   643
644   645   646   647
648   649   650   651
652   653   654   655
656   657   658   659
660   661   662   663
664   665   666   667
668   669   670   671
672   673   674   675
676   677   678   679
680   681   682   683
684   685   686   687
688   689   690   691
692   693   694   695
696   697   698   699
700   701   702   703
704   705   706   707
708   709   710   711
712   713   714   715
716   717   718   719
720   721   722   723
724   725   726   727
728   729   730   731
732   733   734   735
736   737   738   739
740   741   742   743
744   745   746   747
748   749   750   751
752   753   754   755
756   757   758   759
760   761   762   763
764   765   766   767
768   769   770   771
772   773   774   775
776   777   778   779
780   781   782   783
784   785   786   787
788   789   790   791
792   793   794   795
796   797   798   799
800   801   802   803
804   805   806   807
808   809   810   811
812   813   814   815
816   817   818   819
820   821   822   823
824   825   826   827
828   829   830   831
832   833   834   835
836   837   838   839
840   841   842   843
844   845   846   847
848   849   850   851
852   853   854   855
856   857   858   859
860   861   862   863
864   865   866   867
868   869   870   871
872   873   874   875
876   877   878   879
880   881   882   883
884   885   886   887
888   889   890   891
892   893   894   895
896   897   898   899
900   901   902   903
904   905   906   907
908   909   910   911
912   913   914   915
916   917   918   919
920   921   922   923
924   925   926   927
928   929   930   931
932   933   934   935
936   937   938   939
940   941   942   943
944   945   946   947
948   949   950   951
952   953   954   955
956   957   958   959
960   961   962   963
964   965   966   967
968   969   970   971
972   973   974   975
976   977   978   979
980   981   982   983
984   985   986   987
988   989   990   991
992   993   994   995
996   997   998   999
1000   1001   1002   1003
1004   1005   1006   1007
1008   1009   1010   1011
1012   1013   1014   1015
1016   1017   1018   1019
1020   1021   1022   1023
1024   1025   1026   1027
1028   1029   1030   1031
1032   1033   1034   1035
1036   1037   1038   1039
1040   1041   1042   1043
1044   1045   1046   1047
1048   1049   1050   1051
1052   1053   1054   1055
1056   1057   1058   1059
1060   1061   1062   1063
1064   1065   1066   1067
1068   1069   1070   1071
1072   1073   1074   1075
1076   1077   1078   1079
1080   1081   1082   1083
1084   1085   1086   1087
1088   1089   1090   1091
1092   1093   1094   1095
1096   1097   1098   1099
1100   1101   1102   1103
1104   1105   1106   1107
1108   1109   1110   1111
1112   1113   1114   1115
1116   1117   1118   1119
1120   1121   1122   1123
1124   1125   1126   1127
1128   1129   1130   1131
1132   1133   1134   1135
1136   1137   1138   1139
1140   1141   1142   1143
1144   1145   1146   1147
1148   1149   1150   1151
1152   1153   1154   1155
1156   1157   1158   1159
1160   1161   1162   1163
1164   1165   1166   1167
1168   1169   1170   1171
1172   1173   1174   1175
1176   1177   1178   1179
1180   1181   1182   1183
1184   1185   1186   1187
1188   1189   1190   1191
1192   1193   1194   1195
1196   1197   1198   1199
1200   1201   1202   1203
1204   1205   1206   1207
1208   1209   1210   1211
1212   1213   1214   1215
1216   1217   1218   1219
1220   1221   1222   1223
1224   1225   1226   1227
1228   1229   1230   1231
1232   1233   1234   1235
1236   1237   1238   1239
1240   1241   1242   1243
1244   1245   1246   1247
1248   1249   1250   1251
1252   1253   1254   1255
1256   1257   1258   1259
1260   1261   1262   1263
1264   1265   1266   1267
1268   1269   1270   1271
1272   1273   1274   1275
1276   1277   1278   1279
1280   1281   1282   1283
1284   1285   1286   1287
1288   1289   1290   1291
1292   1293   1294   1295
1296   1297   1298   1299
1300   1301   1302   1303
1304   1305   1306   1307
1308   1309   1310   1311
1312   1313   1314   1315
1316   1317   1318   1319
1320   1321   1322   1323
1324   1325   1326   1327
1328   1329   1330   1331
1332   1333   1334   1335
1336   1337   1338   1339
1340   1341   1342   1343
1344   1345   1346   1347
1348   1349   1350   1351
1352   1353   1354   1355
1356   1357   1358   1359
1360   1361   1362   1363
1364   1365   1366   1367
1368   1369   1370   1371
1372   1373   1374   1375
1376   1377   1378   1379
1380   1381   1382   1383
1384   1385   1386   1387
1388   1389   1390   1391
1392   1393   1394   1395
1396   1397   1398   1399
1400   1401   1402   1403
1404   1405   1406   1407
1408   1409   1410   1411
1412   1413   1414   1415
1416   1417   1418   1419
1420   1421   1422   1423
1424   1425   1426   1427
1428   1429   1430   1431
1432   1433   1434   1435
1436   1437   1438   1439
1440   1441   1442   1443
1444   1445   1446   1447
1448   1449   1450   1451
1452   1453   1454   1455
1456   1457   1458   1459
1460   1461   1462   1463
1464   1465   1466   1467
1468   1469   1470   1471
1472   1473   1474   1475
1476   1477   1478   1479
1480   1481   1482   1483
1484   1485   1486   1487
1488   1489   1490   1491
1492   1493   1494   1495
1496   1497   1498   1499
1500   1501   1502   1503
1504   1505   1506   1507
1508   1509   1510   1511
1512   1513   1514   1515
1516   1517   1518   1519
1520   1521   1522   1523
1524   1525   1526   1527
1528   1529   1530   1531
1532   1533   1534   1535
1536   1537   1538   1539
1540   1541   1542   1543
1544   1545   1546   1547
1548   1549   1550   1551
1552   1553   1554   1555
1556   1557   1558   1559
1560   1561   1562   1563
1564   1565   1566   1567
1568   1569   1570   1571
1572   1573   1574   1575
1576   1577   1578   1579
1580   1581   1582   1583
1584   1585   1586   1587
1588   1589   1590   1591
1592   1593   1594   1595
1596   1597   1598   1599
1600   1601   1602   1603
1604   1605   1606   1607
1608   1609   1610   1611
1612   1613   1614   1615
1616   1617   1618   1619
1620   1621   1622   1623
1624   1625   1626   1627
1628   1629   1630   1631
1632   1633   1634   1635
1636   1637   1638   1639
1640   1641   1642   1643
1644   1645   1646   1647
1648   1649   1650   1651
1652   1653   1654   1655
1656   1657   1658   1659
1660   1661   1662   1663
1664   1665   1666   1667
1668   1669   1670   1671
1672   1673   1674   1675
1676   1677   1678   1679
1680   1681   1682   1683
1684   1685   1686   1687
1688   1689   1690   1691
1692   1693   1694   1695
1696   1697   1698   1699
1700   1701   1702   1703
1704   1705   1706   1707
1708   1709   1710   1711
1712   1713   1714   1715
1716   1717   1718   1719
1720   1721   1722   1723
1724   1725   1726   1727
1728   1729   1730   1731
1732   1733   1734   1735
1736   1737   1738   1739
1740   1741   1742   1743
1744   1745   1746   1747
1748   1749   1750   1751
1752   1753   1754   1755
1756   1757   1758   1759
1760   1761   1762   1763
1764   1765   1766   1767
1768   1769   1770   1771
1772   1773   1774   1775
1776   1777   1778   1779
1780   1781   1782   1783
1784   1785   1786   1787
1788   1789   1790   1791
1792   1793   1794   1795
1796   1797   1798   1799
1800   1801   1802   1803
1804   1805   1806   1807
1808   1809   1810   1811
1812   1813   1814   1815
1816   1817   1818   1819
1820   1821   1822   1823
1824   1825   1826   1827
1828   1829   1830   1831
1832   1833   1834   1835
1836   1837   1838   1839
1840   1841   1842   1843
1844   1845   1846   1847
1848   1849   1850   1851
1852   1853   1854   1855
1856   1857   1858   1859
1860   1861   1862   1863
1864   1865   1866   1867
1868   1869   1870   1871
1872   1873   1874   1875
1876   1877   1878   1879
1880   1881   1882   1883
1884   1885   1886   1887
1888   1889   1890   1891
1892   1893   1894   1895
1896   1897   1898   1899
1900   1901   1902   1903
1904   1905   1906   1907
1908   1909   1910   1911
1912   1913   1914   1915
1916   1917   1918   1919
1920   1921   1922   1923
1924   1925   1926   1927
1928   1929   1930   1931
1932   1933   1934   1935
1936   1937   1938   1939
1940   1941   1942   1943
1944   1945   1946   1947
1948   1949   1950   1951
1952   1953   1954   1955
1956   1957   1958   1959
1960   1961   1962   1963
1964   1965   1966   1967
1968   1969   1970   1971
1972   1973   1974   1975
1976   1977   1978   1979
1980   1981   1982   1983
1984   1985   1986   1987
1988   1989   1990   1991
1992   1993   1994   1995
1996   1997   1998   1999
2000   2001   2002   2003
2004   2005   2006   2007
2008   2009   2010   2011
2012   2013   2014   2015
2016   2017   2018   2019
2020   2021   2022   2023
2024   2025   2026   2027
2028   2029   2030   2031
2032   2033   2034   2035
2036   2037   2038   2039
2040   2041   2042   2043
2044   2045   2046   2047
2048   2049   2050   2051
2052   2053   2054   2055
2056   2057   2058   2059
2060   2061   2062   2063
2064   2065   2066   2067
2068   2069   2070   2071
2072   2073   2074   2075
2076   2077   2078   2079
2080   2081   2082   2083
2084   2085   2086   2087
2088   2089   2090   2091
2092   2093   2094   2095
2096   2097   2098   2099
2100   2101   2102   2103
2104   2105   2106   2107
2108   2109   2110   2111
2112   2113   2114   2115
2116   2117   2118   2119
2120   2121   2122   2123
2124   2125   2126   2127
2128   2129   2130   2131
2132   2133   2134   2135
2136   2137   2138   2139
2140   2141   2142   2143
2144   2145   2146   2147
2148   2149   2150   2151
2152   2153   2154   2155
2156   2157   2158   2159
2160   2161   2162   2163
2164   2165   2166   2167
2168   2169   2170   2171
2172   2173   2174   2175
2176   2177   2178   2179
2180   2181   2182   2183
2184   2185   2186   2187
2188   2189   2190   2191
2192   2193   2194   2195
2196   2197   2198   2199
2200   2201   2202   2203
2204   2205   2206   2207
2208   2209   2210   2211
2212   2213   2214   2215
2216   2217   2218   2219
2220   2221   2222   2223
2224   2225   2226   2227
2228   2229   2230   2231
2232   2233   2234   2235
2236   2237   2238   2239
2240   2241   2242   2243
2244   2245   2246   2247
2248   2249   2250   2251
2252   2253   2254   2255
2256   2257   2258   2259
2260   2261   2262   2263
2264   2265   2266   2267
2268   2269   2270   2271
2272   2273   2274   2275
2276   2277   2278   2279
2280   2281   2282   2283
2284   2285   2286   2287
2288   2289   2290   2291
2292   2293   2294   2295
2296   2297   2298   2299
2300   2301   2302   2303
2304   2305   2306   2307
2308   2309   2310   2311
2312   2313   2314   2315
2316   2317   2318   2319
2320   2321   2322   2323
2324   2325   2326   2327
2328   2329   2330   2331
2332   2333   2334   2335
2336   2337   2338   2339
2340   2341   2342   2343
2344   2345   2346   2347
2348   2349   2350   2351
2352   2353   2354   2355
2356   2357   2358   2359
2360   2361   2362   2363
2364   2365   2366   2367
2368   2369   2370   2371
2372   2373   2374   2375
2376   2377   2378   2379
2380   2381   2382   2383
2384   2385   2386   2387
2388   2389   2390   2391
2392   2393   2394   2395
2396   2397   2398   2399
2400   2401   2402   2403
2404   2405   2406   2407
2408   2409   2410   2411
2412   2413   2414   2415
2416   2417   2418   2419
2420   2421   2422   2423
2424   2425   2426   2427
2428   2429   2430   2431
2432   2433   2434   2435
2436   2437   2438   2439
2440   2441   2442   2443
2444   2445   2446   2447
2448   2449   2450   2451
2452   2453   2454   2455
2456   2457   2458   2459
2460   2461   2462   2463
2464   2465   2466   2467
2468   2469   2470   2471
2472   2473   2474   2475
2476   2477   2478   2479
2480   2481   2482   2483
2484   2485   2486   2487
2488   2489   2490   2491
2492   2493   2494   2495
2496   2497   2498   2499
2500   2501   2502   2503
2504   2505   2506   2507
2508   2509   2510   2511
2512   2513   2514   2515
2516   2517   2518   2519
2520   2521   2522   2523
2524   2525   2526   2527
2528   2529   2530   2531
2532   2533   2534   2535
2536   2537   2538   2539
2540   2541   2542   2543
2544   2545   2546   2547
2548   2549   2550   2551
2552   2553   2554   2555
2556   2557   2558   2559
2560   2561   2562   2563
2564   2565   2566   2567
2568   2569   2570   2571
2572   2573   2574   2575
2576   2577   2578   2579
2580   2581   2582   2583
2584   2585   2586   2587
2588   2589   2590   2591
2592   2593   2594   2595
2596   2597   2598   2599
2600   2601   2602   2603
2604   2605   2606   2607
2608   2609   2610   2611
2612   2613   2614   2615
2616   2617   2618   2619
2620   2621   2622   2623
2624   2625   2626   2627
2628   2629   2630   2631
2632   2633   2634   2635
2636   2637   2638   2639
2640   2641   2642   2643
2644   2645   2646   2647
2648   2649   2650   2651
2652   2653   2654   2655
2656   2657   2658   2659
2660   2661   2662   2663
2664   2665   2666   2667
2668   2669   2670   2671
2672   2673   2674   2675
2676   2677   2678   2679
2680   2681   2682   2683
2684   2685   2686   2687
2688   2689   2690   2691
2692   2693   2694   2695
2696   2697   2698   2699
2700   2701   2702   2703
2704   2705   2706   2707
2708   2709   2710   2711
2712   2713   2714   2715
2716   2717   2718   2719
2720   2721   2722   2723
2724   2725   2726   2727
2728   2729   2730   2731
2732   2733   2734   2735
2736   2737   2738   2739
2740   2741   2742   2743
2744   2745   2746   2747
2748   2749   2750   2751
2752   2753   2754   2755
2756   2757   2758   2759
2760   2761   2762   2763
2764   2765   2766   2767
2768   2769   2770   2771
2772   2773   2774   2775
2776   2777   2778   2779
2780   2781   2782   2783
2784   2785   2786   2787
2788   2789   2790   2791
2792   2793   2794   2795
2796   2797   2798   2799
2800   2801   2802   2803
2804   2805   2806   2807
2808   2809   2810   2811
2812   2813   2814   2815
2816   2817   2818   2819
2820   2821   2822   2823
2824   2825   2826   2827
2828   2829   2830   2831
2832   2833   2834   2835
2836   2837   2838   2839
2840   2841   2842   2843
2844   2845   2846   2847
2848   2849   2850   2851
2852   2853   2854   2855
2856   2857   2858   2859
2860   2861   2862   2863
2864   2865   2866   2867
2868   2869   2870   2871
2872   2873   2874   2875
2876   2877   2878   2879
2880   2881   2882   2883
2884   2885   2886   2887
2888   2889   2890   2891
2892   2893   2894   2895
2896   2897   2898   2899
2900   2901   2902   2903
2904   2905   2906   2907
2908   2909   2910   2911
2912   2913   2914   2915
2916   2917   2918   2919
2920   2921   2922   2923
2924   2925   2926   2927
2928   2929   2930   2931
2932   2933   2934   2935
2936   2937   2938   2939
2940   2941   2942   2943
2944   2945   2946   2947
2948   2949   2950   2951
2952   2953   2954   2955
2956   2957   2958   2959
2960   2961   2962   2963
2964   2965   2966   2967
2968   2969   2970   2971
2972   2973   2974   2975
2976   2977   2978   2979
2980   2981   2982   2983
2984   2985   2986   2987
2988   2989   2990   2991
2992   2993   2994   2995
2996   2997   2998   2999
3000   3001   3002   3003
3004   3005   3006   3007
3008   3009   3010   3011
3012   3013   3014   3015
3016   3017   3018   3019
3020   3021   3022   3023
3024   3025   3026   3027
3028   3029   3030   3031
3032   3033   3034   3035
3036   3037   3038   3039
3040   3041   3042   3043
3044   3045   3046   3047
3048   3049   3050   3051
3052   3053   3054   3055
3056   3057   3058   3059
3060   3061   3062   3063
3064   3065   3066   3067
3068   3069   3070   3071
3072   3073   3074   3075
3076   3077   3078   3079
3080   3081   3082   3083
3084   3085   3086   3087
3088   3089   3090   3091
3092   3093   3094   3095
3096   3097   3098   3099
3100   3101   3102   3103
3104   3105   3106   3107
3108   3109   3110   3111
3112   3113   3114   3115
3116   3117   3118   3119
3120   3121   3122   3123
3124   3125   3126   3127
3128   3129   3130   3131
3132   3133   3134   3135
3136   3137   3138   3139
3140   3141   3142   3143
3144   3145   3146   3147
3148   3149   3150   3151
3152   3153   3154   3155
3156   3157   3158   3159
3160   3161   3162   3163
3164   3165   3166   3167
3168   3169   3170   3171
3172   3173   3174   3175
3176   3177   3178   3179
3180   3181   3182   3183
3184   3185   3186   3187
3188   3189   3190   3191
3192   3193   3194   3195
3196   3197   3198   3199
3200   3201   3202   3203
3204   3205   3206   3207
3208   3209   3210   3211
3212   3213   3214   3215
3216   3217   3218   3219
3220   3221   3222   3223
3224   3225   3226   3227
3228   3229   3230   3231
3232   3233   3234   3235
3236   3237   3238   3239
3240   3241   3242   3243
3244   3245   3246   3247
3248   3249   3250   3251
3252   3253   3254   3255
3256   3257   3258   3259
3260   3261   3262   3263
3264   3265   3266   3267
3268   3269   3270   3271
3272   3273   3274   3275
3276   3277   3278   3279
3280   3281   3282   3283
3284   3285   3286   3287
3288   3289   3290   3291
3292   3293   3294   3295
3296   3297   3298   3299
3300   3301   3302   3303
3304   3305   3306   3307
3308   3309   3310   3311
3312   3313   3314   3315
3316   3317   3318   3319
3320   3321   3322   3323
3324   3325   3326   3327
3328   3329   3330   3331
3332   3333   3334   3335
3336   3337   3338   3339
3340   3341   3342   3343
3344   3345   3346   3347
3348   3349   3350   3351
3352   3353   3354   3355
3356   3357   3358   3359
3360   3361   3362   3363
3364   3365   3366   3367
3368   3369   3370   3371
3372   3373   3374   3375
3376   3377   3378   3379
3380   3381   3382   3383
3384   3385   3386   3387
3388   3389   3390   3391
3392   3393   3394   3395
3396   3397   3398   3399
3400   3401   3402   3403
3404   3405   3406   3407
3408   3409   3410   3411
3412   3413   3414   3415
3416   3417   3418   3419
3420   3421   3422   3423
3424   3425   3426   3427
3428   3429   3430   3431
3432   3433   3434   3435
3436   3437   3438   3439
3440   3441   3442   3443
3444   3445   3446   3447
3448   3449   3450   3451
3452   3453   3454   3455
3456   3457   3458   3459
3460   3461   3462   3463
3464   3465   3466   3467
3468   3469   3470   3471
3472   3473   3474   3475
3476   3477   3478   3479
3480   3481   3482   3483
3484   3485   3486   3487
3488   3489   3490   3491
3492   3493   3494   3495
3496   3497   3498   3499
3500   3501   3502   3503
3504   3505   3506   3507
3508   3509   3510   3511
3512   3513   3514   3515
3516   3517   3518   3519
3520   3521   3522   3523
3524   3525   3526   3527
3528   3529   3530   3531
3532   3533   3534   3535
3536   3537   3538   3539
3540   3541   3542   3543
3544   3545   3546   3547
3548   3549   3550   3551
3552   3553   3554   3555
3556   3557   3558   3559
3560   3561   3562   3563
3564   3565   3566   3567
3568   3569   3570   3571
3572   3573   3574   3575
3576   3577   3578   3579
3580   3581   3582   3583
3584   3585   3586   3587
3588   3589   3590   3591
3592   3593   3594   3595
3596   3597   3598   3599
3600   3601   3602   3603
3604   3605   3606   3607
3608   3609   3610   3611
3612   3613   3614   3615
3616   3617   3618   3619
3620   3621   3622   3623
3624   3625   3626   3627
3628   3629   3630   3631
3632   3633   3634   3635
3636   3637   3638   3639
3640   3641   3642   3643
3644   3645   3646   3647
3648   3649   3650   3651
3652   3653   3654   3655
3656   3657   3658   3659
3660   3661   3662   3663
3664   3665   3666   3667
3668   3669   3670   3671
3672   3673   3674   3675
3676   3677   3678   3679
3680   3681   3682   3683
3684   3685   3686   3687
3688   3689   3690   3691
3692   3693   3694   3695
3696   3697   3698   3699
3700   3701   3702   3703
3704   3705   3706   3707
3708   3709   3710   3711
3712   3713   3714   3715
3716   3717   3718   3719
3720   3721   3722   3723
3724   3725   3726   3727
3728   3729   3730   3731
3732   3733   3734   3735
3736   3737   3738   3739
3740   3741   3742   3743
3744   3745   3746   3747
3748   3749   3750   3751
3752   3753   3754   3755
3756   3757   3758   3759
3760   3761   3762   3763
3764   3765   3766   3767
3768   3769   3770   3771
3772   3773   3774   3775
3776   3777   3778   3779
3780   3781   3782   3783
3784   3785   3786   3787
3788   3789   3790   3791
3792   3793   3794   3795
3796   3797   3798   3799
3800   3801   3802   3803
3804   3805   3806   3807
3808   3809   3810   3811
3812   3813   3814   3815
3816   3817   3818   3819
3820   3821   3822   3823
3824   3825   3826   3827
3828   3829   3830   3831
3832   3833   3834   3835
3836   3837   3838   3839
3840   3841   3842   3843
3844   3845   3846   3847
3848   3849   3850   3851
3852   3853   3854   3855
3856   3857   3858   3859
3860   3861   3862   3863
3864   3865   3866   3867
3868   3869   3870   3871
3872   3873   3874   3875
3876   3877   3878   3879
3880   3881   3882   3883
3884   3885   3886   3887
3888   3889   3890   3891
3892   3893   3894   3895
3896   3897   3898   3899
3900   3901   3902   3903
3904   3905   3906   3907
3908   3909   3910   3911
3912   3913   3914   3915
3916   3917   3918   3919
3920   3921   3922   3923
3924   3925   3926   3927
3928   3929   3930   3931
3932   3933   3934   3935
3936   3937   3938   3939
3940   3941   3942   3943
3944   3945   3946   3947
3948   3949   3950   3951
3952   3953   3954   3955
3956   3957   3958   3959
3960   3961   3962   3963
3964   3965   3966   3967
3968   3969   3970   3971
3972   3973   3974   3975
3976   3977   3978   3979
3980   3981   3982   3983
3984   3985   3986   3987
3988   3989   3990   3991
3992   3993   3994   3995
3996   3997   3998   3999
4000   4001   4002   4003
4004   4005   4006   4007
4008   4009   4010   4011
4012   4013   4014   4015
4016   4017   4018   4019
4020   4021   4022   4023
4024   4025   4026   4027
4028   4029   4030   4031
4032   4033   4034   4035
4036   4037   4038   4039
4040   4041   4042   4043
4044   4045   4046   4047
4048   4049   4050   4051
4052   4053   4054   4055
4056   4057   4058   4059
4060   4061   4062   4063
4064   4065   4066   4067
4068   4069   4070   4071
4072   4073   4074   4075
4076   4077   4078   4079
4080   4081   4082   4083
4084   4085   4086   4087
4088   4089   4090   4091
4092   4093   4094   4095
4096   4097   4098   4099
4100   4101   4102   4103
4104   4105   4106   4107
4108   4109   4110   4111
4112   4113   4114   4115
4116   4117   4118   4119
4120   4121   4122   4123
4124   4125   4126   4127
4128   4129   4130   4131
4132   4133   4134   4135
4136   4137   4138   4139
4140   4141   4142   4143
4144   4145   4146   4147
4148   4149   4150   4151
4152   4153   4154   4155
4156   4157   4158   4159
4160   4161   4162   4163
4164   4165   4166   4167
4168   4169   4170   4171
4172   4173   4174   4175
4176   4177   4178   4179
4180   4181   4182   4183
4184   4185   4186   4187
4188   4189   4190   4191
4192   4193   4194   4195
4196   4197   4198   4199
4200   4201   4202   4203
4204   4205   4206   4207
4208   4209   4210   4211
4212   4213   4214   4215
4216   4217   4218   4219
4220   4221   4222   4223
4224   4225   4226   4227
4228   4229   4230   4231
4232   4233   4234   4235
4236   4237   4238   4239
4240   4241   4242   4243
4244   4245   4246   4247
4248   4249   4250   4251
4252   4253   4254   4255
4256   4257   4258   4259
4260   4261   4262   4263
4264   4265   4266   4267
4268   4269   4270   4271
4272   4273   4274   4275
4276   4277   4278   4279
4280   4281   4282   4283
4284   4285   4286   4287
4288   4289   4290   4291
4292   4293   4294   4295
4296   4297   4298   4299
4300   4301   4302   4303
4304   4305   4306   4307
4308   4309   4310   4311
4312   4313   4314   4315
4316   4317   4318   4319
4320   4321   4322   4323
4324   4325   4326   4327
4328   4329   4330   4331
4332   4333   4334   4335
4336   4337   4338   4339
4340   4341   4342   4343
4344   4345   4346   4347
4348   4349   4350   4351
4352   4353   4354   4355
4356   4357   4358   4359
4360   4361   4362   4363
4364   4365   4366   4367
4368   4369   4370   4371
4372   4373   4374   4375
4376   4377   4378   4379
4380   4381   4382   4383
4384   4385   4386   4387
4388   4389   4390   4391
4392   4393   4394   4395
4396   4397   4398   4399
4400   4401   4402   4403
4404   4405   4406   4407
4408   4409   4410   4411
4412   4413   4414   4415
4416   4417   4418   4419
4420   4421   4422   4423
4424   4425   4426   4427
4428   4429   4430   4431
4432   4433   4434   4435
4436   4437   4438   4439
4440   4441   4442   4443
4444   4445   4446   4447
4448   4449   4450   4451
4452   4453   4454   4455
4456   4457   4458   4459
4460   4461   4462   4463
4464   4465   4466   4467
4468   4469   4470   4471
4472   4473   4474   4475
4476   4477   4478   4479
4480   4481   4482   4483
4484   4485   4486   4487
4488   4489   4490   4491
4492   4493   4494   4495
4496   4497   4498   4499
4500   4501   4502   4503
4504   4505   4506   4507
4508   4509   4510   4511
4512   4513   4514   4515
4516   4517   4518   4519
4520   4521   4522   4523
4524   4525   4526   4527
4528   4529   4530   4531
4532   4533   4534   4535
4536   4537   4538   4539
4540   4541   4542   4543
4544   4545   4546   4547
4548   4549   4550   4551
4552   4553   4554   4555
4556   4557   4558   4559
4560   4561   4562   4563
4564   4565   4566   4567
4568   4569   4570   4571
4572   4573   4574   4575
4576   4577   4578   4579
4580   4581   4582   4583
4584   4585   4586   4587
4588   4589   4590   4591
4592   4593   4594   4595
4596   4597   4598   4599
4600   4601   4602   4603
4604   4605   4606   4607
4608   4609   4610   4611
4612   4613   4614   4615
4616   4617   4618   4619
4620   4621   4622   4623
4624   4625   4626   4627
4628   4629   4630   4631
4632   4633   4634   4635
4636   4637   4638   4639
4640   4641   4642   4643
4644   4645   4646   4647
4648   4649   4650   4651
4652   4653   4654   4655
4656   4657   4658   4659
4660   4661   4662   4663
4664   4665   4666   4667
4668   4669   4670   4671
4672   4673   4674   4675
4676   4677   4678   4679
4680   4681   4682   4683
4684   4685   4686   4687
4688   4689   4690   4691
4692   4693   4694   4695
4696   4697   4698   4699
4700   4701   4702   4703
4704   4705   4706   4707
4708   4709   4710   4711
4712   4713   4714   4715
4716   4717   4718   4719
4720   4721   4722   4723
4724   4725   4726   4727
4728   4729   4730   4731
4732   4733   4734   4735
4736   4737   4738   4739
4740   4741   4742   4743
4744   4745   4746   4747
4748   4749   4750   4751
4752   4753   4754   4755
4756   4757   4758   4759
4760   4761   4762   4763
4764   4765   4766   4767
4768   4769   4770   4771
4772   4773   4774   4775
4776   4777   4778   4779
4780   4781   4782   4783
4784   4785   4786   4787
4788   4789   4790   4791
4792   4793   4794   4795
4796   4797   4798   4799
4800   4801   4802   4803
4804   4805   4806   4807
4808   4809   4810   4811
4812   4813   4814   4815
4816   4817   4818   4819
4820   4821   4822   4823
4824   4825   4826   4827
4828   4829   4830   4831
4832   4833   4834   4835
4836   4837   4838   4839
4840   4841   4842   4843
4844   4845   4846   4847
4848   4849   4850   4851
4852   4853   4854   4855
4856   4857   4858   4859
4860   4861   4862   4863
4864   4865   4866   4867
4868   4869   4870   4871
4872   4873   4874   4875
4876   4877   4878   4879
4880   4881   4882   4883
4884   4885   4886   4887
4888   4889   4890   4891
4892   4893   4894   4895
4896   4897   4898   4899
4900   4901   4902   4903
4904   4905   4906   4907
4908   4909   4910   4911
4912   4913   4914   4915
4916   4917   4918   4919
4920   4921   4922   4923
4924   4925   4926   4927
4928   4929   4930   4931
4932   4933   4934   4935
4936   4937   4938   4939
4940   4941   4942   4943
4944   4945   4946   4947
4948   4949   4950   4951
4952   4953   4954   4955
4956   4957   4958   4959
4960   4961   4962   4963
4964   4965   4966   4967
4968   4969   4970   4971
4972   4973   4974   4975
4976   4977   4978   4979
4980   4981   4982   4983
4984   4985   4986   4987
4988   4989   4990   4991
4992   4993   4994   4995
4996   4997   4998   4999
5000   5001   5002   5003
5004   5005   5006   5007
5008   5009   5010   5011
5012   5013   5014   5015
5016   5017   5018   5019
5020   5021   5022   5023
5024   5025   5026   5027
5028   5029   5030   5031
5032   5033   5034   5035
5036   5037   5038   5039
5040   5041   5042   5043
5044   5045   5046   5047
5048   5049   5050   5051
5052   5053   5054   5055
5056   5057   5058   5059
5060   5061   5062   5063
5064   5065   5066   5067
5068   5069   5070   5071
5072   5073   5074   5075
5076   5077   5078   5079
5080   5081   5082   5083
5084   5085   5086   5087
5088   5089   5090   5091
5092   5093   5094   5095
5096   5097   5098   5099
5100   5101   5102   5103
5104   5105   5106   5107
5108   5109   5110   5111
5112   5113   5114   5115
5116   5117   5118   5119
5120   5121   5122   5123
5124   5125   5126   5127
5128   5129   5130   5131
5132   5133   5134   5135
5136   5137   5138   5139
5140   5141   5142   5143
5144   5145   5146   5147
5148   5149   5150   5151
5152   5153   5154   5155
5156   5157   5158   5159
5160   5161   5162   5163
5164   5165   5166   5167
5168   5169   5170   5171
5172   5173   5174   5175
5176   5177   5178   5179
5180   5181   5182   5183
5184   5185   5186   5187
5188   5189   5190   5191
5192   5193   5194   5195
5196   5197   5198   5199
5200   5201   5202   5203
5204   5205   5206   5207
5208   5209   5210   5211
5212   5213   5214   5215
5216   5217   5218   5219
5220   5221   5222   5223
5224   5225   5226   5227
5228   5229   5230   5231
5232   5233   5234   5235
5236   5237   5238   5239
5240   5241   5242   5243
5244   5245   5246   5247
5248   5249   5250   5251
5252   5253   5254   5255
5256   5257   5258   5259
5260   5261   5262   5263
5264   5265   5266   5267
5268   5269   5270   5271
5272   5273   5274   5275
5276   5277   5278   5279
5280   5281   5282   5283
5284   5285   5286   5287
5288   5289   5290   5291
5292   5293   5294   5295
5296   5297   5298   5299
5300   5301   5302   5303
5304   5305   5306   5307
5308   5309   5310   5311
5312   5313   5314   5315
5316   5317   5318   5319
5320   5321   5322   5323
5324   5325   5326   5327
5328   5329   5330   5331
5332   5333   5334   5335
5336   5337   5338   5339
5340   5341   5342   5343
5344   5345   5346   5347
5348   5349   5350   5351
5352   5353   5354   5355
5356   5357   5358   5359
5360   5361   5362   5363
5364   5365   5366   5367
5368   5369   5370   5371
5372   5373   5374   5375
5376   5377   5378   5379
5380   5381   5382   5383
5384   5385   5386   5387
5388   5389   5390   5391
5392   5393   5394   5395
5396   5397   5398   5399
5400   5401   5402   5403
5404   5405   5406   5407
5408   5409   5410   5411
5412   5413   5414   5415
5416   5417   5418   5419
5420   5421   5422   5423
5424   5425   5426   5427
5428   5429   5430   5431
5432   5433   5434   5435
5436   5437   5438   5439
5440   5441   5442   5443
5444   5445   5446   5447
5448   5449   5450   5451
5452   5453   5454   5455
5456   5457   5458   5459
5460   5461   5462   5463
5464   5465   5466   5467
5468   5469   5470   5471
5472   5473   5474   5475
5476   5477   5478   5479
5480   5481   5482   5483
5484   5485   5486   5487
5488   5489   5490   5491
5492   5493   5494   5495
5496   5497   5498   5499
5500   5501   5502   5503
5504   5505   5506   5507
5508   5509   5510   5511
5512   5513   5514   5515
5516   5517   5518   5519
5520   5521   5522   5523
5524   5525   5526   5527
5528   5529   5530   5531
5532   5533   5534   5535
5536   5537   5538   5539
5540   5541   5542   5543
5544   5545   5546   5547
5548   5549   5550   5551
5552   5553   5554   5555
5556   5557   5558   5559
5560   5561   5562   5563
5564   5565   5566   5567
5568   5569   5570   5571
5572   5573   5574   5575
5576   5577   5578   5579
5580   5581   5582   5583
5584   5585   5586   5587
5588   5589   5590   5591
5592   5593   5594   5595
5596   5597   5598   5599
5600   5601   5602   5603
5604   5605   5606   5607
5608   5609   5610   5611
5612   5613   5614   5615
5616   5617   5618   5619
5620   5621   5622   5623
5624   5625   5626   5627
5628   5629   5630   5631
5632   5633   5634   5635
5636   5637   5638   5639
5640   5641   5642   5643
5644   5645   5646   5647
5648   5649   5650   5651
5652   5653   5654   5655
5656   5657   5658   5659
5660   5661   5662   5663
5664   5665   5666   5667
5668   5669   5670   5671
5672   5673   5674   5675
5676   5677   5678   5679
5680   5681   5682   5683
5684   5685   5686   5687
5688   5689   5690   5691
5692   5693   5694   5695
5696   5697   5698   5699
5700   5701   5702   5703
5704   5705   5706   5707
5708   5709   5710   5711
5712   5713   5714   5715
5716   5717   5718   5719
5720   5721   5722   5723
5724   5725   5726   5727
5728   5729   5730   5731
5732   5733   5734   5735
5736   5737   5738   5739
5740   5741   5742   5743
5744   5745   5746   5747
5748   5749   5750   5751
5752   5753   5754   5755
5756   5757   5758   5759
5760   5761   5762   5763
5764   5765   5766   5767
5768   5769   5770   5771
5772   5773   5774   5775
5776   5777   5778   5779
5780   5781   5782   5783
5784   5785   5786   5787
5788   5789   5790   5791
5792   5793   5794   5795
5796   5797   5798   5799
5800   5801   5802   5803
5804   5805   5806   5807
5808   5809   5810   5811
5812   5813   5814   5815
5816   5817   5818   5819
5820   5821   5822   5823
5824   5825   5826   5827
5828   5829   5830   5831
5832   5833   5834   5835
5836   5837   5838   5839
5840   5841   5842   5843
5844   5845   5846   5847
5848   5849   5850   5851
5852   5853   5854   5855
5856   5857   5858   5859
5860   5861   5862   5863
5864   5865   5866   5867
5868   5869   5870   5871
5872   5873   5874   5875
5876   5877   5878   5879
5880   5881   5882   5883
5884   5885   5886   5887
5888   5889   5890   5891
5892   5893   5894   5895
5896   5897   5898   5899
5900   5901   5902   5903
5904   5905   5906   5907
5908   5909   5910   5911
5912   5913   5914   5915
5916   5917   5918   5919
5920   5921   5922   5923
5924   5925   5926   5927
5928   5929   5930   5931
5932   5933   5934   5935
5936   5937   5938   5939
5940   5941   5942   5943
5944   5945   5946   5947
5948   5949   5950   5951
5952   5953   5954   5955
5956   5957   5958   5959
5960   5961   5962   5963
5964   5965   5966   5967
5968   5969   5970   5971
5972   5973   5974   5975
5976   5977   5978   5979
5980   5981   5982   5983
5984   5985   5986   5987
5988   5989   5990   5991
5992   5993   5994   5995
5996   5997   5998   5999
              </DataArray>   
              <DataArray type="Int32" Name="offsets" format="ascii">   
4
8
12
16
20
24
28
32
36
40
44
48
52
56
60
64
68
72
76
80
84
88
92
96
100
104
108
112
116
120
124
128
132
136
140
144
148
152
156
160
164
168
172
176
180
184
188
192
196
200
204
208
212
216
220
224
228
232
236
240
244
248
252
256
260
264
268
272
276
280
284
288
292
296
300
304
308
312
316
320
324
328
332
336
340
344
348
352
356
360
364
368
372
376
380
384
388
392
396
400
404
408
412
416
420
424
428
432
436
440
444
448
452
456
460
464
468
472
476
480
484
488
492
496
500
504
508
512
516
520
524
528
532
536
540
544
548
552
556
560
564
568
572
576
580
584
588
592
596
600
604
608
612
616
620
624
628
632
636
640
644
648
652
656
660
664
668
672
676
680
684
688
692
696
700
704
708
712
716
720
724
728
732
736
740
744
748
752
756
760
764
768
772
776
780
784
788
792
796
800
804
808
812
816
820
824
828
832
836
840
844
848
852
856
860
864
868
872
876
880
884
888
892
896
900
904
908
912
916
920
924
928
932
936
940
944
948
952
956
960
964
968
972
976
980
984
988
992
996
1000
1004
1008
1012
1016
1020
1024
1028
1032
1036
1040
1044
1048
1052
1056
1060
1064
1068
1072
1076
1080
1084
1088
1092
1096
1100
1104
1108
1112
1116
1120
1124
1128
1132
1136
1140
1144
1148
1152
1156
1160
1164
1168
1172
1176
1180
1184
1188
1192
1196
1200
1204
1208
1212
1216
1220
1224
1228
1232
1236
1240
1244
1248
1252
1256
1260
1264
1268
1272
1276
1280
1284
1288
1292
1296
1300
1304
1308
1312
1316
1320
1324
1328
1332
1336
1340
1344
1348
1352
1356
1360
1364
1368
1372
1376
1380
1384
1388
1392
1396
1400
1404
1408
1412
1416
1420
1424
1428
1432
1436
1440
1444
1448
1452
1456
1460
1464
1468
1472
1476
1480
1484
1488
1492
1496
1500
1504
1508
1512
1516
1520
1524
1528
1532
1536
1540
1544
1548
1552
1556
1560
1564
1568
1572
1576
1580
1584
1588
1592
1596
1600
1604
1608
1612
1616
1620
1624
1628
1632
1636
1640
1644
1648
1652
1656
1660
1664
1668
1672
1676
1680
1684
1688
1692
1696
1700
1704
1708
1712
1716
1720
1724
1728
1732
1736
1740
1744
1748
1752
1756
1760
1764
1768
1772
1776
1780
1784
1788
1792
1796
1800
1804
1808
1812
1816
1820
1824
1828
1832
1836
1840
1844
1848
1852
1856
1860
1864
1868
1872
1876
1880
1884
1888
1892
1896
1900
1904
1908
1912
1916
1920
1924
1928
1932
1936
1940
1944
1948
1952
1956
1960
1964
1968
1972
1976
1980
1984
1988
1992
1996
2000
2004
2008
2012
2016
2020
2024
2028
2032
2036
2040
2044
2048
2052
2056
2060
2064
2068
2072
2076
2080
2084
2088
2092
2096
2100
2104
2108
2112
2116
2120
2124
2128
2132
2136
2140
2144
2148
2152
2156
2160
2164
2168
2172
2176
2180
2184
2188
2192
2196
2200
2204
2208
2212
2216
2220
2224
2228
2232
2236
2240
2244
2248
2252
2256
2260
2264
2268
2272
2276
2280
2284
2288
2292
2296
2300
2304
2308
2312
2316
2320
2324
2328
2332
2336
2340
2344
2348
2352
2356
2360
2364
2368
2372
2376
2380
2384
2388
2392
2396
2400
2404
2408
2412
2416
2420
2424
2428
2432
2436
2440
2444
2448
2452
2456
2460
2464
2468
2472
2476
2480
2484
2488
2492
2496
2500
2504
2508
2512
2516
2520
2524
2528
2532
2536
2540
2544
2548
2552
2556
2560
2564
2568
2572
2576
2580
2584
2588
2592
2596
2600
2604
2608
2612
2616
2620
2624
2628
2632
2636
2640
2644
2648
2652
2656
2660
2664
2668
2672
2676
2680
2684
2688
2692
2696
2700
2704
2708
2712
2716
2720
2724
2728
2732
2736
2740
2744
2748
2752
2756
2760
2764
2768
2772
2776
2780
2784
2788
2792
2796
2800
2804
2808
2812
2816
2820
2824
2828
2832
2836
2840
2844
2848
2852
2856
2860
2864
2868
2872
2876
2880
2884
2888
2892
2896
2900
2904
2908
2912
2916
2920
2924
2928
2932
2936
2940
2944
2948
2952
2956
2960
2964
2968
2972
2976
2980
2984
2988
2992
2996
3000
3004
3008
3012
3016
3020
3024
3028
3032
3036
3040
3044
3048
3052
3056
3060
3064
3068
3072
3076
3080
3084
3088
3092
3096
3100
3104
3108
3112
3116
3120
3124
3128
3132
3136
3140
3144
3148
3152
3156
3160
3164
3168
3172
3176
3180
3184
3188
3192
3196
3200
3204
3208
3212
3216
3220
3224
3228
3232
3236
3240
3244
3248
3252
3256
3260
3264
3268
3272
3276
3280
3284
3288
3292
3296
3300
3304
3308
3312
3316
3320
3324
3328
3332
3336
3340
3344
3348
3352
3356
3360
3364
3368
3372
3376
3380
3384
3388
3392
3396
3400
3404
3408
3412
3416
3420
3424
3428
3432
3436
3440
3444
3448
3452
3456
3460
3464
3468
3472
3476
3480
3484
3488
3492
3496
3500
3504
3508
3512
3516
3520
3524
3528
3532
3536
3540
3544
3548
3552
3556
3560
3564
3568
3572
3576
3580
3584
3588
3592
3596
3600
3604
3608
3612
3616
3620
3624
3628
3632
3636
3640
3644
3648
3652
3656
3660
3664
3668
3672
3676
3680
3684
3688
3692
3696
3700
3704
3708
3712
3716
3720
3724
3728
3732
3736
3740
3744
3748
3752
3756
3760
3764
3768
3772
3776
3780
3784
3788
3792
3796
3800
3804
3808
3812
3816
3820
3824
3828
3832
3836
3840
3844
3848
3852
3856
3860
3864
3868
3872
3876
3880
3884
3888
3892
3896
3900
3904
3908
3912
3916
3920
3924
3928
3932
3936
3940
3944
3948
3952
3956
3960
3964
3968
3972
3976
3980
3984
3988
3992
3996
4000
4004
4008
4012
4016
4020
4024
4028
4032
4036
4040
4044
4048
4052
4056
4060
4064
4068
4072
4076
4080
4084
4088
4092
4096
4100
4104
4108
4112
4116
4120
4124
4128
4132
4136
4140
4144
4148
4152
4156
4160
4164
4168
4172
4176
4180
4184
4188
4192
4196
4200
4204
4208
4212
4216
4220
4224
4228
4232
4236
4240
4244
4248
4252
4256
4260
4264
4268
4272
4276
4280
4284
4288
4292
4296
4300
4304
4308
4312
4316
4320
4324
4328
4332
4336
4340
4344
4348
4352
4356
4360
4364
4368
4372
4376
4380
4384
4388
4392
4396
4400
4404
4408
4412
4416
4420
4424
4428
4432
4436
4440
4444
4448
4452
4456
4460
4464
4468
4472
4476
4480
4484
4488
4492
4496
4500
4504
4508
4512
4516
4520
4524
4528
4532
4536
4540
4544
4548
4552
4556
4560
4564
4568
4572
4576
4580
4584
4588
4592
4596
4600
4604
4608
4612
4616
4620
4624
4628
4632
4636
4640
4644
4648
4652
4656
4660
4664
4668
4672
4676
4680
4684
4688
4692
4696
4700
4704
4708
4712
4716
4720
4724
4728
4732
4736
4740
4744
4748
4752
4756
4760
4764
4768
4772
4776
4780
4784
4788
4792
4796
4800
4804
4808
4812
4816
4820
4824
4828
4832
4836
4840
4844
4848
4852
4856
4860
4864
4868
4872
4876
4880
4884
4888
4892
4896
4900
4904
4908
4912
4916
4920
4924
4928
4932
4936
4940
4944
4948
4952
4956
4960
4964
4968
4972
4976
4980
4984
4988
4992
4996
5000
5004
5008
5012
5016
5020
5024
5028
5032
5036
5040
5044
5048
5052
5056
5060
5064
5068
5072
5076
5080
5084
5088
5092
5096
5100
5104
5108
5112
5116
5120
5124
5128
5132
5136
5140
5144
5148
5152
5156
5160
5164
5168
5172
5176
5180
5184
5188
5192
5196
5200
5204
5208
5212
5216
5220
5224
5228
5232
5236
5240
5244
5248
5252
5256
5260
5264
5268
5272
5276
5280
5284
5288
5292
5296
5300
5304
5308
5312
5316
5320
5324
5328
5332
5336
5340
5344
5348
5352
5356
5360
5364
5368
5372
5376
5380
5384
5388
5392
5396
5400
5404
5408
5412
5416
5420
5424
5428
5432
5436
5440
5444
5448
5452
5456
5460
5464
5468
5472
5476
5480
5484
5488
5492
5496
5500
5504
5508
5512
5516
5520
5524
5528
5532
5536
5540
5544
5548
5552
5556
5560
5564
5568
5572
5576
5580
5584
5588
5592
5596
5600
5604
5608
5612
5616
5620
5624
5628
5632
5636
5640
5644
5648
5652
5656
5660
5664
5668
5672
5676
5680
5684
5688
5692
5696
5700
5704
5708
5712
5716
5720
5724
5728
5732
5736
5740
5744
5748
5752
5756
5760
5764
5768
5772
5776
5780
5784
5788
5792
5796
5800
5804
5808
5812
5816
5820
5824
5828
5832
5836
5840
5844
5848
5852
5856
5860
5864
5868
5872
5876
5880
5884
5888
5892
5896
5900
5904
5908
5912
5916
5920
5924
5928
5932
5936
5940
5944
5948
5952
5956
5960
5964
5968
5972
5976
5980
5984
5988
5992
5996
6000
              </DataArray>   
              <DataArray type="UInt8" Name="types" format="ascii">   
10
10
10
10
10
10
10
10
10
10
10
10
10
10
10
10
10
10
10
10
10
10
10
10
10
10
10
10
10
10
10
10
10
10
10
10
10
10
10
10
10
10
10
10
10
10
10
10
10
10
10
10
10
10
10
10
10
10
10
10
10
10
10
10
10
10
10
10
10
10
10
10
10
10
10
10
10
10
10
10
10
10
10
10
10
10
10
10
10
10
10
10
10
10
10
10
10
10
10
10
10
10
10
10
10
10
10
10
10
10
10
10
10
10
10
10
10
10
10
10
10
10
10
10
10
10
10
10
10
10
10
10
10
10
10
10
10
10
10
10
10
10
10
10
10
10
10
10
10
10
10
10
10
10
10
10
10
10
10
10
10
10
10
10
10
10
10
10
10
10
10
10
10
10
10
10
10
10
10
10
10
10
10
10
10
10
10
10
10
10
10
10
10
10
10
10
10
10
10
10
10
10
10
10
10
10
10
10
10
10
10
10
10
10
10
10
10
10
10
10
10
10
10
10
10
10
10
10
10
10
10
10
10
10
10
10
10
10
10
10
10
10
10
10
10
10
10
10
10
10
10
10
10
10
10
10
10
10
10
10
10
10
10
10
10
10
10
10
10
10
10
10
10
10
10
10
10
10
10
10
10
10
10
10
10
10
10
10
10
10
10
10
10
10
10
10
10
10
10
10
10
10
10
10
10
10
10
10
10
10
10
10
10
10
10
10
10
10
10
10
10
10
10
10
10
10
10
10
10
10
10
10
10
10
10
10
10
10
10
10
10
10
10
10
10
10
10
10
10
10
10
10
10
10
10
10
10
10
10
10
10
10
10
10
10
10
10
10
10
10
10
10
10
10
10
10
10
10
10
10
10
10
10
10
10
10
10
10
10
10
10
10
10
10
10
10
10
10
10
10
10
10
10
10
10
10
10
10
10
10
10
10
10
10
10
10
10
10
10
10
10
10
10
10
10
10
10
10
10
10
10
10
10
10
10
10
10
10
10
10
10
10
10
10
10
10
10
10
10
10
10
10
10
10
10
10
10
10
10
10
10
10
10
10
10
10
10
10
10
10
10
10
10
10
10
10
10
10
10
10
10
10
10
10
10
10
10
10
10
10
10
10
10
10
10
10
10
10
10
10
10
10
10
10
10
10
10
10
10
10
10
10
10
10
10
10
10
10
10
10
10
10
10
10
10
10
10
10
10
10
10
10
10
10
10
10
10
10
10
10
10
10
10
10
10
10
10
10
10
10
10
10
10
10
10
10
10
10
10
10
10
10
10
10
10
10
10
10
10
10
10
10
10
10
10
10
10
10
10
10
10
10
10
10
10
10
10
10
10
10
10
10
10
10
10
10
10
10
10
10
10
10
10
10
10
10
10
10
10
10
10
10
10
10
10
10
10
10
10
10
10
10
10
10
10
10
10
10
10
10
10
10
10
10
10
10
10
10
10
10
10
10
10
10
10
10
10
10
10
10
10
10
10
10
10
10
10
10
10
10
10
10
10
10
10
10
10
10
10
10
10
10
10
10
10
10
10
10
10
10
10
10
10
10
10
10
10
10
10
10
10
10
10
10
10
10
10
10
10
10
10
10
10
10
10
10
10
10
10
10
10
10
10
10
10
10
10
10
10
10
10
10
10
10
10
10
10
10
10
10
10
10
10
10
10
10
10
10
10
10
10
10
10
10
10
10
10
10
10
10
10
10
10
10
10
10
10
10
10
10
10
10
10
10
10
10
10
10
10
10
10
10
10
10
10
10
10
10
10
10
10
10
10
10
10
10
10
10
10
10
10
10
10
10
10
10
10
10
10
10
10
10
10
10
10
10
10
10
10
10
10
10
10
10
10
10
10
10
10
10
10
10
10
10
10
10
10
10
10
10
10
10
10
10
10
10
10
10
10
10
10
10
10
10
10
10
10
10
10
10
10
10
10
10
10
10
10
10
10
10
10
10
10
10
10
10
10
10
10
10
10
10
10
10
10
10
10
10
10
10
10
10
10
10
10
10
10
10
10
10
10
10
10
10
10
10
10
10
10
10
10
10
10
10
10
10
10
10
10
10
10
10
10
10
10
10
10
10
10
10
10
10
10
10
10
10
10
10
10
10
10
10
10
10
10
10
10
10
10
10
10
10
10
10
10
10
10
10
10
10
10
10
10
10
10
10
10
10
10
10
10
10
10
10
10
10
10
10
10
10
10
10
10
10
10
10
10
10
10
10
10
10
10
10
10
10
10
10
10
10
10
10
10
10
10
10
10
10
10
10
10
10
10
10
10
10
10
10
10
10
10
10
10
10
10
10
10
10
10
10
10
10
10
10
10
10
10
10
10
10
10
10
10
10
10
10
10
10
10
10
10
10
10
10
10
10
10
10
10
10
10
10
10
10
10
10
10
10
10
10
10
10
10
10
10
10
10
10
10
10
10
10
10
10
10
10
10
10
10
10
10
10
10
10
10
10
10
10
10
10
10
10
10
10
10
10
10
10
10
10
10
10
10
10
10
10
10
10
10
10
10
10
10
10
10
10
10
10
10
10
10
10
10
10
10
10
10
10
10
10
10
10
10
10
10
10
10
10
10
10
10
10
10
10
10
10
10
10
10
10
10
10
10
10
10
10
10
10
10
10
10
10
10
10
10
10
10
10
10
10
10
10
10
10
10
10
10
10
10
10
10
10
10
10
10
10
10
10
10
10
10
10
10
10
10
10
10
10
10
10
10
10
10
10
10
10
10
10
10
10
10
10
10
10
10
10
10
10
10
10
10
10
10
10
10
10
10
10
10
10
10
10
10
10
10
10
10
10
10
10
10
10
10
10
10
10
10
10
10
10
10
10
10
10
10
10
10
10
10
10
10
10
10
10
10
10
10
10
10
10
10
10
10
10
10
10
10
10
10
10
10
10
10
10
10
10
10
10
10
10
10
10
10
10
10
10
10
10
10
10
10
10
10
10
10
10
10
10
10
10
10
10
10
10
10
10
10
10
10
10
10
10
10
10
10
10
10
10
10
10
10
10
10
10
10
10
10
10
10
10
10
10
10
10
10
10
10
10
10
10
10
10
10
10
10
10
10
10
10
10
10
10
10
10
10
10
10
10
10
10
10
10
10
10
10
10
10
10
10
10
10
10
10
10
10
10
10
10
10
10
10
10
10
10
10
10
10
10
10
10
10
10
10
10
10
10
10
10
10
10
10
10
10
10
10
10
10
10
10
10
10
10
10
10
10
10
10
10
10
10
10
10
10
10
10
10
10
10
10
10
10
10
10
10
10
10
10
10
10
10
10
10
10
10
10
10
10
10
10
10
10
10
10
10
10
10
10
10
10
10
10
10
10
10
10
10
10
10
10
10
10
10
10
10
10
10
10
10
10
10
10
10
10
10
10
10
10
10
10
10
              </DataArray>   
          </Cells>  
          <PointData>  
             <DataArray type="Float64" NumberOfComponents="3" Name="Strains" format="ascii">   
-1.3011568811720791e-05   0.0   -8.76540063304332e-06
-1.3011568811720791e-05   0.0   -8.76540063304332e-06
-1.3011568811720791e-05   0.0   -8.76540063304332e-06
-1.3011568811720791e-05   0.0   -8.76540063304332e-06
-8.257168956740062e-06   1.411459698091383e-06   5.4749441127086886e-09
-8.257168956740062e-06   1.411459698091383e-06   5.4749441127086886e-09
-8.257168956740062e-06   1.411459698091383e-06   5.4749441127086886e-09
-8.257168956740062e-06   1.411459698091383e-06   5.4749441127086886e-09
-8.07843405484405e-06   0.0   -8.302558785151887e-06
-8.07843405484405e-06   0.0   -8.302558785151887e-06
-8.07843405484405e-06   0.0   -8.302558785151887e-06
-8.07843405484405e-06   0.0   -8.302558785151887e-06
-1.3598135785058728e-05   1.7081239535860881e-06   -1.2793027361237527e-07
-1.3598135785058728e-05   1.7081239535860881e-06   -1.2793027361237527e-07
-1.3598135785058728e-05   1.7081239535860881e-06   -1.2793027361237527e-07
-1.3598135785058728e-05   1.7081239535860881e-06   -1.2793027361237527e-07
-1.0545001433282402e-05   3.857015399095272e-07   -4.423034078366975e-06
-1.0545001433282402e-05   3.857015399095272e-07   -4.423034078366975e-06
-1.0545001433282402e-05   3.857015399095272e-07   -4.423034078366975e-06
-1.0545001433282402e-05   3.857015399095272e-07   -4.423034078366975e-06
-1.3598135785058752e-05   0.0   -9.327433157303542e-06
-1.3598135785058752e-05   0.0   -9.327433157303542e-06
-1.3598135785058752e-05   0.0   -9.327433157303542e-06
-1.3598135785058752e-05   0.0   -9.327433157303542e-06
-8.07843405484405e-06   1.7081239535860915e-06   8.969440985392817e-07
-8.07843405484405e-06   1.7081239535860915e-06   8.969440985392817e-07
-8.07843405484405e-06   1.7081239535860915e-06   8.969440985392817e-07
-8.07843405484405e-06   1.7081239535860915e-06   8.969440985392817e-07
-8.084526561204659e-06   0.0   -8.50128391685785e-06
-8.084526561204659e-06   0.0   -8.50128391685785e-06
-8.084526561204659e-06   0.0   -8.50128391685785e-06
-8.084526561204659e-06   0.0   -8.50128391685785e-06
-1.4002413926501144e-05   1.8338924872244687e-06   2.6152619963498144e-07
-1.4002413926501144e-05   1.8338924872244687e-06   2.6152619963498144e-07
-1.4002413926501144e-05   1.8338924872244687e-06   2.6152619963498144e-07
-1.4002413926501144e-05   1.8338924872244687e-06   2.6152619963498144e-07
-1.0841331173131687e-05   6.884577003714084e-07   -4.319684183868941e-06
-1.0841331173131687e-05   6.884577003714084e-07   -4.319684183868941e-06
-1.0841331173131687e-05   6.884577003714084e-07   -4.319684183868941e-06
-1.0841331173131687e-05   6.884577003714084e-07   -4.319684183868941e-06
-1.4002413926501169e-05   0.0   -9.601619409192533e-06
-1.4002413926501169e-05   0.0   -9.601619409192533e-06
-1.4002413926501169e-05   0.0   -9.601619409192533e-06
-1.4002413926501169e-05   0.0   -9.601619409192533e-06
-8.084526561204659e-06   1.833892487224472e-06   1.3618616919696627e-06
-8.084526561204659e-06   1.833892487224472e-06   1.3618616919696627e-06
-8.084526561204659e-06   1.833892487224472e-06   1.3618616919696627e-06
-8.084526561204659e-06   1.833892487224472e-06   1.3618616919696627e-06
-8.061462743176225e-06   0.0   -8.554980204904784e-06
-8.061462743176225e-06   0.0   -8.554980204904784e-06
-8.061462743176225e-06   0.0   -8.554980204904784e-06
-8.061462743176225e-06   0.0   -8.554980204904784e-06
-1.4889903526822409e-05   2.1013426913186077e-06   1.5649488197143937e-06
-1.4889903526822409e-05   2.1013426913186077e-06   1.5649488197143937e-06
-1.4889903526822409e-05   2.1013426913186077e-06   1.5649488197143937e-06
-1.4889903526822409e-05   2.1013426913186077e-06   1.5649488197143937e-06
-1.1031938334838678e-05   8.721993369064574e-07   -4.127507154277863e-06
-1.1031938334838678e-05   8.721993369064574e-07   -4.127507154277863e-06
-1.1031938334838678e-05   8.721993369064574e-07   -4.127507154277863e-06
-1.1031938334838678e-05   8.721993369064574e-07   -4.127507154277863e-06
-8.257168956740076e-06   0.0   -7.918524814188489e-06
-8.257168956740076e-06   0.0   -7.918524814188489e-06
-8.257168956740076e-06   0.0   -7.918524814188489e-06
-8.257168956740076e-06   0.0   -7.918524814188489e-06
-3.779660286466306e-06   5.118849063728014e-07   -1.488794199085296e-07
-3.779660286466306e-06   5.118849063728014e-07   -1.488794199085296e-07
-3.779660286466306e-06   5.118849063728014e-07   -1.488794199085296e-07
-3.779660286466306e-06   5.118849063728014e-07   -1.488794199085296e-07
-3.618956973313595e-06   0.0   -7.859375196557861e-06
-3.618956973313595e-06   0.0   -7.859375196557861e-06
-3.618956973313595e-06   0.0   -7.859375196557861e-06
-3.618956973313595e-06   0.0   -7.859375196557861e-06
-8.07843405484405e-06   7.386393143233761e-07   -8.700969826011289e-07
-8.07843405484405e-06   7.386393143233761e-07   -8.700969826011289e-07
-8.07843405484405e-06   7.386393143233761e-07   -8.700969826011289e-07
-8.07843405484405e-06   7.386393143233761e-07   -8.700969826011289e-07
-5.938062965026825e-06   4.9291348025522856e-08   -4.023773352517764e-06
-5.938062965026825e-06   4.9291348025522856e-08   -4.023773352517764e-06
-5.938062965026825e-06   4.9291348025522856e-08   -4.023773352517764e-06
-5.938062965026825e-06   4.9291348025522856e-08   -4.023773352517764e-06
-8.078434054844043e-06   0.0   -8.302558785151879e-06
-8.078434054844043e-06   0.0   -8.302558785151879e-06
-8.078434054844043e-06   0.0   -8.302558785151879e-06
-8.078434054844043e-06   0.0   -8.302558785151879e-06
-3.618956973313595e-06   7.386393143233761e-07   -4.2691339400710256e-07
-3.618956973313595e-06   7.386393143233761e-07   -4.2691339400710256e-07
-3.618956973313595e-06   7.386393143233761e-07   -4.2691339400710256e-07
-3.618956973313595e-06   7.386393143233761e-07   -4.2691339400710256e-07
-3.5218785485864037e-06   0.0   -7.954580018646748e-06
-3.5218785485864037e-06   0.0   -7.954580018646748e-06
-3.5218785485864037e-06   0.0   -7.954580018646748e-06
-3.5218785485864037e-06   0.0   -7.954580018646748e-06
-8.084526561204659e-06   9.111731636851717e-07   -8.968705624940934e-07
-8.084526561204659e-06   9.111731636851717e-07   -8.968705624940934e-07
-8.084526561204659e-06   9.111731636851717e-07   -8.968705624940934e-07
-8.084526561204659e-06   9.111731636851717e-07   -8.968705624940934e-07
-5.800156301715216e-06   2.8998230542094854e-07   -4.3314398133512655e-06
-5.800156301715216e-06   2.8998230542094854e-07   -4.3314398133512655e-06
-5.800156301715216e-06   2.8998230542094854e-07   -4.3314398133512655e-06
-5.800156301715216e-06   2.8998230542094854e-07   -4.3314398133512655e-06
-8.084526561204659e-06   0.0   -8.50128391685785e-06
-8.084526561204659e-06   0.0   -8.50128391685785e-06
-8.084526561204659e-06   0.0   -8.50128391685785e-06
-8.084526561204659e-06   0.0   -8.50128391685785e-06
-3.5218785485864037e-06   9.111731636851717e-07   -3.5016666428299015e-07
-3.5218785485864037e-06   9.111731636851717e-07   -3.5016666428299015e-07
-3.5218785485864037e-06   9.111731636851717e-07   -3.5016666428299015e-07
-3.5218785485864037e-06   9.111731636851717e-07   -3.5016666428299015e-07
-3.4307239270427837e-06   0.0   -7.916451089396507e-06
-3.4307239270427837e-06   0.0   -7.916451089396507e-06
-3.4307239270427837e-06   0.0   -7.916451089396507e-06
-3.4307239270427837e-06   0.0   -7.916451089396507e-06
-8.061462743176205e-06   1.0642151925137839e-06   -8.370821780157103e-07
-8.061462743176205e-06   1.0642151925137839e-06   -8.370821780157103e-07
-8.061462743176205e-06   1.0642151925137839e-06   -8.370821780157103e-07
-8.061462743176205e-06   1.0642151925137839e-06   -8.370821780157103e-07
-5.7576252441237196e-06   4.87360689551115e-07   -4.330698641325616e-06
-5.7576252441237196e-06   4.87360689551115e-07   -4.330698641325616e-06
-5.7576252441237196e-06   4.87360689551115e-07   -4.330698641325616e-06
-5.7576252441237196e-06   4.87360689551115e-07   -4.330698641325616e-06
-3.7796602864663125e-06   0.0   -7.6113938703648074e-06
-3.7796602864663125e-06   0.0   -7.6113938703648074e-06
-3.7796602864663125e-06   0.0   -7.6113938703648074e-06
-3.7796602864663125e-06   0.0   -7.6113938703648074e-06
4.364803614627446e-07   -6.993256020091146e-08   -6.264523266035848e-07
4.364803614627446e-07   -6.993256020091146e-08   -6.264523266035848e-07
4.364803614627446e-07   -6.993256020091146e-08   -6.264523266035848e-07
4.364803614627446e-07   -6.993256020091146e-08   -6.264523266035848e-07
5.467938193259818e-07   0.0   -7.779658742560603e-06
5.467938193259818e-07   0.0   -7.779658742560603e-06
5.467938193259818e-07   0.0   -7.779658742560603e-06
5.467938193259818e-07   0.0   -7.779658742560603e-06
-3.618956973313595e-06   1.3286075666205236e-07   -9.164572088252314e-07
-3.618956973313595e-06   1.3286075666205236e-07   -9.164572088252314e-07
-3.618956973313595e-06   1.3286075666205236e-07   -9.164572088252314e-07
-3.618956973313595e-06   1.3286075666205236e-07   -9.164572088252314e-07
-1.6164332335701617e-06   -1.4022072682985169e-07   -4.090147884969129e-06
-1.6164332335701617e-06   -1.4022072682985169e-07   -4.090147884969129e-06
-1.6164332335701617e-06   -1.4022072682985169e-07   -4.090147884969129e-06
-1.6164332335701617e-06   -1.4022072682985169e-07   -4.090147884969129e-06
-3.618956973313595e-06   0.0   -7.859375196557861e-06
-3.618956973313595e-06   0.0   -7.859375196557861e-06
-3.618956973313595e-06   0.0   -7.859375196557861e-06
-3.618956973313595e-06   0.0   -7.859375196557861e-06
5.467938193259828e-07   1.3286075666205067e-07   -8.367407548279984e-07
5.467938193259828e-07   1.3286075666205067e-07   -8.367407548279984e-07
5.467938193259828e-07   1.3286075666205067e-07   -8.367407548279984e-07
5.467938193259828e-07   1.3286075666205067e-07   -8.367407548279984e-07
6.360661970021284e-07   0.0   -7.767247078738181e-06
6.360661970021284e-07   0.0   -7.767247078738181e-06
6.360661970021284e-07   0.0   -7.767247078738181e-06
6.360661970021284e-07   0.0   -7.767247078738181e-06
-3.5218785485863977e-06   3.1222156651425386e-07   -1.0246721093325249e-06
-3.5218785485863977e-06   3.1222156651425386e-07   -1.0246721093325249e-06
-3.5218785485863977e-06   3.1222156651425386e-07   -1.0246721093325249e-06
-3.5218785485863977e-06   3.1222156651425386e-07   -1.0246721093325249e-06
-1.4914453881557326e-06   7.677343151638911e-08   -4.267458495718255e-06
-1.4914453881557326e-06   7.677343151638911e-08   -4.267458495718255e-06
-1.4914453881557326e-06   7.677343151638911e-08   -4.267458495718255e-06
-1.4914453881557326e-06   7.677343151638911e-08   -4.267458495718255e-06
-3.5218785485864037e-06   0.0   -7.954580018646748e-06
-3.5218785485864037e-06   0.0   -7.954580018646748e-06
-3.5218785485864037e-06   0.0   -7.954580018646748e-06
-3.5218785485864037e-06   0.0   -7.954580018646748e-06
6.360661970021295e-07   3.1222156651425386e-07   -8.373391694239734e-07
6.360661970021295e-07   3.1222156651425386e-07   -8.373391694239734e-07
6.360661970021295e-07   3.1222156651425386e-07   -8.373391694239734e-07
6.360661970021295e-07   3.1222156651425386e-07   -8.373391694239734e-07
7.506422246993646e-07   0.0   -7.605066232057208e-06
7.506422246993646e-07   0.0   -7.605066232057208e-06
7.506422246993646e-07   0.0   -7.605066232057208e-06
7.506422246993646e-07   0.0   -7.605066232057208e-06
-3.4307239270427808e-06   5.189747622321507e-07   -9.475075031595908e-07
-3.4307239270427808e-06   5.189747622321507e-07   -9.475075031595908e-07
-3.4307239270427808e-06   5.189747622321507e-07   -9.475075031595908e-07
-3.4307239270427808e-06   5.189747622321507e-07   -9.475075031595908e-07
-1.3856181619435166e-06   2.9126148882460534e-07   -4.219389147613833e-06
-1.3856181619435166e-06   2.9126148882460534e-07   -4.219389147613833e-06
-1.3856181619435166e-06   2.9126148882460534e-07   -4.219389147613833e-06
-1.3856181619435166e-06   2.9126148882460534e-07   -4.219389147613833e-06
4.3648036146274536e-07   0.0   -7.653353406485355e-06
4.3648036146274536e-07   0.0   -7.653353406485355e-06
4.3648036146274536e-07   0.0   -7.653353406485355e-06
4.3648036146274536e-07   0.0   -7.653353406485355e-06
5.027236771108348e-06   -5.897314647185366e-07   -3.5593160257380164e-07
5.027236771108348e-06   -5.897314647185366e-07   -3.5593160257380164e-07
5.027236771108348e-06   -5.897314647185366e-07   -3.5593160257380164e-07
5.027236771108348e-06   -5.897314647185366e-07   -3.5593160257380164e-07
5.05706517519219e-06   0.0   -8.043583758752555e-06
5.05706517519219e-06   0.0   -8.043583758752555e-06
5.05706517519219e-06   0.0   -8.043583758752555e-06
5.05706517519219e-06   0.0   -8.043583758752555e-06
5.467938193259837e-07   -4.3987502698654314e-07   -2.625398161169537e-07
5.467938193259837e-07   -4.3987502698654314e-07   -2.625398161169537e-07
5.467938193259837e-07   -4.3987502698654314e-07   -2.625398161169537e-07
5.467938193259837e-07   -4.3987502698654314e-07   -2.625398161169537e-07
2.7467727683274676e-06   -3.2519196022266837e-07   -3.997981237844415e-06
2.7467727683274676e-06   -3.2519196022266837e-07   -3.997981237844415e-06
2.7467727683274676e-06   -3.2519196022266837e-07   -3.997981237844415e-06
2.7467727683274676e-06   -3.2519196022266837e-07   -3.997981237844415e-06
5.467938193259837e-07   0.0   -7.77965874256063e-06
5.467938193259837e-07   0.0   -7.77965874256063e-06
5.467938193259837e-07   0.0   -7.77965874256063e-06
5.467938193259837e-07   0.0   -7.77965874256063e-06
5.05706517519219e-06   -4.3987502698654314e-07   -5.264648323088793e-07
5.05706517519219e-06   -4.3987502698654314e-07   -5.264648323088793e-07
5.05706517519219e-06   -4.3987502698654314e-07   -5.264648323088793e-07
5.05706517519219e-06   -4.3987502698654314e-07   -5.264648323088793e-07
5.0534083549639915e-06   0.0   -7.928874072279544e-06
5.0534083549639915e-06   0.0   -7.928874072279544e-06
5.0534083549639915e-06   0.0   -7.928874072279544e-06
5.0534083549639915e-06   0.0   -7.928874072279544e-06
6.360661970021295e-07   -2.6937832256891587e-07   -4.0501014880175915e-07
6.360661970021295e-07   -2.6937832256891587e-07   -4.0501014880175915e-07
6.360661970021295e-07   -2.6937832256891587e-07   -4.0501014880175915e-07
6.360661970021295e-07   -2.6937832256891587e-07   -4.0501014880175915e-07
2.8001010871449874e-06   -1.24346108099095e-07   -4.098754294388411e-06
2.8001010871449874e-06   -1.24346108099095e-07   -4.098754294388411e-06
2.8001010871449874e-06   -1.24346108099095e-07   -4.098754294388411e-06
2.8001010871449874e-06   -1.24346108099095e-07   -4.098754294388411e-06
6.360661970021289e-07   0.0   -7.767247078738188e-06
6.360661970021289e-07   0.0   -7.767247078738188e-06
6.360661970021289e-07   0.0   -7.767247078738188e-06
6.360661970021289e-07   0.0   -7.767247078738188e-06
5.0534083549639915e-06   -2.6937832256891587e-07   -5.666371423431094e-07
5.0534083549639915e-06   -2.6937832256891587e-07   -5.666371423431094e-07
5.0534083549639915e-06   -2.6937832256891587e-07   -5.666371423431094e-07
5.0534083549639915e-06   -2.6937832256891587e-07   -5.666371423431094e-07
5.168575062588779e-06   0.0   -7.62988572719407e-06
5.168575062588779e-06   0.0   -7.62988572719407e-06
5.168575062588779e-06   0.0   -7.62988572719407e-06
5.168575062588779e-06   0.0   -7.62988572719407e-06
7.506422246993659e-07   -4.136582522808157e-08   -2.418448355748678e-07
7.506422246993659e-07   -4.136582522808157e-08   -2.418448355748678e-07
7.506422246993659e-07   -4.136582522808157e-08   -2.418448355748678e-07
7.506422246993659e-07   -4.136582522808157e-08   -2.418448355748678e-07
2.902320629795452e-06   1.1446779295343678e-07   -3.9214756816439185e-06
2.902320629795452e-06   1.1446779295343678e-07   -3.9214756816439185e-06
2.902320629795452e-06   1.1446779295343678e-07   -3.9214756816439185e-06
2.902320629795452e-06   1.1446779295343678e-07   -3.9214756816439185e-06
5.027236771108348e-06   0.0   -8.007192285316477e-06
5.027236771108348e-06   0.0   -8.007192285316477e-06
5.027236771108348e-06   0.0   -8.007192285316477e-06
5.027236771108348e-06   0.0   -8.007192285316477e-06
1.146015383527869e-05   -1.5090194608070506e-06   1.8089244784832617e-06
1.146015383527869e-05   -1.5090194608070506e-06   1.8089244784832617e-06
1.146015383527869e-05   -1.5090194608070506e-06   1.8089244784832617e-06
1.146015383527869e-05   -1.5090194608070506e-06   1.8089244784832617e-06
1.0790067338670903e-05   0.0   -8.807325162907976e-06
1.0790067338670903e-05   0.0   -8.807325162907976e-06
1.0790067338670903e-05   0.0   -8.807325162907976e-06
1.0790067338670903e-05   0.0   -8.807325162907976e-06
5.05706517519219e-06   -1.2729023402590334e-06   1.5114198470452978e-06
5.05706517519219e-06   -1.2729023402590334e-06   1.5114198470452978e-06
5.05706517519219e-06   -1.2729023402590334e-06   1.5114198470452978e-06
5.05706517519219e-06   -1.2729023402590334e-06   1.5114198470452978e-06
7.908652054889625e-06   -6.667773979929168e-07   -3.6048999178100926e-06
7.908652054889625e-06   -6.667773979929168e-07   -3.6048999178100926e-06
7.908652054889625e-06   -6.667773979929168e-07   -3.6048999178100926e-06
7.908652054889625e-06   -6.667773979929168e-07   -3.6048999178100926e-06
5.057065175192186e-06   0.0   -8.043583758752548e-06
5.057065175192186e-06   0.0   -8.043583758752548e-06
5.057065175192186e-06   0.0   -8.043583758752548e-06
5.057065175192186e-06   0.0   -8.043583758752548e-06
1.0790067338670865e-05   -1.2729023402590283e-06   7.47678442889875e-07
1.0790067338670865e-05   -1.2729023402590283e-06   7.47678442889875e-07
1.0790067338670865e-05   -1.2729023402590283e-06   7.47678442889875e-07
1.0790067338670865e-05   -1.2729023402590283e-06   7.47678442889875e-07
1.048919491862105e-05   0.0   -8.624413389308906e-06
1.048919491862105e-05   0.0   -8.624413389308906e-06
1.048919491862105e-05   0.0   -8.624413389308906e-06
1.048919491862105e-05   0.0   -8.624413389308906e-06
5.0534083549639915e-06   -1.1592321950489346e-06   1.1307702004822181e-06
5.0534083549639915e-06   -1.1592321950489346e-06   1.1307702004822181e-06
5.0534083549639915e-06   -1.1592321950489346e-06   1.1307702004822181e-06
5.0534083549639915e-06   -1.1592321950489346e-06   1.1307702004822181e-06
7.773130046906615e-06   -4.840246921302916e-07   -3.8072237878400082e-06
7.773130046906615e-06   -4.840246921302916e-07   -3.8072237878400082e-06
7.773130046906615e-06   -4.840246921302916e-07   -3.8072237878400082e-06
7.773130046906615e-06   -4.840246921302916e-07   -3.8072237878400082e-06
5.0534083549639915e-06   0.0   -7.928874072279544e-06
5.0534083549639915e-06   0.0   -7.928874072279544e-06
5.0534083549639915e-06   0.0   -7.928874072279544e-06
5.0534083549639915e-06   0.0   -7.928874072279544e-06
1.0489194918621014e-05   -1.1592321950489312e-06   4.352308834528543e-07
1.0489194918621014e-05   -1.1592321950489312e-06   4.352308834528543e-07
1.0489194918621014e-05   -1.1592321950489312e-06   4.352308834528543e-07
1.0489194918621014e-05   -1.1592321950489312e-06   4.352308834528543e-07
1.0028698233516833e-05   0.0   -8.162694671000914e-06
1.0028698233516833e-05   0.0   -8.162694671000914e-06
1.0028698233516833e-05   0.0   -8.162694671000914e-06
1.0028698233516833e-05   0.0   -8.162694671000914e-06
5.168575062588779e-06   -8.88014906344763e-07   4.703195576860485e-07
5.168575062588779e-06   -8.88014906344763e-07   4.703195576860485e-07
5.168575062588779e-06   -8.88014906344763e-07   4.703195576860485e-07
5.168575062588779e-06   -8.88014906344763e-07   4.703195576860485e-07
7.541053294240421e-06   -1.948504989344868e-07   -3.899709472846184e-06
7.541053294240421e-06   -1.948504989344868e-07   -3.899709472846184e-06
7.541053294240421e-06   -1.948504989344868e-07   -3.899709472846184e-06
7.541053294240421e-06   -1.948504989344868e-07   -3.899709472846184e-06
-1.1122161246849367e-05   1.4114596980913814e-06   -7.44779785802042e-06
-1.1122161246849367e-05   1.4114596980913814e-06   -7.44779785802042e-06
-1.1122161246849367e-05   1.4114596980913814e-06   -7.44779785802042e-06
-1.1122161246849367e-05   1.4114596980913814e-06   -7.44779785802042e-06
-7.138690086179876e-06   1.2591770111732863e-06   -9.000488690554578e-07
-7.138690086179876e-06   1.2591770111732863e-06   -9.000488690554578e-07
-7.138690086179876e-06   1.2591770111732863e-06   -9.000488690554578e-07
-7.138690086179876e-06   1.2591770111732863e-06   -9.000488690554578e-07
-7.309309956631144e-06   1.7081239535860881e-06   -6.269211391252949e-06
-7.309309956631144e-06   1.7081239535860881e-06   -6.269211391252949e-06
-7.309309956631144e-06   1.7081239535860881e-06   -6.269211391252949e-06
-7.309309956631144e-06   1.7081239535860881e-06   -6.269211391252949e-06
-1.1223726696857065e-05   1.5205112958190708e-06   3.6738410378381857e-07
-1.1223726696857065e-05   1.5205112958190708e-06   3.6738410378381857e-07
-1.1223726696857065e-05   1.5205112958190708e-06   3.6738410378381857e-07
-1.1223726696857065e-05   1.5205112958190708e-06   3.6738410378381857e-07
-8.833084664123278e-06   1.4790279436533089e-06   -3.592129272806434e-06
-8.833084664123278e-06   1.4790279436533089e-06   -3.592129272806434e-06
-8.833084664123278e-06   1.4790279436533089e-06   -3.592129272806434e-06
-8.833084664123278e-06   1.4790279436533089e-06   -3.592129272806434e-06
-1.1223726696857065e-05   1.7081239535860881e-06   -6.156643796592737e-06
-1.1223726696857065e-05   1.7081239535860881e-06   -6.156643796592737e-06
-1.1223726696857065e-05   1.7081239535860881e-06   -6.156643796592737e-06
-1.1223726696857065e-05   1.7081239535860881e-06   -6.156643796592737e-06
-7.3093099566311714e-06   1.5205112958190708e-06   2.548165091236102e-07
-7.3093099566311714e-06   1.5205112958190708e-06   2.548165091236102e-07
-7.3093099566311714e-06   1.5205112958190708e-06   2.548165091236102e-07
-7.3093099566311714e-06   1.5205112958190708e-06   2.548165091236102e-07
-7.335552021016117e-06   1.8338924872244653e-06   -5.646749332426756e-06
-7.335552021016117e-06   1.8338924872244653e-06   -5.646749332426756e-06
-7.335552021016117e-06   1.8338924872244653e-06   -5.646749332426756e-06
-7.335552021016117e-06   1.8338924872244653e-06   -5.646749332426756e-06
-1.1286458192541268e-05   1.6388150167610842e-06   1.055140769059816e-06
-1.1286458192541268e-05   1.6388150167610842e-06   1.055140769059816e-06
-1.1286458192541268e-05   1.6388150167610842e-06   1.055140769059816e-06
-1.1286458192541268e-05   1.6388150167610842e-06   1.055140769059816e-06
-9.080546541395706e-06   1.642884669596662e-06   -2.623820441217431e-06
-9.080546541395706e-06   1.642884669596662e-06   -2.623820441217431e-06
-9.080546541395706e-06   1.642884669596662e-06   -2.623820441217431e-06
-9.080546541395706e-06   1.642884669596662e-06   -2.623820441217431e-06
-1.1286458192541248e-05   1.8338924872244653e-06   -5.52970285014873e-06
-1.1286458192541248e-05   1.8338924872244653e-06   -5.52970285014873e-06
-1.1286458192541248e-05   1.8338924872244653e-06   -5.52970285014873e-06
-1.1286458192541248e-05   1.8338924872244653e-06   -5.52970285014873e-06
-7.335552021016131e-06   1.6388150167610842e-06   9.380942867817887e-07
-7.335552021016131e-06   1.6388150167610842e-06   9.380942867817887e-07
-7.335552021016131e-06   1.6388150167610842e-06   9.380942867817887e-07
-7.335552021016131e-06   1.6388150167610842e-06   9.380942867817887e-07
-7.283351183873693e-06   2.101342691318606e-06   -4.2039699196342665e-06
-7.283351183873693e-06   2.101342691318606e-06   -4.2039699196342665e-06
-7.283351183873693e-06   2.101342691318606e-06   -4.2039699196342665e-06
-7.283351183873693e-06   2.101342691318606e-06   -4.2039699196342665e-06
-1.0949750152107252e-05   1.7378306966492923e-06   2.124802224223217e-06
-1.0949750152107252e-05   1.7378306966492923e-06   2.124802224223217e-06
-1.0949750152107252e-05   1.7378306966492923e-06   2.124802224223217e-06
-1.0949750152107252e-05   1.7378306966492923e-06   2.124802224223217e-06
-8.829627979032639e-06   1.8077375058812332e-06   -1.450678816440295e-06
-8.829627979032639e-06   1.8077375058812332e-06   -1.450678816440295e-06
-8.829627979032639e-06   1.8077375058812332e-06   -1.450678816440295e-06
-8.829627979032639e-06   1.8077375058812332e-06   -1.450678816440295e-06
-7.138690086179876e-06   5.118849063727998e-07   -8.000652778016194e-06
-7.138690086179876e-06   5.118849063727998e-07   -8.000652778016194e-06
-7.138690086179876e-06   5.118849063727998e-07   -8.000652778016194e-06
-7.138690086179876e-06   5.118849063727998e-07   -8.000652778016194e-06
-3.4095500621934922e-06   5.86232184356862e-07   -1.7408110379151048e-06
-3.4095500621934922e-06   5.86232184356862e-07   -1.7408110379151048e-06
-3.4095500621934922e-06   5.86232184356862e-07   -1.7408110379151048e-06
-3.4095500621934922e-06   5.86232184356862e-07   -1.7408110379151048e-06
-3.4814316841006936e-06   7.386393143233744e-07   -7.983638474735018e-06
-3.4814316841006936e-06   7.386393143233744e-07   -7.983638474735018e-06
-3.4814316841006936e-06   7.386393143233744e-07   -7.983638474735018e-06
-3.4814316841006936e-06   7.386393143233744e-07   -7.983638474735018e-06
-7.309309956631144e-06   8.263293104206093e-07   -1.656455351509251e-06
-7.309309956631144e-06   8.263293104206093e-07   -1.656455351509251e-06
-7.309309956631144e-06   8.263293104206093e-07   -1.656455351509251e-06
-7.309309956631144e-06   8.263293104206093e-07   -1.656455351509251e-06
-5.319076679511947e-06   6.644845696703279e-07   -4.876403968924456e-06
-5.319076679511947e-06   6.644845696703279e-07   -4.876403968924456e-06
-5.319076679511947e-06   6.644845696703279e-07   -4.876403968924456e-06
-5.319076679511947e-06   6.644845696703279e-07   -4.876403968924456e-06
-7.309309956631139e-06   7.386393143233744e-07   -8.036252472393346e-06
-7.309309956631139e-06   7.386393143233744e-07   -8.036252472393346e-06
-7.309309956631139e-06   7.386393143233744e-07   -8.036252472393346e-06
-7.309309956631139e-06   7.386393143233744e-07   -8.036252472393346e-06
-3.481431684100699e-06   8.263293104206093e-07   -1.603841353850918e-06
-3.481431684100699e-06   8.263293104206093e-07   -1.603841353850918e-06
-3.481431684100699e-06   8.263293104206093e-07   -1.603841353850918e-06
-3.481431684100699e-06   8.263293104206093e-07   -1.603841353850918e-06
-3.4967812353834704e-06   9.1117316368517e-07   -7.836470899212003e-06
-3.4967812353834704e-06   9.1117316368517e-07   -7.836470899212003e-06
-3.4967812353834704e-06   9.1117316368517e-07   -7.836470899212003e-06
-3.4967812353834704e-06   9.1117316368517e-07   -7.836470899212003e-06
-7.335552021016117e-06   1.026190976482668e-06   -1.5075302775027632e-06
-7.335552021016117e-06   1.026190976482668e-06   -1.5075302775027632e-06
-7.335552021016117e-06   1.026190976482668e-06   -1.5075302775027632e-06
-7.335552021016117e-06   1.026190976482668e-06   -1.5075302775027632e-06
-5.351460130463415e-06   8.480979234779161e-07   -4.707494263287732e-06
-5.351460130463415e-06   8.480979234779161e-07   -4.707494263287732e-06
-5.351460130463415e-06   8.480979234779161e-07   -4.707494263287732e-06
-5.351460130463415e-06   8.480979234779161e-07   -4.707494263287732e-06
-7.335552021016117e-06   9.1117316368517e-07   -7.905481586890505e-06
-7.335552021016117e-06   9.1117316368517e-07   -7.905481586890505e-06
-7.335552021016117e-06   9.1117316368517e-07   -7.905481586890505e-06
-7.335552021016117e-06   9.1117316368517e-07   -7.905481586890505e-06
-3.4967812353834827e-06   1.0261909764826748e-06   -1.4385195898242648e-06
-3.4967812353834827e-06   1.0261909764826748e-06   -1.4385195898242648e-06
-3.4967812353834827e-06   1.0261909764826748e-06   -1.4385195898242648e-06
-3.4967812353834827e-06   1.0261909764826748e-06   -1.4385195898242648e-06
-3.4784736352892855e-06   1.0642151925137822e-06   -7.76002494927723e-06
-3.4784736352892855e-06   1.0642151925137822e-06   -7.76002494927723e-06
-3.4784736352892855e-06   1.0642151925137822e-06   -7.76002494927723e-06
-3.4784736352892855e-06   1.0642151925137822e-06   -7.76002494927723e-06
-7.283351183873687e-06   1.2421844973109421e-06   -1.5253439511815246e-06
-7.283351183873687e-06   1.2421844973109421e-06   -1.5253439511815246e-06
-7.283351183873687e-06   1.2421844973109421e-06   -1.5253439511815246e-06
-7.283351183873687e-06   1.2421844973109421e-06   -1.5253439511815246e-06
-5.372967426395116e-06   1.0143374823394383e-06   -4.572608671329599e-06
-5.372967426395116e-06   1.0143374823394383e-06   -4.572608671329599e-06
-5.372967426395116e-06   1.0143374823394383e-06   -4.572608671329599e-06
-5.372967426395116e-06   1.0143374823394383e-06   -4.572608671329599e-06
-3.4095500621934863e-06   -6.993256020091146e-08   -8.391657781800265e-06
-3.4095500621934863e-06   -6.993256020091146e-08   -8.391657781800265e-06
-3.4095500621934863e-06   -6.993256020091146e-08   -8.391657781800265e-06
-3.4095500621934863e-06   -6.993256020091146e-08   -8.391657781800265e-06
2.709083863562732e-07   -2.0133716568914697e-08   -2.2276810613714626e-06
2.709083863562732e-07   -2.0133716568914697e-08   -2.2276810613714626e-06
2.709083863562732e-07   -2.0133716568914697e-08   -2.2276810613714626e-06
2.709083863562732e-07   -2.0133716568914697e-08   -2.2276810613714626e-06
2.6510877757143805e-07   1.3286075666205236e-07   -8.431940939075516e-06
2.6510877757143805e-07   1.3286075666205236e-07   -8.431940939075516e-06
2.6510877757143805e-07   1.3286075666205236e-07   -8.431940939075516e-06
2.6510877757143805e-07   1.3286075666205236e-07   -8.431940939075516e-06
-3.4814316841006936e-06   2.015963407914521e-07   -2.2289481867662396e-06
-3.4814316841006936e-06   2.015963407914521e-07   -2.2289481867662396e-06
-3.4814316841006936e-06   2.015963407914521e-07   -2.2289481867662396e-06
-3.4814316841006936e-06   2.015963407914521e-07   -2.2289481867662396e-06
-1.597415569955764e-06   6.788071062547573e-08   -5.2887456655748895e-06
-1.597415569955764e-06   6.788071062547573e-08   -5.2887456655748895e-06
-1.597415569955764e-06   6.788071062547573e-08   -5.2887456655748895e-06
-1.597415569955764e-06   6.788071062547573e-08   -5.2887456655748895e-06
-3.4814316841006936e-06   1.3286075666205067e-07   -8.473182289553144e-06
-3.4814316841006936e-06   1.3286075666205067e-07   -8.473182289553144e-06
-3.4814316841006936e-06   1.3286075666205067e-07   -8.473182289553144e-06
-3.4814316841006936e-06   1.3286075666205067e-07   -8.473182289553144e-06
2.6510877757143805e-07   2.015963407914521e-07   -2.187706836288606e-06
2.6510877757143805e-07   2.015963407914521e-07   -2.187706836288606e-06
2.6510877757143805e-07   2.015963407914521e-07   -2.187706836288606e-06
2.6510877757143805e-07   2.015963407914521e-07   -2.187706836288606e-06
2.546677155130946e-07   3.1222156651425386e-07   -8.447163074685561e-06
2.546677155130946e-07   3.1222156651425386e-07   -8.447163074685561e-06
2.546677155130946e-07   3.1222156651425386e-07   -8.447163074685561e-06
2.546677155130946e-07   3.1222156651425386e-07   -8.447163074685561e-06
-3.4967812353834704e-06   4.185770158075526e-07   -2.2585614261006024e-06
-3.4967812353834704e-06   4.185770158075526e-07   -2.2585614261006024e-06
-3.4967812353834704e-06   4.185770158075526e-07   -2.2585614261006024e-06
-3.4967812353834704e-06   4.185770158075526e-07   -2.2585614261006024e-06
-1.6172850078193222e-06   2.5506557265983056e-07   -5.292948272818862e-06
-1.6172850078193222e-06   2.5506557265983056e-07   -5.292948272818862e-06
-1.6172850078193222e-06   2.5506557265983056e-07   -5.292948272818862e-06
-1.6172850078193222e-06   2.5506557265983056e-07   -5.292948272818862e-06
-3.4967812353834704e-06   3.1222156651425386e-07   -8.510976344261537e-06
-3.4967812353834704e-06   3.1222156651425386e-07   -8.510976344261537e-06
-3.4967812353834704e-06   3.1222156651425386e-07   -8.510976344261537e-06
-3.4967812353834704e-06   3.1222156651425386e-07   -8.510976344261537e-06
2.5466771551309504e-07   4.185770158075526e-07   -2.1947481565246286e-06
2.5466771551309504e-07   4.185770158075526e-07   -2.1947481565246286e-06
2.5466771551309504e-07   4.185770158075526e-07   -2.1947481565246286e-06
2.5466771551309504e-07   4.185770158075526e-07   -2.1947481565246286e-06
2.2266896339249036e-07   5.189747622321507e-07   -8.43381133738942e-06
2.2266896339249036e-07   5.189747622321507e-07   -8.43381133738942e-06
2.2266896339249036e-07   5.189747622321507e-07   -8.43381133738942e-06
2.2266896339249036e-07   5.189747622321507e-07   -8.43381133738942e-06
-3.4784736352892893e-06   6.442548497987579e-07   -2.340408392126426e-06
-3.4784736352892893e-06   6.442548497987579e-07   -2.340408392126426e-06
-3.4784736352892893e-06   6.442548497987579e-07   -2.340408392126426e-06
-3.4784736352892893e-06   6.442548497987579e-07   -2.340408392126426e-06
-1.6253454329186803e-06   4.473726059977199e-07   -5.3108260497968115e-06
-1.6253454329186803e-06   4.473726059977199e-07   -5.3108260497968115e-06
-1.6253454329186803e-06   4.473726059977199e-07   -5.3108260497968115e-06
-1.6253454329186803e-06   4.473726059977199e-07   -5.3108260497968115e-06
2.709083863562732e-07   -5.897314647185349e-07   -7.73741887276016e-06
2.709083863562732e-07   -5.897314647185349e-07   -7.73741887276016e-06
2.709083863562732e-07   -5.897314647185349e-07   -7.73741887276016e-06
2.709083863562732e-07   -5.897314647185349e-07   -7.73741887276016e-06
4.063218975261327e-06   -6.0548461832742e-07   -1.4263531167503985e-06
4.063218975261327e-06   -6.0548461832742e-07   -1.4263531167503985e-06
4.063218975261327e-06   -6.0548461832742e-07   -1.4263531167503985e-06
4.063218975261327e-06   -6.0548461832742e-07   -1.4263531167503985e-06
4.107814936201584e-06   -4.3987502698654145e-07   -7.83511164625374e-06
4.107814936201584e-06   -4.3987502698654145e-07   -7.83511164625374e-06
4.107814936201584e-06   -4.3987502698654145e-07   -7.83511164625374e-06
4.107814936201584e-06   -4.3987502698654145e-07   -7.83511164625374e-06
2.6510877757143805e-07   -4.021611034687008e-07   -1.4532297359808524e-06
2.6510877757143805e-07   -4.021611034687008e-07   -1.4532297359808524e-06
2.6510877757143805e-07   -4.021611034687008e-07   -1.4532297359808524e-06
2.6510877757143805e-07   -4.021611034687008e-07   -1.4532297359808524e-06
2.149119134389234e-06   -4.844290935147118e-07   -4.543886203316255e-06
2.149119134389234e-06   -4.844290935147118e-07   -4.543886203316255e-06
2.149119134389234e-06   -4.844290935147118e-07   -4.543886203316255e-06
2.149119134389234e-06   -4.844290935147118e-07   -4.543886203316255e-06
2.6510877757143763e-07   -4.3987502698654145e-07   -7.857740000364455e-06
2.6510877757143763e-07   -4.3987502698654145e-07   -7.857740000364455e-06
2.6510877757143763e-07   -4.3987502698654145e-07   -7.857740000364455e-06
2.6510877757143763e-07   -4.3987502698654145e-07   -7.857740000364455e-06
4.10781493620159e-06   -4.021611034687008e-07   -1.4306013818701427e-06
4.10781493620159e-06   -4.021611034687008e-07   -1.4306013818701427e-06
4.10781493620159e-06   -4.021611034687008e-07   -1.4306013818701427e-06
4.10781493620159e-06   -4.021611034687008e-07   -1.4306013818701427e-06
4.099362589480078e-06   -2.6937832256891587e-07   -7.975702118260004e-06
4.099362589480078e-06   -2.6937832256891587e-07   -7.975702118260004e-06
4.099362589480078e-06   -2.6937832256891587e-07   -7.975702118260004e-06
4.099362589480078e-06   -2.6937832256891587e-07   -7.975702118260004e-06
2.546677155130946e-07   -2.0415842956336623e-07   -1.607009264118372e-06
2.546677155130946e-07   -2.0415842956336623e-07   -1.607009264118372e-06
2.546677155130946e-07   -2.0415842956336623e-07   -1.607009264118372e-06
2.546677155130946e-07   -2.0415842956336623e-07   -1.607009264118372e-06
2.1357710845735888e-06   -3.2386010926798133e-07   -4.6703605380630785e-06
2.1357710845735888e-06   -3.2386010926798133e-07   -4.6703605380630785e-06
2.1357710845735888e-06   -3.2386010926798133e-07   -4.6703605380630785e-06
2.1357710845735888e-06   -3.2386010926798133e-07   -4.6703605380630785e-06
2.546677155130944e-07   -2.6937832256891587e-07   -8.014834054063331e-06
2.546677155130944e-07   -2.6937832256891587e-07   -8.014834054063331e-06
2.546677155130944e-07   -2.6937832256891587e-07   -8.014834054063331e-06
2.546677155130944e-07   -2.6937832256891587e-07   -8.014834054063331e-06
4.099362589480092e-06   -2.0415842956336623e-07   -1.5678773283150418e-06
4.099362589480092e-06   -2.0415842956336623e-07   -1.5678773283150418e-06
4.099362589480092e-06   -2.0415842956336623e-07   -1.5678773283150418e-06
4.099362589480092e-06   -2.0415842956336623e-07   -1.5678773283150418e-06
3.988225680079232e-06   -4.136582522808157e-08   -7.991137274017998e-06
3.988225680079232e-06   -4.136582522808157e-08   -7.991137274017998e-06
3.988225680079232e-06   -4.136582522808157e-08   -7.991137274017998e-06
3.988225680079232e-06   -4.136582522808157e-08   -7.991137274017998e-06
2.2266896339249036e-07   3.9294596648539325e-08   -1.7636056659994155e-06
2.2266896339249036e-07   3.9294596648539325e-08   -1.7636056659994155e-06
2.2266896339249036e-07   3.9294596648539325e-08   -1.7636056659994155e-06
2.2266896339249036e-07   3.9294596648539325e-08   -1.7636056659994155e-06
2.1217420377599413e-06   -1.364451459823175e-07   -4.8232836110333096e-06
2.1217420377599413e-06   -1.364451459823175e-07   -4.8232836110333096e-06
2.1217420377599413e-06   -1.364451459823175e-07   -4.8232836110333096e-06
2.1217420377599413e-06   -1.364451459823175e-07   -4.8232836110333096e-06
4.063218975261327e-06   -1.5090194608070506e-06   -4.676603007384205e-06
4.063218975261327e-06   -1.5090194608070506e-06   -4.676603007384205e-06
4.063218975261327e-06   -1.5090194608070506e-06   -4.676603007384205e-06
4.063218975261327e-06   -1.5090194608070506e-06   -4.676603007384205e-06
7.785510151498542e-06   -1.1165288556286903e-06   1.7627099827848312e-06
7.785510151498542e-06   -1.1165288556286903e-06   1.7627099827848312e-06
7.785510151498542e-06   -1.1165288556286903e-06   1.7627099827848312e-06
7.785510151498542e-06   -1.1165288556286903e-06   1.7627099827848312e-06
8.108715989617422e-06   -1.2729023402590317e-06   -5.6359468055385876e-06
8.108715989617422e-06   -1.2729023402590317e-06   -5.6359468055385876e-06
8.108715989617422e-06   -1.2729023402590317e-06   -5.6359468055385876e-06
8.108715989617422e-06   -1.2729023402590317e-06   -5.6359468055385876e-06
4.107814936201599e-06   -1.004102071324028e-06   8.7094145546013e-07
4.107814936201599e-06   -1.004102071324028e-06   8.7094145546013e-07
4.107814936201599e-06   -1.004102071324028e-06   8.7094145546013e-07
4.107814936201599e-06   -1.004102071324028e-06   8.7094145546013e-07
5.736010032093544e-06   -1.218310036923273e-06   -1.7141922583335795e-06
5.736010032093544e-06   -1.218310036923273e-06   -1.7141922583335795e-06
5.736010032093544e-06   -1.218310036923273e-06   -1.7141922583335795e-06
5.736010032093544e-06   -1.218310036923273e-06   -1.7141922583335795e-06
4.107814936201588e-06   -1.27290234025903e-06   -5.79722696689957e-06
4.107814936201588e-06   -1.27290234025903e-06   -5.79722696689957e-06
4.107814936201588e-06   -1.27290234025903e-06   -5.79722696689957e-06
4.107814936201588e-06   -1.27290234025903e-06   -5.79722696689957e-06
8.108715989617422e-06   -1.004102071324028e-06   1.0322216168211261e-06
8.108715989617422e-06   -1.004102071324028e-06   1.0322216168211261e-06
8.108715989617422e-06   -1.004102071324028e-06   1.0322216168211261e-06
8.108715989617422e-06   -1.004102071324028e-06   1.0322216168211261e-06
8.095775681710345e-06   -1.1592321950489346e-06   -6.116994382389337e-06
8.095775681710345e-06   -1.1592321950489346e-06   -6.116994382389337e-06
8.095775681710345e-06   -1.1592321950489346e-06   -6.116994382389337e-06
8.095775681710345e-06   -1.1592321950489346e-06   -6.116994382389337e-06
4.099362589480092e-06   -8.903982066399914e-07   3.8239371161571046e-07
4.099362589480092e-06   -8.903982066399914e-07   3.8239371161571046e-07
4.099362589480092e-06   -8.903982066399914e-07   3.8239371161571046e-07
4.099362589480092e-06   -8.903982066399914e-07   3.8239371161571046e-07
5.953187509045136e-06   -1.0697406696986854e-06   -2.5997090098241485e-06
5.953187509045136e-06   -1.0697406696986854e-06   -2.5997090098241485e-06
5.953187509045136e-06   -1.0697406696986854e-06   -2.5997090098241485e-06
5.953187509045136e-06   -1.0697406696986854e-06   -2.5997090098241485e-06
4.099362589480084e-06   -1.1592321950489312e-06   -6.278294775434693e-06
4.099362589480084e-06   -1.1592321950489312e-06   -6.278294775434693e-06
4.099362589480084e-06   -1.1592321950489312e-06   -6.278294775434693e-06
4.099362589480084e-06   -1.1592321950489312e-06   -6.278294775434693e-06
8.095775681710345e-06   -8.903982066399914e-07   5.436941046610815e-07
8.095775681710345e-06   -8.903982066399914e-07   5.436941046610815e-07
8.095775681710345e-06   -8.903982066399914e-07   5.436941046610815e-07
8.095775681710345e-06   -8.903982066399914e-07   5.436941046610815e-07
8.067033793345811e-06   -8.880149063447613e-07   -7.109252821842122e-06
8.067033793345811e-06   -8.880149063447613e-07   -7.109252821842122e-06
8.067033793345811e-06   -8.880149063447613e-07   -7.109252821842122e-06
8.067033793345811e-06   -8.880149063447613e-07   -7.109252821842122e-06
3.988225680079245e-06   -6.465139667145321e-07   -4.5613986350932095e-07
3.988225680079245e-06   -6.465139667145321e-07   -4.5613986350932095e-07
3.988225680079245e-06   -6.465139667145321e-07   -4.5613986350932095e-07
3.988225680079245e-06   -6.465139667145321e-07   -4.5613986350932095e-07
5.795366495048459e-06   -9.165560994683261e-07   -3.306015942139063e-06
5.795366495048459e-06   -9.165560994683261e-07   -3.306015942139063e-06
5.795366495048459e-06   -9.165560994683261e-07   -3.306015942139063e-06
5.795366495048459e-06   -9.165560994683261e-07   -3.306015942139063e-06
-8.722253885152355e-06   1.2591770111732863e-06   -6.123381883561681e-06
-8.722253885152355e-06   1.2591770111732863e-06   -6.123381883561681e-06
-8.722253885152355e-06   1.2591770111732863e-06   -6.123381883561681e-06
-8.722253885152355e-06   1.2591770111732863e-06   -6.123381883561681e-06
-5.751454218164721e-06   9.502058877691505e-07   -1.3574317792914379e-06
-5.751454218164721e-06   9.502058877691505e-07   -1.3574317792914379e-06
-5.751454218164721e-06   9.502058877691505e-07   -1.3574317792914379e-06
-5.751454218164721e-06   9.502058877691505e-07   -1.3574317792914379e-06
-5.7738771690929496e-06   1.5205112958190708e-06   -5.090427148022865e-06
-5.7738771690929496e-06   1.5205112958190708e-06   -5.090427148022865e-06
-5.7738771690929496e-06   1.5205112958190708e-06   -5.090427148022865e-06
-5.7738771690929496e-06   1.5205112958190708e-06   -5.090427148022865e-06
-8.574336765120567e-06   1.1559392167158057e-06   -2.042512405148902e-07
-8.574336765120567e-06   1.1559392167158057e-06   -2.042512405148902e-07
-8.574336765120567e-06   1.1559392167158057e-06   -2.042512405148902e-07
-8.574336765120567e-06   1.1559392167158057e-06   -2.042512405148902e-07
-6.899941799727455e-06   1.2836294125696113e-06   -3.0715236336823856e-06
-6.899941799727455e-06   1.2836294125696113e-06   -3.0715236336823856e-06
-6.899941799727455e-06   1.2836294125696113e-06   -3.0715236336823856e-06
-6.899941799727455e-06   1.2836294125696113e-06   -3.0715236336823856e-06
-8.574336765120567e-06   1.5205112958190708e-06   -4.871683900560913e-06
-8.574336765120567e-06   1.5205112958190708e-06   -4.871683900560913e-06
-8.574336765120567e-06   1.5205112958190708e-06   -4.871683900560913e-06
-8.574336765120567e-06   1.5205112958190708e-06   -4.871683900560913e-06
-5.7738771690929496e-06   1.1559392167158193e-06   -4.2299448797682383e-07
-5.7738771690929496e-06   1.1559392167158193e-06   -4.2299448797682383e-07
-5.7738771690929496e-06   1.1559392167158193e-06   -4.2299448797682383e-07
-5.7738771690929496e-06   1.1559392167158193e-06   -4.2299448797682383e-07
-5.762301230901642e-06   1.6388150167610842e-06   -4.359467267611231e-06
-5.762301230901642e-06   1.6388150167610842e-06   -4.359467267611231e-06
-5.762301230901642e-06   1.6388150167610842e-06   -4.359467267611231e-06
-5.762301230901642e-06   1.6388150167610842e-06   -4.359467267611231e-06
-8.433176174937928e-06   1.2474557095963574e-06   3.268065567480627e-07
-8.433176174937928e-06   1.2474557095963574e-06   3.268065567480627e-07
-8.433176174937928e-06   1.2474557095963574e-06   3.268065567480627e-07
-8.433176174937928e-06   1.2474557095963574e-06   3.268065567480627e-07
-6.950981464820597e-06   1.4027949804412156e-06   -2.236721522620998e-06
-6.950981464820597e-06   1.4027949804412156e-06   -2.236721522620998e-06
-6.950981464820597e-06   1.4027949804412156e-06   -2.236721522620998e-06
-6.950981464820597e-06   1.4027949804412156e-06   -2.236721522620998e-06
-8.433176174937928e-06   1.6388150167610842e-06   -4.124651683312396e-06
-8.433176174937928e-06   1.6388150167610842e-06   -4.124651683312396e-06
-8.433176174937928e-06   1.6388150167610842e-06   -4.124651683312396e-06
-8.433176174937928e-06   1.6388150167610842e-06   -4.124651683312396e-06
-5.7623012309016525e-06   1.2474557095963574e-06   9.199097244925272e-08
-5.7623012309016525e-06   1.2474557095963574e-06   9.199097244925272e-08
-5.7623012309016525e-06   1.2474557095963574e-06   9.199097244925272e-08
-5.7623012309016525e-06   1.2474557095963574e-06   9.199097244925272e-08
-5.7639479909319825e-06   1.7378306966492923e-06   -3.3450958675565446e-06
-5.7639479909319825e-06   1.7378306966492923e-06   -3.3450958675565446e-06
-5.7639479909319825e-06   1.7378306966492923e-06   -3.3450958675565446e-06
-5.7639479909319825e-06   1.7378306966492923e-06   -3.3450958675565446e-06
-8.253119292004464e-06   1.3412360776732382e-06   1.041479738949845e-06
-8.253119292004464e-06   1.3412360776732382e-06   1.041479738949845e-06
-8.253119292004464e-06   1.3412360776732382e-06   1.041479738949845e-06
-8.253119292004464e-06   1.3412360776732382e-06   1.041479738949845e-06
-6.785538975405902e-06   1.468444071143288e-06   -1.4808122514630288e-06
-6.785538975405902e-06   1.468444071143288e-06   -1.4808122514630288e-06
-6.785538975405902e-06   1.468444071143288e-06   -1.4808122514630288e-06
-6.785538975405902e-06   1.468444071143288e-06   -1.4808122514630288e-06
-5.751454218164721e-06   5.86232184356862e-07   -7.194135093254243e-06
-5.751454218164721e-06   5.86232184356862e-07   -7.194135093254243e-06
-5.751454218164721e-06   5.86232184356862e-07   -7.194135093254243e-06
-5.751454218164721e-06   5.86232184356862e-07   -7.194135093254243e-06
-2.9633898359971966e-06   4.783129438757603e-07   -2.6121126672636994e-06
-2.9633898359971966e-06   4.783129438757603e-07   -2.6121126672636994e-06
-2.9633898359971966e-06   4.783129438757603e-07   -2.6121126672636994e-06
-2.9633898359971966e-06   4.783129438757603e-07   -2.6121126672636994e-06
-2.9949476695460795e-06   8.263293104206093e-07   -7.088529893270725e-06
-2.9949476695460795e-06   8.263293104206093e-07   -7.088529893270725e-06
-2.9949476695460795e-06   8.263293104206093e-07   -7.088529893270725e-06
-2.9949476695460795e-06   8.263293104206093e-07   -7.088529893270725e-06
-5.773877169092939e-06   6.816111693956124e-07   -2.3701498427442706e-06
-5.773877169092939e-06   6.816111693956124e-07   -2.3701498427442706e-06
-5.773877169092939e-06   6.816111693956124e-07   -2.3701498427442706e-06
-5.773877169092939e-06   6.816111693956124e-07   -2.3701498427442706e-06
-4.332847613955022e-06   6.821924976517277e-07   -4.772214564927821e-06
-4.332847613955022e-06   6.821924976517277e-07   -4.772214564927821e-06
-4.332847613955022e-06   6.821924976517277e-07   -4.772214564927821e-06
-4.332847613955022e-06   6.821924976517277e-07   -4.772214564927821e-06
-5.773877169092946e-06   8.263293104206093e-07   -7.001699008655706e-06
-5.773877169092946e-06   8.263293104206093e-07   -7.001699008655706e-06
-5.773877169092946e-06   8.263293104206093e-07   -7.001699008655706e-06
-5.773877169092946e-06   8.263293104206093e-07   -7.001699008655706e-06
-2.9949476695460838e-06   6.816111693955988e-07   -2.4569807273592627e-06
-2.9949476695460838e-06   6.816111693955988e-07   -2.4569807273592627e-06
-2.9949476695460838e-06   6.816111693955988e-07   -2.4569807273592627e-06
-2.9949476695460838e-06   6.816111693955988e-07   -2.4569807273592627e-06
-3.0138828539157794e-06   1.026190976482668e-06   -6.90261573459912e-06
-3.0138828539157794e-06   1.026190976482668e-06   -6.90261573459912e-06
-3.0138828539157794e-06   1.026190976482668e-06   -6.90261573459912e-06
-3.0138828539157794e-06   1.026190976482668e-06   -6.90261573459912e-06
-5.762301230901642e-06   8.636511386437716e-07   -2.224394536919388e-06
-5.762301230901642e-06   8.636511386437716e-07   -2.224394536919388e-06
-5.762301230901642e-06   8.636511386437716e-07   -2.224394536919388e-06
-5.762301230901642e-06   8.636511386437716e-07   -2.224394536919388e-06
-4.336848289409365e-06   8.504080882349509e-07   -4.59220360916113e-06
-4.336848289409365e-06   8.504080882349509e-07   -4.59220360916113e-06
-4.336848289409365e-06   8.504080882349509e-07   -4.59220360916113e-06
-4.336848289409365e-06   8.504080882349509e-07   -4.59220360916113e-06
-5.762301230901642e-06   1.0261909764826748e-06   -6.80509183189579e-06
-5.762301230901642e-06   1.0261909764826748e-06   -6.80509183189579e-06
-5.762301230901642e-06   1.0261909764826748e-06   -6.80509183189579e-06
-5.762301230901642e-06   1.0261909764826748e-06   -6.80509183189579e-06
-3.0138828539157887e-06   8.636511386437851e-07   -2.3219184396226897e-06
-3.0138828539157887e-06   8.636511386437851e-07   -2.3219184396226897e-06
-3.0138828539157887e-06   8.636511386437851e-07   -2.3219184396226897e-06
-3.0138828539157887e-06   8.636511386437851e-07   -2.3219184396226897e-06
-3.0400300132654153e-06   1.2421844973109421e-06   -6.887162118755253e-06
-3.0400300132654153e-06   1.2421844973109421e-06   -6.887162118755253e-06
-3.0400300132654153e-06   1.2421844973109421e-06   -6.887162118755253e-06
-3.0400300132654153e-06   1.2421844973109421e-06   -6.887162118755253e-06
-5.763947990931979e-06   1.058805709651709e-06   -2.237271550048763e-06
-5.763947990931979e-06   1.058805709651709e-06   -2.237271550048763e-06
-5.763947990931979e-06   1.058805709651709e-06   -2.237271550048763e-06
-5.763947990931979e-06   1.058805709651709e-06   -2.237271550048763e-06
-4.384066838850052e-06   1.0182992110876449e-06   -4.512769571046828e-06
-4.384066838850052e-06   1.0182992110876449e-06   -4.512769571046828e-06
-4.384066838850052e-06   1.0182992110876449e-06   -4.512769571046828e-06
-4.384066838850052e-06   1.0182992110876449e-06   -4.512769571046828e-06
-2.9633898359971907e-06   -2.0133716568914697e-08   -7.775635967178465e-06
-2.9633898359971907e-06   -2.0133716568914697e-08   -7.775635967178465e-06
-2.9633898359971907e-06   -2.0133716568914697e-08   -7.775635967178465e-06
-2.9633898359971907e-06   -2.0133716568914697e-08   -7.775635967178465e-06
-2.017617292254304e-07   2.635024954952673e-08   -3.145032076221126e-06
-2.017617292254304e-07   2.635024954952673e-08   -3.145032076221126e-06
-2.017617292254304e-07   2.635024954952673e-08   -3.145032076221126e-06
-2.017617292254304e-07   2.635024954952673e-08   -3.145032076221126e-06
-2.26522242611447e-07   2.015963407914521e-07   -7.69792944439122e-06
-2.26522242611447e-07   2.015963407914521e-07   -7.69792944439122e-06
-2.26522242611447e-07   2.015963407914521e-07   -7.69792944439122e-06
-2.26522242611447e-07   2.015963407914521e-07   -7.69792944439122e-06
-2.9949476695460795e-06   2.277751437828159e-07   -3.0995943479616703e-06
-2.9949476695460795e-06   2.277751437828159e-07   -3.0995943479616703e-06
-2.9949476695460795e-06   2.277751437828159e-07   -3.0995943479616703e-06
-2.9949476695460795e-06   2.277751437828159e-07   -3.0995943479616703e-06
-1.587109960387873e-06   1.3369208411050028e-07   -5.389540694088617e-06
-1.587109960387873e-06   1.3369208411050028e-07   -5.389540694088617e-06
-1.587109960387873e-06   1.3369208411050028e-07   -5.389540694088617e-06
-1.587109960387873e-06   1.3369208411050028e-07   -5.389540694088617e-06
-2.9949476695460795e-06   2.015963407914521e-07   -7.71363672618605e-06
-2.9949476695460795e-06   2.015963407914521e-07   -7.71363672618605e-06
-2.9949476695460795e-06   2.015963407914521e-07   -7.71363672618605e-06
-2.9949476695460795e-06   2.015963407914521e-07   -7.71363672618605e-06
-2.2652224261144743e-07   2.2777514378282944e-07   -3.0838870661668296e-06
-2.2652224261144743e-07   2.2777514378282944e-07   -3.0838870661668296e-06
-2.2652224261144743e-07   2.2777514378282944e-07   -3.0838870661668296e-06
-2.2652224261144743e-07   2.2777514378282944e-07   -3.0838870661668296e-06
-2.4287067114719257e-07   4.185770158075526e-07   -7.716563515551962e-06
-2.4287067114719257e-07   4.185770158075526e-07   -7.716563515551962e-06
-2.4287067114719257e-07   4.185770158075526e-07   -7.716563515551962e-06
-2.4287067114719257e-07   4.185770158075526e-07   -7.716563515551962e-06
-3.0138828539157837e-06   4.287337746800452e-07   -3.1043039329278394e-06
-3.0138828539157837e-06   4.287337746800452e-07   -3.1043039329278394e-06
-3.0138828539157837e-06   4.287337746800452e-07   -3.1043039329278394e-06
-3.0138828539157837e-06   4.287337746800452e-07   -3.1043039329278394e-06
-1.6203579492599415e-06   3.116720730315627e-07   -5.356608419698441e-06
-1.6203579492599415e-06   3.116720730315627e-07   -5.356608419698441e-06
-1.6203579492599415e-06   3.116720730315627e-07   -5.356608419698441e-06
-1.6203579492599415e-06   3.116720730315627e-07   -5.356608419698441e-06
-3.0138828539157837e-06   4.185770158075526e-07   -7.722657570875472e-06
-3.0138828539157837e-06   4.185770158075526e-07   -7.722657570875472e-06
-3.0138828539157837e-06   4.185770158075526e-07   -7.722657570875472e-06
-3.0138828539157837e-06   4.185770158075526e-07   -7.722657570875472e-06
-2.42870671147193e-07   4.287337746800452e-07   -3.0982098776043025e-06
-2.42870671147193e-07   4.287337746800452e-07   -3.0982098776043025e-06
-2.42870671147193e-07   4.287337746800452e-07   -3.0982098776043025e-06
-2.42870671147193e-07   4.287337746800452e-07   -3.0982098776043025e-06
-2.7108481035563377e-07   6.442548497987579e-07   -7.81502947377383e-06
-2.7108481035563377e-07   6.442548497987579e-07   -7.81502947377383e-06
-2.7108481035563377e-07   6.442548497987579e-07   -7.81502947377383e-06
-2.7108481035563377e-07   6.442548497987579e-07   -7.81502947377383e-06
-3.0400300132654127e-06   6.342192978064302e-07   -3.194099471062162e-06
-3.0400300132654127e-06   6.342192978064302e-07   -3.194099471062162e-06
-3.0400300132654127e-06   6.342192978064302e-07   -3.194099471062162e-06
-3.0400300132654127e-06   6.342192978064302e-07   -3.194099471062162e-06
-1.6559263051662922e-06   4.917795499172794e-07   -5.415475135827167e-06
-1.6559263051662922e-06   4.917795499172794e-07   -5.415475135827167e-06
-1.6559263051662922e-06   4.917795499172794e-07   -5.415475135827167e-06
-1.6559263051662922e-06   4.917795499172794e-07   -5.415475135827167e-06
-2.0176172922543073e-07   -6.0548461832742e-07   -6.936965750720997e-06
-2.0176172922543073e-07   -6.0548461832742e-07   -6.936965750720997e-06
-2.0176172922543073e-07   -6.0548461832742e-07   -6.936965750720997e-06
-2.0176172922543073e-07   -6.0548461832742e-07   -6.936965750720997e-06
2.53729723182757e-06   -3.9826987666091403e-07   -2.2475386372994367e-06
2.53729723182757e-06   -3.9826987666091403e-07   -2.2475386372994367e-06
2.53729723182757e-06   -3.9826987666091403e-07   -2.2475386372994367e-06
2.53729723182757e-06   -3.9826987666091403e-07   -2.2475386372994367e-06
2.5397607318854533e-06   -4.021611034687008e-07   -6.849225164782227e-06
2.5397607318854533e-06   -4.021611034687008e-07   -6.849225164782227e-06
2.5397607318854533e-06   -4.021611034687008e-07   -6.849225164782227e-06
2.5397607318854533e-06   -4.021611034687008e-07   -6.849225164782227e-06
-2.2652224261144743e-07   -2.117824712999139e-07   -2.352980719921983e-06
-2.2652224261144743e-07   -2.117824712999139e-07   -2.352980719921983e-06
-2.2652224261144743e-07   -2.117824712999139e-07   -2.352980719921983e-06
-2.2652224261144743e-07   -2.117824712999139e-07   -2.352980719921983e-06
1.1539547593028606e-06   -3.889147558736595e-07   -4.547496352368255e-06
1.1539547593028606e-06   -3.889147558736595e-07   -4.547496352368255e-06
1.1539547593028606e-06   -3.889147558736595e-07   -4.547496352368255e-06
1.1539547593028606e-06   -3.889147558736595e-07   -4.547496352368255e-06
-2.2652224261144743e-07   -4.021611034687008e-07   -6.963452344083476e-06
-2.2652224261144743e-07   -4.021611034687008e-07   -6.963452344083476e-06
-2.2652224261144743e-07   -4.021611034687008e-07   -6.963452344083476e-06
-2.2652224261144743e-07   -4.021611034687008e-07   -6.963452344083476e-06
2.5397607318854533e-06   -2.1178247129992746e-07   -2.238753540620711e-06
2.5397607318854533e-06   -2.1178247129992746e-07   -2.238753540620711e-06
2.5397607318854533e-06   -2.1178247129992746e-07   -2.238753540620711e-06
2.5397607318854533e-06   -2.1178247129992746e-07   -2.238753540620711e-06
2.5583471221051873e-06   -2.0415842956336623e-07   -7.024402206001549e-06
2.5583471221051873e-06   -2.0415842956336623e-07   -7.024402206001549e-06
2.5583471221051873e-06   -2.0415842956336623e-07   -7.024402206001549e-06
2.5583471221051873e-06   -2.0415842956336623e-07   -7.024402206001549e-06
-2.428706711471934e-07   -3.012106765639994e-08   -2.460128301058449e-06
-2.428706711471934e-07   -3.012106765639994e-08   -2.460128301058449e-06
-2.428706711471934e-07   -3.012106765639994e-08   -2.460128301058449e-06
-2.428706711471934e-07   -3.012106765639994e-08   -2.460128301058449e-06
1.1204421984631134e-06   -2.276450923261651e-07   -4.613802002273726e-06
1.1204421984631134e-06   -2.276450923261651e-07   -4.613802002273726e-06
1.1204421984631134e-06   -2.276450923261651e-07   -4.613802002273726e-06
1.1204421984631134e-06   -2.276450923261651e-07   -4.613802002273726e-06
-2.428706711471928e-07   -2.0415842956336623e-07   -7.128824623145694e-06
-2.428706711471928e-07   -2.0415842956336623e-07   -7.128824623145694e-06
-2.428706711471928e-07   -2.0415842956336623e-07   -7.128824623145694e-06
-2.428706711471928e-07   -2.0415842956336623e-07   -7.128824623145694e-06
2.5583471221051873e-06   -3.012106765639994e-08   -2.3557058839142344e-06
2.5583471221051873e-06   -3.012106765639994e-08   -2.3557058839142344e-06
2.5583471221051873e-06   -3.012106765639994e-08   -2.3557058839142344e-06
2.5583471221051873e-06   -3.012106765639994e-08   -2.3557058839142344e-06
2.5437512596778233e-06   3.92945966485461e-08   -7.228599538136756e-06
2.5437512596778233e-06   3.92945966485461e-08   -7.228599538136756e-06
2.5437512596778233e-06   3.92945966485461e-08   -7.228599538136756e-06
2.5437512596778233e-06   3.92945966485461e-08   -7.228599538136756e-06
-2.710848103556342e-07   1.806200333986219e-07   -2.6220013501310628e-06
-2.710848103556342e-07   1.806200333986219e-07   -2.6220013501310628e-06
-2.710848103556342e-07   1.806200333986219e-07   -2.6220013501310628e-06
-2.710848103556342e-07   1.806200333986219e-07   -2.6220013501310628e-06
1.111166555588964e-06   -5.6483960404501066e-08   -4.7834912304234815e-06
1.111166555588964e-06   -5.6483960404501066e-08   -4.7834912304234815e-06
1.111166555588964e-06   -5.6483960404501066e-08   -4.7834912304234815e-06
1.111166555588964e-06   -5.6483960404501066e-08   -4.7834912304234815e-06
2.537297231827565e-06   -1.116528855628697e-06   -3.859068169292888e-06
2.537297231827565e-06   -1.116528855628697e-06   -3.859068169292888e-06
2.537297231827565e-06   -1.116528855628697e-06   -3.859068169292888e-06
2.537297231827565e-06   -1.116528855628697e-06   -3.859068169292888e-06
5.0672640188035855e-06   -7.104970415768404e-07   6.011622307649443e-07
5.0672640188035855e-06   -7.104970415768404e-07   6.011622307649443e-07
5.0672640188035855e-06   -7.104970415768404e-07   6.011622307649443e-07
5.0672640188035855e-06   -7.104970415768404e-07   6.011622307649443e-07
5.255397561487494e-06   -1.004102071324028e-06   -4.305286678225963e-06
5.255397561487494e-06   -1.004102071324028e-06   -4.305286678225963e-06
5.255397561487494e-06   -1.004102071324028e-06   -4.305286678225963e-06
5.255397561487494e-06   -1.004102071324028e-06   -4.305286678225963e-06
2.539760731885448e-06   -6.001093226140863e-07   -2.162094478184496e-08
2.539760731885448e-06   -6.001093226140863e-07   -2.162094478184496e-08
2.539760731885448e-06   -6.001093226140863e-07   -2.162094478184496e-08
2.539760731885448e-06   -6.001093226140863e-07   -2.162094478184496e-08
3.6856948849010014e-06   -8.470183549302471e-07   -1.78336578041808e-06
3.6856948849010014e-06   -8.470183549302471e-07   -1.78336578041808e-06
3.6856948849010014e-06   -8.470183549302471e-07   -1.78336578041808e-06
3.6856948849010014e-06   -8.470183549302471e-07   -1.78336578041808e-06
2.5397607318854465e-06   -1.004102071324028e-06   -4.5476823274519205e-06
2.5397607318854465e-06   -1.004102071324028e-06   -4.5476823274519205e-06
2.5397607318854465e-06   -1.004102071324028e-06   -4.5476823274519205e-06
2.5397607318854465e-06   -1.004102071324028e-06   -4.5476823274519205e-06
5.255397561487494e-06   -6.001093226140728e-07   2.2077470444413093e-07
5.255397561487494e-06   -6.001093226140728e-07   2.2077470444413093e-07
5.255397561487494e-06   -6.001093226140728e-07   2.2077470444413093e-07
5.255397561487494e-06   -6.001093226140728e-07   2.2077470444413093e-07
5.4033307514952016e-06   -8.903982066399914e-07   -4.8451681995313854e-06
5.4033307514952016e-06   -8.903982066399914e-07   -4.8451681995313854e-06
5.4033307514952016e-06   -8.903982066399914e-07   -4.8451681995313854e-06
5.4033307514952016e-06   -8.903982066399914e-07   -4.8451681995313854e-06
2.558347122105179e-06   -5.087932624076545e-07   -3.324917837541034e-07
2.558347122105179e-06   -5.087932624076545e-07   -3.324917837541034e-07
2.558347122105179e-06   -5.087932624076545e-07   -3.324917837541034e-07
2.558347122105179e-06   -5.087932624076545e-07   -3.324917837541034e-07
3.820693961186702e-06   -7.761223087603697e-07   -2.2760057544116565e-06
3.820693961186702e-06   -7.761223087603697e-07   -2.2760057544116565e-06
3.820693961186702e-06   -7.761223087603697e-07   -2.2760057544116565e-06
3.820693961186702e-06   -7.761223087603697e-07   -2.2760057544116565e-06
2.558347122105182e-06   -8.903982066399914e-07   -5.0741311660707815e-06
2.558347122105182e-06   -8.903982066399914e-07   -5.0741311660707815e-06
2.558347122105182e-06   -8.903982066399914e-07   -5.0741311660707815e-06
2.558347122105182e-06   -8.903982066399914e-07   -5.0741311660707815e-06
5.403330751495195e-06   -5.087932624076545e-07   -1.0352881721467687e-07
5.403330751495195e-06   -5.087932624076545e-07   -1.0352881721467687e-07
5.403330751495195e-06   -5.087932624076545e-07   -1.0352881721467687e-07
5.403330751495195e-06   -5.087932624076545e-07   -1.0352881721467687e-07
5.563811471510024e-06   -6.465139667145321e-07   -5.771484814070711e-06
5.563811471510024e-06   -6.465139667145321e-07   -5.771484814070711e-06
5.563811471510024e-06   -6.465139667145321e-07   -5.771484814070711e-06
5.563811471510024e-06   -6.465139667145321e-07   -5.771484814070711e-06
2.543751259677815e-06   -3.164386755446759e-07   -9.360963023856411e-07
2.543751259677815e-06   -3.164386755446759e-07   -9.360963023856411e-07
2.543751259677815e-06   -3.164386755446759e-07   -9.360963023856411e-07
2.543751259677815e-06   -3.164386755446759e-07   -9.360963023856411e-07
3.814445110961267e-06   -6.64489165992901e-07   -2.845089093589105e-06
3.814445110961267e-06   -6.64489165992901e-07   -2.845089093589105e-06
3.814445110961267e-06   -6.64489165992901e-07   -2.845089093589105e-06
3.814445110961267e-06   -6.64489165992901e-07   -2.845089093589105e-06
-6.150671708092286e-06   9.502058877691505e-07   -4.755541871406636e-06
-6.150671708092286e-06   9.502058877691505e-07   -4.755541871406636e-06
-6.150671708092286e-06   9.502058877691505e-07   -4.755541871406636e-06
-6.150671708092286e-06   9.502058877691505e-07   -4.755541871406636e-06
-4.233603787733995e-06   5.932483656149253e-07   -1.7746031841020065e-06
-4.233603787733995e-06   5.932483656149253e-07   -1.7746031841020065e-06
-4.233603787733995e-06   5.932483656149253e-07   -1.7746031841020065e-06
-4.233603787733995e-06   5.932483656149253e-07   -1.7746031841020065e-06
-4.2172949171934635e-06   1.1559392167158057e-06   -4.042232305108919e-06
-4.2172949171934635e-06   1.1559392167158057e-06   -4.042232305108919e-06
-4.2172949171934635e-06   1.1559392167158057e-06   -4.042232305108919e-06
-4.2172949171934635e-06   1.1559392167158057e-06   -4.042232305108919e-06
-5.955814029736738e-06   7.609983394571098e-07   -9.077359245149004e-07
-5.955814029736738e-06   7.609983394571098e-07   -9.077359245149004e-07
-5.955814029736738e-06   7.609983394571098e-07   -9.077359245149004e-07
-5.955814029736738e-06   7.609983394571098e-07   -9.077359245149004e-07
-4.921029620727675e-06   9.170702688372626e-07   -2.7260197638247666e-06
-4.921029620727675e-06   9.170702688372626e-07   -2.7260197638247666e-06
-4.921029620727675e-06   9.170702688372626e-07   -2.7260197638247666e-06
-4.921029620727675e-06   9.170702688372626e-07   -2.7260197638247666e-06
-5.955814029736738e-06   1.1559392167158057e-06   -3.8052677787537014e-06
-5.955814029736738e-06   1.1559392167158057e-06   -3.8052677787537014e-06
-5.955814029736738e-06   1.1559392167158057e-06   -3.8052677787537014e-06
-5.955814029736738e-06   1.1559392167158057e-06   -3.8052677787537014e-06
-4.21729491719347e-06   7.609983394570963e-07   -1.1447004508701264e-06
-4.21729491719347e-06   7.609983394570963e-07   -1.1447004508701264e-06
-4.21729491719347e-06   7.609983394570963e-07   -1.1447004508701264e-06
-4.21729491719347e-06   7.609983394570963e-07   -1.1447004508701264e-06
-4.184705135807972e-06   1.2474557095963574e-06   -3.5256243394556818e-06
-4.184705135807972e-06   1.2474557095963574e-06   -3.5256243394556818e-06
-4.184705135807972e-06   1.2474557095963574e-06   -3.5256243394556818e-06
-4.184705135807972e-06   1.2474557095963574e-06   -3.5256243394556818e-06
-5.8120718901752e-06   8.407293137248486e-07   -5.693105779873875e-07
-5.8120718901752e-06   8.407293137248486e-07   -5.693105779873875e-07
-5.8120718901752e-06   8.407293137248486e-07   -5.693105779873875e-07
-5.8120718901752e-06   8.407293137248486e-07   -5.693105779873875e-07
-4.9177143755775194e-06   1.0109969759187646e-06   -2.16206703296655e-06
-4.9177143755775194e-06   1.0109969759187646e-06   -2.16206703296655e-06
-4.9177143755775194e-06   1.0109969759187646e-06   -2.16206703296655e-06
-4.9177143755775194e-06   1.0109969759187646e-06   -2.16206703296655e-06
-5.8120718901752e-06   1.2474557095963574e-06   -3.281588501932778e-06
-5.8120718901752e-06   1.2474557095963574e-06   -3.281588501932778e-06
-5.8120718901752e-06   1.2474557095963574e-06   -3.281588501932778e-06
-5.8120718901752e-06   1.2474557095963574e-06   -3.281588501932778e-06
-4.184705135807978e-06   8.407293137248486e-07   -8.133464155102758e-07
-4.184705135807978e-06   8.407293137248486e-07   -8.133464155102758e-07
-4.184705135807978e-06   8.407293137248486e-07   -8.133464155102758e-07
-4.184705135807978e-06   8.407293137248486e-07   -8.133464155102758e-07
-4.172912653008089e-06   1.3412360776732382e-06   -2.8163689390403238e-06
-4.172912653008089e-06   1.3412360776732382e-06   -2.8163689390403238e-06
-4.172912653008089e-06   1.3412360776732382e-06   -2.8163689390403238e-06
-4.172912653008089e-06   1.3412360776732382e-06   -2.8163689390403238e-06
-5.626228072039224e-06   9.434053337359436e-07   -1.55478127626034e-07
-5.626228072039224e-06   9.434053337359436e-07   -1.55478127626034e-07
-5.626228072039224e-06   9.434053337359436e-07   -1.55478127626034e-07
-5.626228072039224e-06   9.434053337359436e-07   -1.55478127626034e-07
-4.7703209855445e-06   1.0648864014697635e-06   -1.6548785790908828e-06
-4.7703209855445e-06   1.0648864014697635e-06   -1.6548785790908828e-06
-4.7703209855445e-06   1.0648864014697635e-06   -1.6548785790908828e-06
-4.7703209855445e-06   1.0648864014697635e-06   -1.6548785790908828e-06
-4.233603787733988e-06   4.783129438757603e-07   -6.159645728382765e-06
-4.233603787733988e-06   4.783129438757603e-07   -6.159645728382765e-06
-4.233603787733988e-06   4.783129438757603e-07   -6.159645728382765e-06
-4.233603787733988e-06   4.783129438757603e-07   -6.159645728382765e-06
-2.4817647377425565e-06   3.141996720396826e-07   -3.338381941498693e-06
-2.4817647377425565e-06   3.141996720396826e-07   -3.338381941498693e-06
-2.4817647377425565e-06   3.141996720396826e-07   -3.338381941498693e-06
-2.4817647377425565e-06   3.141996720396826e-07   -3.338381941498693e-06
-2.483410712507271e-06   6.816111693956124e-07   -6.102927801717795e-06
-2.483410712507271e-06   6.816111693956124e-07   -6.102927801717795e-06
-2.483410712507271e-06   6.816111693956124e-07   -6.102927801717795e-06
-2.483410712507271e-06   6.816111693956124e-07   -6.102927801717795e-06
-4.2172949171934635e-06   4.923775996598949e-07   -3.099580652066026e-06
-4.2172949171934635e-06   4.923775996598949e-07   -3.099580652066026e-06
-4.2172949171934635e-06   4.923775996598949e-07   -3.099580652066026e-06
-4.2172949171934635e-06   4.923775996598949e-07   -3.099580652066026e-06
-3.3227213615305842e-06   5.278217494397112e-07   -4.611803068038725e-06
-3.3227213615305842e-06   5.278217494397112e-07   -4.611803068038725e-06
-3.3227213615305842e-06   5.278217494397112e-07   -4.611803068038725e-06
-3.3227213615305842e-06   5.278217494397112e-07   -4.611803068038725e-06
-4.217294917193457e-06   6.816111693956124e-07   -5.9893876598763335e-06
-4.217294917193457e-06   6.816111693956124e-07   -5.9893876598763335e-06
-4.217294917193457e-06   6.816111693956124e-07   -5.9893876598763335e-06
-4.217294917193457e-06   6.816111693956124e-07   -5.9893876598763335e-06
-2.483410712507271e-06   4.923775996599084e-07   -3.213120793907457e-06
-2.483410712507271e-06   4.923775996599084e-07   -3.213120793907457e-06
-2.483410712507271e-06   4.923775996599084e-07   -3.213120793907457e-06
-2.483410712507271e-06   4.923775996599084e-07   -3.213120793907457e-06
-2.482225752151369e-06   8.636511386437716e-07   -5.966553474761672e-06
-2.482225752151369e-06   8.636511386437716e-07   -5.966553474761672e-06
-2.482225752151369e-06   8.636511386437716e-07   -5.966553474761672e-06
-2.482225752151369e-06   8.636511386437716e-07   -5.966553474761672e-06
-4.184705135807972e-06   6.560784287481169e-07   -3.004544209396609e-06
-4.184705135807972e-06   6.560784287481169e-07   -3.004544209396609e-06
-4.184705135807972e-06   6.560784287481169e-07   -3.004544209396609e-06
-4.184705135807972e-06   6.560784287481169e-07   -3.004544209396609e-06
-3.3079841738579194e-06   6.756147504638889e-07   -4.477467605676112e-06
-3.3079841738579194e-06   6.756147504638889e-07   -4.477467605676112e-06
-3.3079841738579194e-06   6.756147504638889e-07   -4.477467605676112e-06
-3.3079841738579194e-06   6.756147504638889e-07   -4.477467605676112e-06
-4.184705135807972e-06   8.636511386437716e-07   -5.842009848824267e-06
-4.184705135807972e-06   8.636511386437716e-07   -5.842009848824267e-06
-4.184705135807972e-06   8.636511386437716e-07   -5.842009848824267e-06
-4.184705135807972e-06   8.636511386437716e-07   -5.842009848824267e-06
-2.482225752151374e-06   6.560784287481169e-07   -3.1290878353339972e-06
-2.482225752151374e-06   6.560784287481169e-07   -3.1290878353339972e-06
-2.482225752151374e-06   6.560784287481169e-07   -3.1290878353339972e-06
-2.482225752151374e-06   6.560784287481169e-07   -3.1290878353339972e-06
-2.4851758719586564e-06   1.058805709651709e-06   -5.99114901451014e-06
-2.4851758719586564e-06   1.058805709651709e-06   -5.99114901451014e-06
-2.4851758719586564e-06   1.058805709651709e-06   -5.99114901451014e-06
-2.4851758719586564e-06   1.058805709651709e-06   -5.99114901451014e-06
-4.172912653008089e-06   8.354964465569876e-07   -3.0442688215708995e-06
-4.172912653008089e-06   8.354964465569876e-07   -3.0442688215708995e-06
-4.172912653008089e-06   8.354964465569876e-07   -3.0442688215708995e-06
-4.172912653008089e-06   8.354964465569876e-07   -3.0442688215708995e-06
-3.3300919203094787e-06   8.234774983711132e-07   -4.441758673823726e-06
-3.3300919203094787e-06   8.234774983711132e-07   -4.441758673823726e-06
-3.3300919203094787e-06   8.234774983711132e-07   -4.441758673823726e-06
-3.3300919203094787e-06   8.234774983711132e-07   -4.441758673823726e-06
-2.481764737742553e-06   2.635024954952673e-08   -6.818923480112918e-06
-2.481764737742553e-06   2.635024954952673e-08   -6.818923480112918e-06
-2.481764737742553e-06   2.635024954952673e-08   -6.818923480112918e-06
-2.481764737742553e-06   2.635024954952673e-08   -6.818923480112918e-06
-7.473800888264662e-07   5.876085100549528e-08   -3.908836037712533e-06
-7.473800888264662e-07   5.876085100549528e-08   -3.908836037712533e-06
-7.473800888264662e-07   5.876085100549528e-08   -3.908836037712533e-06
-7.473800888264662e-07   5.876085100549528e-08   -3.908836037712533e-06
-7.495424663824523e-07   2.277751437828159e-07   -6.738477701231059e-06
-7.495424663824523e-07   2.277751437828159e-07   -6.738477701231059e-06
-7.495424663824523e-07   2.277751437828159e-07   -6.738477701231059e-06
-7.495424663824523e-07   2.277751437828159e-07   -6.738477701231059e-06
-2.4834107125072657e-06   2.3954801226468603e-07   -3.855761012112152e-06
-2.4834107125072657e-06   2.3954801226468603e-07   -3.855761012112152e-06
-2.4834107125072657e-06   2.3954801226468603e-07   -3.855761012112152e-06
-2.4834107125072657e-06   2.3954801226468603e-07   -3.855761012112152e-06
-1.6044088630646207e-06   1.6286545962917683e-07   -5.274754562935247e-06
-1.6044088630646207e-06   1.6286545962917683e-07   -5.274754562935247e-06
-1.6044088630646207e-06   1.6286545962917683e-07   -5.274754562935247e-06
-1.6044088630646207e-06   1.6286545962917683e-07   -5.274754562935247e-06
-2.4834107125072657e-06   2.277751437828159e-07   -6.745541422320176e-06
-2.4834107125072657e-06   2.277751437828159e-07   -6.745541422320176e-06
-2.4834107125072657e-06   2.277751437828159e-07   -6.745541422320176e-06
-2.4834107125072657e-06   2.277751437828159e-07   -6.745541422320176e-06
-7.495424663824523e-07   2.3954801226468603e-07   -3.848697291023032e-06
-7.495424663824523e-07   2.3954801226468603e-07   -3.848697291023032e-06
-7.495424663824523e-07   2.3954801226468603e-07   -3.848697291023032e-06
-7.495424663824523e-07   2.3954801226468603e-07   -3.848697291023032e-06
-7.477352360250635e-07   4.2873377468005875e-07   -6.753615842421256e-06
-7.477352360250635e-07   4.2873377468005875e-07   -6.753615842421256e-06
-7.477352360250635e-07   4.2873377468005875e-07   -6.753615842421256e-06
-7.477352360250635e-07   4.2873377468005875e-07   -6.753615842421256e-06
-2.482225752151369e-06   4.209389840892667e-07   -3.85812144118962e-06
-2.482225752151369e-06   4.209389840892667e-07   -3.85812144118962e-06
-2.482225752151369e-06   4.209389840892667e-07   -3.85812144118962e-06
-2.482225752151369e-06   4.209389840892667e-07   -3.85812144118962e-06
-1.6157283752624912e-06   3.2195744524809696e-07   -5.242894812699714e-06
-1.6157283752624912e-06   3.2195744524809696e-07   -5.242894812699714e-06
-1.6157283752624912e-06   3.2195744524809696e-07   -5.242894812699714e-06
-1.6157283752624912e-06   3.2195744524809696e-07   -5.242894812699714e-06
-2.482225752151369e-06   4.2873377468005875e-07   -6.748938968066796e-06
-2.482225752151369e-06   4.2873377468005875e-07   -6.748938968066796e-06
-2.482225752151369e-06   4.2873377468005875e-07   -6.748938968066796e-06
-2.482225752151369e-06   4.2873377468005875e-07   -6.748938968066796e-06
-7.477352360250647e-07   4.209389840892667e-07   -3.8627983155440734e-06
-7.477352360250647e-07   4.209389840892667e-07   -3.8627983155440734e-06
-7.477352360250647e-07   4.209389840892667e-07   -3.8627983155440734e-06
-7.477352360250647e-07   4.209389840892667e-07   -3.8627983155440734e-06
-7.491653369269643e-07   6.342192978064302e-07   -6.855180964132928e-06
-7.491653369269643e-07   6.342192978064302e-07   -6.855180964132928e-06
-7.491653369269643e-07   6.342192978064302e-07   -6.855180964132928e-06
-7.491653369269643e-07   6.342192978064302e-07   -6.855180964132928e-06
-2.485175871958653e-06   6.055004624648573e-07   -3.94459877120849e-06
-2.485175871958653e-06   6.055004624648573e-07   -3.94459877120849e-06
-2.485175871958653e-06   6.055004624648573e-07   -3.94459877120849e-06
-2.485175871958653e-06   6.055004624648573e-07   -3.94459877120849e-06
-1.6301715074991554e-06   4.831525477436448e-07   -5.296197296474935e-06
-1.6301715074991554e-06   4.831525477436448e-07   -5.296197296474935e-06
-1.6301715074991554e-06   4.831525477436448e-07   -5.296197296474935e-06
-1.6301715074991554e-06   4.831525477436448e-07   -5.296197296474935e-06
-7.473800888264649e-07   -3.9826987666091403e-07   -6.026312525317562e-06
-7.473800888264649e-07   -3.9826987666091403e-07   -6.026312525317562e-06
-7.473800888264649e-07   -3.9826987666091403e-07   -6.026312525317562e-06
-7.473800888264649e-07   -3.9826987666091403e-07   -6.026312525317562e-06
9.511132355269611e-07   -1.7354013644688105e-07   -3.060652473933431e-06
9.511132355269611e-07   -1.7354013644688105e-07   -3.060652473933431e-06
9.511132355269611e-07   -1.7354013644688105e-07   -3.060652473933431e-06
9.511132355269611e-07   -1.7354013644688105e-07   -3.060652473933431e-06
9.64598966460785e-07   -2.1178247129992746e-07   -5.881459887694956e-06
9.64598966460785e-07   -2.1178247129992746e-07   -5.881459887694956e-06
9.64598966460785e-07   -2.1178247129992746e-07   -5.881459887694956e-06
9.64598966460785e-07   -2.1178247129992746e-07   -5.881459887694956e-06
-7.495424663824523e-07   -1.596692481207443e-09   -3.1506689669141316e-06
-7.495424663824523e-07   -1.596692481207443e-09   -3.1506689669141316e-06
-7.495424663824523e-07   -1.596692481207443e-09   -3.1506689669141316e-06
-7.495424663824523e-07   -1.596692481207443e-09   -3.1506689669141316e-06
1.071767035119629e-07   -1.8033582233604626e-07   -4.471290772158587e-06
1.071767035119629e-07   -1.8033582233604626e-07   -4.471290772158587e-06
1.071767035119629e-07   -1.8033582233604626e-07   -4.471290772158587e-06
1.071767035119629e-07   -1.8033582233604626e-07   -4.471290772158587e-06
-7.495424663824523e-07   -2.117824712999139e-07   -6.007571354986196e-06
-7.495424663824523e-07   -2.117824712999139e-07   -6.007571354986196e-06
-7.495424663824523e-07   -2.117824712999139e-07   -6.007571354986196e-06
-7.495424663824523e-07   -2.117824712999139e-07   -6.007571354986196e-06
9.645989664607884e-07   -1.596692481207443e-09   -3.024557499622913e-06
9.645989664607884e-07   -1.596692481207443e-09   -3.024557499622913e-06
9.645989664607884e-07   -1.596692481207443e-09   -3.024557499622913e-06
9.645989664607884e-07   -1.596692481207443e-09   -3.024557499622913e-06
9.990610582825163e-07   -3.012106765639994e-08   -6.000091974798007e-06
9.990610582825163e-07   -3.012106765639994e-08   -6.000091974798007e-06
9.990610582825163e-07   -3.012106765639994e-08   -6.000091974798007e-06
9.990610582825163e-07   -3.012106765639994e-08   -6.000091974798007e-06
-7.477352360250647e-07   1.6228275080584472e-07   -3.2042071086960613e-06
-7.477352360250647e-07   1.6228275080584472e-07   -3.2042071086960613e-06
-7.477352360250647e-07   1.6228275080584472e-07   -3.2042071086960613e-06
-7.477352360250647e-07   1.6228275080584472e-07   -3.2042071086960613e-06
9.675646404401878e-08   -3.693330847130325e-08   -4.492163639911575e-06
9.675646404401878e-08   -3.693330847130325e-08   -4.492163639911575e-06
9.675646404401878e-08   -3.693330847130325e-08   -4.492163639911575e-06
9.675646404401878e-08   -3.693330847130325e-08   -4.492163639911575e-06
-7.47735236025064e-07   -3.012106765639994e-08   -6.115534265875354e-06
-7.47735236025064e-07   -3.012106765639994e-08   -6.115534265875354e-06
-7.47735236025064e-07   -3.012106765639994e-08   -6.115534265875354e-06
-7.47735236025064e-07   -3.012106765639994e-08   -6.115534265875354e-06
9.990610582825197e-07   1.6228275080584472e-07   -3.0887648176186963e-06
9.990610582825197e-07   1.6228275080584472e-07   -3.0887648176186963e-06
9.990610582825197e-07   1.6228275080584472e-07   -3.0887648176186963e-06
9.990610582825197e-07   1.6228275080584472e-07   -3.0887648176186963e-06
1.0166088336446648e-06   1.806200333986219e-07   -6.176397911162668e-06
1.0166088336446648e-06   1.806200333986219e-07   -6.176397911162668e-06
1.0166088336446648e-06   1.806200333986219e-07   -6.176397911162668e-06
1.0166088336446648e-06   1.806200333986219e-07   -6.176397911162668e-06
-7.491653369269631e-07   3.4839270147153775e-07   -3.334104561053688e-06
-7.491653369269631e-07   3.4839270147153775e-07   -3.334104561053688e-06
-7.491653369269631e-07   3.4839270147153775e-07   -3.334104561053688e-06
-7.491653369269631e-07   3.4839270147153775e-07   -3.334104561053688e-06
1.019721985239878e-07   1.1470922370338552e-07   -4.612457033477696e-06
1.019721985239878e-07   1.1470922370338552e-07   -4.612457033477696e-06
1.019721985239878e-07   1.1470922370338552e-07   -4.612457033477696e-06
1.019721985239878e-07   1.1470922370338552e-07   -4.612457033477696e-06
9.511132355269595e-07   -7.104970415768404e-07   -3.286392901555863e-06
9.511132355269595e-07   -7.104970415768404e-07   -3.286392901555863e-06
9.511132355269595e-07   -7.104970415768404e-07   -3.286392901555863e-06
9.511132355269595e-07   -7.104970415768404e-07   -3.286392901555863e-06
2.4196954801269173e-06   -3.0939411526209983e-07   -5.98094071433772e-07
2.4196954801269173e-06   -3.0939411526209983e-07   -5.98094071433772e-07
2.4196954801269173e-06   -3.0939411526209983e-07   -5.98094071433772e-07
2.4196954801269173e-06   -3.0939411526209983e-07   -5.98094071433772e-07
2.608351120185342e-06   -6.001093226140728e-07   -3.4187332457189033e-06
2.608351120185342e-06   -6.001093226140728e-07   -3.4187332457189033e-06
2.608351120185342e-06   -6.001093226140728e-07   -3.4187332457189033e-06
2.608351120185342e-06   -6.001093226140728e-07   -3.4187332457189033e-06
9.645989664607867e-07   -1.9078591238541913e-07   -9.247403689818439e-07
9.645989664607867e-07   -1.9078591238541913e-07   -9.247403689818439e-07
9.645989664607867e-07   -1.9078591238541913e-07   -9.247403689818439e-07
9.645989664607867e-07   -1.9078591238541913e-07   -9.247403689818439e-07
1.6619146874126352e-06   -4.3831599544378534e-07   -1.9384151873999097e-06
1.6619146874126352e-06   -4.3831599544378534e-07   -1.9384151873999097e-06
1.6619146874126352e-06   -4.3831599544378534e-07   -1.9384151873999097e-06
1.6619146874126352e-06   -4.3831599544378534e-07   -1.9384151873999097e-06
9.645989664607867e-07   -6.001093226140863e-07   -3.6643272918560765e-06
9.645989664607867e-07   -6.001093226140863e-07   -3.6643272918560765e-06
9.645989664607867e-07   -6.001093226140863e-07   -3.6643272918560765e-06
9.645989664607867e-07   -6.001093226140863e-07   -3.6643272918560765e-06
2.608351120185335e-06   -1.9078591238540557e-07   -6.791463228446402e-07
2.608351120185335e-06   -1.9078591238540557e-07   -6.791463228446402e-07
2.608351120185335e-06   -1.9078591238540557e-07   -6.791463228446402e-07
2.608351120185335e-06   -1.9078591238540557e-07   -6.791463228446402e-07
2.7552917634766597e-06   -5.087932624076681e-07   -3.7380916435999324e-06
2.7552917634766597e-06   -5.087932624076681e-07   -3.7380916435999324e-06
2.7552917634766597e-06   -5.087932624076681e-07   -3.7380916435999324e-06
2.7552917634766597e-06   -5.087932624076681e-07   -3.7380916435999324e-06
9.990610582825197e-07   -1.1081621067776442e-07   -1.0498266993142933e-06
9.990610582825197e-07   -1.1081621067776442e-07   -1.0498266993142933e-06
9.990610582825197e-07   -1.1081621067776442e-07   -1.0498266993142933e-06
9.990610582825197e-07   -1.1081621067776442e-07   -1.0498266993142933e-06
1.7737669843590788e-06   -3.765371950484249e-07   -2.1815706521528355e-06
1.7737669843590788e-06   -3.765371950484249e-07   -2.1815706521528355e-06
1.7737669843590788e-06   -3.765371950484249e-07   -2.1815706521528355e-06
1.7737669843590788e-06   -3.765371950484249e-07   -2.1815706521528355e-06
9.99061058282518e-07   -5.087932624076681e-07   -3.976877874637856e-06
9.99061058282518e-07   -5.087932624076681e-07   -3.976877874637856e-06
9.99061058282518e-07   -5.087932624076681e-07   -3.976877874637856e-06
9.99061058282518e-07   -5.087932624076681e-07   -3.976877874637856e-06
2.755291763476653e-06   -1.1081621067777798e-07   -8.11040468276343e-07
2.755291763476653e-06   -1.1081621067777798e-07   -8.11040468276343e-07
2.755291763476653e-06   -1.1081621067777798e-07   -8.11040468276343e-07
2.755291763476653e-06   -1.1081621067777798e-07   -8.11040468276343e-07
2.9530183465208056e-06   -3.164386755446759e-07   -4.35976522670397e-06
2.9530183465208056e-06   -3.164386755446759e-07   -4.35976522670397e-06
2.9530183465208056e-06   -3.164386755446759e-07   -4.35976522670397e-06
2.9530183465208056e-06   -3.164386755446759e-07   -4.35976522670397e-06
1.0166088336446665e-06   4.276615572756232e-08   -1.3479389373404068e-06
1.0166088336446665e-06   4.276615572756232e-08   -1.3479389373404068e-06
1.0166088336446665e-06   4.276615572756232e-08   -1.3479389373404068e-06
1.0166088336446665e-06   4.276615572756232e-08   -1.3479389373404068e-06
1.816943807776418e-06   -2.897557217389007e-07   -2.4823174344134354e-06
1.816943807776418e-06   -2.897557217389007e-07   -2.4823174344134354e-06
1.816943807776418e-06   -2.897557217389007e-07   -2.4823174344134354e-06
1.816943807776418e-06   -2.897557217389007e-07   -2.4823174344134354e-06
-3.6195193286017293e-06   5.932483656149253e-07   -3.4612308063086623e-06
-3.6195193286017293e-06   5.932483656149253e-07   -3.4612308063086623e-06
-3.6195193286017293e-06   5.932483656149253e-07   -3.4612308063086623e-06
-3.6195193286017293e-06   5.932483656149253e-07   -3.4612308063086623e-06
-2.733402867930177e-06   2.3154583966625004e-07   -2.2013915540919466e-06
-2.733402867930177e-06   2.3154583966625004e-07   -2.2013915540919466e-06
-2.733402867930177e-06   2.3154583966625004e-07   -2.2013915540919466e-06
-2.733402867930177e-06   2.3154583966625004e-07   -2.2013915540919466e-06
-2.6965750955171633e-06   7.609983394570963e-07   -3.053823614461475e-06
-2.6965750955171633e-06   7.609983394570963e-07   -3.053823614461475e-06
-2.6965750955171633e-06   7.609983394570963e-07   -3.053823614461475e-06
-2.6965750955171633e-06   7.609983394570963e-07   -3.053823614461475e-06
-3.4153409944494132e-06   3.689552348212495e-07   -1.6206545867928252e-06
-3.4153409944494132e-06   3.689552348212495e-07   -1.6206545867928252e-06
-3.4153409944494132e-06   3.689552348212495e-07   -1.6206545867928252e-06
-3.4153409944494132e-06   3.689552348212495e-07   -1.6206545867928252e-06
-2.9843679240517654e-06   5.341868790538766e-07   -2.438082023995329e-06
-2.9843679240517654e-06   5.341868790538766e-07   -2.438082023995329e-06
-2.9843679240517654e-06   5.341868790538766e-07   -2.438082023995329e-06
-2.9843679240517654e-06   5.341868790538766e-07   -2.438082023995329e-06
-3.4153409944494132e-06   7.609983394570963e-07   -2.8185977516799536e-06
-3.4153409944494132e-06   7.609983394570963e-07   -2.8185977516799536e-06
-3.4153409944494132e-06   7.609983394570963e-07   -2.8185977516799536e-06
-3.4153409944494132e-06   7.609983394570963e-07   -2.8185977516799536e-06
-2.69657509551717e-06   3.689552348212495e-07   -1.8558804495743637e-06
-2.69657509551717e-06   3.689552348212495e-07   -1.8558804495743637e-06
-2.69657509551717e-06   3.689552348212495e-07   -1.8558804495743637e-06
-2.69657509551717e-06   3.689552348212495e-07   -1.8558804495743637e-06
-2.642976362164152e-06   8.407293137248351e-07   -2.7254753640247804e-06
-2.642976362164152e-06   8.407293137248351e-07   -2.7254753640247804e-06
-2.642976362164152e-06   8.407293137248351e-07   -2.7254753640247804e-06
-2.642976362164152e-06   8.407293137248351e-07   -2.7254753640247804e-06
-3.2555008854797215e-06   4.402803149412783e-07   -1.4643317592286619e-06
-3.2555008854797215e-06   4.402803149412783e-07   -1.4643317592286619e-06
-3.2555008854797215e-06   4.402803149412783e-07   -1.4643317592286619e-06
-3.2555008854797215e-06   4.402803149412783e-07   -1.4643317592286619e-06
-2.93218965019997e-06   6.091074048958161e-07   -2.1044800720009907e-06
-2.93218965019997e-06   6.091074048958161e-07   -2.1044800720009907e-06
-2.93218965019997e-06   6.091074048958161e-07   -2.1044800720009907e-06
-2.93218965019997e-06   6.091074048958161e-07   -2.1044800720009907e-06
-3.2555008854797147e-06   8.407293137248351e-07   -2.4852059647546246e-06
-3.2555008854797147e-06   8.407293137248351e-07   -2.4852059647546246e-06
-3.2555008854797147e-06   8.407293137248351e-07   -2.4852059647546246e-06
-3.2555008854797147e-06   8.407293137248351e-07   -2.4852059647546246e-06
-2.6429763621641587e-06   4.402803149412783e-07   -1.704601158498821e-06
-2.6429763621641587e-06   4.402803149412783e-07   -1.704601158498821e-06
-2.6429763621641587e-06   4.402803149412783e-07   -1.704601158498821e-06
-2.6429763621641587e-06   4.402803149412783e-07   -1.704601158498821e-06
-2.6091786907104437e-06   9.434053337359436e-07   -2.308350725573169e-06
-2.6091786907104437e-06   9.434053337359436e-07   -2.308350725573169e-06
-2.6091786907104437e-06   9.434053337359436e-07   -2.308350725573169e-06
-2.6091786907104437e-06   9.434053337359436e-07   -2.308350725573169e-06
-3.0527057842194224e-06   5.541964106971361e-07   -1.335613549234869e-06
-3.0527057842194224e-06   5.541964106971361e-07   -1.335613549234869e-06
-3.0527057842194224e-06   5.541964106971361e-07   -1.335613549234869e-06
-3.0527057842194224e-06   5.541964106971361e-07   -1.335613549234869e-06
-2.7971941697159864e-06   6.640421942174048e-07   -1.8273737101861772e-06
-2.7971941697159864e-06   6.640421942174048e-07   -1.8273737101861772e-06
-2.7971941697159864e-06   6.640421942174048e-07   -1.8273737101861772e-06
-2.7971941697159864e-06   6.640421942174048e-07   -1.8273737101861772e-06
-2.733402867930177e-06   3.141996720396826e-07   -5.143563116172901e-06
-2.733402867930177e-06   3.141996720396826e-07   -5.143563116172901e-06
-2.733402867930177e-06   3.141996720396826e-07   -5.143563116172901e-06
-2.733402867930177e-06   3.141996720396826e-07   -5.143563116172901e-06
-2.0059652973579906e-06   1.431801519771053e-07   -4.033778877256799e-06
-2.0059652973579906e-06   1.431801519771053e-07   -4.033778877256799e-06
-2.0059652973579906e-06   1.431801519771053e-07   -4.033778877256799e-06
-2.0059652973579906e-06   1.431801519771053e-07   -4.033778877256799e-06
-1.984176785089829e-06   4.923775996599084e-07   -5.123063019542382e-06
-1.984176785089829e-06   4.923775996599084e-07   -5.123063019542382e-06
-1.984176785089829e-06   4.923775996599084e-07   -5.123063019542382e-06
-1.984176785089829e-06   4.923775996599084e-07   -5.123063019542382e-06
-2.6965750955171735e-06   3.0177892651819804e-07   -3.821373298278427e-06
-2.6965750955171735e-06   3.0177892651819804e-07   -3.821373298278427e-06
-2.6965750955171735e-06   3.0177892651819804e-07   -3.821373298278427e-06
-2.6965750955171735e-06   3.0177892651819804e-07   -3.821373298278427e-06
-2.3319813605725773e-06   3.459040887711438e-07   -4.45550462053798e-06
-2.3319813605725773e-06   3.459040887711438e-07   -4.45550462053798e-06
-2.3319813605725773e-06   3.459040887711438e-07   -4.45550462053798e-06
-2.3319813605725773e-06   3.459040887711438e-07   -4.45550462053798e-06
-2.6965750955171633e-06   4.923775996599084e-07   -5.0087038156573424e-06
-2.6965750955171633e-06   4.923775996599084e-07   -5.0087038156573424e-06
-2.6965750955171633e-06   4.923775996599084e-07   -5.0087038156573424e-06
-2.6965750955171633e-06   4.923775996599084e-07   -5.0087038156573424e-06
-1.984176785089829e-06   3.0177892651819804e-07   -3.93573250216346e-06
-1.984176785089829e-06   3.0177892651819804e-07   -3.93573250216346e-06
-1.984176785089829e-06   3.0177892651819804e-07   -3.93573250216346e-06
-1.984176785089829e-06   3.0177892651819804e-07   -3.93573250216346e-06
-1.9597955057598194e-06   6.560784287481034e-07   -5.0398127826634695e-06
-1.9597955057598194e-06   6.560784287481034e-07   -5.0398127826634695e-06
-1.9597955057598194e-06   6.560784287481034e-07   -5.0398127826634695e-06
-1.9597955057598194e-06   6.560784287481034e-07   -5.0398127826634695e-06
-2.642976362164162e-06   4.508457208275002e-07   -3.7780383972371823e-06
-2.642976362164162e-06   4.508457208275002e-07   -3.7780383972371823e-06
-2.642976362164162e-06   4.508457208275002e-07   -3.7780383972371823e-06
-2.642976362164162e-06   4.508457208275002e-07   -3.7780383972371823e-06
-2.3021115503387964e-06   4.7587679086641714e-07   -4.36116505896945e-06
-2.3021115503387964e-06   4.7587679086641714e-07   -4.36116505896945e-06
-2.3021115503387964e-06   4.7587679086641714e-07   -4.36116505896945e-06
-2.3021115503387964e-06   4.7587679086641714e-07   -4.36116505896945e-06
-2.642976362164152e-06   6.560784287481169e-07   -4.916673157911091e-06
-2.642976362164152e-06   6.560784287481169e-07   -4.916673157911091e-06
-2.642976362164152e-06   6.560784287481169e-07   -4.916673157911091e-06
-2.642976362164152e-06   6.560784287481169e-07   -4.916673157911091e-06
-1.9597955057598177e-06   4.508457208275002e-07   -3.90117802198954e-06
-1.9597955057598177e-06   4.508457208275002e-07   -3.90117802198954e-06
-1.9597955057598177e-06   4.508457208275002e-07   -3.90117802198954e-06
-1.9597955057598177e-06   4.508457208275002e-07   -3.90117802198954e-06
-1.9390186929661114e-06   8.354964465569876e-07   -5.08891345445856e-06
-1.9390186929661114e-06   8.354964465569876e-07   -5.08891345445856e-06
-1.9390186929661114e-06   8.354964465569876e-07   -5.08891345445856e-06
-1.9390186929661114e-06   8.354964465569876e-07   -5.08891345445856e-06
-2.6091786907104505e-06   6.180456443854608e-07   -3.841509643581703e-06
-2.6091786907104505e-06   6.180456443854608e-07   -3.841509643581703e-06
-2.6091786907104505e-06   6.180456443854608e-07   -3.841509643581703e-06
-2.6091786907104505e-06   6.180456443854608e-07   -3.841509643581703e-06
-2.293520245294885e-06   6.092614064456099e-07   -4.362336509843784e-06
-2.293520245294885e-06   6.092614064456099e-07   -4.362336509843784e-06
-2.293520245294885e-06   6.092614064456099e-07   -4.362336509843784e-06
-2.293520245294885e-06   6.092614064456099e-07   -4.362336509843784e-06
-2.005965297357984e-06   5.876085100549528e-08   -5.836075285297856e-06
-2.005965297357984e-06   5.876085100549528e-08   -5.836075285297856e-06
-2.005965297357984e-06   5.876085100549528e-08   -5.836075285297856e-06
-2.005965297357984e-06   5.876085100549528e-08   -5.836075285297856e-06
-1.2907700302662715e-06   8.885260745241622e-08   -4.626028119610189e-06
-1.2907700302662715e-06   8.885260745241622e-08   -4.626028119610189e-06
-1.2907700302662715e-06   8.885260745241622e-08   -4.626028119610189e-06
-1.2907700302662715e-06   8.885260745241622e-08   -4.626028119610189e-06
-1.2700917831932928e-06   2.3954801226468603e-07   -5.7581249565497814e-06
-1.2700917831932928e-06   2.3954801226468603e-07   -5.7581249565497814e-06
-1.2700917831932928e-06   2.3954801226468603e-07   -5.7581249565497814e-06
-1.2700917831932928e-06   2.3954801226468603e-07   -5.7581249565497814e-06
-1.984176785089829e-06   2.5217848092690706e-07   -4.575561567919481e-06
-1.984176785089829e-06   2.5217848092690706e-07   -4.575561567919481e-06
-1.984176785089829e-06   2.5217848092690706e-07   -4.575561567919481e-06
-1.984176785089829e-06   2.5217848092690706e-07   -4.575561567919481e-06
-1.627042002673397e-06   1.8359487891883813e-07   -5.129636044075486e-06
-1.627042002673397e-06   1.8359487891883813e-07   -5.129636044075486e-06
-1.627042002673397e-06   1.8359487891883813e-07   -5.129636044075486e-06
-1.627042002673397e-06   1.8359487891883813e-07   -5.129636044075486e-06
-1.9841767850898257e-06   2.3954801226468603e-07   -5.765703237747071e-06
-1.9841767850898257e-06   2.3954801226468603e-07   -5.765703237747071e-06
-1.9841767850898257e-06   2.3954801226468603e-07   -5.765703237747071e-06
-1.9841767850898257e-06   2.3954801226468603e-07   -5.765703237747071e-06
-1.2700917831932928e-06   2.5217848092687995e-07   -4.567983286722185e-06
-1.2700917831932928e-06   2.5217848092687995e-07   -4.567983286722185e-06
-1.2700917831932928e-06   2.5217848092687995e-07   -4.567983286722185e-06
-1.2700917831932928e-06   2.5217848092687995e-07   -4.567983286722185e-06
-1.2458178697464314e-06   4.209389840892667e-07   -5.7712978405707925e-06
-1.2458178697464314e-06   4.209389840892667e-07   -5.7712978405707925e-06
-1.2458178697464314e-06   4.209389840892667e-07   -5.7712978405707925e-06
-1.2458178697464314e-06   4.209389840892667e-07   -5.7712978405707925e-06
-1.9597955057598177e-06   4.168532306697559e-07   -4.578883661830082e-06
-1.9597955057598177e-06   4.168532306697559e-07   -4.578883661830082e-06
-1.9597955057598177e-06   4.168532306697559e-07   -4.578883661830082e-06
-1.9597955057598177e-06   4.168532306697559e-07   -4.578883661830082e-06
-1.6148415934137108e-06   3.2514873470052127e-07   -5.098784151492055e-06
-1.6148415934137108e-06   3.2514873470052127e-07   -5.098784151492055e-06
-1.6148415934137108e-06   3.2514873470052127e-07   -5.098784151492055e-06
-1.6148415934137108e-06   3.2514873470052127e-07   -5.098784151492055e-06
-1.9597955057598143e-06   4.209389840892667e-07   -5.768846388519075e-06
-1.9597955057598143e-06   4.209389840892667e-07   -5.768846388519075e-06
-1.9597955057598143e-06   4.209389840892667e-07   -5.768846388519075e-06
-1.9597955057598143e-06   4.209389840892667e-07   -5.768846388519075e-06
-1.2458178697464335e-06   4.168532306697559e-07   -4.581335113881796e-06
-1.2458178697464335e-06   4.168532306697559e-07   -4.581335113881796e-06
-1.2458178697464335e-06   4.168532306697559e-07   -4.581335113881796e-06
-1.2458178697464335e-06   4.168532306697559e-07   -4.581335113881796e-06
-1.2243005331734524e-06   6.055004624648709e-07   -5.868093196418822e-06
-1.2243005331734524e-06   6.055004624648709e-07   -5.868093196418822e-06
-1.2243005331734524e-06   6.055004624648709e-07   -5.868093196418822e-06
-1.2243005331734524e-06   6.055004624648709e-07   -5.868093196418822e-06
-1.939018692966113e-06   5.841082121657158e-07   -4.6640609132515255e-06
-1.939018692966113e-06   5.841082121657158e-07   -4.6640609132515255e-06
-1.939018692966113e-06   5.841082121657158e-07   -4.6640609132515255e-06
-1.939018692966113e-06   5.841082121657158e-07   -4.6640609132515255e-06
-1.6057639729739305e-06   4.686139208808166e-07   -5.1501888718009605e-06
-1.6057639729739305e-06   4.686139208808166e-07   -5.1501888718009605e-06
-1.6057639729739305e-06   4.686139208808166e-07   -5.1501888718009605e-06
-1.6057639729739305e-06   4.686139208808166e-07   -5.1501888718009605e-06
-1.290770030266267e-06   -1.7354013644688105e-07   -5.104674511779029e-06
-1.290770030266267e-06   -1.7354013644688105e-07   -5.104674511779029e-06
-1.290770030266267e-06   -1.7354013644688105e-07   -5.104674511779029e-06
-1.290770030266267e-06   -1.7354013644688105e-07   -5.104674511779029e-06
-6.095356661847119e-07   5.019334271119994e-08   -3.835043817481605e-06
-6.095356661847119e-07   5.019334271119994e-08   -3.835043817481605e-06
-6.095356661847119e-07   5.019334271119994e-08   -3.835043817481605e-06
-6.095356661847119e-07   5.019334271119994e-08   -3.835043817481605e-06
-5.762190759782048e-07   -1.5966924812209956e-09   -4.933267416829879e-06
-5.762190759782048e-07   -1.5966924812209956e-09   -4.933267416829879e-06
-5.762190759782048e-07   -1.5966924812209956e-09   -4.933267416829879e-06
-5.762190759782048e-07   -1.5966924812209956e-09   -4.933267416829879e-06
-1.2700917831932907e-06   2.0978533353709018e-07   -3.903642120415678e-06
-1.2700917831932907e-06   2.0978533353709018e-07   -3.903642120415678e-06
-1.2700917831932907e-06   2.0978533353709018e-07   -3.903642120415678e-06
-1.2700917831932907e-06   2.0978533353709018e-07   -3.903642120415678e-06
-9.271032341825278e-07   3.75171676053848e-08   -4.371928802541357e-06
-9.271032341825278e-07   3.75171676053848e-08   -4.371928802541357e-06
-9.271032341825278e-07   3.75171676053848e-08   -4.371928802541357e-06
-9.271032341825278e-07   3.75171676053848e-08   -4.371928802541357e-06
-1.2700917831932885e-06   -1.596692481207443e-09   -5.060096632440855e-06
-1.2700917831932885e-06   -1.596692481207443e-09   -5.060096632440855e-06
-1.2700917831932885e-06   -1.596692481207443e-09   -5.060096632440855e-06
-1.2700917831932885e-06   -1.596692481207443e-09   -5.060096632440855e-06
-5.762190759782065e-07   2.0978533353709018e-07   -3.7768129048047213e-06
-5.762190759782065e-07   2.0978533353709018e-07   -3.7768129048047213e-06
-5.762190759782065e-07   2.0978533353709018e-07   -3.7768129048047213e-06
-5.762190759782065e-07   2.0978533353709018e-07   -3.7768129048047213e-06
-5.228233285334387e-07   1.6228275080584472e-07   -4.994793194602637e-06
-5.228233285334387e-07   1.6228275080584472e-07   -4.994793194602637e-06
-5.228233285334387e-07   1.6228275080584472e-07   -4.994793194602637e-06
-5.228233285334387e-07   1.6228275080584472e-07   -4.994793194602637e-06
-1.2458178697464314e-06   3.588051493393703e-07   -3.907715731701095e-06
-1.2458178697464314e-06   3.588051493393703e-07   -3.907715731701095e-06
-1.2458178697464314e-06   3.588051493393703e-07   -3.907715731701095e-06
-1.2458178697464314e-06   3.588051493393703e-07   -3.907715731701095e-06
-9.081329570372068e-07   1.671942306215226e-07   -4.355557368319089e-06
-9.081329570372068e-07   1.671942306215226e-07   -4.355557368319089e-06
-9.081329570372068e-07   1.671942306215226e-07   -4.355557368319089e-06
-9.081329570372068e-07   1.671942306215226e-07   -4.355557368319089e-06
-1.2458178697464282e-06   1.6228275080584472e-07   -5.112706633722728e-06
-1.2458178697464282e-06   1.6228275080584472e-07   -5.112706633722728e-06
-1.2458178697464282e-06   1.6228275080584472e-07   -5.112706633722728e-06
-1.2458178697464282e-06   1.6228275080584472e-07   -5.112706633722728e-06
-5.228233285334404e-07   3.588051493393703e-07   -3.7898022925809765e-06
-5.228233285334404e-07   3.588051493393703e-07   -3.7898022925809765e-06
-5.228233285334404e-07   3.588051493393703e-07   -3.7898022925809765e-06
-5.228233285334404e-07   3.588051493393703e-07   -3.7898022925809765e-06
-4.862095874189618e-07   3.483927014715242e-07   -5.134067768084569e-06
-4.862095874189618e-07   3.483927014715242e-07   -5.134067768084569e-06
-4.862095874189618e-07   3.483927014715242e-07   -5.134067768084569e-06
-4.862095874189618e-07   3.483927014715242e-07   -5.134067768084569e-06
-1.2243005331734524e-06   5.255592297623507e-07   -4.010216108801559e-06
-1.2243005331734524e-06   5.255592297623507e-07   -4.010216108801559e-06
-1.2243005331734524e-06   5.255592297623507e-07   -4.010216108801559e-06
-1.2243005331734524e-06   5.255592297623507e-07   -4.010216108801559e-06
-8.889893907364863e-07   3.013580645976348e-07   -4.434547313764343e-06
-8.889893907364863e-07   3.013580645976348e-07   -4.434547313764343e-06
-8.889893907364863e-07   3.013580645976348e-07   -4.434547313764343e-06
-8.889893907364863e-07   3.013580645976348e-07   -4.434547313764343e-06
-6.095356661847102e-07   -3.0939411526209983e-07   -2.7485377775733627e-06
-6.095356661847102e-07   -3.0939411526209983e-07   -2.7485377775733627e-06
-6.095356661847102e-07   -3.0939411526209983e-07   -2.7485377775733627e-06
-6.095356661847102e-07   -3.0939411526209983e-07   -2.7485377775733627e-06
-1.5595380242166464e-07   8.324898043301056e-08   -1.7569821472178984e-06
-1.5595380242166464e-07   8.324898043301056e-08   -1.7569821472178984e-06
-1.5595380242166464e-07   8.324898043301056e-08   -1.7569821472178984e-06
-1.5595380242166464e-07   8.324898043301056e-08   -1.7569821472178984e-06
4.533020214989803e-08   -1.9078591238541913e-07   -2.5923100573437303e-06
4.533020214989803e-08   -1.9078591238541913e-07   -2.5923100573437303e-06
4.533020214989803e-08   -1.9078591238541913e-07   -2.5923100573437303e-06
4.533020214989803e-08   -1.9078591238541913e-07   -2.5923100573437303e-06
-5.762190759782048e-07   2.1111446902306158e-07   -1.7975348226419295e-06
-5.762190759782048e-07   2.1111446902306158e-07   -1.7975348226419295e-06
-5.762190759782048e-07   2.1111446902306158e-07   -1.7975348226419295e-06
-5.762190759782048e-07   2.1111446902306158e-07   -1.7975348226419295e-06
-3.123352678986254e-07   -3.5920980629089916e-08   -2.0891198996500024e-06
-3.123352678986254e-07   -3.5920980629089916e-08   -2.0891198996500024e-06
-3.123352678986254e-07   -3.5920980629089916e-08   -2.0891198996500024e-06
-3.123352678986254e-07   -3.5920980629089916e-08   -2.0891198996500024e-06
-5.762190759782048e-07   -1.9078591238541913e-07   -2.833450286188793e-06
-5.762190759782048e-07   -1.9078591238541913e-07   -2.833450286188793e-06
-5.762190759782048e-07   -1.9078591238541913e-07   -2.833450286188793e-06
-5.762190759782048e-07   -1.9078591238541913e-07   -2.833450286188793e-06
4.533020214989803e-08   2.1111446902303448e-07   -1.5563945937968837e-06
4.533020214989803e-08   2.1111446902303448e-07   -1.5563945937968837e-06
4.533020214989803e-08   2.1111446902303448e-07   -1.5563945937968837e-06
4.533020214989803e-08   2.1111446902303448e-07   -1.5563945937968837e-06
2.0485308827295257e-07   -1.1081621067776442e-07   -2.7200861453978366e-06
2.0485308827295257e-07   -1.1081621067776442e-07   -2.7200861453978366e-06
2.0485308827295257e-07   -1.1081621067776442e-07   -2.7200861453978366e-06
2.0485308827295257e-07   -1.1081621067776442e-07   -2.7200861453978366e-06
-5.228233285334387e-07   2.8213200748954267e-07   -1.7430610482875461e-06
-5.228233285334387e-07   2.8213200748954267e-07   -1.7430610482875461e-06
-5.228233285334387e-07   2.8213200748954267e-07   -1.7430610482875461e-06
-5.228233285334387e-07   2.8213200748954267e-07   -1.7430610482875461e-06
-2.1562209872747214e-07   2.683323600208981e-08   -2.101883835071671e-06
-2.1562209872747214e-07   2.683323600208981e-08   -2.101883835071671e-06
-2.1562209872747214e-07   2.683323600208981e-08   -2.101883835071671e-06
-2.1562209872747214e-07   2.683323600208981e-08   -2.101883835071671e-06
-5.228233285334387e-07   -1.1081621067776442e-07   -2.955855076298221e-06
-5.228233285334387e-07   -1.1081621067776442e-07   -2.955855076298221e-06
-5.228233285334387e-07   -1.1081621067776442e-07   -2.955855076298221e-06
-5.228233285334387e-07   -1.1081621067776442e-07   -2.955855076298221e-06
2.0485308827295257e-07   2.8213200748954267e-07   -1.5072921173871619e-06
2.0485308827295257e-07   2.8213200748954267e-07   -1.5072921173871619e-06
2.0485308827295257e-07   2.8213200748954267e-07   -1.5072921173871619e-06
2.0485308827295257e-07   2.8213200748954267e-07   -1.5072921173871619e-06
4.0974119315341154e-07   4.276615572757587e-08   -3.0318855396654527e-06
4.0974119315341154e-07   4.276615572757587e-08   -3.0318855396654527e-06
4.0974119315341154e-07   4.276615572757587e-08   -3.0318855396654527e-06
4.0974119315341154e-07   4.276615572757587e-08   -3.0318855396654527e-06
-4.862095874189635e-07   4.0389983164355317e-07   -1.7553144442610338e-06
-4.862095874189635e-07   4.0389983164355317e-07   -1.7553144442610338e-06
-4.862095874189635e-07   4.0389983164355317e-07   -1.7553144442610338e-06
-4.862095874189635e-07   4.0389983164355317e-07   -1.7553144442610338e-06
-1.2554755847425782e-07   9.430094967508192e-08   -2.1706584966545037e-06
-1.2554755847425782e-07   9.430094967508192e-08   -2.1706584966545037e-06
-1.2554755847425782e-07   9.430094967508192e-08   -2.1706584966545037e-06
-1.2554755847425782e-07   9.430094967508192e-08   -2.1706584966545037e-06
-1.1505938015828496e-06   2.3154583966625004e-07   -2.2226608003209357e-06
-1.1505938015828496e-06   2.3154583966625004e-07   -2.2226608003209357e-06
-1.1505938015828496e-06   2.3154583966625004e-07   -2.2226608003209357e-06
-1.1505938015828496e-06   2.3154583966625004e-07   -2.2226608003209357e-06
-1.2723781436915413e-06   -1.2387133554791563e-07   -2.6388850089639244e-06
-1.2723781436915413e-06   -1.2387133554791563e-07   -2.6388850089639244e-06
-1.2723781436915413e-06   -1.2387133554791563e-07   -2.6388850089639244e-06
-1.2723781436915413e-06   -1.2387133554791563e-07   -2.6388850089639244e-06
-1.214835649415539e-06   3.689552348212495e-07   -2.090965253945731e-06
-1.214835649415539e-06   3.689552348212495e-07   -2.090965253945731e-06
-1.214835649415539e-06   3.689552348212495e-07   -2.090965253945731e-06
-1.214835649415539e-06   3.689552348212495e-07   -2.090965253945731e-06
-9.308733556362504e-07   -1.4802952702269896e-08   -2.3339808310637405e-06
-9.308733556362504e-07   -1.4802952702269896e-08   -2.3339808310637405e-06
-9.308733556362504e-07   -1.4802952702269896e-08   -2.3339808310637405e-06
-9.308733556362504e-07   -1.4802952702269896e-08   -2.3339808310637405e-06
-1.0927107183611578e-06   1.59985694950693e-07   -2.1691250817807746e-06
-1.0927107183611578e-06   1.59985694950693e-07   -2.1691250817807746e-06
-1.0927107183611578e-06   1.59985694950693e-07   -2.1691250817807746e-06
-1.0927107183611578e-06   1.59985694950693e-07   -2.1691250817807746e-06
-9.308733556362504e-07   3.689552348212495e-07   -1.8607103414316302e-06
-9.308733556362504e-07   3.689552348212495e-07   -1.8607103414316302e-06
-9.308733556362504e-07   3.689552348212495e-07   -1.8607103414316302e-06
-9.308733556362504e-07   3.689552348212495e-07   -1.8607103414316302e-06
-1.214835649415539e-06   -1.4802952702269896e-08   -2.5642357435779023e-06
-1.214835649415539e-06   -1.4802952702269896e-08   -2.5642357435779023e-06
-1.214835649415539e-06   -1.4802952702269896e-08   -2.5642357435779023e-06
-1.214835649415539e-06   -1.4802952702269896e-08   -2.5642357435779023e-06
-1.1409647892014268e-06   4.402803149412783e-07   -1.93945719581873e-06
-1.1409647892014268e-06   4.402803149412783e-07   -1.93945719581873e-06
-1.1409647892014268e-06   4.402803149412783e-07   -1.93945719581873e-06
-1.1409647892014268e-06   4.402803149412783e-07   -1.93945719581873e-06
-7.52774693536455e-07   4.908457412340617e-08   -2.3517232441029313e-06
-7.52774693536455e-07   4.908457412340617e-08   -2.3517232441029313e-06
-7.52774693536455e-07   4.908457412340617e-08   -2.3517232441029313e-06
-7.52774693536455e-07   4.908457412340617e-08   -2.3517232441029313e-06
-9.920707321203629e-07   2.1719445095176116e-07   -2.0537624392268273e-06
-9.920707321203629e-07   2.1719445095176116e-07   -2.0537624392268273e-06
-9.920707321203629e-07   2.1719445095176116e-07   -2.0537624392268273e-06
-9.920707321203629e-07   2.1719445095176116e-07   -2.0537624392268273e-06
-7.52774693536455e-07   4.402803149412783e-07   -1.7047397513279795e-06
-7.52774693536455e-07   4.402803149412783e-07   -1.7047397513279795e-06
-7.52774693536455e-07   4.402803149412783e-07   -1.7047397513279795e-06
-7.52774693536455e-07   4.402803149412783e-07   -1.7047397513279795e-06
-1.1409647892014268e-06   4.908457412340617e-08   -2.586440688593641e-06
-1.1409647892014268e-06   4.908457412340617e-08   -2.586440688593641e-06
-1.1409647892014268e-06   4.908457412340617e-08   -2.586440688593641e-06
-1.1409647892014268e-06   4.908457412340617e-08   -2.586440688593641e-06
-1.086329774806515e-06   5.541964106971361e-07   -1.8028638766288084e-06
-1.086329774806515e-06   5.541964106971361e-07   -1.8028638766288084e-06
-1.086329774806515e-06   5.541964106971361e-07   -1.8028638766288084e-06
-1.086329774806515e-06   5.541964106971361e-07   -1.8028638766288084e-06
-5.328752040214256e-07   1.7574493700559944e-07   -2.4982172770557246e-06
-5.328752040214256e-07   1.7574493700559944e-07   -2.4982172770557246e-06
-5.328752040214256e-07   1.7574493700559944e-07   -2.4982172770557246e-06
-5.328752040214256e-07   1.7574493700559944e-07   -2.4982172770557246e-06
-8.689053306956808e-07   2.747824154134958e-07   -1.997589552976677e-06
-8.689053306956808e-07   2.747824154134958e-07   -1.997589552976677e-06
-8.689053306956808e-07   2.747824154134958e-07   -1.997589552976677e-06
-8.689053306956808e-07   2.747824154134958e-07   -1.997589552976677e-06
-1.272378143691538e-06   1.431801519771324e-07   -4.165686716576736e-06
-1.272378143691538e-06   1.431801519771324e-07   -4.165686716576736e-06
-1.272378143691538e-06   1.431801519771324e-07   -4.165686716576736e-06
-1.272378143691538e-06   1.431801519771324e-07   -4.165686716576736e-06
-1.548387481214518e-06   -1.9685046967666707e-08   -4.723421398481907e-06
-1.548387481214518e-06   -1.9685046967666707e-08   -4.723421398481907e-06
-1.548387481214518e-06   -1.9685046967666707e-08   -4.723421398481907e-06
-1.548387481214518e-06   -1.9685046967666707e-08   -4.723421398481907e-06
-1.504266840081826e-06   3.0177892651819804e-07   -4.165911475432875e-06
-1.504266840081826e-06   3.0177892651819804e-07   -4.165911475432875e-06
-1.504266840081826e-06   3.0177892651819804e-07   -4.165911475432875e-06
-1.504266840081826e-06   3.0177892651819804e-07   -4.165911475432875e-06
-1.2148356494155423e-06   1.1935663854647062e-07   -4.538843420426947e-06
-1.2148356494155423e-06   1.1935663854647062e-07   -4.538843420426947e-06
-1.2148356494155423e-06   1.1935663854647062e-07   -4.538843420426947e-06
-1.2148356494155423e-06   1.1935663854647062e-07   -4.538843420426947e-06
-1.3690336560216824e-06   1.6871214057577336e-07   -4.311460043967737e-06
-1.3690336560216824e-06   1.6871214057577336e-07   -4.311460043967737e-06
-1.3690336560216824e-06   1.6871214057577336e-07   -4.311460043967737e-06
-1.3690336560216824e-06   1.6871214057577336e-07   -4.311460043967737e-06
-1.2148356494155356e-06   3.0177892651819804e-07   -4.056458102649798e-06
-1.2148356494155356e-06   3.0177892651819804e-07   -4.056458102649798e-06
-1.2148356494155356e-06   3.0177892651819804e-07   -4.056458102649798e-06
-1.2148356494155356e-06   3.0177892651819804e-07   -4.056458102649798e-06
-1.5042668400818244e-06   1.1935663854644352e-07   -4.648296793210004e-06
-1.5042668400818244e-06   1.1935663854644352e-07   -4.648296793210004e-06
-1.5042668400818244e-06   1.1935663854644352e-07   -4.648296793210004e-06
-1.5042668400818244e-06   1.1935663854644352e-07   -4.648296793210004e-06
-1.458170019762912e-06   4.508457208275002e-07   -4.1306020260207805e-06
-1.458170019762912e-06   4.508457208275002e-07   -4.1306020260207805e-06
-1.458170019762912e-06   4.508457208275002e-07   -4.1306020260207805e-06
-1.458170019762912e-06   4.508457208275002e-07   -4.1306020260207805e-06
-1.1409647892014302e-06   2.546664017212823e-07   -4.541569818826173e-06
-1.1409647892014302e-06   2.546664017212823e-07   -4.541569818826173e-06
-1.1409647892014302e-06   2.546664017212823e-07   -4.541569818826173e-06
-1.1409647892014302e-06   2.546664017212823e-07   -4.541569818826173e-06
-1.3250378113010254e-06   2.8267843395199713e-07   -4.251588667998635e-06
-1.3250378113010254e-06   2.8267843395199713e-07   -4.251588667998635e-06
-1.3250378113010254e-06   2.8267843395199713e-07   -4.251588667998635e-06
-1.3250378113010254e-06   2.8267843395199713e-07   -4.251588667998635e-06
-1.1409647892014268e-06   4.508457208275002e-07   -4.0128944345570335e-06
-1.1409647892014268e-06   4.508457208275002e-07   -4.0128944345570335e-06
-1.1409647892014268e-06   4.508457208275002e-07   -4.0128944345570335e-06
-1.1409647892014268e-06   4.508457208275002e-07   -4.0128944345570335e-06
-1.458170019762907e-06   2.546664017212552e-07   -4.6592774102899e-06
-1.458170019762907e-06   2.546664017212552e-07   -4.6592774102899e-06
-1.458170019762907e-06   2.546664017212552e-07   -4.6592774102899e-06
-1.458170019762907e-06   2.546664017212552e-07   -4.6592774102899e-06
-1.4155841938404271e-06   6.180456443854608e-07   -4.199666434225247e-06
-1.4155841938404271e-06   6.180456443854608e-07   -4.199666434225247e-06
-1.4155841938404271e-06   6.180456443854608e-07   -4.199666434225247e-06
-1.4155841938404271e-06   6.180456443854608e-07   -4.199666434225247e-06
-1.0863297748065184e-06   4.1065928259732386e-07   -4.6239919822088386e-06
-1.0863297748065184e-06   4.1065928259732386e-07   -4.6239919822088386e-06
-1.0863297748065184e-06   4.1065928259732386e-07   -4.6239919822088386e-06
-1.0863297748065184e-06   4.1065928259732386e-07   -4.6239919822088386e-06
-1.287307638580682e-06   4.038944247156367e-07   -4.284969961189582e-06
-1.287307638580682e-06   4.038944247156367e-07   -4.284969961189582e-06
-1.287307638580682e-06   4.038944247156367e-07   -4.284969961189582e-06
-1.287307638580682e-06   4.038944247156367e-07   -4.284969961189582e-06
-1.5483874812145112e-06   8.885260745238911e-08   -4.873710132165127e-06
-1.5483874812145112e-06   8.885260745238911e-08   -4.873710132165127e-06
-1.5483874812145112e-06   8.885260745238911e-08   -4.873710132165127e-06
-1.5483874812145112e-06   8.885260745238911e-08   -4.873710132165127e-06
-1.8278056117173556e-06   1.2523416205399425e-07   -5.3175780835756e-06
-1.8278056117173556e-06   1.2523416205399425e-07   -5.3175780835756e-06
-1.8278056117173556e-06   1.2523416205399425e-07   -5.3175780835756e-06
-1.8278056117173556e-06   1.2523416205399425e-07   -5.3175780835756e-06
-1.7850058914743968e-06   2.5217848092690706e-07   -4.794562675611313e-06
-1.7850058914743968e-06   2.5217848092690706e-07   -4.794562675611313e-06
-1.7850058914743968e-06   2.5217848092690706e-07   -4.794562675611313e-06
-1.7850058914743968e-06   2.5217848092690706e-07   -4.794562675611313e-06
-1.504266840081826e-06   2.708082568895272e-07   -5.273638960176509e-06
-1.504266840081826e-06   2.708082568895272e-07   -5.273638960176509e-06
-1.504266840081826e-06   2.708082568895272e-07   -5.273638960176509e-06
-1.504266840081826e-06   2.708082568895272e-07   -5.273638960176509e-06
-1.6562652813398015e-06   2.0749563297146585e-07   -4.9823206503957896e-06
-1.6562652813398015e-06   2.0749563297146585e-07   -4.9823206503957896e-06
-1.6562652813398015e-06   2.0749563297146585e-07   -4.9823206503957896e-06
-1.6562652813398015e-06   2.0749563297146585e-07   -4.9823206503957896e-06
-1.5042668400818227e-06   2.5217848092690706e-07   -4.805740541188896e-06
-1.5042668400818227e-06   2.5217848092690706e-07   -4.805740541188896e-06
-1.5042668400818227e-06   2.5217848092690706e-07   -4.805740541188896e-06
-1.5042668400818227e-06   2.5217848092690706e-07   -4.805740541188896e-06
-1.7850058914743998e-06   2.708082568895272e-07   -5.262461094598949e-06
-1.7850058914743998e-06   2.708082568895272e-07   -5.262461094598949e-06
-1.7850058914743998e-06   2.708082568895272e-07   -5.262461094598949e-06
-1.7850058914743998e-06   2.708082568895272e-07   -5.262461094598949e-06
-1.739144299772486e-06   4.168532306697559e-07   -4.806847320315048e-06
-1.739144299772486e-06   4.168532306697559e-07   -4.806847320315048e-06
-1.739144299772486e-06   4.168532306697559e-07   -4.806847320315048e-06
-1.739144299772486e-06   4.168532306697559e-07   -4.806847320315048e-06
-1.458170019762912e-06   4.192871399135822e-07   -5.27659813254394e-06
-1.458170019762912e-06   4.192871399135822e-07   -5.27659813254394e-06
-1.458170019762912e-06   4.192871399135822e-07   -5.27659813254394e-06
-1.458170019762912e-06   4.192871399135822e-07   -5.27659813254394e-06
-1.6216035188643134e-06   3.3331006468522925e-07   -4.9526227222380085e-06
-1.6216035188643134e-06   3.3331006468522925e-07   -4.9526227222380085e-06
-1.6216035188643134e-06   3.3331006468522925e-07   -4.9526227222380085e-06
-1.6216035188643134e-06   3.3331006468522925e-07   -4.9526227222380085e-06
-1.458170019762907e-06   4.168532306697559e-07   -4.808307665861319e-06
-1.458170019762907e-06   4.168532306697559e-07   -4.808307665861319e-06
-1.458170019762907e-06   4.168532306697559e-07   -4.808307665861319e-06
-1.458170019762907e-06   4.168532306697559e-07   -4.808307665861319e-06
-1.739144299772486e-06   4.192871399135822e-07   -5.275137786997638e-06
-1.739144299772486e-06   4.192871399135822e-07   -5.275137786997638e-06
-1.739144299772486e-06   4.192871399135822e-07   -5.275137786997638e-06
-1.739144299772486e-06   4.192871399135822e-07   -5.275137786997638e-06
-1.6961113937925462e-06   5.841082121657158e-07   -4.900233638694638e-06
-1.6961113937925462e-06   5.841082121657158e-07   -4.900233638694638e-06
-1.6961113937925462e-06   5.841082121657158e-07   -4.900233638694638e-06
-1.6961113937925462e-06   5.841082121657158e-07   -4.900233638694638e-06
-1.4155841938404288e-06   5.699641853282181e-07   -5.359292555845666e-06
-1.4155841938404288e-06   5.699641853282181e-07   -5.359292555845666e-06
-1.4155841938404288e-06   5.699641853282181e-07   -5.359292555845666e-06
-1.4155841938404288e-06   5.699641853282181e-07   -5.359292555845666e-06
-1.590486398395388e-06   4.609471096612657e-07   -5.0023786361872135e-06
-1.590486398395388e-06   4.609471096612657e-07   -5.0023786361872135e-06
-1.590486398395388e-06   4.609471096612657e-07   -5.0023786361872135e-06
-1.590486398395388e-06   4.609471096612657e-07   -5.0023786361872135e-06
-1.827805611717349e-06   5.019334271119994e-08   -4.195136984770433e-06
-1.827805611717349e-06   5.019334271119994e-08   -4.195136984770433e-06
-1.827805611717349e-06   5.019334271119994e-08   -4.195136984770433e-06
-1.827805611717349e-06   5.019334271119994e-08   -4.195136984770433e-06
-2.130771184808512e-06   2.7436543267880483e-07   -4.565576352608483e-06
-2.130771184808512e-06   2.7436543267880483e-07   -4.565576352608483e-06
-2.130771184808512e-06   2.7436543267880483e-07   -4.565576352608483e-06
-2.130771184808512e-06   2.7436543267880483e-07   -4.565576352608483e-06
-2.077327529927976e-06   2.0978533353709018e-07   -4.003242925551144e-06
-2.077327529927976e-06   2.0978533353709018e-07   -4.003242925551144e-06
-2.077327529927976e-06   2.0978533353709018e-07   -4.003242925551144e-06
-2.077327529927976e-06   2.0978533353709018e-07   -4.003242925551144e-06
-1.7850058914743968e-06   4.214163064599418e-07   -4.617424240060787e-06
-1.7850058914743968e-06   4.214163064599418e-07   -4.617424240060787e-06
-1.7850058914743968e-06   4.214163064599418e-07   -4.617424240060787e-06
-1.7850058914743968e-06   4.214163064599418e-07   -4.617424240060787e-06
-1.9398560803161934e-06   2.545941360666403e-07   -4.259247289755196e-06
-1.9398560803161934e-06   2.545941360666403e-07   -4.259247289755196e-06
-1.9398560803161934e-06   2.545941360666403e-07   -4.259247289755196e-06
-1.9398560803161934e-06   2.545941360666403e-07   -4.259247289755196e-06
-1.7850058914743937e-06   2.0978533353709018e-07   -4.1302215093048385e-06
-1.7850058914743937e-06   2.0978533353709018e-07   -4.1302215093048385e-06
-1.7850058914743937e-06   2.0978533353709018e-07   -4.1302215093048385e-06
-1.7850058914743937e-06   2.0978533353709018e-07   -4.1302215093048385e-06
-2.077327529927976e-06   4.214163064599418e-07   -4.4904456563070976e-06
-2.077327529927976e-06   4.214163064599418e-07   -4.4904456563070976e-06
-2.077327529927976e-06   4.214163064599418e-07   -4.4904456563070976e-06
-2.077327529927976e-06   4.214163064599418e-07   -4.4904456563070976e-06
-2.004457065584792e-06   3.588051493393703e-07   -4.014983586364746e-06
-2.004457065584792e-06   3.588051493393703e-07   -4.014983586364746e-06
-2.004457065584792e-06   3.588051493393703e-07   -4.014983586364746e-06
-2.004457065584792e-06   3.588051493393703e-07   -4.014983586364746e-06
-1.7391442997724833e-06   5.558790689553616e-07   -4.575415881154817e-06
-1.7391442997724833e-06   5.558790689553616e-07   -4.575415881154817e-06
-1.7391442997724833e-06   5.558790689553616e-07   -4.575415881154817e-06
-1.7391442997724833e-06   5.558790689553616e-07   -4.575415881154817e-06
-1.8918459627044831e-06   3.7231152215182715e-07   -4.2107725815194116e-06
-1.8918459627044831e-06   3.7231152215182715e-07   -4.2107725815194116e-06
-1.8918459627044831e-06   3.7231152215182715e-07   -4.2107725815194116e-06
-1.8918459627044831e-06   3.7231152215182715e-07   -4.2107725815194116e-06
-1.7391442997724787e-06   3.588051493393703e-07   -4.1332279381343055e-06
-1.7391442997724787e-06   3.588051493393703e-07   -4.1332279381343055e-06
-1.7391442997724787e-06   3.588051493393703e-07   -4.1332279381343055e-06
-1.7391442997724787e-06   3.588051493393703e-07   -4.1332279381343055e-06
-2.0044570655847954e-06   5.558790689553616e-07   -4.457171529385247e-06
-2.0044570655847954e-06   5.558790689553616e-07   -4.457171529385247e-06
-2.0044570655847954e-06   5.558790689553616e-07   -4.457171529385247e-06
-2.0044570655847954e-06   5.558790689553616e-07   -4.457171529385247e-06
-1.9481747975029057e-06   5.255592297623507e-07   -4.126073326275831e-06
-1.9481747975029057e-06   5.255592297623507e-07   -4.126073326275831e-06
-1.9481747975029057e-06   5.255592297623507e-07   -4.126073326275831e-06
-1.9481747975029057e-06   5.255592297623507e-07   -4.126073326275831e-06
-1.6961113937925462e-06   7.046928260779739e-07   -4.653659156915754e-06
-1.6961113937925462e-06   7.046928260779739e-07   -4.653659156915754e-06
-1.6961113937925462e-06   7.046928260779739e-07   -4.653659156915754e-06
-1.6961113937925462e-06   7.046928260779739e-07   -4.653659156915754e-06
-1.8590870085207328e-06   4.909984213303023e-07   -4.25381648952012e-06
-1.8590870085207328e-06   4.909984213303023e-07   -4.25381648952012e-06
-1.8590870085207328e-06   4.909984213303023e-07   -4.25381648952012e-06
-1.8590870085207328e-06   4.909984213303023e-07   -4.25381648952012e-06
-2.1307711848085036e-06   8.324898043301056e-08   -2.21815791794326e-06
-2.1307711848085036e-06   8.324898043301056e-08   -2.21815791794326e-06
-2.1307711848085036e-06   8.324898043301056e-08   -2.21815791794326e-06
-2.1307711848085036e-06   8.324898043301056e-08   -2.21815791794326e-06
-2.6515416749646402e-06   4.684156762864108e-07   -2.8550087173580653e-06
-2.6515416749646402e-06   4.684156762864108e-07   -2.8550087173580653e-06
-2.6515416749646402e-06   4.684156762864108e-07   -2.8550087173580653e-06
-2.6515416749646402e-06   4.684156762864108e-07   -2.8550087173580653e-06
-2.4372778404487687e-06   2.1111446902306158e-07   -1.7886031990137723e-06
-2.4372778404487687e-06   2.1111446902306158e-07   -1.7886031990137723e-06
-2.4372778404487687e-06   2.1111446902306158e-07   -1.7886031990137723e-06
-2.4372778404487687e-06   2.1111446902306158e-07   -1.7886031990137723e-06
-2.0773275299279727e-06   6.033838763140446e-07   -2.62388202758966e-06
-2.0773275299279727e-06   6.033838763140446e-07   -2.62388202758966e-06
-2.0773275299279727e-06   6.033838763140446e-07   -2.62388202758966e-06
-2.0773275299279727e-06   6.033838763140446e-07   -2.62388202758966e-06
-2.2302733413273285e-06   3.558351813322204e-07   -2.220443124935016e-06
-2.2302733413273285e-06   3.558351813322204e-07   -2.220443124935016e-06
-2.2302733413273285e-06   3.558351813322204e-07   -2.220443124935016e-06
-2.2302733413273285e-06   3.558351813322204e-07   -2.220443124935016e-06
-2.0773275299279676e-06   2.1111446902303448e-07   -2.0239648433883486e-06
-2.0773275299279676e-06   2.1111446902303448e-07   -2.0239648433883486e-06
-2.0773275299279676e-06   2.1111446902303448e-07   -2.0239648433883486e-06
-2.0773275299279676e-06   2.1111446902303448e-07   -2.0239648433883486e-06
-2.437277840448762e-06   6.033838763140446e-07   -2.388520383215094e-06
-2.437277840448762e-06   6.033838763140446e-07   -2.388520383215094e-06
-2.437277840448762e-06   6.033838763140446e-07   -2.388520383215094e-06
-2.437277840448762e-06   6.033838763140446e-07   -2.388520383215094e-06
-2.263006846618631e-06   2.8213200748954267e-07   -1.7385028371823632e-06
-2.263006846618631e-06   2.8213200748954267e-07   -1.7385028371823632e-06
-2.263006846618631e-06   2.8213200748954267e-07   -1.7385028371823632e-06
-2.263006846618631e-06   2.8213200748954267e-07   -1.7385028371823632e-06
-2.004457065584792e-06   6.650311823044679e-07   -2.3991586437943753e-06
-2.004457065584792e-06   6.650311823044679e-07   -2.3991586437943753e-06
-2.004457065584792e-06   6.650311823044679e-07   -2.3991586437943753e-06
-2.004457065584792e-06   6.650311823044679e-07   -2.3991586437943753e-06
-2.147042723809007e-06   4.202736199159223e-07   -2.0146613426542357e-06
-2.147042723809007e-06   4.202736199159223e-07   -2.0146613426542357e-06
-2.147042723809007e-06   4.202736199159223e-07   -2.0146613426542357e-06
-2.147042723809007e-06   4.202736199159223e-07   -2.0146613426542357e-06
-2.0044570655847886e-06   2.8213200748954267e-07   -1.968242342071329e-06
-2.0044570655847886e-06   2.8213200748954267e-07   -1.968242342071329e-06
-2.0044570655847886e-06   2.8213200748954267e-07   -1.968242342071329e-06
-2.0044570655847886e-06   2.8213200748954267e-07   -1.968242342071329e-06
-2.263006846618631e-06   6.650311823044679e-07   -2.16941913890544e-06
-2.263006846618631e-06   6.650311823044679e-07   -2.16941913890544e-06
-2.263006846618631e-06   6.650311823044679e-07   -2.16941913890544e-06
-2.263006846618631e-06   6.650311823044679e-07   -2.16941913890544e-06
-2.0457414459140392e-06   4.0389983164355317e-07   -1.766230385526584e-06
-2.0457414459140392e-06   4.0389983164355317e-07   -1.766230385526584e-06
-2.0457414459140392e-06   4.0389983164355317e-07   -1.766230385526584e-06
-2.0457414459140392e-06   4.0389983164355317e-07   -1.766230385526584e-06
-1.9481747975029006e-06   7.559684869488839e-07   -2.1400826593949773e-06
-1.9481747975029006e-06   7.559684869488839e-07   -2.1400826593949773e-06
-1.9481747975029006e-06   7.559684869488839e-07   -2.1400826593949773e-06
-1.9481747975029006e-06   7.559684869488839e-07   -2.1400826593949773e-06
-2.009968564650668e-06   4.6932951919064587e-07   -1.8651096668271025e-06
-2.009968564650668e-06   4.6932951919064587e-07   -1.8651096668271025e-06
-2.009968564650668e-06   4.6932951919064587e-07   -1.8651096668271025e-06
-2.009968564650668e-06   4.6932951919064587e-07   -1.8651096668271025e-06
1.2745496841651169e-06   -1.2387133554791563e-07   -1.0263964628195782e-06
1.2745496841651169e-06   -1.2387133554791563e-07   -1.0263964628195782e-06
1.2745496841651169e-06   -1.2387133554791563e-07   -1.0263964628195782e-06
1.2745496841651169e-06   -1.2387133554791563e-07   -1.0263964628195782e-06
1.5037454932496946e-07   -4.7580514152473826e-07   -3.1111819711392114e-06
1.5037454932496946e-07   -4.7580514152473826e-07   -3.1111819711392114e-06
1.5037454932496946e-07   -4.7580514152473826e-07   -3.1111819711392114e-06
1.5037454932496946e-07   -4.7580514152473826e-07   -3.1111819711392114e-06
2.2778981507195605e-07   -1.4802952702297001e-08   -1.157255362651085e-06
2.2778981507195605e-07   -1.4802952702297001e-08   -1.157255362651085e-06
2.2778981507195605e-07   -1.4802952702297001e-08   -1.157255362651085e-06
2.2778981507195605e-07   -1.4802952702297001e-08   -1.157255362651085e-06
1.5110558939369326e-06   -3.936295988451262e-07   -3.0687361730736916e-06
1.5110558939369326e-06   -3.936295988451262e-07   -3.0687361730736916e-06
1.5110558939369326e-06   -3.936295988451262e-07   -3.0687361730736916e-06
1.5110558939369326e-06   -3.936295988451262e-07   -3.0687361730736916e-06
7.600847809212728e-07   -2.0315020315899053e-07   -1.931405288792597e-06
7.600847809212728e-07   -2.0315020315899053e-07   -1.931405288792597e-06
7.600847809212728e-07   -2.0315020315899053e-07   -1.931405288792597e-06
7.600847809212728e-07   -2.0315020315899053e-07   -1.931405288792597e-06
1.5110558939369326e-06   -1.4802952702297001e-08   -9.299593749654064e-07
1.5110558939369326e-06   -1.4802952702297001e-08   -9.299593749654064e-07
1.5110558939369326e-06   -1.4802952702297001e-08   -9.299593749654064e-07
1.5110558939369326e-06   -1.4802952702297001e-08   -9.299593749654064e-07
2.2778981507195605e-07   -3.93629598845072e-07   -3.2960321607593973e-06
2.2778981507195605e-07   -3.93629598845072e-07   -3.2960321607593973e-06
2.2778981507195605e-07   -3.93629598845072e-07   -3.2960321607593973e-06
2.2778981507195605e-07   -3.93629598845072e-07   -3.2960321607593973e-06
3.201863582716356e-07   4.908457412340617e-08   -1.1738891130342656e-06
3.201863582716356e-07   4.908457412340617e-08   -1.1738891130342656e-06
3.201863582716356e-07   4.908457412340617e-08   -1.1738891130342656e-06
3.201863582716356e-07   4.908457412340617e-08   -1.1738891130342656e-06
1.7071749919669778e-06   -3.363026989980605e-07   -3.254304471986936e-06
1.7071749919669778e-06   -3.363026989980605e-07   -3.254304471986936e-06
1.7071749919669778e-06   -3.363026989980605e-07   -3.254304471986936e-06
1.7071749919669778e-06   -3.363026989980605e-07   -3.254304471986936e-06
9.073555654599165e-07   -1.6317408033480118e-07   -2.0251492656732487e-06
9.073555654599165e-07   -1.6317408033480118e-07   -2.0251492656732487e-06
9.073555654599165e-07   -1.6317408033480118e-07   -2.0251492656732487e-06
9.073555654599165e-07   -1.6317408033480118e-07   -2.0251492656732487e-06
1.7071749919669778e-06   4.908457412340617e-08   -9.42656749161353e-07
1.7071749919669778e-06   4.908457412340617e-08   -9.42656749161353e-07
1.7071749919669778e-06   4.908457412340617e-08   -9.42656749161353e-07
1.7071749919669778e-06   4.908457412340617e-08   -9.42656749161353e-07
3.201863582716322e-07   -3.3630269899811473e-07   -3.485536835859835e-06
3.201863582716322e-07   -3.3630269899811473e-07   -3.485536835859835e-06
3.201863582716322e-07   -3.3630269899811473e-07   -3.485536835859835e-06
3.201863582716322e-07   -3.3630269899811473e-07   -3.485536835859835e-06
3.933264251091831e-07   1.7574493700559944e-07   -1.3068644026747545e-06
3.933264251091831e-07   1.7574493700559944e-07   -1.3068644026747545e-06
3.933264251091831e-07   1.7574493700559944e-07   -1.3068644026747545e-06
3.933264251091831e-07   1.7574493700559944e-07   -1.3068644026747545e-06
1.943090983113362e-06   -1.943343291883762e-07   -3.667757772965352e-06
1.943090983113362e-06   -1.943343291883762e-07   -3.667757772965352e-06
1.943090983113362e-06   -1.943343291883762e-07   -3.667757772965352e-06
1.943090983113362e-06   -1.943343291883762e-07   -3.667757772965352e-06
1.0182653744538242e-06   -1.0224347212937305e-07   -2.181636272768256e-06
1.0182653744538242e-06   -1.0224347212937305e-07   -2.181636272768256e-06
1.0182653744538242e-06   -1.0224347212937305e-07   -2.181636272768256e-06
1.0182653744538242e-06   -1.0224347212937305e-07   -2.181636272768256e-06
1.5037454932496946e-07   -1.96850469676396e-08   -3.2243740165567477e-06
1.5037454932496946e-07   -1.96850469676396e-08   -3.2243740165567477e-06
1.5037454932496946e-07   -1.96850469676396e-08   -3.2243740165567477e-06
1.5037454932496946e-07   -1.96850469676396e-08   -3.2243740165567477e-06
-1.1144489928742148e-06   -1.777517242469457e-07   -5.427253259922962e-06
-1.1144489928742148e-06   -1.777517242469457e-07   -5.427253259922962e-06
-1.1144489928742148e-06   -1.777517242469457e-07   -5.427253259922962e-06
-1.1144489928742148e-06   -1.777517242469457e-07   -5.427253259922962e-06
-1.0487360935488945e-06   1.1935663854647062e-07   -3.240865111484026e-06
-1.0487360935488945e-06   1.1935663854647062e-07   -3.240865111484026e-06
-1.0487360935488945e-06   1.1935663854647062e-07   -3.240865111484026e-06
-1.0487360935488945e-06   1.1935663854647062e-07   -3.240865111484026e-06
2.2778981507195605e-07   -6.231348142663557e-08   -5.259406220534903e-06
2.2778981507195605e-07   -6.231348142663557e-08   -5.259406220534903e-06
2.2778981507195605e-07   -6.231348142663557e-08   -5.259406220534903e-06
2.2778981507195605e-07   -6.231348142663557e-08   -5.259406220534903e-06
-4.3660286281861476e-07   1.1545797573759599e-09   -4.190165927427714e-06
-4.3660286281861476e-07   1.1545797573759599e-09   -4.190165927427714e-06
-4.3660286281861476e-07   1.1545797573759599e-09   -4.190165927427714e-06
-4.3660286281861476e-07   1.1545797573759599e-09   -4.190165927427714e-06
2.2778981507195605e-07   1.1935663854647062e-07   -3.131863039500143e-06
2.2778981507195605e-07   1.1935663854647062e-07   -3.131863039500143e-06
2.2778981507195605e-07   1.1935663854647062e-07   -3.131863039500143e-06
2.2778981507195605e-07   1.1935663854647062e-07   -3.131863039500143e-06
-1.0487360935488945e-06   -6.231348142663557e-08   -5.368408292518793e-06
-1.0487360935488945e-06   -6.231348142663557e-08   -5.368408292518793e-06
-1.0487360935488945e-06   -6.231348142663557e-08   -5.368408292518793e-06
-1.0487360935488945e-06   -6.231348142663557e-08   -5.368408292518793e-06
-9.825561747125658e-07   2.546664017212552e-07   -3.247050767613615e-06
-9.825561747125658e-07   2.546664017212552e-07   -3.247050767613615e-06
-9.825561747125658e-07   2.546664017212552e-07   -3.247050767613615e-06
-9.825561747125658e-07   2.546664017212552e-07   -3.247050767613615e-06
3.201863582716356e-07   5.794552780983252e-08   -5.300255798240439e-06
3.201863582716356e-07   5.794552780983252e-08   -5.300255798240439e-06
3.201863582716356e-07   5.794552780983252e-08   -5.300255798240439e-06
3.201863582716356e-07   5.794552780983252e-08   -5.300255798240439e-06
-3.7980517647970216e-07   9.774951520425106e-08   -4.157485632758177e-06
-3.7980517647970216e-07   9.774951520425106e-08   -4.157485632758177e-06
-3.7980517647970216e-07   9.774951520425106e-08   -4.157485632758177e-06
-3.7980517647970216e-07   9.774951520425106e-08   -4.157485632758177e-06
3.201863582716356e-07   2.546664017212823e-07   -3.1290182432667775e-06
3.201863582716356e-07   2.546664017212823e-07   -3.1290182432667775e-06
3.201863582716356e-07   2.546664017212823e-07   -3.1290182432667775e-06
3.201863582716356e-07   2.546664017212823e-07   -3.1290182432667775e-06
-9.825561747125658e-07   5.794552780988673e-08   -5.41828832258733e-06
-9.825561747125658e-07   5.794552780988673e-08   -5.41828832258733e-06
-9.825561747125658e-07   5.794552780988673e-08   -5.41828832258733e-06
-9.825561747125658e-07   5.794552780988673e-08   -5.41828832258733e-06
-9.200942655296113e-07   4.1065928259732386e-07   -3.330922108403262e-06
-9.200942655296113e-07   4.1065928259732386e-07   -3.330922108403262e-06
-9.200942655296113e-07   4.1065928259732386e-07   -3.330922108403262e-06
-9.200942655296113e-07   4.1065928259732386e-07   -3.330922108403262e-06
3.933264251091831e-07   2.0173614128016952e-07   -5.394602708010984e-06
3.933264251091831e-07   2.0173614128016952e-07   -5.394602708010984e-06
3.933264251091831e-07   2.0173614128016952e-07   -5.394602708010984e-06
3.933264251091831e-07   2.0173614128016952e-07   -5.394602708010984e-06
-3.1501169492495894e-07   2.0623668036756984e-07   -4.216739498073272e-06
-3.1501169492495894e-07   2.0623668036756984e-07   -4.216739498073272e-06
-3.1501169492495894e-07   2.0623668036756984e-07   -4.216739498073272e-06
-3.1501169492495894e-07   2.0623668036756984e-07   -4.216739498073272e-06
-1.1144489928742148e-06   1.2523416205399425e-07   -3.935199640778974e-06
-1.1144489928742148e-06   1.2523416205399425e-07   -3.935199640778974e-06
-1.1144489928742148e-06   1.2523416205399425e-07   -3.935199640778974e-06
-1.1144489928742148e-06   1.2523416205399425e-07   -3.935199640778974e-06
-2.3642455470320715e-06   1.572259233851756e-07   -5.9989988409100265e-06
-2.3642455470320715e-06   1.572259233851756e-07   -5.9989988409100265e-06
-2.3642455470320715e-06   1.572259233851756e-07   -5.9989988409100265e-06
-2.3642455470320715e-06   1.572259233851756e-07   -5.9989988409100265e-06
-2.298558166278154e-06   2.708082568895272e-07   -3.860003225306666e-06
-2.298558166278154e-06   2.708082568895272e-07   -3.860003225306666e-06
-2.298558166278154e-06   2.708082568895272e-07   -3.860003225306666e-06
-2.298558166278154e-06   2.708082568895272e-07   -3.860003225306666e-06
-1.0487360935488979e-06   2.8114834546262915e-07   -5.9492440663326384e-06
-1.0487360935488979e-06   2.8114834546262915e-07   -5.9492440663326384e-06
-1.0487360935488979e-06   2.8114834546262915e-07   -5.9492440663326384e-06
-1.0487360935488979e-06   2.8114834546262915e-07   -5.9492440663326384e-06
-1.6967326350163995e-06   2.3354337636593875e-07   -4.84068684909545e-06
-1.6967326350163995e-06   2.3354337636593875e-07   -4.84068684909545e-06
-1.6967326350163995e-06   2.3354337636593875e-07   -4.84068684909545e-06
-1.6967326350163995e-06   2.3354337636593875e-07   -4.84068684909545e-06
-1.0487360935488979e-06   2.708082568895272e-07   -3.866207278450541e-06
-1.0487360935488979e-06   2.708082568895272e-07   -3.866207278450541e-06
-1.0487360935488979e-06   2.708082568895272e-07   -3.866207278450541e-06
-1.0487360935488979e-06   2.708082568895272e-07   -3.866207278450541e-06
-2.298558166278154e-06   2.8114834546268336e-07   -5.9430400131887874e-06
-2.298558166278154e-06   2.8114834546268336e-07   -5.9430400131887874e-06
-2.298558166278154e-06   2.8114834546268336e-07   -5.9430400131887874e-06
-2.298558166278154e-06   2.8114834546268336e-07   -5.9430400131887874e-06
-2.2311154168572153e-06   4.192871399135822e-07   -3.869023441561937e-06
-2.2311154168572153e-06   4.192871399135822e-07   -3.869023441561937e-06
-2.2311154168572153e-06   4.192871399135822e-07   -3.869023441561937e-06
-2.2311154168572153e-06   4.192871399135822e-07   -3.869023441561937e-06
-9.825561747125692e-07   4.1153388708983123e-07   -5.945303560108756e-06
-9.825561747125692e-07   4.1153388708983123e-07   -5.945303560108756e-06
-9.825561747125692e-07   4.1153388708983123e-07   -5.945303560108756e-06
-9.825561747125692e-07   4.1153388708983123e-07   -5.945303560108756e-06
-1.6399413184487141e-06   3.4274412704656627e-07   -4.808387797855967e-06
-1.6399413184487141e-06   3.4274412704656627e-07   -4.808387797855967e-06
-1.6399413184487141e-06   3.4274412704656627e-07   -4.808387797855967e-06
-1.6399413184487141e-06   3.4274412704656627e-07   -4.808387797855967e-06
-9.825561747125692e-07   4.192871399135822e-07   -3.864371489867665e-06
-9.825561747125692e-07   4.192871399135822e-07   -3.864371489867665e-06
-9.825561747125692e-07   4.192871399135822e-07   -3.864371489867665e-06
-9.825561747125692e-07   4.192871399135822e-07   -3.864371489867665e-06
-2.231115416857212e-06   4.11533887089777e-07   -5.949955511803015e-06
-2.231115416857212e-06   4.11533887089777e-07   -5.949955511803015e-06
-2.231115416857212e-06   4.11533887089777e-07   -5.949955511803015e-06
-2.231115416857212e-06   4.11533887089777e-07   -5.949955511803015e-06
-2.1669381136988293e-06   5.699641853282181e-07   -3.957210755924502e-06
-2.1669381136988293e-06   5.699641853282181e-07   -3.957210755924502e-06
-2.1669381136988293e-06   5.699641853282181e-07   -3.957210755924502e-06
-2.1669381136988293e-06   5.699641853282181e-07   -3.957210755924502e-06
-9.200942655296147e-07   5.442643670660534e-07   -6.019863945249208e-06
-9.200942655296147e-07   5.442643670660534e-07   -6.019863945249208e-06
-9.200942655296147e-07   5.442643670660534e-07   -6.019863945249208e-06
-9.200942655296147e-07   5.442643670660534e-07   -6.019863945249208e-06
-1.58786929579463e-06   4.537100286537959e-07   -4.852572958426906e-06
-1.58786929579463e-06   4.537100286537959e-07   -4.852572958426906e-06
-1.58786929579463e-06   4.537100286537959e-07   -4.852572958426906e-06
-1.58786929579463e-06   4.537100286537959e-07   -4.852572958426906e-06
-2.364245547032075e-06   2.7436543267877773e-07   -3.298506106993711e-06
-2.364245547032075e-06   2.7436543267877773e-07   -3.298506106993711e-06
-2.364245547032075e-06   2.7436543267877773e-07   -3.298506106993711e-06
-2.364245547032075e-06   2.7436543267877773e-07   -3.298506106993711e-06
-3.6148207895397866e-06   4.868870461222736e-07   -5.255285209773811e-06
-3.6148207895397866e-06   4.868870461222736e-07   -5.255285209773811e-06
-3.6148207895397866e-06   4.868870461222736e-07   -5.255285209773811e-06
-3.6148207895397866e-06   4.868870461222736e-07   -5.255285209773811e-06
-3.5385364756837237e-06   4.214163064599418e-07   -3.09623324803887e-06
-3.5385364756837237e-06   4.214163064599418e-07   -3.09623324803887e-06
-3.5385364756837237e-06   4.214163064599418e-07   -3.09623324803887e-06
-3.5385364756837237e-06   4.214163064599418e-07   -3.09623324803887e-06
-2.298558166278154e-06   6.193048443426828e-07   -5.281596886444485e-06
-2.298558166278154e-06   6.193048443426828e-07   -5.281596886444485e-06
-2.298558166278154e-06   6.193048443426828e-07   -5.281596886444485e-06
-2.298558166278154e-06   6.193048443426828e-07   -5.281596886444485e-06
-2.9333585535326347e-06   4.6636142473930405e-07   -4.1318301892583265e-06
-2.9333585535326347e-06   4.6636142473930405e-07   -4.1318301892583265e-06
-2.9333585535326347e-06   4.6636142473930405e-07   -4.1318301892583265e-06
-2.9333585535326347e-06   4.6636142473930405e-07   -4.1318301892583265e-06
-2.298558166278158e-06   4.214163064599689e-07   -3.2149663707685226e-06
-2.298558166278158e-06   4.214163064599689e-07   -3.2149663707685226e-06
-2.298558166278158e-06   4.214163064599689e-07   -3.2149663707685226e-06
-2.298558166278158e-06   4.214163064599689e-07   -3.2149663707685226e-06
-3.5385364756837296e-06   6.193048443426828e-07   -5.162863763714839e-06
-3.5385364756837296e-06   6.193048443426828e-07   -5.162863763714839e-06
-3.5385364756837296e-06   6.193048443426828e-07   -5.162863763714839e-06
-3.5385364756837296e-06   6.193048443426828e-07   -5.162863763714839e-06
-3.4437552607782986e-06   5.558790689553616e-07   -3.060257008110609e-06
-3.4437552607782986e-06   5.558790689553616e-07   -3.060257008110609e-06
-3.4437552607782986e-06   5.558790689553616e-07   -3.060257008110609e-06
-3.4437552607782986e-06   5.558790689553616e-07   -3.060257008110609e-06
-2.2311154168572153e-06   7.376199483028747e-07   -5.19036794225424e-06
-2.2311154168572153e-06   7.376199483028747e-07   -5.19036794225424e-06
-2.2311154168572153e-06   7.376199483028747e-07   -5.19036794225424e-06
-2.2311154168572153e-06   7.376199483028747e-07   -5.19036794225424e-06
-2.854766761382484e-06   5.72044511739896e-07   -4.051603772774404e-06
-2.854766761382484e-06   5.72044511739896e-07   -4.051603772774404e-06
-2.854766761382484e-06   5.72044511739896e-07   -4.051603772774404e-06
-2.854766761382484e-06   5.72044511739896e-07   -4.051603772774404e-06
-2.2311154168572136e-06   5.558790689553616e-07   -3.1693015357190925e-06
-2.2311154168572136e-06   5.558790689553616e-07   -3.1693015357190925e-06
-2.2311154168572136e-06   5.558790689553616e-07   -3.1693015357190925e-06
-2.2311154168572136e-06   5.558790689553616e-07   -3.1693015357190925e-06
-3.4437552607782986e-06   7.376199483028747e-07   -5.081323414645773e-06
-3.4437552607782986e-06   7.376199483028747e-07   -5.081323414645773e-06
-3.4437552607782986e-06   7.376199483028747e-07   -5.081323414645773e-06
-3.4437552607782986e-06   7.376199483028747e-07   -5.081323414645773e-06
-3.3656772672990116e-06   7.046928260779739e-07   -3.145164933469278e-06
-3.3656772672990116e-06   7.046928260779739e-07   -3.145164933469278e-06
-3.3656772672990116e-06   7.046928260779739e-07   -3.145164933469278e-06
-3.3656772672990116e-06   7.046928260779739e-07   -3.145164933469278e-06
-2.1669381136988293e-06   8.679028384493367e-07   -5.240989530225741e-06
-2.1669381136988293e-06   8.679028384493367e-07   -5.240989530225741e-06
-2.1669381136988293e-06   8.679028384493367e-07   -5.240989530225741e-06
-2.1669381136988293e-06   8.679028384493367e-07   -5.240989530225741e-06
-2.8071991209101735e-06   6.748519461471339e-07   -4.0580573161588525e-06
-2.8071991209101735e-06   6.748519461471339e-07   -4.0580573161588525e-06
-2.8071991209101735e-06   6.748519461471339e-07   -4.0580573161588525e-06
-2.8071991209101735e-06   6.748519461471339e-07   -4.0580573161588525e-06
-3.6148207895397866e-06   4.684156762864108e-07   -1.6915255211893038e-06
-3.6148207895397866e-06   4.684156762864108e-07   -1.6915255211893038e-06
-3.6148207895397866e-06   4.684156762864108e-07   -1.6915255211893038e-06
-3.6148207895397866e-06   4.684156762864108e-07   -1.6915255211893038e-06
-5.0571653939490544e-06   8.400625067533799e-07   -3.872445096924574e-06
-5.0571653939490544e-06   8.400625067533799e-07   -3.872445096924574e-06
-5.0571653939490544e-06   8.400625067533799e-07   -3.872445096924574e-06
-5.0571653939490544e-06   8.400625067533799e-07   -3.872445096924574e-06
-4.826009629929047e-06   6.033838763140446e-07   -1.0041517279336357e-06
-4.826009629929047e-06   6.033838763140446e-07   -1.0041517279336357e-06
-4.826009629929047e-06   6.033838763140446e-07   -1.0041517279336357e-06
-4.826009629929047e-06   6.033838763140446e-07   -1.0041517279336357e-06
-3.5385364756837237e-06   9.792470286270922e-07   -3.3754582097303267e-06
-3.5385364756837237e-06   9.792470286270922e-07   -3.3754582097303267e-06
-3.5385364756837237e-06   9.792470286270922e-07   -3.3754582097303267e-06
-3.5385364756837237e-06   9.792470286270922e-07   -3.3754582097303267e-06
-4.086253948615433e-06   7.360411009049749e-07   -2.316672198210888e-06
-4.086253948615433e-06   7.360411009049749e-07   -2.316672198210888e-06
-4.086253948615433e-06   7.360411009049749e-07   -2.316672198210888e-06
-4.086253948615433e-06   7.360411009049749e-07   -2.316672198210888e-06
-3.538536475683726e-06   6.033838763140446e-07   -1.2296696193214425e-06
-3.538536475683726e-06   6.033838763140446e-07   -1.2296696193214425e-06
-3.538536475683726e-06   6.033838763140446e-07   -1.2296696193214425e-06
-3.538536475683726e-06   6.033838763140446e-07   -1.2296696193214425e-06
-4.82600962992903e-06   9.792470286271193e-07   -3.1499403183425114e-06
-4.82600962992903e-06   9.792470286271193e-07   -3.1499403183425114e-06
-4.82600962992903e-06   9.792470286271193e-07   -3.1499403183425114e-06
-4.82600962992903e-06   9.792470286271193e-07   -3.1499403183425114e-06
-4.635099792388046e-06   6.650311823044679e-07   -7.834551492599248e-07
-4.635099792388046e-06   6.650311823044679e-07   -7.834551492599248e-07
-4.635099792388046e-06   6.650311823044679e-07   -7.834551492599248e-07
-4.635099792388046e-06   6.650311823044679e-07   -7.834551492599248e-07
-3.4437552607782936e-06   1.029679471070791e-06   -2.9878183418693158e-06
-3.4437552607782936e-06   1.029679471070791e-06   -2.9878183418693158e-06
-3.4437552607782936e-06   1.029679471070791e-06   -2.9878183418693158e-06
-3.4437552607782936e-06   1.029679471070791e-06   -2.9878183418693158e-06
-4.012993404828108e-06   8.009842287832645e-07   -1.9018709564137752e-06
-4.012993404828108e-06   8.009842287832645e-07   -1.9018709564137752e-06
-4.012993404828108e-06   8.009842287832645e-07   -1.9018709564137752e-06
-4.012993404828108e-06   8.009842287832645e-07   -1.9018709564137752e-06
-3.4437552607782986e-06   6.650311823044408e-07   -1.0022441225197268e-06
-3.4437552607782986e-06   6.650311823044408e-07   -1.0022441225197268e-06
-3.4437552607782986e-06   6.650311823044408e-07   -1.0022441225197268e-06
-3.4437552607782986e-06   6.650311823044408e-07   -1.0022441225197268e-06
-4.635099792388036e-06   1.029679471070791e-06   -2.7690293686095273e-06
-4.635099792388036e-06   1.029679471070791e-06   -2.7690293686095273e-06
-4.635099792388036e-06   1.029679471070791e-06   -2.7690293686095273e-06
-4.635099792388036e-06   1.029679471070791e-06   -2.7690293686095273e-06
-4.404857430676794e-06   7.559684869488839e-07   -5.394454522481159e-07
-4.404857430676794e-06   7.559684869488839e-07   -5.394454522481159e-07
-4.404857430676794e-06   7.559684869488839e-07   -5.394454522481159e-07
-4.404857430676794e-06   7.559684869488839e-07   -5.394454522481159e-07
-3.3656772672990116e-06   1.0886737227651854e-06   -2.4710355327008616e-06
-3.3656772672990116e-06   1.0886737227651854e-06   -2.4710355327008616e-06
-3.3656772672990116e-06   1.0886737227651854e-06   -2.4710355327008616e-06
-3.3656772672990116e-06   1.0886737227651854e-06   -2.4710355327008616e-06
-3.828684088317441e-06   8.305480114915499e-07   -1.544482070905998e-06
-3.828684088317441e-06   8.305480114915499e-07   -1.544482070905998e-06
-3.828684088317441e-06   8.305480114915499e-07   -1.544482070905998e-06
-3.828684088317441e-06   8.305480114915499e-07   -1.544482070905998e-06
3.6809661666370165e-06   -4.7580514152473826e-07   1.4244345177363317e-07
3.6809661666370165e-06   -4.7580514152473826e-07   1.4244345177363317e-07
3.6809661666370165e-06   -4.7580514152473826e-07   1.4244345177363317e-07
3.6809661666370165e-06   -4.7580514152473826e-07   1.4244345177363317e-07
1.5390743851352686e-06   -8.356897013670102e-07   -3.6433069199679754e-06
1.5390743851352686e-06   -8.356897013670102e-07   -3.6433069199679754e-06
1.5390743851352686e-06   -8.356897013670102e-07   -3.6433069199679754e-06
1.5390743851352686e-06   -8.356897013670102e-07   -3.6433069199679754e-06
1.6324088588611627e-06   -3.93629598845072e-07   -2.408732325497845e-07
1.6324088588611627e-06   -3.93629598845072e-07   -2.408732325497845e-07
1.6324088588611627e-06   -3.93629598845072e-07   -2.408732325497845e-07
1.6324088588611627e-06   -3.93629598845072e-07   -2.408732325497845e-07
3.932488555191984e-06   -7.797913287911368e-07   -3.8426423551335295e-06
3.932488555191984e-06   -7.797913287911368e-07   -3.8426423551335295e-06
3.932488555191984e-06   -7.797913287911368e-07   -3.8426423551335295e-06
3.932488555191984e-06   -7.797913287911368e-07   -3.8426423551335295e-06
2.586057072039403e-06   -5.579522718164023e-07   -1.7316933173973771e-06
2.586057072039403e-06   -5.579522718164023e-07   -1.7316933173973771e-06
2.586057072039403e-06   -5.579522718164023e-07   -1.7316933173973771e-06
2.586057072039403e-06   -5.579522718164023e-07   -1.7316933173973771e-06
3.932488555191991e-06   -3.93629598845072e-07   -9.176194582123914e-09
3.932488555191991e-06   -3.93629598845072e-07   -9.176194582123914e-09
3.932488555191991e-06   -3.93629598845072e-07   -9.176194582123914e-09
3.932488555191991e-06   -3.93629598845072e-07   -9.176194582123914e-09
1.632408858861156e-06   -7.79791328791191e-07   -4.0743393931011495e-06
1.632408858861156e-06   -7.79791328791191e-07   -4.0743393931011495e-06
1.632408858861156e-06   -7.79791328791191e-07   -4.0743393931011495e-06
1.632408858861156e-06   -7.79791328791191e-07   -4.0743393931011495e-06
1.736652358996021e-06   -3.3630269899811473e-07   -4.1353247332056036e-07
1.736652358996021e-06   -3.3630269899811473e-07   -4.1353247332056036e-07
1.736652358996021e-06   -3.3630269899811473e-07   -4.1353247332056036e-07
1.736652358996021e-06   -3.3630269899811473e-07   -4.1353247332056036e-07
4.140348967819327e-06   -7.285047235426612e-07   -4.184372273299304e-06
4.140348967819327e-06   -7.285047235426612e-07   -4.184372273299304e-06
4.140348967819327e-06   -7.285047235426612e-07   -4.184372273299304e-06
4.140348967819327e-06   -7.285047235426612e-07   -4.184372273299304e-06
2.7744436190344522e-06   -5.349107199271032e-07   -2.0240197608272176e-06
2.7744436190344522e-06   -5.349107199271032e-07   -2.0240197608272176e-06
2.7744436190344522e-06   -5.349107199271032e-07   -2.0240197608272176e-06
2.7744436190344522e-06   -5.349107199271032e-07   -2.0240197608272176e-06
4.1403489678193335e-06   -3.3630269899811473e-07   -1.7821125859382708e-07
4.1403489678193335e-06   -3.3630269899811473e-07   -1.7821125859382708e-07
4.1403489678193335e-06   -3.3630269899811473e-07   -1.7821125859382708e-07
4.1403489678193335e-06   -3.3630269899811473e-07   -1.7821125859382708e-07
1.736652358996021e-06   -7.285047235426612e-07   -4.419693488026078e-06
1.736652358996021e-06   -7.285047235426612e-07   -4.419693488026078e-06
1.736652358996021e-06   -7.285047235426612e-07   -4.419693488026078e-06
1.736652358996021e-06   -7.285047235426612e-07   -4.419693488026078e-06
1.8201224578164697e-06   -1.943343291883762e-07   -8.01377982493647e-07
1.8201224578164697e-06   -1.943343291883762e-07   -8.01377982493647e-07
1.8201224578164697e-06   -1.943343291883762e-07   -8.01377982493647e-07
1.8201224578164697e-06   -1.943343291883762e-07   -8.01377982493647e-07
4.382186116122798e-06   -5.699643350548034e-07   -4.846106076150956e-06
4.382186116122798e-06   -5.699643350548034e-07   -4.846106076150956e-06
4.382186116122798e-06   -5.699643350548034e-07   -4.846106076150956e-06
4.382186116122798e-06   -5.699643350548034e-07   -4.846106076150956e-06
2.8668624165792253e-06   -4.6969829445807614e-07   -2.380726201269889e-06
2.8668624165792253e-06   -4.6969829445807614e-07   -2.380726201269889e-06
2.8668624165792253e-06   -4.6969829445807614e-07   -2.380726201269889e-06
2.8668624165792253e-06   -4.6969829445807614e-07   -2.380726201269889e-06
1.5390743851352686e-06   -1.777517242469457e-07   -2.2947185665479406e-06
1.5390743851352686e-06   -1.777517242469457e-07   -2.2947185665479406e-06
1.5390743851352686e-06   -1.777517242469457e-07   -2.2947185665479406e-06
1.5390743851352686e-06   -1.777517242469457e-07   -2.2947185665479406e-06
-6.964748442635541e-07   -3.744856870964777e-07   -6.138674326589008e-06
-6.964748442635541e-07   -3.744856870964777e-07   -6.138674326589008e-06
-6.964748442635541e-07   -3.744856870964777e-07   -6.138674326589008e-06
-6.964748442635541e-07   -3.744856870964777e-07   -6.138674326589008e-06
-6.115579045349834e-07   -6.231348142663557e-08   -2.341839116468743e-06
-6.115579045349834e-07   -6.231348142663557e-08   -2.341839116468743e-06
-6.115579045349834e-07   -6.231348142663557e-08   -2.341839116468743e-06
-6.115579045349834e-07   -6.231348142663557e-08   -2.341839116468743e-06
1.6324088588611593e-06   -2.916331883323609e-07   -5.944191897985549e-06
1.6324088588611593e-06   -2.916331883323609e-07   -5.944191897985549e-06
1.6324088588611593e-06   -2.916331883323609e-07   -5.944191897985549e-06
1.6324088588611593e-06   -2.916331883323609e-07   -5.944191897985549e-06
4.7048496638265717e-07   -1.779850779999874e-07   -4.075840943387446e-06
4.7048496638265717e-07   -1.779850779999874e-07   -4.075840943387446e-06
4.7048496638265717e-07   -1.779850779999874e-07   -4.075840943387446e-06
4.7048496638265717e-07   -1.779850779999874e-07   -4.075840943387446e-06
1.6324088588611593e-06   -6.231348142663557e-08   -2.204247292325297e-06
1.6324088588611593e-06   -6.231348142663557e-08   -2.204247292325297e-06
1.6324088588611593e-06   -6.231348142663557e-08   -2.204247292325297e-06
1.6324088588611593e-06   -6.231348142663557e-08   -2.204247292325297e-06
-6.115579045349834e-07   -2.916331883323609e-07   -6.08178372212894e-06
-6.115579045349834e-07   -2.916331883323609e-07   -6.08178372212894e-06
-6.115579045349834e-07   -2.916331883323609e-07   -6.08178372212894e-06
-6.115579045349834e-07   -2.916331883323609e-07   -6.08178372212894e-06
-5.305494772953359e-07   5.794552780983252e-08   -2.377524606693611e-06
-5.305494772953359e-07   5.794552780983252e-08   -2.377524606693611e-06
-5.305494772953359e-07   5.794552780983252e-08   -2.377524606693611e-06
-5.305494772953359e-07   5.794552780983252e-08   -2.377524606693611e-06
1.736652358996021e-06   -1.908430905109347e-07   -6.006921162853423e-06
1.736652358996021e-06   -1.908430905109347e-07   -6.006921162853423e-06
1.736652358996021e-06   -1.908430905109347e-07   -6.006921162853423e-06
1.736652358996021e-06   -1.908430905109347e-07   -6.006921162853423e-06
5.353993819418407e-07   -1.0344199200126251e-07   -4.057273526868851e-06
5.353993819418407e-07   -1.0344199200126251e-07   -4.057273526868851e-06
5.353993819418407e-07   -1.0344199200126251e-07   -4.057273526868851e-06
5.353993819418407e-07   -1.0344199200126251e-07   -4.057273526868851e-06
1.736652358996021e-06   5.794552780983252e-08   -2.2282514357011777e-06
1.736652358996021e-06   5.794552780983252e-08   -2.2282514357011777e-06
1.736652358996021e-06   5.794552780983252e-08   -2.2282514357011777e-06
1.736652358996021e-06   5.794552780983252e-08   -2.2282514357011777e-06
-5.305494772953359e-07   -1.9084309051088048e-07   -6.15619433384589e-06
-5.305494772953359e-07   -1.9084309051088048e-07   -6.15619433384589e-06
-5.305494772953359e-07   -1.9084309051088048e-07   -6.15619433384589e-06
-5.305494772953359e-07   -1.9084309051088048e-07   -6.15619433384589e-06
-4.551555201536178e-07   2.0173614128016952e-07   -2.4649608038342617e-06
-4.551555201536178e-07   2.0173614128016952e-07   -2.4649608038342617e-06
-4.551555201536178e-07   2.0173614128016952e-07   -2.4649608038342617e-06
-4.551555201536178e-07   2.0173614128016952e-07   -2.4649608038342617e-06
1.8201224578164697e-06   -6.290626873876534e-08   -6.098305321106412e-06
1.8201224578164697e-06   -6.290626873876534e-08   -6.098305321106412e-06
1.8201224578164697e-06   -6.290626873876534e-08   -6.098305321106412e-06
1.8201224578164697e-06   -6.290626873876534e-08   -6.098305321106412e-06
6.203515992979357e-07   -1.075913855691545e-08   -4.129975501684673e-06
6.203515992979357e-07   -1.075913855691545e-08   -4.129975501684673e-06
6.203515992979357e-07   -1.075913855691545e-08   -4.129975501684673e-06
6.203515992979357e-07   -1.075913855691545e-08   -4.129975501684673e-06
-6.964748442635575e-07   1.572259233851756e-07   -3.003699582043403e-06
-6.964748442635575e-07   1.572259233851756e-07   -3.003699582043403e-06
-6.964748442635575e-07   1.572259233851756e-07   -3.003699582043403e-06
-6.964748442635575e-07   1.572259233851756e-07   -3.003699582043403e-06
-2.892517568846939e-06   1.0149163271285693e-07   -6.697211364085773e-06
-2.892517568846939e-06   1.0149163271285693e-07   -6.697211364085773e-06
-2.892517568846939e-06   1.0149163271285693e-07   -6.697211364085773e-06
-2.892517568846939e-06   1.0149163271285693e-07   -6.697211364085773e-06
-2.801367889599385e-06   2.8114834546268336e-07   -2.9738783160085196e-06
-2.801367889599385e-06   2.8114834546268336e-07   -2.9738783160085196e-06
-2.801367889599385e-06   2.8114834546268336e-07   -2.9738783160085196e-06
-2.801367889599385e-06   2.8114834546268336e-07   -2.9738783160085196e-06
-6.115579045349834e-07   1.9580930258608154e-07   -6.572358198723254e-06
-6.115579045349834e-07   1.9580930258608154e-07   -6.572358198723254e-06
-6.115579045349834e-07   1.9580930258608154e-07   -6.572358198723254e-06
-6.115579045349834e-07   1.9580930258608154e-07   -6.572358198723254e-06
-1.7391631816573844e-06   2.1693211924722492e-07   -4.705689760182595e-06
-1.7391631816573844e-06   2.1693211924722492e-07   -4.705689760182595e-06
-1.7391631816573844e-06   2.1693211924722492e-07   -4.705689760182595e-06
-1.7391631816573844e-06   2.1693211924722492e-07   -4.705689760182595e-06
-6.115579045349834e-07   2.8114834546262915e-07   -2.9226748902825856e-06
-6.115579045349834e-07   2.8114834546262915e-07   -2.9226748902825856e-06
-6.115579045349834e-07   2.8114834546262915e-07   -2.9226748902825856e-06
-6.115579045349834e-07   2.8114834546262915e-07   -2.9226748902825856e-06
-2.801367889599385e-06   1.9580930258608154e-07   -6.623561624449211e-06
-2.801367889599385e-06   1.9580930258608154e-07   -6.623561624449211e-06
-2.801367889599385e-06   1.9580930258608154e-07   -6.623561624449211e-06
-2.801367889599385e-06   1.9580930258608154e-07   -6.623561624449211e-06
-2.7130107728496264e-06   4.1153388708983123e-07   -2.969547912695105e-06
-2.7130107728496264e-06   4.1153388708983123e-07   -2.969547912695105e-06
-2.7130107728496264e-06   4.1153388708983123e-07   -2.969547912695105e-06
-2.7130107728496264e-06   4.1153388708983123e-07   -2.969547912695105e-06
-5.305494772953359e-07   3.03187106289772e-07   -6.541975336805573e-06
-5.305494772953359e-07   3.03187106289772e-07   -6.541975336805573e-06
-5.305494772953359e-07   3.03187106289772e-07   -6.541975336805573e-06
-5.305494772953359e-07   3.03187106289772e-07   -6.541975336805573e-06
-1.6616684866456559e-06   3.055695641362294e-07   -4.658206462596214e-06
-1.6616684866456559e-06   3.055695641362294e-07   -4.658206462596214e-06
-1.6616684866456559e-06   3.055695641362294e-07   -4.658206462596214e-06
-1.6616684866456559e-06   3.055695641362294e-07   -4.658206462596214e-06
-5.305494772953359e-07   4.1153388708983123e-07   -2.9045398442150913e-06
-5.305494772953359e-07   4.1153388708983123e-07   -2.9045398442150913e-06
-5.305494772953359e-07   4.1153388708983123e-07   -2.9045398442150913e-06
-5.305494772953359e-07   4.1153388708983123e-07   -2.9045398442150913e-06
-2.7130107728496264e-06   3.03187106289772e-07   -6.6069834052856e-06
-2.7130107728496264e-06   3.03187106289772e-07   -6.6069834052856e-06
-2.7130107728496264e-06   3.03187106289772e-07   -6.6069834052856e-06
-2.7130107728496264e-06   3.03187106289772e-07   -6.6069834052856e-06
-2.6314397715321818e-06   5.442643670660534e-07   -3.043141167826443e-06
-2.6314397715321818e-06   5.442643670660534e-07   -3.043141167826443e-06
-2.6314397715321818e-06   5.442643670660534e-07   -3.043141167826443e-06
-2.6314397715321818e-06   5.442643670660534e-07   -3.043141167826443e-06
-4.551555201536178e-07   4.1380934782568124e-07   -6.5920085752464875e-06
-4.551555201536178e-07   4.1380934782568124e-07   -6.5920085752464875e-06
-4.551555201536178e-07   4.1380934782568124e-07   -6.5920085752464875e-06
-4.551555201536178e-07   4.1380934782568124e-07   -6.5920085752464875e-06
-1.5932590790149717e-06   3.9646595351616916e-07   -4.684763273891937e-06
-1.5932590790149717e-06   3.9646595351616916e-07   -4.684763273891937e-06
-1.5932590790149717e-06   3.9646595351616916e-07   -4.684763273891937e-06
-1.5932590790149717e-06   3.9646595351616916e-07   -4.684763273891937e-06
-2.892517568846945e-06   4.868870461222736e-07   -2.4209394933766705e-06
-2.892517568846945e-06   4.868870461222736e-07   -2.4209394933766705e-06
-2.892517568846945e-06   4.868870461222736e-07   -2.4209394933766705e-06
-2.892517568846945e-06   4.868870461222736e-07   -2.4209394933766705e-06
-5.067093527554612e-06   5.951678050570034e-07   -5.980264302528587e-06
-5.067093527554612e-06   5.951678050570034e-07   -5.980264302528587e-06
-5.067093527554612e-06   5.951678050570034e-07   -5.980264302528587e-06
-5.067093527554612e-06   5.951678050570034e-07   -5.980264302528587e-06
-4.956015854456088e-06   6.193048443426828e-07   -2.256439996725266e-06
-4.956015854456088e-06   6.193048443426828e-07   -2.256439996725266e-06
-4.956015854456088e-06   6.193048443426828e-07   -2.256439996725266e-06
-4.956015854456088e-06   6.193048443426828e-07   -2.256439996725266e-06
-2.801367889599391e-06   7.126301652409959e-07   -5.903515130692088e-06
-2.801367889599391e-06   7.126301652409959e-07   -5.903515130692088e-06
-2.801367889599391e-06   7.126301652409959e-07   -5.903515130692088e-06
-2.801367889599391e-06   7.126301652409959e-07   -5.903515130692088e-06
-3.900935787275188e-06   6.253707358409811e-07   -4.0185463102591305e-06
-3.900935787275188e-06   6.253707358409811e-07   -4.0185463102591305e-06
-3.900935787275188e-06   6.253707358409811e-07   -4.0185463102591305e-06
-3.900935787275188e-06   6.253707358409811e-07   -4.0185463102591305e-06
-2.801367889599391e-06   6.19304844342737e-07   -2.3124351892642647e-06
-2.801367889599391e-06   6.19304844342737e-07   -2.3124351892642647e-06
-2.801367889599391e-06   6.19304844342737e-07   -2.3124351892642647e-06
-2.801367889599391e-06   6.19304844342737e-07   -2.3124351892642647e-06
-4.9560158544560965e-06   7.126301652409959e-07   -5.8475199381531466e-06
-4.9560158544560965e-06   7.126301652409959e-07   -5.8475199381531466e-06
-4.9560158544560965e-06   7.126301652409959e-07   -5.8475199381531466e-06
-4.9560158544560965e-06   7.126301652409959e-07   -5.8475199381531466e-06
-4.830425959270153e-06   7.376199483028747e-07   -2.1644695476931008e-06
-4.830425959270153e-06   7.376199483028747e-07   -2.1644695476931008e-06
-4.830425959270153e-06   7.376199483028747e-07   -2.1644695476931008e-06
-4.830425959270153e-06   7.376199483028747e-07   -2.1644695476931008e-06
-2.7130107728496314e-06   8.134379407249244e-07   -5.73898565384723e-06
-2.7130107728496314e-06   8.134379407249244e-07   -5.73898565384723e-06
-2.7130107728496314e-06   8.134379407249244e-07   -5.73898565384723e-06
-2.7130107728496314e-06   8.134379407249244e-07   -5.73898565384723e-06
-3.785837739546783e-06   7.182693618321308e-07   -3.893839562016274e-06
-3.785837739546783e-06   7.182693618321308e-07   -3.893839562016274e-06
-3.785837739546783e-06   7.182693618321308e-07   -3.893839562016274e-06
-3.785837739546783e-06   7.182693618321308e-07   -3.893839562016274e-06
-2.713010772849629e-06   7.376199483028747e-07   -2.2099603431463197e-06
-2.713010772849629e-06   7.376199483028747e-07   -2.2099603431463197e-06
-2.713010772849629e-06   7.376199483028747e-07   -2.2099603431463197e-06
-2.713010772849629e-06   7.376199483028747e-07   -2.2099603431463197e-06
-4.830425959270153e-06   8.134379407249244e-07   -5.69349485839401e-06
-4.830425959270153e-06   8.134379407249244e-07   -5.69349485839401e-06
-4.830425959270153e-06   8.134379407249244e-07   -5.69349485839401e-06
-4.830425959270153e-06   8.134379407249244e-07   -5.69349485839401e-06
-4.725006608025819e-06   8.679028384493367e-07   -2.215708519737365e-06
-4.725006608025819e-06   8.679028384493367e-07   -2.215708519737365e-06
-4.725006608025819e-06   8.679028384493367e-07   -2.215708519737365e-06
-4.725006608025819e-06   8.679028384493367e-07   -2.215708519737365e-06
-2.631439771532186e-06   9.231334086298509e-07   -5.738124922668413e-06
-2.631439771532186e-06   9.231334086298509e-07   -5.738124922668413e-06
-2.631439771532186e-06   9.231334086298509e-07   -5.738124922668413e-06
-2.631439771532186e-06   9.231334086298509e-07   -5.738124922668413e-06
-3.720861124109337e-06   8.031168953045922e-07   -3.850412760378e-06
-3.720861124109337e-06   8.031168953045922e-07   -3.850412760378e-06
-3.720861124109337e-06   8.031168953045922e-07   -3.850412760378e-06
-3.720861124109337e-06   8.031168953045922e-07   -3.850412760378e-06
-5.067093527554612e-06   8.400625067533799e-07   -1.1961190234467721e-06
-5.067093527554612e-06   8.400625067533799e-07   -1.1961190234467721e-06
-5.067093527554612e-06   8.400625067533799e-07   -1.1961190234467721e-06
-5.067093527554612e-06   8.400625067533799e-07   -1.1961190234467721e-06
-7.38390968900969e-06   1.1428200592921572e-06   -4.875824761015339e-06
-7.38390968900969e-06   1.1428200592921572e-06   -4.875824761015339e-06
-7.38390968900969e-06   1.1428200592921572e-06   -4.875824761015339e-06
-7.38390968900969e-06   1.1428200592921572e-06   -4.875824761015339e-06
-7.110073723087759e-06   9.792470286270922e-07   -2.7704226043272673e-07
-7.110073723087759e-06   9.792470286270922e-07   -2.7704226043272673e-07
-7.110073723087759e-06   9.792470286270922e-07   -2.7704226043272673e-07
-7.110073723087759e-06   9.792470286270922e-07   -2.7704226043272673e-07
-4.956015854456088e-06   1.2992339991405011e-06   -4.059130890460262e-06
-4.956015854456088e-06   1.2992339991405011e-06   -4.059130890460262e-06
-4.956015854456088e-06   1.2992339991405011e-06   -4.059130890460262e-06
-4.956015854456088e-06   1.2992339991405011e-06   -4.059130890460262e-06
-5.876986639120216e-06   1.0877826640881463e-06   -2.3973087816552718e-06
-5.876986639120216e-06   1.0877826640881463e-06   -2.3973087816552718e-06
-5.876986639120216e-06   1.0877826640881463e-06   -2.3973087816552718e-06
-5.876986639120216e-06   1.0877826640881463e-06   -2.3973087816552718e-06
-4.956015854456092e-06   9.792470286270922e-07   -4.690344427407721e-07
-4.956015854456092e-06   9.792470286270922e-07   -4.690344427407721e-07
-4.956015854456092e-06   9.792470286270922e-07   -4.690344427407721e-07
-4.956015854456092e-06   9.792470286270922e-07   -4.690344427407721e-07
-7.110073723087747e-06   1.2992339991405553e-06   -3.867138708152205e-06
-7.110073723087747e-06   1.2992339991405553e-06   -3.867138708152205e-06
-7.110073723087747e-06   1.2992339991405553e-06   -3.867138708152205e-06
-7.110073723087747e-06   1.2992339991405553e-06   -3.867138708152205e-06
-6.885112022818211e-06   1.0296794710708181e-06   1.1608214949259538e-07
-6.885112022818211e-06   1.0296794710708181e-06   1.1608214949259538e-07
-6.885112022818211e-06   1.0296794710708181e-06   1.1608214949259538e-07
-6.885112022818211e-06   1.0296794710708181e-06   1.1608214949259538e-07
-4.830425959270153e-06   1.3414238450862792e-06   -3.4954412474967952e-06
-4.830425959270153e-06   1.3414238450862792e-06   -3.4954412474967952e-06
-4.830425959270153e-06   1.3414238450862792e-06   -3.4954412474967952e-06
-4.830425959270153e-06   1.3414238450862792e-06   -3.4954412474967952e-06
-5.798674898111595e-06   1.1534797419169218e-06   -1.768926554192665e-06
-5.798674898111595e-06   1.1534797419169218e-06   -1.768926554192665e-06
-5.798674898111595e-06   1.1534797419169218e-06   -1.768926554192665e-06
-5.798674898111595e-06   1.1534797419169218e-06   -1.768926554192665e-06
-4.830425959270153e-06   1.0296794710708181e-06   -7.096447491672462e-08
-4.830425959270153e-06   1.0296794710708181e-06   -7.096447491672462e-08
-4.830425959270153e-06   1.0296794710708181e-06   -7.096447491672462e-08
-4.830425959270153e-06   1.0296794710708181e-06   -7.096447491672462e-08
-6.885112022818189e-06   1.3414238450863334e-06   -3.308394623087506e-06
-6.885112022818189e-06   1.3414238450863334e-06   -3.308394623087506e-06
-6.885112022818189e-06   1.3414238450863334e-06   -3.308394623087506e-06
-6.885112022818189e-06   1.3414238450863334e-06   -3.308394623087506e-06
-6.637687204412344e-06   1.0886737227651854e-06   6.264038065522596e-07
-6.637687204412344e-06   1.0886737227651854e-06   6.264038065522596e-07
-6.637687204412344e-06   1.0886737227651854e-06   6.264038065522596e-07
-6.637687204412344e-06   1.0886737227651854e-06   6.264038065522596e-07
-4.725006608025819e-06   1.372147616411092e-06   -2.731481523612819e-06
-4.725006608025819e-06   1.372147616411092e-06   -2.731481523612819e-06
-4.725006608025819e-06   1.372147616411092e-06   -2.731481523612819e-06
-4.725006608025819e-06   1.372147616411092e-06   -2.731481523612819e-06
-5.562352140315153e-06   1.1633600494584439e-06   -1.210633096292415e-06
-5.562352140315153e-06   1.1633600494584439e-06   -1.210633096292415e-06
-5.562352140315153e-06   1.1633600494584439e-06   -1.210633096292415e-06
-5.562352140315153e-06   1.1633600494584439e-06   -1.210633096292415e-06
6.063588091952787e-06   -8.356897013670102e-07   1.3707400285030446e-06
6.063588091952787e-06   -8.356897013670102e-07   1.3707400285030446e-06
6.063588091952787e-06   -8.356897013670102e-07   1.3707400285030446e-06
6.063588091952787e-06   -8.356897013670102e-07   1.3707400285030446e-06
2.8843904755841937e-06   -1.21190434229884e-06   -4.153651450003682e-06
2.8843904755841937e-06   -1.21190434229884e-06   -4.153651450003682e-06
2.8843904755841937e-06   -1.21190434229884e-06   -4.153651450003682e-06
2.8843904755841937e-06   -1.21190434229884e-06   -4.153651450003682e-06
2.9867844100865625e-06   -7.79791328791191e-07   7.497713871578739e-07
2.9867844100865625e-06   -7.79791328791191e-07   7.497713871578739e-07
2.9867844100865625e-06   -7.79791328791191e-07   7.497713871578739e-07
2.9867844100865625e-06   -7.79791328791191e-07   7.497713871578739e-07
6.316252698908333e-06   -1.186607919098821e-06   -4.555252473360516e-06
6.316252698908333e-06   -1.186607919098821e-06   -4.555252473360516e-06
6.316252698908333e-06   -1.186607919098821e-06   -4.555252473360516e-06
6.316252698908333e-06   -1.186607919098821e-06   -4.555252473360516e-06
4.3754618528954425e-06   -9.093132769661641e-07   -1.4869778486186386e-06
4.3754618528954425e-06   -9.093132769661641e-07   -1.4869778486186386e-06
4.3754618528954425e-06   -9.093132769661641e-07   -1.4869778486186386e-06
4.3754618528954425e-06   -9.093132769661641e-07   -1.4869778486186386e-06
6.31625269890834e-06   -7.79791328791191e-07   9.938613413424573e-07
6.31625269890834e-06   -7.79791328791191e-07   9.938613413424573e-07
6.31625269890834e-06   -7.79791328791191e-07   9.938613413424573e-07
6.31625269890834e-06   -7.79791328791191e-07   9.938613413424573e-07
2.986784410086559e-06   -1.186607919098821e-06   -4.799342427545106e-06
2.986784410086559e-06   -1.186607919098821e-06   -4.799342427545106e-06
2.986784410086559e-06   -1.186607919098821e-06   -4.799342427545106e-06
2.986784410086559e-06   -1.186607919098821e-06   -4.799342427545106e-06
3.0890506104877758e-06   -7.285047235426612e-07   4.3893249767164777e-07
3.0890506104877758e-06   -7.285047235426612e-07   4.3893249767164777e-07
3.0890506104877758e-06   -7.285047235426612e-07   4.3893249767164777e-07
3.0890506104877758e-06   -7.285047235426612e-07   4.3893249767164777e-07
6.5079012050586825e-06   -1.144400234165757e-06   -5.009614520239327e-06
6.5079012050586825e-06   -1.144400234165757e-06   -5.009614520239327e-06
6.5079012050586825e-06   -1.144400234165757e-06   -5.009614520239327e-06
6.5079012050586825e-06   -1.144400234165757e-06   -5.009614520239327e-06
4.590716360392267e-06   -9.056573561543112e-07   -1.957552172602206e-06
4.590716360392267e-06   -9.056573561543112e-07   -1.957552172602206e-06
4.590716360392267e-06   -9.056573561543112e-07   -1.957552172602206e-06
4.590716360392267e-06   -9.056573561543112e-07   -1.957552172602206e-06
6.5079012050586825e-06   -7.285047235426612e-07   6.884698040455107e-07
6.5079012050586825e-06   -7.285047235426612e-07   6.884698040455107e-07
6.5079012050586825e-06   -7.285047235426612e-07   6.884698040455107e-07
6.5079012050586825e-06   -7.285047235426612e-07   6.884698040455107e-07
3.0890506104877758e-06   -1.144400234165757e-06   -5.25915182661321e-06
3.0890506104877758e-06   -1.144400234165757e-06   -5.25915182661321e-06
3.0890506104877758e-06   -1.144400234165757e-06   -5.25915182661321e-06
3.0890506104877758e-06   -1.144400234165757e-06   -5.25915182661321e-06
3.155938388801989e-06   -5.699643350548034e-07   -1.752516884003907e-07
3.155938388801989e-06   -5.699643350548034e-07   -1.752516884003907e-07
3.155938388801989e-06   -5.699643350548034e-07   -1.752516884003907e-07
3.155938388801989e-06   -5.699643350548034e-07   -1.752516884003907e-07
6.711403774932933e-06   -9.834421164536095e-07   -5.852940663112701e-06
6.711403774932933e-06   -9.834421164536095e-07   -5.852940663112701e-06
6.711403774932933e-06   -9.834421164536095e-07   -5.852940663112701e-06
6.711403774932933e-06   -9.834421164536095e-07   -5.852940663112701e-06
4.639362975950157e-06   -8.341223813921423e-07   -2.489131172511678e-06
4.639362975950157e-06   -8.341223813921423e-07   -2.489131172511678e-06
4.639362975950157e-06   -8.341223813921423e-07   -2.489131172511678e-06
4.639362975950157e-06   -8.341223813921423e-07   -2.489131172511678e-06
2.884390475584197e-06   -3.744856870964777e-07   -1.2323157849673393e-06
2.884390475584197e-06   -3.744856870964777e-07   -1.2323157849673393e-06
2.884390475584197e-06   -3.744856870964777e-07   -1.2323157849673393e-06
2.884390475584197e-06   -3.744856870964777e-07   -1.2323157849673393e-06
-2.4242336661955193e-07   -7.445221613421645e-07   -6.665694073187695e-06
-2.4242336661955193e-07   -7.445221613421645e-07   -6.665694073187695e-06
-2.4242336661955193e-07   -7.445221613421645e-07   -6.665694073187695e-06
-2.4242336661955193e-07   -7.445221613421645e-07   -6.665694073187695e-06
-1.3879711912462108e-07   -2.916331883323067e-07   -1.367015451079356e-06
-1.3879711912462108e-07   -2.916331883323067e-07   -1.367015451079356e-06
-1.3879711912462108e-07   -2.916331883323067e-07   -1.367015451079356e-06
-1.3879711912462108e-07   -2.916331883323067e-07   -1.367015451079356e-06
2.9867844100865625e-06   -7.031904105870472e-07   -6.3293836664118526e-06
2.9867844100865625e-06   -7.031904105870472e-07   -6.3293836664118526e-06
2.9867844100865625e-06   -7.031904105870472e-07   -6.3293836664118526e-06
2.9867844100865625e-06   -7.031904105870472e-07   -6.3293836664118526e-06
1.3753146373136426e-06   -4.523034902628297e-07   -3.7941328639847996e-06
1.3753146373136426e-06   -4.523034902628297e-07   -3.7941328639847996e-06
1.3753146373136426e-06   -4.523034902628297e-07   -3.7941328639847996e-06
1.3753146373136426e-06   -4.523034902628297e-07   -3.7941328639847996e-06
2.9867844100865625e-06   -2.916331883323067e-07   -1.1200811177265117e-06
2.9867844100865625e-06   -2.916331883323067e-07   -1.1200811177265117e-06
2.9867844100865625e-06   -2.916331883323067e-07   -1.1200811177265117e-06
2.9867844100865625e-06   -2.916331883323067e-07   -1.1200811177265117e-06
-1.3879711912462108e-07   -7.031904105870472e-07   -6.5763179997646766e-06
-1.3879711912462108e-07   -7.031904105870472e-07   -6.5763179997646766e-06
-1.3879711912462108e-07   -7.031904105870472e-07   -6.5763179997646766e-06
-1.3879711912462108e-07   -7.031904105870472e-07   -6.5763179997646766e-06
-4.7871292089239625e-08   -1.9084309051088048e-07   -1.4120380479846638e-06
-4.7871292089239625e-08   -1.9084309051088048e-07   -1.4120380479846638e-06
-4.7871292089239625e-08   -1.9084309051088048e-07   -1.4120380479846638e-06
-4.7871292089239625e-08   -1.9084309051088048e-07   -1.4120380479846638e-06
3.0890506104877758e-06   -6.30414541892511e-07   -6.376498348117399e-06
3.0890506104877758e-06   -6.30414541892511e-07   -6.376498348117399e-06
3.0890506104877758e-06   -6.30414541892511e-07   -6.376498348117399e-06
3.0890506104877758e-06   -6.30414541892511e-07   -6.376498348117399e-06
1.4423087137099833e-06   -4.091248999459518e-07   -3.764702305322269e-06
1.4423087137099833e-06   -4.091248999459518e-07   -3.764702305322269e-06
1.4423087137099833e-06   -4.091248999459518e-07   -3.764702305322269e-06
1.4423087137099833e-06   -4.091248999459518e-07   -3.764702305322269e-06
3.0890506104877758e-06   -1.908430905109347e-07   -1.148295177155718e-06
3.0890506104877758e-06   -1.908430905109347e-07   -1.148295177155718e-06
3.0890506104877758e-06   -1.908430905109347e-07   -1.148295177155718e-06
3.0890506104877758e-06   -1.908430905109347e-07   -1.148295177155718e-06
-4.7871292089239625e-08   -6.30414541892511e-07   -6.640241218946379e-06
-4.7871292089239625e-08   -6.30414541892511e-07   -6.640241218946379e-06
-4.7871292089239625e-08   -6.30414541892511e-07   -6.640241218946379e-06
-4.7871292089239625e-08   -6.30414541892511e-07   -6.640241218946379e-06
1.55714728884632e-08   -6.290626873876534e-08   -1.4802570881810586e-06
1.55714728884632e-08   -6.290626873876534e-08   -1.4802570881810586e-06
1.55714728884632e-08   -6.290626873876534e-08   -1.4802570881810586e-06
1.55714728884632e-08   -6.290626873876534e-08   -1.4802570881810586e-06
3.155938388801996e-06   -5.265465326473057e-07   -6.436017789691809e-06
3.155938388801996e-06   -5.265465326473057e-07   -6.436017789691809e-06
3.155938388801996e-06   -5.265465326473057e-07   -6.436017789691809e-06
3.155938388801996e-06   -5.265465326473057e-07   -6.436017789691809e-06
1.5278761507254883e-06   -3.3563490836098237e-07   -3.837127700802865e-06
1.5278761507254883e-06   -3.3563490836098237e-07   -3.837127700802865e-06
1.5278761507254883e-06   -3.3563490836098237e-07   -3.837127700802865e-06
1.5278761507254883e-06   -3.3563490836098237e-07   -3.837127700802865e-06
-2.4242336661955193e-07   1.0149163271285693e-07   -1.979434132608134e-06
-2.4242336661955193e-07   1.0149163271285693e-07   -1.979434132608134e-06
-2.4242336661955193e-07   1.0149163271285693e-07   -1.979434132608134e-06
-2.4242336661955193e-07   1.0149163271285693e-07   -1.979434132608134e-06
-3.3232447816543613e-06   -3.2755113917308943e-07   -7.371562154131074e-06
-3.3232447816543613e-06   -3.2755113917308943e-07   -7.371562154131074e-06
-3.3232447816543613e-06   -3.2755113917308943e-07   -7.371562154131074e-06
-3.3232447816543613e-06   -3.2755113917308943e-07   -7.371562154131074e-06
-3.1983619782131394e-06   1.9580930258608154e-07   -2.1413174383762225e-06
-3.1983619782131394e-06   1.9580930258608154e-07   -2.1413174383762225e-06
-3.1983619782131394e-06   1.9580930258608154e-07   -2.1413174383762225e-06
-3.1983619782131394e-06   1.9580930258608154e-07   -2.1413174383762225e-06
-1.3879711912462108e-07   -2.770698819182021e-07   -6.956864692821196e-06
-1.3879711912462108e-07   -2.770698819182021e-07   -6.956864692821196e-06
-1.3879711912462108e-07   -2.770698819182021e-07   -6.956864692821196e-06
-1.3879711912462108e-07   -2.770698819182021e-07   -6.956864692821196e-06
-1.7075181173827663e-06   -2.201494002834802e-08   -4.495362660858216e-06
-1.7075181173827663e-06   -2.201494002834802e-08   -4.495362660858216e-06
-1.7075181173827663e-06   -2.201494002834802e-08   -4.495362660858216e-06
-1.7075181173827663e-06   -2.201494002834802e-08   -4.495362660858216e-06
-1.3879711912462108e-07   1.9580930258608154e-07   -1.8575899276736794e-06
-1.3879711912462108e-07   1.9580930258608154e-07   -1.8575899276736794e-06
-1.3879711912462108e-07   1.9580930258608154e-07   -1.8575899276736794e-06
-1.3879711912462108e-07   1.9580930258608154e-07   -1.8575899276736794e-06
-3.1983619782131394e-06   -2.770698819182563e-07   -7.24059220352376e-06
-3.1983619782131394e-06   -2.770698819182563e-07   -7.24059220352376e-06
-3.1983619782131394e-06   -2.770698819182563e-07   -7.24059220352376e-06
-3.1983619782131394e-06   -2.770698819182563e-07   -7.24059220352376e-06
-3.083855123355371e-06   3.03187106289772e-07   -2.1024275335379517e-06
-3.083855123355371e-06   3.03187106289772e-07   -2.1024275335379517e-06
-3.083855123355371e-06   3.03187106289772e-07   -2.1024275335379517e-06
-3.083855123355371e-06   3.03187106289772e-07   -2.1024275335379517e-06
-4.7871292089239625e-08   -2.044936980328811e-07   -6.85779210305455e-06
-4.7871292089239625e-08   -2.044936980328811e-07   -6.85779210305455e-06
-4.7871292089239625e-08   -2.044936980328811e-07   -6.85779210305455e-06
-4.7871292089239625e-08   -2.044936980328811e-07   -6.85779210305455e-06
-1.6070359244382916e-06   3.354965287966647e-08   -4.402010393020323e-06
-1.6070359244382916e-06   3.354965287966647e-08   -4.402010393020323e-06
-1.6070359244382916e-06   3.354965287966647e-08   -4.402010393020323e-06
-1.6070359244382916e-06   3.354965287966647e-08   -4.402010393020323e-06
-4.7871292089239625e-08   3.03187106289772e-07   -1.7978190509443327e-06
-4.7871292089239625e-08   3.03187106289772e-07   -1.7978190509443327e-06
-4.7871292089239625e-08   3.03187106289772e-07   -1.7978190509443327e-06
-4.7871292089239625e-08   3.03187106289772e-07   -1.7978190509443327e-06
-3.0838551233553762e-06   -2.044936980329353e-07   -7.162400585648186e-06
-3.0838551233553762e-06   -2.044936980329353e-07   -7.162400585648186e-06
-3.0838551233553762e-06   -2.044936980329353e-07   -7.162400585648186e-06
-3.0838551233553762e-06   -2.044936980329353e-07   -7.162400585648186e-06
-3.0071571652788773e-06   4.1380934782562703e-07   -2.144353470071855e-06
-3.0071571652788773e-06   4.1380934782562703e-07   -2.144353470071855e-06
-3.0071571652788773e-06   4.1380934782562703e-07   -2.144353470071855e-06
-3.0071571652788773e-06   4.1380934782562703e-07   -2.144353470071855e-06
1.55714728884632e-08   -1.348216084444691e-07   -6.853055959922057e-06
1.55714728884632e-08   -1.348216084444691e-07   -6.853055959922057e-06
1.55714728884632e-08   -1.348216084444691e-07   -6.853055959922057e-06
1.55714728884632e-08   -1.348216084444691e-07   -6.853055959922057e-06
-1.5366901611974097e-06   9.520824587728018e-08   -4.4039711490387144e-06
-1.5366901611974097e-06   9.520824587728018e-08   -4.4039711490387144e-06
-1.5366901611974097e-06   9.520824587728018e-08   -4.4039711490387144e-06
-1.5366901611974097e-06   9.520824587728018e-08   -4.4039711490387144e-06
-3.323244781654356e-06   5.951678050570034e-07   -1.5848811895433751e-06
-3.323244781654356e-06   5.951678050570034e-07   -1.5848811895433751e-06
-3.323244781654356e-06   5.951678050570034e-07   -1.5848811895433751e-06
-3.323244781654356e-06   5.951678050570034e-07   -1.5848811895433751e-06
-6.455410345545863e-06   2.1911973619679346e-07   -7.030785970678669e-06
-6.455410345545863e-06   2.1911973619679346e-07   -7.030785970678669e-06
-6.455410345545863e-06   2.1911973619679346e-07   -7.030785970678669e-06
-6.455410345545863e-06   2.1911973619679346e-07   -7.030785970678669e-06
-6.276952372588898e-06   7.126301652409417e-07   -1.6664336952454547e-06
-6.276952372588898e-06   7.126301652409417e-07   -1.6664336952454547e-06
-6.276952372588898e-06   7.126301652409417e-07   -1.6664336952454547e-06
-6.276952372588898e-06   7.126301652409417e-07   -1.6664336952454547e-06
-3.1983619782131343e-06   3.0402558086372374e-07   -6.552254935245383e-06
-3.1983619782131343e-06   3.0402558086372374e-07   -6.552254935245383e-06
-3.1983619782131343e-06   3.0402558086372374e-07   -6.552254935245383e-06
-3.1983619782131343e-06   3.0402558086372374e-07   -6.552254935245383e-06
-4.766803655819814e-06   4.934526712255466e-07   -4.051841726784673e-06
-4.766803655819814e-06   4.934526712255466e-07   -4.051841726784673e-06
-4.766803655819814e-06   4.934526712255466e-07   -4.051841726784673e-06
-4.766803655819814e-06   4.934526712255466e-07   -4.051841726784673e-06
-3.1983619782131343e-06   7.126301652409417e-07   -1.4212709446191022e-06
-3.1983619782131343e-06   7.126301652409417e-07   -1.4212709446191022e-06
-3.1983619782131343e-06   7.126301652409417e-07   -1.4212709446191022e-06
-3.1983619782131343e-06   7.126301652409417e-07   -1.4212709446191022e-06
-6.276952372588908e-06   3.0402558086377795e-07   -6.797417685871739e-06
-6.276952372588908e-06   3.0402558086377795e-07   -6.797417685871739e-06
-6.276952372588908e-06   3.0402558086377795e-07   -6.797417685871739e-06
-6.276952372588908e-06   3.0402558086377795e-07   -6.797417685871739e-06
-6.1016012598362474e-06   8.134379407249244e-07   -1.4937091745470565e-06
-6.1016012598362474e-06   8.134379407249244e-07   -1.4937091745470565e-06
-6.1016012598362474e-06   8.134379407249244e-07   -1.4937091745470565e-06
-6.1016012598362474e-06   8.134379407249244e-07   -1.4937091745470565e-06
-3.0838551233553762e-06   3.8130561997906697e-07   -6.264006676234394e-06
-3.0838551233553762e-06   3.8130561997906697e-07   -6.264006676234394e-06
-3.0838551233553762e-06   3.8130561997906697e-07   -6.264006676234394e-06
-3.0838551233553762e-06   3.8130561997906697e-07   -6.264006676234394e-06
-4.6013060449186096e-06   5.674589333038316e-07   -3.846613794957152e-06
-4.6013060449186096e-06   5.674589333038316e-07   -3.846613794957152e-06
-4.6013060449186096e-06   5.674589333038316e-07   -3.846613794957152e-06
-4.6013060449186096e-06   5.674589333038316e-07   -3.846613794957152e-06
-3.0838551233553678e-06   8.134379407249244e-07   -1.2344297820995529e-06
-3.0838551233553678e-06   8.134379407249244e-07   -1.2344297820995529e-06
-3.0838551233553678e-06   8.134379407249244e-07   -1.2344297820995529e-06
-3.0838551233553678e-06   8.134379407249244e-07   -1.2344297820995529e-06
-6.101601259836258e-06   3.8130561997906697e-07   -6.523286068681877e-06
-6.101601259836258e-06   3.8130561997906697e-07   -6.523286068681877e-06
-6.101601259836258e-06   3.8130561997906697e-07   -6.523286068681877e-06
-6.101601259836258e-06   3.8130561997906697e-07   -6.523286068681877e-06
-5.972709148312197e-06   9.231334086299051e-07   -1.4992037984041444e-06
-5.972709148312197e-06   9.231334086299051e-07   -1.4992037984041444e-06
-5.972709148312197e-06   9.231334086299051e-07   -1.4992037984041444e-06
-5.972709148312197e-06   9.231334086299051e-07   -1.4992037984041444e-06
-3.0071571652788823e-06   4.447884212055442e-07   -6.154783444338425e-06
-3.0071571652788823e-06   4.447884212055442e-07   -6.154783444338425e-06
-3.0071571652788823e-06   4.447884212055442e-07   -6.154783444338425e-06
-3.0071571652788823e-06   4.447884212055442e-07   -6.154783444338425e-06
-4.518210394541949e-06   6.196636019461686e-07   -3.7412865040109625e-06
-4.518210394541949e-06   6.196636019461686e-07   -3.7412865040109625e-06
-4.518210394541949e-06   6.196636019461686e-07   -3.7412865040109625e-06
-4.518210394541949e-06   6.196636019461686e-07   -3.7412865040109625e-06
-6.455410345545863e-06   1.1428200592921572e-06   -8.877250208695197e-07
-6.455410345545863e-06   1.1428200592921572e-06   -8.877250208695197e-07
-6.455410345545863e-06   1.1428200592921572e-06   -8.877250208695197e-07
-6.455410345545863e-06   1.1428200592921572e-06   -8.877250208695197e-07
-9.75230397814647e-06   1.105296452065638e-06   -6.40506190620647e-06
-9.75230397814647e-06   1.105296452065638e-06   -6.40506190620647e-06
-9.75230397814647e-06   1.105296452065638e-06   -6.40506190620647e-06
-9.75230397814647e-06   1.105296452065638e-06   -6.40506190620647e-06
-9.37759221380092e-06   1.2992339991405553e-06   1.6030962884155324e-07
-9.37759221380092e-06   1.2992339991405553e-06   1.6030962884155324e-07
-9.37759221380092e-06   1.2992339991405553e-06   1.6030962884155324e-07
-9.37759221380092e-06   1.2992339991405553e-06   1.6030962884155324e-07
-6.276952372588887e-06   1.3631577931307688e-06   -5.045777716239324e-06
-6.276952372588887e-06   1.3631577931307688e-06   -5.045777716239324e-06
-6.276952372588887e-06   1.3631577931307688e-06   -5.045777716239324e-06
-6.276952372588887e-06   1.3631577931307688e-06   -5.045777716239324e-06
-7.623525147060715e-06   1.280566646718142e-06   -2.7519350709387033e-06
-7.623525147060715e-06   1.280566646718142e-06   -2.7519350709387033e-06
-7.623525147060715e-06   1.280566646718142e-06   -2.7519350709387033e-06
-7.623525147060715e-06   1.280566646718142e-06   -2.7519350709387033e-06
-6.276952372588902e-06   1.2992339991405011e-06   1.2195535244741433e-07
-6.276952372588902e-06   1.2992339991405011e-06   1.2195535244741433e-07
-6.276952372588902e-06   1.2992339991405011e-06   1.2195535244741433e-07
-6.276952372588902e-06   1.2992339991405011e-06   1.2195535244741433e-07
-9.37759221380092e-06   1.3631577931307688e-06   -5.00742343984516e-06
-9.37759221380092e-06   1.3631577931307688e-06   -5.00742343984516e-06
-9.37759221380092e-06   1.3631577931307688e-06   -5.00742343984516e-06
-9.37759221380092e-06   1.3631577931307688e-06   -5.00742343984516e-06
-9.070232803402542e-06   1.3414238450862792e-06   7.531366841060478e-07
-9.070232803402542e-06   1.3414238450862792e-06   7.531366841060478e-07
-9.070232803402542e-06   1.3414238450862792e-06   7.531366841060478e-07
-9.070232803402542e-06   1.3414238450862792e-06   7.531366841060478e-07
-6.1016012598362474e-06   1.422744258012859e-06   -4.243374802927052e-06
-6.1016012598362474e-06   1.422744258012859e-06   -4.243374802927052e-06
-6.1016012598362474e-06   1.422744258012859e-06   -4.243374802927052e-06
-6.1016012598362474e-06   1.422744258012859e-06   -4.243374802927052e-06
-7.50201764492835e-06   1.3697163010862419e-06   -1.877530720284149e-06
-7.50201764492835e-06   1.3697163010862419e-06   -1.877530720284149e-06
-7.50201764492835e-06   1.3697163010862419e-06   -1.877530720284149e-06
-7.50201764492835e-06   1.3697163010862419e-06   -1.877530720284149e-06
-6.101601259836258e-06   1.3414238450863334e-06   7.043444363500999e-07
-6.101601259836258e-06   1.3414238450863334e-06   7.043444363500999e-07
-6.101601259836258e-06   1.3414238450863334e-06   7.043444363500999e-07
-6.101601259836258e-06   1.3414238450863334e-06   7.043444363500999e-07
-9.070232803402528e-06   1.4227442580128048e-06   -4.194582555171129e-06
-9.070232803402528e-06   1.4227442580128048e-06   -4.194582555171129e-06
-9.070232803402528e-06   1.4227442580128048e-06   -4.194582555171129e-06
-9.070232803402528e-06   1.4227442580128048e-06   -4.194582555171129e-06
-8.74514475110964e-06   1.372147616411092e-06   1.5595778062346514e-06
-8.74514475110964e-06   1.372147616411092e-06   1.5595778062346514e-06
-8.74514475110964e-06   1.372147616411092e-06   1.5595778062346514e-06
-8.74514475110964e-06   1.372147616411092e-06   1.5595778062346514e-06
-5.972709148312197e-06   1.5142751958969265e-06   -3.1464247461192926e-06
-5.972709148312197e-06   1.5142751958969265e-06   -3.1464247461192926e-06
-5.972709148312197e-06   1.5142751958969265e-06   -3.1464247461192926e-06
-5.972709148312197e-06   1.5142751958969265e-06   -3.1464247461192926e-06
-7.180665830366097e-06   1.3952936081332583e-06   -1.0617746567046909e-06
-7.180665830366097e-06   1.3952936081332583e-06   -1.0617746567046909e-06
-7.180665830366097e-06   1.3952936081332583e-06   -1.0617746567046909e-06
-7.180665830366097e-06   1.3952936081332583e-06   -1.0617746567046909e-06
8.193118907276025e-06   -1.21190434229884e-06   2.9282689363491253e-06
8.193118907276025e-06   -1.21190434229884e-06   2.9282689363491253e-06
8.193118907276025e-06   -1.21190434229884e-06   2.9282689363491253e-06
8.193118907276025e-06   -1.21190434229884e-06   2.9282689363491253e-06
4.077868940375066e-06   -1.5127167944780566e-06   -4.11096847979331e-06
4.077868940375066e-06   -1.5127167944780566e-06   -4.11096847979331e-06
4.077868940375066e-06   -1.5127167944780566e-06   -4.11096847979331e-06
4.077868940375066e-06   -1.5127167944780566e-06   -4.11096847979331e-06
4.164041627523446e-06   -1.186607919098821e-06   2.133154567954059e-06
4.164041627523446e-06   -1.186607919098821e-06   2.133154567954059e-06
4.164041627523446e-06   -1.186607919098821e-06   2.133154567954059e-06
4.164041627523446e-06   -1.186607919098821e-06   2.133154567954059e-06
8.379826754191097e-06   -1.550696592307881e-06   -4.674700772566552e-06
8.379826754191097e-06   -1.550696592307881e-06   -4.674700772566552e-06
8.379826754191097e-06   -1.550696592307881e-06   -4.674700772566552e-06
8.379826754191097e-06   -1.550696592307881e-06   -4.674700772566552e-06
5.953720533048918e-06   -1.2372410644980228e-06   -8.192637206822211e-07
5.953720533048918e-06   -1.2372410644980228e-06   -8.192637206822211e-07
5.953720533048918e-06   -1.2372410644980228e-06   -8.192637206822211e-07
5.953720533048918e-06   -1.2372410644980228e-06   -8.192637206822211e-07
8.379826754191097e-06   -1.186607919098821e-06   2.3516077718795277e-06
8.379826754191097e-06   -1.186607919098821e-06   2.3516077718795277e-06
8.379826754191097e-06   -1.186607919098821e-06   2.3516077718795277e-06
8.379826754191097e-06   -1.186607919098821e-06   2.3516077718795277e-06
4.164041627523446e-06   -1.550696592307881e-06   -4.89315397649202e-06
4.164041627523446e-06   -1.550696592307881e-06   -4.89315397649202e-06
4.164041627523446e-06   -1.550696592307881e-06   -4.89315397649202e-06
4.164041627523446e-06   -1.550696592307881e-06   -4.89315397649202e-06
4.23656274507103e-06   -1.144400234165757e-06   1.7004146537690174e-06
4.23656274507103e-06   -1.144400234165757e-06   1.7004146537690174e-06
4.23656274507103e-06   -1.144400234165757e-06   1.7004146537690174e-06
4.23656274507103e-06   -1.144400234165757e-06   1.7004146537690174e-06
8.494814710923935e-06   -1.5340213242102225e-06   -5.162899301959129e-06
8.494814710923935e-06   -1.5340213242102225e-06   -5.162899301959129e-06
8.494814710923935e-06   -1.5340213242102225e-06   -5.162899301959129e-06
8.494814710923935e-06   -1.5340213242102225e-06   -5.162899301959129e-06
6.151568302450708e-06   -1.2730915440011524e-06   -1.4140464892958761e-06
6.151568302450708e-06   -1.2730915440011524e-06   -1.4140464892958761e-06
6.151568302450708e-06   -1.2730915440011524e-06   -1.4140464892958761e-06
6.151568302450708e-06   -1.2730915440011524e-06   -1.4140464892958761e-06
8.494814710923935e-06   -1.144400234165757e-06   1.9341873077956967e-06
8.494814710923935e-06   -1.144400234165757e-06   1.9341873077956967e-06
8.494814710923935e-06   -1.144400234165757e-06   1.9341873077956967e-06
8.494814710923935e-06   -1.144400234165757e-06   1.9341873077956967e-06
4.23656274507103e-06   -1.5340213242102225e-06   -5.396671955985849e-06
4.23656274507103e-06   -1.5340213242102225e-06   -5.396671955985849e-06
4.23656274507103e-06   -1.5340213242102225e-06   -5.396671955985849e-06
4.23656274507103e-06   -1.5340213242102225e-06   -5.396671955985849e-06
4.310351863881474e-06   -9.834421164535553e-07   8.761482791879967e-07
4.310351863881474e-06   -9.834421164535553e-07   8.761482791879967e-07
4.310351863881474e-06   -9.834421164535553e-07   8.761482791879967e-07
4.310351863881474e-06   -9.834421164535553e-07   8.761482791879967e-07
8.608199659741166e-06   -1.4410482882852376e-06   -6.012367677479164e-06
8.608199659741166e-06   -1.4410482882852376e-06   -6.012367677479164e-06
8.608199659741166e-06   -1.4410482882852376e-06   -6.012367677479164e-06
8.608199659741166e-06   -1.4410482882852376e-06   -6.012367677479164e-06
6.141719070642498e-06   -1.220997541482216e-06   -2.0335971437299025e-06
6.141719070642498e-06   -1.220997541482216e-06   -2.0335971437299025e-06
6.141719070642498e-06   -1.220997541482216e-06   -2.0335971437299025e-06
6.141719070642498e-06   -1.220997541482216e-06   -2.0335971437299025e-06
4.077868940375066e-06   -7.445221613421645e-07   4.577607264050047e-07
4.077868940375066e-06   -7.445221613421645e-07   4.577607264050047e-07
4.077868940375066e-06   -7.445221613421645e-07   4.577607264050047e-07
4.077868940375066e-06   -7.445221613421645e-07   4.577607264050047e-07
3.753783291183918e-07   -1.4195104753586063e-06   -6.118049947432635e-06
3.753783291183918e-07   -1.4195104753586063e-06   -6.118049947432635e-06
3.753783291183918e-07   -1.4195104753586063e-06   -6.118049947432635e-06
3.753783291183918e-07   -1.4195104753586063e-06   -6.118049947432635e-06
4.745265605805141e-07   -7.031904105871014e-07   1.808155659895137e-07
4.745265605805141e-07   -7.031904105871014e-07   1.808155659895137e-07
4.745265605805141e-07   -7.031904105871014e-07   1.808155659895137e-07
4.745265605805141e-07   -7.031904105871014e-07   1.808155659895137e-07
4.164041627523449e-06   -1.4070200157501067e-06   -5.5460784491509e-06
4.164041627523449e-06   -1.4070200157501067e-06   -5.5460784491509e-06
4.164041627523449e-06   -1.4070200157501067e-06   -5.5460784491509e-06
4.164041627523449e-06   -1.4070200157501067e-06   -5.5460784491509e-06
2.2793318660579274e-06   -9.633497962556925e-07   -2.671097645071677e-06
2.2793318660579274e-06   -9.633497962556925e-07   -2.671097645071677e-06
2.2793318660579274e-06   -9.633497962556925e-07   -2.671097645071677e-06
2.2793318660579274e-06   -9.633497962556925e-07   -2.671097645071677e-06
4.164041627523439e-06   -7.031904105870472e-07   6.031133290873331e-07
4.164041627523439e-06   -7.031904105870472e-07   6.031133290873331e-07
4.164041627523439e-06   -7.031904105870472e-07   6.031133290873331e-07
4.164041627523439e-06   -7.031904105870472e-07   6.031133290873331e-07
4.745265605805141e-07   -1.4070200157501067e-06   -5.968376212248713e-06
4.745265605805141e-07   -1.4070200157501067e-06   -5.968376212248713e-06
4.745265605805141e-07   -1.4070200157501067e-06   -5.968376212248713e-06
4.745265605805141e-07   -1.4070200157501067e-06   -5.968376212248713e-06
5.638625043754678e-07   -6.304145418924568e-07   1.3264711113108313e-07
5.638625043754678e-07   -6.304145418924568e-07   1.3264711113108313e-07
5.638625043754678e-07   -6.304145418924568e-07   1.3264711113108313e-07
5.638625043754678e-07   -6.304145418924568e-07   1.3264711113108313e-07
4.23656274507103e-06   -1.3811162437820214e-06   -5.538098935561146e-06
4.23656274507103e-06   -1.3811162437820214e-06   -5.538098935561146e-06
4.23656274507103e-06   -1.3811162437820214e-06   -5.538098935561146e-06
4.23656274507103e-06   -1.3811162437820214e-06   -5.538098935561146e-06
2.3311340339778645e-06   -9.676964579488677e-07   -2.610436288572331e-06
2.3311340339778645e-06   -9.676964579488677e-07   -2.610436288572331e-06
2.3311340339778645e-06   -9.676964579488677e-07   -2.610436288572331e-06
2.3311340339778645e-06   -9.676964579488677e-07   -2.610436288572331e-06
4.23656274507103e-06   -6.30414541892511e-07   5.830681322647948e-07
4.23656274507103e-06   -6.30414541892511e-07   5.830681322647948e-07
4.23656274507103e-06   -6.30414541892511e-07   5.830681322647948e-07
4.23656274507103e-06   -6.30414541892511e-07   5.830681322647948e-07
5.638625043754645e-07   -1.3811162437820214e-06   -5.988519956694871e-06
5.638625043754645e-07   -1.3811162437820214e-06   -5.988519956694871e-06
5.638625043754645e-07   -1.3811162437820214e-06   -5.988519956694871e-06
5.638625043754645e-07   -1.3811162437820214e-06   -5.988519956694871e-06
6.982802271064857e-07   -5.265465326473599e-07   5.673788337350353e-08
6.982802271064857e-07   -5.265465326473599e-07   5.673788337350353e-08
6.982802271064857e-07   -5.265465326473599e-07   5.673788337350353e-08
6.982802271064857e-07   -5.265465326473599e-07   5.673788337350353e-08
4.310351863881471e-06   -1.3339130961050288e-06   -5.478961573176861e-06
4.310351863881471e-06   -1.3339130961050288e-06   -5.478961573176861e-06
4.310351863881471e-06   -1.3339130961050288e-06   -5.478961573176861e-06
4.310351863881471e-06   -1.3339130961050288e-06   -5.478961573176861e-06
2.4412640884578696e-06   -9.444296401490428e-07   -2.5975053543777723e-06
2.4412640884578696e-06   -9.444296401490428e-07   -2.5975053543777723e-06
2.4412640884578696e-06   -9.444296401490428e-07   -2.5975053543777723e-06
2.4412640884578696e-06   -9.444296401490428e-07   -2.5975053543777723e-06
3.753783291183918e-07   -3.2755113917308943e-07   -3.9567467981663847e-07
3.753783291183918e-07   -3.2755113917308943e-07   -3.9567467981663847e-07
3.753783291183918e-07   -3.2755113917308943e-07   -3.9567467981663847e-07
3.753783291183918e-07   -3.2755113917308943e-07   -3.9567467981663847e-07
-3.2843063660073985e-06   -1.6084870864230098e-06   -7.263710740042939e-06
-3.2843063660073985e-06   -1.6084870864230098e-06   -7.263710740042939e-06
-3.2843063660073985e-06   -1.6084870864230098e-06   -7.263710740042939e-06
-3.2843063660073985e-06   -1.6084870864230098e-06   -7.263710740042939e-06
-3.128683979075224e-06   -2.770698819182021e-07   -1.0151345362290705e-06
-3.128683979075224e-06   -2.770698819182021e-07   -1.0151345362290705e-06
-3.128683979075224e-06   -2.770698819182021e-07   -1.0151345362290705e-06
-3.128683979075224e-06   -2.770698819182021e-07   -1.0151345362290705e-06
4.745265605805141e-07   -1.6360755638549873e-06   -6.2050820264932424e-06
4.745265605805141e-07   -1.6360755638549873e-06   -6.2050820264932424e-06
4.745265605805141e-07   -1.6360755638549873e-06   -6.2050820264932424e-06
4.745265605805141e-07   -1.6360755638549873e-06   -6.2050820264932424e-06
-1.3531499919716937e-06   -8.83812704796877e-07   -3.6103121543410864e-06
-1.3531499919716937e-06   -8.83812704796877e-07   -3.6103121543410864e-06
-1.3531499919716937e-06   -8.83812704796877e-07   -3.6103121543410864e-06
-1.3531499919716937e-06   -8.83812704796877e-07   -3.6103121543410864e-06
4.745265605805141e-07   -2.770698819182021e-07   -1.9973112706702647e-07
4.745265605805141e-07   -2.770698819182021e-07   -1.9973112706702647e-07
4.745265605805141e-07   -2.770698819182021e-07   -1.9973112706702647e-07
4.745265605805141e-07   -2.770698819182021e-07   -1.9973112706702647e-07
-3.128683979075229e-06   -1.6360755638549873e-06   -7.020485435655293e-06
-3.128683979075229e-06   -1.6360755638549873e-06   -7.020485435655293e-06
-3.128683979075229e-06   -1.6360755638549873e-06   -7.020485435655293e-06
-3.128683979075229e-06   -1.6360755638549873e-06   -7.020485435655293e-06
-2.993227149718592e-06   -2.044936980329353e-07   -9.334815765288981e-07
-2.993227149718592e-06   -2.044936980329353e-07   -9.334815765288981e-07
-2.993227149718592e-06   -2.044936980329353e-07   -9.334815765288981e-07
-2.993227149718592e-06   -2.044936980329353e-07   -9.334815765288981e-07
5.638625043754645e-07   -1.618790037285914e-06   -6.013386529800556e-06
5.638625043754645e-07   -1.618790037285914e-06   -6.013386529800556e-06
5.638625043754645e-07   -1.618790037285914e-06   -6.013386529800556e-06
5.638625043754645e-07   -1.618790037285914e-06   -6.013386529800556e-06
-1.243269583856146e-06   -8.969091387295899e-07   -3.4346282552149226e-06
-1.243269583856146e-06   -8.969091387295899e-07   -3.4346282552149226e-06
-1.243269583856146e-06   -8.969091387295899e-07   -3.4346282552149226e-06
-1.243269583856146e-06   -8.969091387295899e-07   -3.4346282552149226e-06
5.638625043754645e-07   -2.044936980329353e-07   -8.490377297710539e-08
5.638625043754645e-07   -2.044936980329353e-07   -8.490377297710539e-08
5.638625043754645e-07   -2.044936980329353e-07   -8.490377297710539e-08
5.638625043754645e-07   -2.044936980329353e-07   -8.490377297710539e-08
-2.993227149718602e-06   -1.618790037285914e-06   -6.861964333352335e-06
-2.993227149718602e-06   -1.618790037285914e-06   -6.861964333352335e-06
-2.993227149718602e-06   -1.618790037285914e-06   -6.861964333352335e-06
-2.993227149718602e-06   -1.618790037285914e-06   -6.861964333352335e-06
-2.758666883801463e-06   -1.348216084444691e-07   -9.316701935786341e-07
-2.758666883801463e-06   -1.348216084444691e-07   -9.316701935786341e-07
-2.758666883801463e-06   -1.348216084444691e-07   -9.316701935786341e-07
-2.758666883801463e-06   -1.348216084444691e-07   -9.316701935786341e-07
6.982802271064857e-07   -1.550745050222862e-06   -5.843694646691505e-06
6.982802271064857e-07   -1.550745050222862e-06   -5.843694646691505e-06
6.982802271064857e-07   -1.550745050222862e-06   -5.843694646691505e-06
6.982802271064857e-07   -1.550745050222862e-06   -5.843694646691505e-06
-1.0999505256769577e-06   -8.68217626062305e-07   -3.2561598465487686e-06
-1.0999505256769577e-06   -8.68217626062305e-07   -3.2561598465487686e-06
-1.0999505256769577e-06   -8.68217626062305e-07   -3.2561598465487686e-06
-1.0999505256769577e-06   -8.68217626062305e-07   -3.2561598465487686e-06
-3.2843063660073917e-06   2.1911973619679346e-07   -5.978312233980766e-07
-3.2843063660073917e-06   2.1911973619679346e-07   -5.978312233980766e-07
-3.2843063660073917e-06   2.1911973619679346e-07   -5.978312233980766e-07
-3.2843063660073917e-06   2.1911973619679346e-07   -5.978312233980766e-07
-7.325490504993092e-06   -1.9040460282144438e-06   -8.607037580354323e-06
-7.325490504993092e-06   -1.9040460282144438e-06   -8.607037580354323e-06
-7.325490504993092e-06   -1.9040460282144438e-06   -8.607037580354323e-06
-7.325490504993092e-06   -1.9040460282144438e-06   -8.607037580354323e-06
-7.13163044027688e-06   3.0402558086372374e-07   -1.8097078929091629e-06
-7.13163044027688e-06   3.0402558086372374e-07   -1.8097078929091629e-06
-7.13163044027688e-06   3.0402558086372374e-07   -1.8097078929091629e-06
-7.13163044027688e-06   3.0402558086372374e-07   -1.8097078929091629e-06
-3.128683979075224e-06   -2.1674921274003763e-06   -6.99837470328679e-06
-3.128683979075224e-06   -2.1674921274003763e-06   -6.99837470328679e-06
-3.128683979075224e-06   -2.1674921274003763e-06   -6.99837470328679e-06
-3.128683979075224e-06   -2.1674921274003763e-06   -6.99837470328679e-06
-5.14788589708245e-06   -9.152204162281167e-07   -4.38440119997811e-06
-5.14788589708245e-06   -9.152204162281167e-07   -4.38440119997811e-06
-5.14788589708245e-06   -9.152204162281167e-07   -4.38440119997811e-06
-5.14788589708245e-06   -9.152204162281167e-07   -4.38440119997811e-06
-3.128683979075224e-06   3.0402558086372374e-07   -3.267972679506974e-07
-3.128683979075224e-06   3.0402558086372374e-07   -3.267972679506974e-07
-3.128683979075224e-06   3.0402558086372374e-07   -3.267972679506974e-07
-3.128683979075224e-06   3.0402558086372374e-07   -3.267972679506974e-07
-7.13163044027688e-06   -2.1674921274003763e-06   -8.481285328245259e-06
-7.13163044027688e-06   -2.1674921274003763e-06   -8.481285328245259e-06
-7.13163044027688e-06   -2.1674921274003763e-06   -8.481285328245259e-06
-7.13163044027688e-06   -2.1674921274003763e-06   -8.481285328245259e-06
-6.94669037061153e-06   3.813056199791212e-07   -1.565773227783779e-06
-6.94669037061153e-06   3.813056199791212e-07   -1.565773227783779e-06
-6.94669037061153e-06   3.813056199791212e-07   -1.565773227783779e-06
-6.94669037061153e-06   3.813056199791212e-07   -1.565773227783779e-06
-2.993227149718597e-06   -2.1698369811353857e-06   -6.624193035269992e-06
-2.993227149718597e-06   -2.1698369811353857e-06   -6.624193035269992e-06
-2.993227149718597e-06   -2.1698369811353857e-06   -6.624193035269992e-06
-2.993227149718597e-06   -2.1698369811353857e-06   -6.624193035269992e-06
-4.958589471789852e-06   -9.095302079214595e-07   -4.10477322907956e-06
-4.958589471789852e-06   -9.095302079214595e-07   -4.10477322907956e-06
-4.958589471789852e-06   -9.095302079214595e-07   -4.10477322907956e-06
-4.958589471789852e-06   -9.095302079214595e-07   -4.10477322907956e-06
-2.9932271497185953e-06   3.813056199791212e-07   -3.5087667115085664e-08
-2.9932271497185953e-06   3.813056199791212e-07   -3.5087667115085664e-08
-2.9932271497185953e-06   3.813056199791212e-07   -3.5087667115085664e-08
-2.9932271497185953e-06   3.813056199791212e-07   -3.5087667115085664e-08
-6.946690370611544e-06   -2.1698369811353857e-06   -8.154878595938668e-06
-6.946690370611544e-06   -2.1698369811353857e-06   -8.154878595938668e-06
-6.946690370611544e-06   -2.1698369811353857e-06   -8.154878595938668e-06
-6.946690370611544e-06   -2.1698369811353857e-06   -8.154878595938668e-06
-6.637370820869529e-06   4.447884212055442e-07   -1.3243532280631215e-06
-6.637370820869529e-06   4.447884212055442e-07   -1.3243532280631215e-06
-6.637370820869529e-06   4.447884212055442e-07   -1.3243532280631215e-06
-6.637370820869529e-06   4.447884212055442e-07   -1.3243532280631215e-06
-2.7586668838014734e-06   -1.922101785178118e-06   -6.368725666013045e-06
-2.7586668838014734e-06   -1.922101785178118e-06   -6.368725666013045e-06
-2.7586668838014734e-06   -1.922101785178118e-06   -6.368725666013045e-06
-2.7586668838014734e-06   -1.922101785178118e-06   -6.368725666013045e-06
-4.779130167278448e-06   -7.618098857966661e-07   -3.697461999846869e-06
-4.779130167278448e-06   -7.618098857966661e-07   -3.697461999846869e-06
-4.779130167278448e-06   -7.618098857966661e-07   -3.697461999846869e-06
-4.779130167278448e-06   -7.618098857966661e-07   -3.697461999846869e-06
-7.325490504993092e-06   1.1052964520656921e-06   -1.2234924532367566e-06
-7.325490504993092e-06   1.1052964520656921e-06   -1.2234924532367566e-06
-7.325490504993092e-06   1.1052964520656921e-06   -1.2234924532367566e-06
-7.325490504993092e-06   1.1052964520656921e-06   -1.2234924532367566e-06
-1.2387208762958746e-05   0.0   -1.032286742108559e-05
-1.2387208762958746e-05   0.0   -1.032286742108559e-05
-1.2387208762958746e-05   0.0   -1.032286742108559e-05
-1.2387208762958746e-05   0.0   -1.032286742108559e-05
-1.2110883604841973e-05   1.3631577931307688e-06   -8.759625991552325e-07
-1.2110883604841973e-05   1.3631577931307688e-06   -8.759625991552325e-07
-1.2110883604841973e-05   1.3631577931307688e-06   -8.759625991552325e-07
-1.2110883604841973e-05   1.3631577931307688e-06   -8.759625991552325e-07
-7.131630440276867e-06   0.0   -8.356823197551923e-06
-7.131630440276867e-06   0.0   -8.356823197551923e-06
-7.131630440276867e-06   0.0   -8.356823197551923e-06
-7.131630440276867e-06   0.0   -8.356823197551923e-06
-9.32708402661055e-06   4.374380334800894e-07   -4.960196707083842e-06
-9.32708402661055e-06   4.374380334800894e-07   -4.960196707083842e-06
-9.32708402661055e-06   4.374380334800894e-07   -4.960196707083842e-06
-9.32708402661055e-06   4.374380334800894e-07   -4.960196707083842e-06
-7.131630440276874e-06   1.3631577931307688e-06   -5.806792327674951e-08
-7.131630440276874e-06   1.3631577931307688e-06   -5.806792327674951e-08
-7.131630440276874e-06   1.3631577931307688e-06   -5.806792327674951e-08
-7.131630440276874e-06   1.3631577931307688e-06   -5.806792327674951e-08
-1.2110883604841953e-05   0.0   -9.174717873430382e-06
-1.2110883604841953e-05   0.0   -9.174717873430382e-06
-1.2110883604841953e-05   0.0   -9.174717873430382e-06
-1.2110883604841953e-05   0.0   -9.174717873430382e-06
-1.1872425845010287e-05   1.422744258012859e-06   -1.3950851683667805e-07
-1.1872425845010287e-05   1.422744258012859e-06   -1.3950851683667805e-07
-1.1872425845010287e-05   1.422744258012859e-06   -1.3950851683667805e-07
-1.1872425845010287e-05   1.422744258012859e-06   -1.3950851683667805e-07
-6.946690370611544e-06   0.0   -7.495421086026889e-06
-6.946690370611544e-06   0.0   -7.495421086026889e-06
-6.946690370611544e-06   0.0   -7.495421086026889e-06
-6.946690370611544e-06   0.0   -7.495421086026889e-06
-9.264449050753328e-06   6.651419423545253e-07   -4.031575117869834e-06
-9.264449050753328e-06   6.651419423545253e-07   -4.031575117869834e-06
-9.264449050753328e-06   6.651419423545253e-07   -4.031575117869834e-06
-9.264449050753328e-06   6.651419423545253e-07   -4.031575117869834e-06
-6.946690370611544e-06   1.422744258012859e-06   7.141380379710482e-07
-6.946690370611544e-06   1.422744258012859e-06   7.141380379710482e-07
-6.946690370611544e-06   1.422744258012859e-06   7.141380379710482e-07
-6.946690370611544e-06   1.422744258012859e-06   7.141380379710482e-07
-1.1872425845010267e-05   0.0   -8.349067640834581e-06
-1.1872425845010267e-05   0.0   -8.349067640834581e-06
-1.1872425845010267e-05   0.0   -8.349067640834581e-06
-1.1872425845010267e-05   0.0   -8.349067640834581e-06
-1.139185575531361e-05   1.5142751958969265e-06   1.062447345072387e-06
-1.139185575531361e-05   1.5142751958969265e-06   1.062447345072387e-06
-1.139185575531361e-05   1.5142751958969265e-06   1.062447345072387e-06
-1.139185575531361e-05   1.5142751958969265e-06   1.062447345072387e-06
-6.637370820869542e-06   0.0   -5.953129094796246e-06
-6.637370820869542e-06   0.0   -5.953129094796246e-06
-6.637370820869542e-06   0.0   -5.953129094796246e-06
-6.637370820869542e-06   0.0   -5.953129094796246e-06
-8.828467917471296e-06   8.120865231746842e-07   -2.788552514364787e-06
-8.828467917471296e-06   8.120865231746842e-07   -2.788552514364787e-06
-8.828467917471296e-06   8.120865231746842e-07   -2.788552514364787e-06
-8.828467917471296e-06   8.120865231746842e-07   -2.788552514364787e-06
9.06096800960788e-06   -1.5127167944780566e-06   5.329427323182064e-06
9.06096800960788e-06   -1.5127167944780566e-06   5.329427323182064e-06
9.06096800960788e-06   -1.5127167944780566e-06   5.329427323182064e-06
9.06096800960788e-06   -1.5127167944780566e-06   5.329427323182064e-06
4.649787394960928e-06   -1.2053136020139313e-06   -1.8380984524177051e-06
4.649787394960928e-06   -1.2053136020139313e-06   -1.8380984524177051e-06
4.649787394960928e-06   -1.2053136020139313e-06   -1.8380984524177051e-06
4.649787394960928e-06   -1.2053136020139313e-06   -1.8380984524177051e-06
4.543286135188667e-06   -1.550696592307881e-06   4.6606230878164766e-06
4.543286135188667e-06   -1.550696592307881e-06   4.6606230878164766e-06
4.543286135188667e-06   -1.550696592307881e-06   4.6606230878164766e-06
4.543286135188667e-06   -1.550696592307881e-06   4.6606230878164766e-06
8.978572636545644e-06   -1.3177853823206757e-06   -2.8712678071041196e-06
8.978572636545644e-06   -1.3177853823206757e-06   -2.8712678071041196e-06
8.978572636545644e-06   -1.3177853823206757e-06   -2.8712678071041196e-06
8.978572636545644e-06   -1.3177853823206757e-06   -2.8712678071041196e-06
6.52699975816411e-06   -1.324801016658252e-06   1.2188963708009769e-06
6.52699975816411e-06   -1.324801016658252e-06   1.2188963708009769e-06
6.52699975816411e-06   -1.324801016658252e-06   1.2188963708009769e-06
6.52699975816411e-06   -1.324801016658252e-06   1.2188963708009769e-06
8.978572636545644e-06   -1.550696592307881e-06   4.520876361824164e-06
8.978572636545644e-06   -1.550696592307881e-06   4.520876361824164e-06
8.978572636545644e-06   -1.550696592307881e-06   4.520876361824164e-06
8.978572636545644e-06   -1.550696592307881e-06   4.520876361824164e-06
4.543286135188667e-06   -1.3177853823206757e-06   -2.7315210811118106e-06
4.543286135188667e-06   -1.3177853823206757e-06   -2.7315210811118106e-06
4.543286135188667e-06   -1.3177853823206757e-06   -2.7315210811118106e-06
4.543286135188667e-06   -1.3177853823206757e-06   -2.7315210811118106e-06
4.445960767300376e-06   -1.5340213242102225e-06   4.16107299689068e-06
4.445960767300376e-06   -1.5340213242102225e-06   4.16107299689068e-06
4.445960767300376e-06   -1.5340213242102225e-06   4.16107299689068e-06
4.445960767300376e-06   -1.5340213242102225e-06   4.16107299689068e-06
8.879506581200991e-06   -1.325132808774874e-06   -3.3535031355382032e-06
8.879506581200991e-06   -1.325132808774874e-06   -3.3535031355382032e-06
8.879506581200991e-06   -1.325132808774874e-06   -3.3535031355382032e-06
8.879506581200991e-06   -1.325132808774874e-06   -3.3535031355382032e-06
6.534406835150027e-06   -1.3481399102231381e-06   5.688007020823271e-07
6.534406835150027e-06   -1.3481399102231381e-06   5.688007020823271e-07
6.534406835150027e-06   -1.3481399102231381e-06   5.688007020823271e-07
6.534406835150027e-06   -1.3481399102231381e-06   5.688007020823271e-07
8.879506581201008e-06   -1.5340213242102225e-06   4.0357398876294875e-06
8.879506581201008e-06   -1.5340213242102225e-06   4.0357398876294875e-06
8.879506581201008e-06   -1.5340213242102225e-06   4.0357398876294875e-06
8.879506581201008e-06   -1.5340213242102225e-06   4.0357398876294875e-06
4.445960767300376e-06   -1.325132808774874e-06   -3.228170026277024e-06
4.445960767300376e-06   -1.325132808774874e-06   -3.228170026277024e-06
4.445960767300376e-06   -1.325132808774874e-06   -3.228170026277024e-06
4.445960767300376e-06   -1.325132808774874e-06   -3.228170026277024e-06
4.326690905273655e-06   -1.4410482882852376e-06   3.3482279243022574e-06
4.326690905273655e-06   -1.4410482882852376e-06   3.3482279243022574e-06
4.326690905273655e-06   -1.4410482882852376e-06   3.3482279243022574e-06
4.326690905273655e-06   -1.4410482882852376e-06   3.3482279243022574e-06
8.723940912378118e-06   -1.2872737830111713e-06   -4.0727867907029195e-06
8.723940912378118e-06   -1.2872737830111713e-06   -4.0727867907029195e-06
8.723940912378118e-06   -1.2872737830111713e-06   -4.0727867907029195e-06
8.723940912378118e-06   -1.2872737830111713e-06   -4.0727867907029195e-06
6.3224366114737275e-06   -1.2808444096771513e-06   -7.413724652940794e-08
6.3224366114737275e-06   -1.2808444096771513e-06   -7.413724652940794e-08
6.3224366114737275e-06   -1.2808444096771513e-06   -7.413724652940794e-08
6.3224366114737275e-06   -1.2808444096771513e-06   -7.413724652940794e-08
4.649787394960928e-06   -1.4195104753586063e-06   3.9117807594310624e-06
4.649787394960928e-06   -1.4195104753586063e-06   3.9117807594310624e-06
4.649787394960928e-06   -1.4195104753586063e-06   3.9117807594310624e-06
4.649787394960928e-06   -1.4195104753586063e-06   3.9117807594310624e-06
8.452105816074591e-07   -6.998128690766298e-07   -1.997362032388851e-06
8.452105816074591e-07   -6.998128690766298e-07   -1.997362032388851e-06
8.452105816074591e-07   -6.998128690766298e-07   -1.997362032388851e-06
8.452105816074591e-07   -6.998128690766298e-07   -1.997362032388851e-06
6.76891077708665e-07   -1.4070200157501067e-06   4.408462598360377e-06
6.76891077708665e-07   -1.4070200157501067e-06   4.408462598360377e-06
6.76891077708665e-07   -1.4070200157501067e-06   4.408462598360377e-06
6.76891077708665e-07   -1.4070200157501067e-06   4.408462598360377e-06
4.543286135188667e-06   -7.390800437454838e-07   -2.436293147309055e-06
4.543286135188667e-06   -7.390800437454838e-07   -2.436293147309055e-06
4.543286135188667e-06   -7.390800437454838e-07   -2.436293147309055e-06
4.543286135188667e-06   -7.390800437454838e-07   -2.436293147309055e-06
2.672961124071805e-06   -1.026091179049391e-06   8.531218857347274e-07
2.672961124071805e-06   -1.026091179049391e-06   8.531218857347274e-07
2.672961124071805e-06   -1.026091179049391e-06   8.531218857347274e-07
2.672961124071805e-06   -1.026091179049391e-06   8.531218857347274e-07
4.54328613518867e-06   -1.4070200157501067e-06   4.007698615157631e-06
4.54328613518867e-06   -1.4070200157501067e-06   4.007698615157631e-06
4.54328613518867e-06   -1.4070200157501067e-06   4.007698615157631e-06
4.54328613518867e-06   -1.4070200157501067e-06   4.007698615157631e-06
6.76891077708665e-07   -7.390800437454838e-07   -2.035529164106281e-06
6.76891077708665e-07   -7.390800437454838e-07   -2.035529164106281e-06
6.76891077708665e-07   -7.390800437454838e-07   -2.035529164106281e-06
6.76891077708665e-07   -7.390800437454838e-07   -2.035529164106281e-06
5.55260869815042e-07   -1.3811162437820214e-06   4.396793037753023e-06
5.55260869815042e-07   -1.3811162437820214e-06   4.396793037753023e-06
5.55260869815042e-07   -1.3811162437820214e-06   4.396793037753023e-06
5.55260869815042e-07   -1.3811162437820214e-06   4.396793037753023e-06
4.445960767300376e-06   -7.525378763859774e-07   -2.464853811826862e-06
4.445960767300376e-06   -7.525378763859774e-07   -2.464853811826862e-06
4.445960767300376e-06   -7.525378763859774e-07   -2.464853811826862e-06
4.445960767300376e-06   -7.525378763859774e-07   -2.464853811826862e-06
2.5248628836539453e-06   -1.002015503025731e-06   8.866625702344679e-07
2.5248628836539453e-06   -1.002015503025731e-06   8.866625702344679e-07
2.5248628836539453e-06   -1.002015503025731e-06   8.866625702344679e-07
2.5248628836539453e-06   -1.002015503025731e-06   8.866625702344679e-07
4.445960767300382e-06   -1.3811162437820214e-06   4.01964601731537e-06
4.445960767300382e-06   -1.3811162437820214e-06   4.01964601731537e-06
4.445960767300382e-06   -1.3811162437820214e-06   4.01964601731537e-06
4.445960767300382e-06   -1.3811162437820214e-06   4.01964601731537e-06
5.55260869815042e-07   -7.525378763859774e-07   -2.087706791389205e-06
5.55260869815042e-07   -7.525378763859774e-07   -2.087706791389205e-06
5.55260869815042e-07   -7.525378763859774e-07   -2.087706791389205e-06
5.55260869815042e-07   -7.525378763859774e-07   -2.087706791389205e-06
4.2061812397754933e-07   -1.3339130961050288e-06   4.519479902529664e-06
4.2061812397754933e-07   -1.3339130961050288e-06   4.519479902529664e-06
4.2061812397754933e-07   -1.3339130961050288e-06   4.519479902529664e-06
4.2061812397754933e-07   -1.3339130961050288e-06   4.519479902529664e-06
4.326690905273652e-06   -7.284428113948894e-07   -2.3539235704566094e-06
4.326690905273652e-06   -7.284428113948894e-07   -2.3539235704566094e-06
4.326690905273652e-06   -7.284428113948894e-07   -2.3539235704566094e-06
4.326690905273652e-06   -7.284428113948894e-07   -2.3539235704566094e-06
2.437446349968363e-06   -9.525333887354967e-07   9.292717014565985e-07
2.437446349968363e-06   -9.525333887354967e-07   9.292717014565985e-07
2.437446349968363e-06   -9.525333887354967e-07   9.292717014565985e-07
2.437446349968363e-06   -9.525333887354967e-07   9.292717014565985e-07
8.452105816074591e-07   -1.6084870864230098e-06   3.96650009893993e-06
8.452105816074591e-07   -1.6084870864230098e-06   3.96650009893993e-06
8.452105816074591e-07   -1.6084870864230098e-06   3.96650009893993e-06
8.452105816074591e-07   -1.6084870864230098e-06   3.96650009893993e-06
-2.819964596617277e-06   -2.241007558364573e-07   -1.3114933997493221e-06
-2.819964596617277e-06   -2.241007558364573e-07   -1.3114933997493221e-06
-2.819964596617277e-06   -2.241007558364573e-07   -1.3114933997493221e-06
-2.819964596617277e-06   -2.241007558364573e-07   -1.3114933997493221e-06
-3.0806037310295495e-06   -1.6360755638549873e-06   5.012756881956211e-06
-3.0806037310295495e-06   -1.6360755638549873e-06   5.012756881956211e-06
-3.0806037310295495e-06   -1.6360755638549873e-06   5.012756881956211e-06
-3.0806037310295495e-06   -1.6360755638549873e-06   5.012756881956211e-06
6.768910777086684e-07   -2.3440873412109136e-07   -2.0907345637811552e-06
6.768910777086684e-07   -2.3440873412109136e-07   -2.0907345637811552e-06
6.768910777086684e-07   -2.3440873412109136e-07   -2.0907345637811552e-06
6.768910777086684e-07   -2.3440873412109136e-07   -2.0907345637811552e-06
-1.0659566639692976e-06   -8.941226469081276e-07   1.2098400200209985e-06
-1.0659566639692976e-06   -8.941226469081276e-07   1.2098400200209985e-06
-1.0659566639692976e-06   -8.941226469081276e-07   1.2098400200209985e-06
-1.0659566639692976e-06   -8.941226469081276e-07   1.2098400200209985e-06
6.76891077708665e-07   -1.6360755638549873e-06   4.171756784115868e-06
6.76891077708665e-07   -1.6360755638549873e-06   4.171756784115868e-06
6.76891077708665e-07   -1.6360755638549873e-06   4.171756784115868e-06
6.76891077708665e-07   -1.6360755638549873e-06   4.171756784115868e-06
-3.0806037310295444e-06   -2.3440873412109136e-07   -1.2497344659408258e-06
-3.0806037310295444e-06   -2.3440873412109136e-07   -1.2497344659408258e-06
-3.0806037310295444e-06   -2.3440873412109136e-07   -1.2497344659408258e-06
-3.0806037310295444e-06   -2.3440873412109136e-07   -1.2497344659408258e-06
-3.2425619367813804e-06   -1.618790037285914e-06   5.194331716115437e-06
-3.2425619367813804e-06   -1.618790037285914e-06   5.194331716115437e-06
-3.2425619367813804e-06   -1.618790037285914e-06   5.194331716115437e-06
-3.2425619367813804e-06   -1.618790037285914e-06   5.194331716115437e-06
5.55260869815042e-07   -2.481146181723226e-07   -1.9577782130134007e-06
5.55260869815042e-07   -2.481146181723226e-07   -1.9577782130134007e-06
5.55260869815042e-07   -2.481146181723226e-07   -1.9577782130134007e-06
5.55260869815042e-07   -2.481146181723226e-07   -1.9577782130134007e-06
-1.2436942760426206e-06   -8.840124502756063e-07   1.422019062678005e-06
-1.2436942760426206e-06   -8.840124502756063e-07   1.422019062678005e-06
-1.2436942760426206e-06   -8.840124502756063e-07   1.422019062678005e-06
-1.2436942760426206e-06   -8.840124502756063e-07   1.422019062678005e-06
5.55260869815042e-07   -1.6187900372858599e-06   4.371926464647298e-06
5.55260869815042e-07   -1.6187900372858599e-06   4.371926464647298e-06
5.55260869815042e-07   -1.6187900372858599e-06   4.371926464647298e-06
5.55260869815042e-07   -1.6187900372858599e-06   4.371926464647298e-06
-3.2425619367813736e-06   -2.481146181723226e-07   -1.1353729615452553e-06
-3.2425619367813736e-06   -2.481146181723226e-07   -1.1353729615452553e-06
-3.2425619367813736e-06   -2.481146181723226e-07   -1.1353729615452553e-06
-3.2425619367813736e-06   -2.481146181723226e-07   -1.1353729615452553e-06
-3.429892966057257e-06   -1.550745050222862e-06   5.425067718275496e-06
-3.429892966057257e-06   -1.550745050222862e-06   5.425067718275496e-06
-3.429892966057257e-06   -1.550745050222862e-06   5.425067718275496e-06
-3.429892966057257e-06   -1.550745050222862e-06   5.425067718275496e-06
4.2061812397754933e-07   -2.409101315797315e-07   -1.7783517163017084e-06
4.2061812397754933e-07   -2.409101315797315e-07   -1.7783517163017084e-06
4.2061812397754933e-07   -2.409101315797315e-07   -1.7783517163017084e-06
4.2061812397754933e-07   -2.409101315797315e-07   -1.7783517163017084e-06
-1.389793112492006e-06   -8.391579869228435e-07   1.5979490576867328e-06
-1.389793112492006e-06   -8.391579869228435e-07   1.5979490576867328e-06
-1.389793112492006e-06   -8.391579869228435e-07   1.5979490576867328e-06
-1.389793112492006e-06   -8.391579869228435e-07   1.5979490576867328e-06
-2.8199645966172803e-06   -1.9040460282144438e-06   4.727704515627258e-06
-2.8199645966172803e-06   -1.9040460282144438e-06   4.727704515627258e-06
-2.8199645966172803e-06   -1.9040460282144438e-06   4.727704515627258e-06
-2.8199645966172803e-06   -1.9040460282144438e-06   4.727704515627258e-06
-6.914857369100964e-06   4.415089378569234e-07   -6.89783792202724e-07
-6.914857369100964e-06   4.415089378569234e-07   -6.89783792202724e-07
-6.914857369100964e-06   4.415089378569234e-07   -6.89783792202724e-07
-6.914857369100964e-06   4.415089378569234e-07   -6.89783792202724e-07
-7.237945325822931e-06   -2.1674921274003763e-06   6.5953825477015244e-06
-7.237945325822931e-06   -2.1674921274003763e-06   6.5953825477015244e-06
-7.237945325822931e-06   -2.1674921274003763e-06   6.5953825477015244e-06
-7.237945325822931e-06   -2.1674921274003763e-06   6.5953825477015244e-06
-3.0806037310295444e-06   4.333660948942957e-07   -1.894035043664235e-06
-3.0806037310295444e-06   4.333660948942957e-07   -1.894035043664235e-06
-3.0806037310295444e-06   4.333660948942957e-07   -1.894035043664235e-06
-3.0806037310295444e-06   4.333660948942957e-07   -1.894035043664235e-06
-4.949753616268404e-06   -6.993744537224793e-07   1.9008590942372284e-06
-4.949753616268404e-06   -6.993744537224793e-07   1.9008590942372284e-06
-4.949753616268404e-06   -6.993744537224793e-07   1.9008590942372284e-06
-4.949753616268404e-06   -6.993744537224793e-07   1.9008590942372284e-06
-3.0806037310295495e-06   -2.1674921274003763e-06   5.0348676143247375e-06
-3.0806037310295495e-06   -2.1674921274003763e-06   5.0348676143247375e-06
-3.0806037310295495e-06   -2.1674921274003763e-06   5.0348676143247375e-06
-3.0806037310295495e-06   -2.1674921274003763e-06   5.0348676143247375e-06
-7.237945325822931e-06   4.3336609489424147e-07   -3.335201102874514e-07
-7.237945325822931e-06   4.3336609489424147e-07   -3.335201102874514e-07
-7.237945325822931e-06   4.3336609489424147e-07   -3.335201102874514e-07
-7.237945325822931e-06   4.3336609489424147e-07   -3.335201102874514e-07
-7.432904205235111e-06   -2.1698369811353857e-06   6.977434224005058e-06
-7.432904205235111e-06   -2.1698369811353857e-06   6.977434224005058e-06
-7.432904205235111e-06   -2.1698369811353857e-06   6.977434224005058e-06
-7.432904205235111e-06   -2.1698369811353857e-06   6.977434224005058e-06
-3.2425619367813736e-06   4.0571503521005803e-07   -1.5518007665584316e-06
-3.2425619367813736e-06   4.0571503521005803e-07   -1.5518007665584316e-06
-3.2425619367813736e-06   4.0571503521005803e-07   -1.5518007665584316e-06
-3.2425619367813736e-06   4.0571503521005803e-07   -1.5518007665584316e-06
-5.152914644924441e-06   -8.383016106672898e-07   2.378530401206432e-06
-5.152914644924441e-06   -8.383016106672898e-07   2.378530401206432e-06
-5.152914644924441e-06   -8.383016106672898e-07   2.378530401206432e-06
-5.152914644924441e-06   -8.383016106672898e-07   2.378530401206432e-06
-3.242561936781372e-06   -2.1698369811353857e-06   5.43210301419777e-06
-3.242561936781372e-06   -2.1698369811353857e-06   5.43210301419777e-06
-3.242561936781372e-06   -2.1698369811353857e-06   5.43210301419777e-06
-3.242561936781372e-06   -2.1698369811353857e-06   5.43210301419777e-06
-7.432904205235098e-06   4.0571503521005803e-07   -6.4695567511606315e-09
-7.432904205235098e-06   4.0571503521005803e-07   -6.4695567511606315e-09
-7.432904205235098e-06   4.0571503521005803e-07   -6.4695567511606315e-09
-7.432904205235098e-06   4.0571503521005803e-07   -6.4695567511606315e-09
-7.645233413255741e-06   -1.922101785178118e-06   7.126511508339116e-06
-7.645233413255741e-06   -1.922101785178118e-06   7.126511508339116e-06
-7.645233413255741e-06   -1.922101785178118e-06   7.126511508339116e-06
-7.645233413255741e-06   -1.922101785178118e-06   7.126511508339116e-06
-3.429892966057247e-06   3.727661220186921e-07   -1.2759766479764645e-06
-3.429892966057247e-06   3.727661220186921e-07   -1.2759766479764645e-06
-3.429892966057247e-06   3.727661220186921e-07   -1.2759766479764645e-06
-3.429892966057247e-06   3.727661220186921e-07   -1.2759766479764645e-06
-5.370349215090496e-06   -8.382635822835709e-07   2.684734922993735e-06
-5.370349215090496e-06   -8.382635822835709e-07   2.684734922993735e-06
-5.370349215090496e-06   -8.382635822835709e-07   2.684734922993735e-06
-5.370349215090496e-06   -8.382635822835709e-07   2.684734922993735e-06
-6.91485736910094e-06   0.0   5.082385525778161e-06
-6.91485736910094e-06   0.0   5.082385525778161e-06
-6.91485736910094e-06   0.0   5.082385525778161e-06
-6.91485736910094e-06   0.0   5.082385525778161e-06
-1.1944347197639658e-05   1.5930653551295484e-06   -2.344258308708641e-06
-1.1944347197639658e-05   1.5930653551295484e-06   -2.344258308708641e-06
-1.1944347197639658e-05   1.5930653551295484e-06   -2.344258308708641e-06
-1.1944347197639658e-05   1.5930653551295484e-06   -2.344258308708641e-06
-1.2371269832292153e-05   0.0   7.655748785597864e-06
-1.2371269832292153e-05   0.0   7.655748785597864e-06
-1.2371269832292153e-05   0.0   7.655748785597864e-06
-1.2371269832292153e-05   0.0   7.655748785597864e-06
-7.237945325822918e-06   1.5598401786717417e-06   -1.8356961657206298e-06
-7.237945325822918e-06   1.5598401786717417e-06   -1.8356961657206298e-06
-7.237945325822918e-06   1.5598401786717417e-06   -1.8356961657206298e-06
-7.237945325822918e-06   1.5598401786717417e-06   -1.8356961657206298e-06
-9.210728025689296e-06   9.43537230385118e-07   1.8220567696953193e-06
-9.210728025689296e-06   9.43537230385118e-07   1.8220567696953193e-06
-9.210728025689296e-06   9.43537230385118e-07   1.8220567696953193e-06
-9.210728025689296e-06   9.43537230385118e-07   1.8220567696953193e-06
-7.237945325822911e-06   0.0   6.719844678394803e-06
-7.237945325822911e-06   0.0   6.719844678394803e-06
-7.237945325822911e-06   0.0   6.719844678394803e-06
-7.237945325822911e-06   0.0   6.719844678394803e-06
-1.2371269832292175e-05   1.5598401786717417e-06   -8.997920585175482e-07
-1.2371269832292175e-05   1.5598401786717417e-06   -8.997920585175482e-07
-1.2371269832292175e-05   1.5598401786717417e-06   -8.997920585175482e-07
-1.2371269832292175e-05   1.5598401786717417e-06   -8.997920585175482e-07
-1.258398935346122e-05   0.0   8.5537580101005e-06
-1.258398935346122e-05   0.0   8.5537580101005e-06
-1.258398935346122e-05   0.0   8.5537580101005e-06
-1.258398935346122e-05   0.0   8.5537580101005e-06
-7.432904205235098e-06   1.5281104603061474e-06   -9.48250179793418e-07
-7.432904205235098e-06   1.5281104603061474e-06   -9.48250179793418e-07
-7.432904205235098e-06   1.5281104603061474e-06   -9.48250179793418e-07
-7.432904205235098e-06   1.5281104603061474e-06   -9.48250179793418e-07
-9.646629402668651e-06   7.93989062606356e-07   3.1817646545491337e-06
-9.646629402668651e-06   7.93989062606356e-07   3.1817646545491337e-06
-9.646629402668651e-06   7.93989062606356e-07   3.1817646545491337e-06
-9.646629402668651e-06   7.93989062606356e-07   3.1817646545491337e-06
-7.432904205235098e-06   0.0   7.636891733916817e-06
-7.432904205235098e-06   0.0   7.636891733916817e-06
-7.432904205235098e-06   0.0   7.636891733916817e-06
-7.432904205235098e-06   0.0   7.636891733916817e-06
-1.2583989353461264e-05   1.5281104603060932e-06   -3.13839036097214e-08
-1.2583989353461264e-05   1.5281104603060932e-06   -3.13839036097214e-08
-1.2583989353461264e-05   1.5281104603060932e-06   -3.13839036097214e-08
-1.2583989353461264e-05   1.5281104603060932e-06   -3.13839036097214e-08
-1.2812086978114048e-05   0.0   9.74664287281123e-06
-1.2812086978114048e-05   0.0   9.74664287281123e-06
-1.2812086978114048e-05   0.0   9.74664287281123e-06
-1.2812086978114048e-05   0.0   9.74664287281123e-06
-7.645233413255741e-06   1.3073344490419536e-06   3.508195952888621e-07
-7.645233413255741e-06   1.3073344490419536e-06   3.508195952888621e-07
-7.645233413255741e-06   1.3073344490419536e-06   3.508195952888621e-07
-7.645233413255741e-06   1.3073344490419536e-06   3.508195952888621e-07
-9.696065176205971e-06   5.735970172214902e-07   4.209114992631573e-06
-9.696065176205971e-06   5.735970172214902e-07   4.209114992631573e-06
-9.696065176205971e-06   5.735970172214902e-07   4.209114992631573e-06
-9.696065176205971e-06   5.735970172214902e-07   4.209114992631573e-06
8.14248805203835e-06   -1.2053136020139313e-06   5.629245596551447e-06
8.14248805203835e-06   -1.2053136020139313e-06   5.629245596551447e-06
8.14248805203835e-06   -1.2053136020139313e-06   5.629245596551447e-06
8.14248805203835e-06   -1.2053136020139313e-06   5.629245596551447e-06
4.08208324375372e-06   -9.416026021793816e-07   -9.79869150688885e-07
4.08208324375372e-06   -9.416026021793816e-07   -9.79869150688885e-07
4.08208324375372e-06   -9.416026021793816e-07   -9.79869150688885e-07
4.08208324375372e-06   -9.416026021793816e-07   -9.79869150688885e-07
3.98444870288299e-06   -1.3177853823206757e-06   4.8800221122536995e-06
3.98444870288299e-06   -1.3177853823206757e-06   4.8800221122536995e-06
3.98444870288299e-06   -1.3177853823206757e-06   4.8800221122536995e-06
3.98444870288299e-06   -1.3177853823206757e-06   4.8800221122536995e-06
7.97259238699286e-06   -1.0584849881171737e-06   -1.9224642644515403e-06
7.97259238699286e-06   -1.0584849881171737e-06   -1.9224642644515403e-06
7.97259238699286e-06   -1.0584849881171737e-06   -1.9224642644515403e-06
7.97259238699286e-06   -1.0584849881171737e-06   -1.9224642644515403e-06
5.776288119871498e-06   -1.0881794580010315e-06   1.7558595293477473e-06
5.776288119871498e-06   -1.0881794580010315e-06   1.7558595293477473e-06
5.776288119871498e-06   -1.0881794580010315e-06   1.7558595293477473e-06
5.776288119871498e-06   -1.0881794580010315e-06   1.7558595293477473e-06
7.972592386992847e-06   -1.3177853823206757e-06   4.724441875731593e-06
7.972592386992847e-06   -1.3177853823206757e-06   4.724441875731593e-06
7.972592386992847e-06   -1.3177853823206757e-06   4.724441875731593e-06
7.972592386992847e-06   -1.3177853823206757e-06   4.724441875731593e-06
3.9844487028829965e-06   -1.0584849881171737e-06   -1.7668840279294151e-06
3.9844487028829965e-06   -1.0584849881171737e-06   -1.7668840279294151e-06
3.9844487028829965e-06   -1.0584849881171737e-06   -1.7668840279294151e-06
3.9844487028829965e-06   -1.0584849881171737e-06   -1.7668840279294151e-06
3.858837618349043e-06   -1.325132808774874e-06   4.359845380797731e-06
3.858837618349043e-06   -1.325132808774874e-06   4.359845380797731e-06
3.858837618349043e-06   -1.325132808774874e-06   4.359845380797731e-06
3.858837618349043e-06   -1.325132808774874e-06   4.359845380797731e-06
7.798700023266533e-06   -1.0737603330363671e-06   -2.3574154461745286e-06
7.798700023266533e-06   -1.0737603330363671e-06   -2.3574154461745286e-06
7.798700023266533e-06   -1.0737603330363671e-06   -2.3574154461745286e-06
7.798700023266533e-06   -1.0737603330363671e-06   -2.3574154461745286e-06
5.7387254796261416e-06   -1.1336519439793832e-06   1.1118104264585366e-06
5.7387254796261416e-06   -1.1336519439793832e-06   1.1118104264585366e-06
5.7387254796261416e-06   -1.1336519439793832e-06   1.1118104264585366e-06
5.7387254796261416e-06   -1.1336519439793832e-06   1.1118104264585366e-06
7.798700023266533e-06   -1.325132808774874e-06   4.209021895354643e-06
7.798700023266533e-06   -1.325132808774874e-06   4.209021895354643e-06
7.798700023266533e-06   -1.325132808774874e-06   4.209021895354643e-06
7.798700023266533e-06   -1.325132808774874e-06   4.209021895354643e-06
3.858837618349043e-06   -1.0737603330363671e-06   -2.206591960731422e-06
3.858837618349043e-06   -1.0737603330363671e-06   -2.206591960731422e-06
3.858837618349043e-06   -1.0737603330363671e-06   -2.206591960731422e-06
3.858837618349043e-06   -1.0737603330363671e-06   -2.206591960731422e-06
3.7262847116511442e-06   -1.2872737830112255e-06   3.580386559028781e-06
3.7262847116511442e-06   -1.2872737830112255e-06   3.580386559028781e-06
3.7262847116511442e-06   -1.2872737830112255e-06   3.580386559028781e-06
3.7262847116511442e-06   -1.2872737830112255e-06   3.580386559028781e-06
7.580388818549341e-06   -1.057646264815968e-06   -2.980896796718685e-06
7.580388818549341e-06   -1.057646264815968e-06   -2.980896796718685e-06
7.580388818549341e-06   -1.057646264815968e-06   -2.980896796718685e-06
7.580388818549341e-06   -1.057646264815968e-06   -2.980896796718685e-06
5.499978139093331e-06   -1.1008598862602588e-06   5.123825085746712e-07
5.499978139093331e-06   -1.1008598862602588e-06   5.123825085746712e-07
5.499978139093331e-06   -1.1008598862602588e-06   5.123825085746712e-07
5.499978139093331e-06   -1.1008598862602588e-06   5.123825085746712e-07
4.082083243753725e-06   -6.998128690766841e-07   5.1963900527118455e-06
4.082083243753725e-06   -6.998128690766841e-07   5.1963900527118455e-06
4.082083243753725e-06   -6.998128690766841e-07   5.1963900527118455e-06
4.082083243753725e-06   -6.998128690766841e-07   5.1963900527118455e-06
3.602746471205097e-07   -3.208832297743082e-07   -7.792664914287647e-07
3.602746471205097e-07   -3.208832297743082e-07   -7.792664914287647e-07
3.602746471205097e-07   -3.208832297743082e-07   -7.792664914287647e-07
3.602746471205097e-07   -3.208832297743082e-07   -7.792664914287647e-07
2.622615839910083e-07   -7.390800437454838e-07   5.389708980949482e-06
2.622615839910083e-07   -7.390800437454838e-07   5.389708980949482e-06
2.622615839910083e-07   -7.390800437454838e-07   5.389708980949482e-06
2.622615839910083e-07   -7.390800437454838e-07   5.389708980949482e-06
3.9844487028829965e-06   -3.8164848559045766e-07   -1.0283951520968594e-06
3.9844487028829965e-06   -3.8164848559045766e-07   -1.0283951520968594e-06
3.9844487028829965e-06   -3.8164848559045766e-07   -1.0283951520968594e-06
3.9844487028829965e-06   -3.8164848559045766e-07   -1.0283951520968594e-06
2.150885179546103e-06   -4.992161430846008e-07   2.098084647961091e-06
2.150885179546103e-06   -4.992161430846008e-07   2.098084647961091e-06
2.150885179546103e-06   -4.992161430846008e-07   2.098084647961091e-06
2.150885179546103e-06   -4.992161430846008e-07   2.098084647961091e-06
3.984448702882993e-06   -7.390800437454838e-07   5.175250046056428e-06
3.984448702882993e-06   -7.390800437454838e-07   5.175250046056428e-06
3.984448702882993e-06   -7.390800437454838e-07   5.175250046056428e-06
3.984448702882993e-06   -7.390800437454838e-07   5.175250046056428e-06
2.622615839910083e-07   -3.8164848559045766e-07   -8.139362172038397e-07
2.622615839910083e-07   -3.8164848559045766e-07   -8.139362172038397e-07
2.622615839910083e-07   -3.8164848559045766e-07   -8.139362172038397e-07
2.622615839910083e-07   -3.8164848559045766e-07   -8.139362172038397e-07
1.3824692640481396e-07   -7.525378763859774e-07   5.323475207359523e-06
1.3824692640481396e-07   -7.525378763859774e-07   5.323475207359523e-06
1.3824692640481396e-07   -7.525378763859774e-07   5.323475207359523e-06
1.3824692640481396e-07   -7.525378763859774e-07   5.323475207359523e-06
3.858837618349043e-06   -4.186818561999423e-07   -1.07782289132582e-06
3.858837618349043e-06   -4.186818561999423e-07   -1.07782289132582e-06
3.858837618349043e-06   -4.186818561999423e-07   -1.07782289132582e-06
3.858837618349043e-06   -4.186818561999423e-07   -1.07782289132582e-06
2.0247847757933285e-06   -5.20723995505964e-07   2.0401571298507576e-06
2.0247847757933285e-06   -5.20723995505964e-07   2.0401571298507576e-06
2.0247847757933285e-06   -5.20723995505964e-07   2.0401571298507576e-06
2.0247847757933285e-06   -5.20723995505964e-07   2.0401571298507576e-06
3.858837618349036e-06   -7.525378763859232e-07   5.123161595247869e-06
3.858837618349036e-06   -7.525378763859232e-07   5.123161595247869e-06
3.858837618349036e-06   -7.525378763859232e-07   5.123161595247869e-06
3.858837618349036e-06   -7.525378763859232e-07   5.123161595247869e-06
1.3824692640481396e-07   -4.186818561999423e-07   -8.775092792142171e-07
1.3824692640481396e-07   -4.186818561999423e-07   -8.775092792142171e-07
1.3824692640481396e-07   -4.186818561999423e-07   -8.775092792142171e-07
1.3824692640481396e-07   -4.186818561999423e-07   -8.775092792142171e-07
1.374725304509409e-09   -7.284428113948894e-07   5.385780831994606e-06
1.374725304509409e-09   -7.284428113948894e-07   5.385780831994606e-06
1.374725304509409e-09   -7.284428113948894e-07   5.385780831994606e-06
1.374725304509409e-09   -7.284428113948894e-07   5.385780831994606e-06
3.7262847116511425e-06   -4.304498849216822e-07   -1.0011982344670353e-06
3.7262847116511425e-06   -4.304498849216822e-07   -1.0011982344670353e-06
3.7262847116511425e-06   -4.304498849216822e-07   -1.0011982344670353e-06
3.7262847116511425e-06   -4.304498849216822e-07   -1.0011982344670353e-06
1.9265766342507896e-06   -5.118367088902923e-07   2.0471473222481127e-06
1.9265766342507896e-06   -5.118367088902923e-07   2.0471473222481127e-06
1.9265766342507896e-06   -5.118367088902923e-07   2.0471473222481127e-06
1.9265766342507896e-06   -5.118367088902923e-07   2.0471473222481127e-06
3.602746471205097e-07   -2.241007558364031e-07   5.278984670580857e-06
3.602746471205097e-07   -2.241007558364031e-07   5.278984670580857e-06
3.602746471205097e-07   -2.241007558364031e-07   5.278984670580857e-06
3.602746471205097e-07   -2.241007558364031e-07   5.278984670580857e-06
-3.2537653963204448e-06   3.098272698123187e-07   -4.240585864315313e-07
-3.2537653963204448e-06   3.098272698123187e-07   -4.240585864315313e-07
-3.2537653963204448e-06   3.098272698123187e-07   -4.240585864315313e-07
-3.2537653963204448e-06   3.098272698123187e-07   -4.240585864315313e-07
-3.364616070356605e-06   -2.3440873412109136e-07   5.6353653821048985e-06
-3.364616070356605e-06   -2.3440873412109136e-07   5.6353653821048985e-06
-3.364616070356605e-06   -2.3440873412109136e-07   5.6353653821048985e-06
-3.364616070356605e-06   -2.3440873412109136e-07   5.6353653821048985e-06
2.622615839910083e-07   2.670276005960464e-07   -7.1029250930474e-07
2.622615839910083e-07   2.670276005960464e-07   -7.1029250930474e-07
2.622615839910083e-07   2.670276005960464e-07   -7.1029250930474e-07
2.622615839910083e-07   2.670276005960464e-07   -7.1029250930474e-07
-1.4965906161330359e-06   5.222891605517104e-08   2.350007034959857e-06
-1.4965906161330359e-06   5.222891605517104e-08   2.350007034959857e-06
-1.4965906161330359e-06   5.222891605517104e-08   2.350007034959857e-06
-1.4965906161330359e-06   5.222891605517104e-08   2.350007034959857e-06
2.622615839910083e-07   -2.3440873412109136e-07   5.334503581274621e-06
2.622615839910083e-07   -2.3440873412109136e-07   5.334503581274621e-06
2.622615839910083e-07   -2.3440873412109136e-07   5.334503581274621e-06
2.622615839910083e-07   -2.3440873412109136e-07   5.334503581274621e-06
-3.364616070356605e-06   2.670276005960464e-07   -4.094307084744899e-07
-3.364616070356605e-06   2.670276005960464e-07   -4.094307084744899e-07
-3.364616070356605e-06   2.670276005960464e-07   -4.094307084744899e-07
-3.364616070356605e-06   2.670276005960464e-07   -4.094307084744899e-07
-3.510738194740946e-06   -2.481146181723226e-07   5.738602295272011e-06
-3.510738194740946e-06   -2.481146181723226e-07   5.738602295272011e-06
-3.510738194740946e-06   -2.481146181723226e-07   5.738602295272011e-06
-3.510738194740946e-06   -2.481146181723226e-07   5.738602295272011e-06
1.3824692640481396e-07   2.2721623105540975e-07   -6.282380828409191e-07
1.3824692640481396e-07   2.2721623105540975e-07   -6.282380828409191e-07
1.3824692640481396e-07   2.2721623105540975e-07   -6.282380828409191e-07
1.3824692640481396e-07   2.2721623105540975e-07   -6.282380828409191e-07
-1.6052611508103365e-06   4.277293394933145e-08   2.388274690781316e-06
-1.6052611508103365e-06   4.277293394933145e-08   2.388274690781316e-06
-1.6052611508103365e-06   4.277293394933145e-08   2.388274690781316e-06
-1.6052611508103365e-06   4.277293394933145e-08   2.388274690781316e-06
1.3824692640481396e-07   -2.481146181723226e-07   5.453403785735334e-06
1.3824692640481396e-07   -2.481146181723226e-07   5.453403785735334e-06
1.3824692640481396e-07   -2.481146181723226e-07   5.453403785735334e-06
1.3824692640481396e-07   -2.481146181723226e-07   5.453403785735334e-06
-3.5107381947409425e-06   2.2721623105540975e-07   -3.4303957330424854e-07
-3.5107381947409425e-06   2.2721623105540975e-07   -3.4303957330424854e-07
-3.5107381947409425e-06   2.2721623105540975e-07   -3.4303957330424854e-07
-3.5107381947409425e-06   2.2721623105540975e-07   -3.4303957330424854e-07
-3.6663576381040665e-06   -2.4091013157967727e-07   5.86229343525261e-06
-3.6663576381040665e-06   -2.4091013157967727e-07   5.86229343525261e-06
-3.6663576381040665e-06   -2.4091013157967727e-07   5.86229343525261e-06
-3.6663576381040665e-06   -2.4091013157967727e-07   5.86229343525261e-06
1.374725304509409e-09   1.9946140163552926e-07   -5.148167570241814e-07
1.374725304509409e-09   1.9946140163552926e-07   -5.148167570241814e-07
1.374725304509409e-09   1.9946140163552926e-07   -5.148167570241814e-07
1.374725304509409e-09   1.9946140163552926e-07   -5.148167570241814e-07
-1.7428765619397152e-06   3.739901663878109e-08   2.489506152714396e-06
-1.7428765619397152e-06   3.739901663878109e-08   2.489506152714396e-06
-1.7428765619397152e-06   3.739901663878109e-08   2.489506152714396e-06
-1.7428765619397152e-06   3.739901663878109e-08   2.489506152714396e-06
-3.2537653963204346e-06   4.415089378569234e-07   4.813718113873809e-06
-3.2537653963204346e-06   4.415089378569234e-07   4.813718113873809e-06
-3.2537653963204346e-06   4.415089378569234e-07   4.813718113873809e-06
-3.2537653963204346e-06   4.415089378569234e-07   4.813718113873809e-06
-6.8230691891898886e-06   9.771699007695474e-07   -8.137249631610434e-07
-6.8230691891898886e-06   9.771699007695474e-07   -8.137249631610434e-07
-6.8230691891898886e-06   9.771699007695474e-07   -8.137249631610434e-07
-6.8230691891898886e-06   9.771699007695474e-07   -8.137249631610434e-07
-6.979224456995307e-06   4.3336609489424147e-07   5.292840321182758e-06
-6.979224456995307e-06   4.3336609489424147e-07   5.292840321182758e-06
-6.979224456995307e-06   4.3336609489424147e-07   5.292840321182758e-06
-6.979224456995307e-06   4.3336609489424147e-07   5.292840321182758e-06
-3.3646160703565916e-06   9.36325289563019e-07   -1.0332825066830268e-06
-3.3646160703565916e-06   9.36325289563019e-07   -1.0332825066830268e-06
-3.3646160703565916e-06   9.36325289563019e-07   -1.0332825066830268e-06
-3.3646160703565916e-06   9.36325289563019e-07   -1.0332825066830268e-06
-5.068517992861015e-06   7.034367619195014e-07   1.946287147410421e-06
-5.068517992861015e-06   7.034367619195014e-07   1.946287147410421e-06
-5.068517992861015e-06   7.034367619195014e-07   1.946287147410421e-06
-5.068517992861015e-06   7.034367619195014e-07   1.946287147410421e-06
-3.3646160703565983e-06   4.3336609489424147e-07   4.991064804381486e-06
-3.3646160703565983e-06   4.3336609489424147e-07   4.991064804381486e-06
-3.3646160703565983e-06   4.3336609489424147e-07   4.991064804381486e-06
-3.3646160703565983e-06   4.3336609489424147e-07   4.991064804381486e-06
-6.9792244569952965e-06   9.36325289563019e-07   -7.315069898817617e-07
-6.9792244569952965e-06   9.36325289563019e-07   -7.315069898817617e-07
-6.9792244569952965e-06   9.36325289563019e-07   -7.315069898817617e-07
-6.9792244569952965e-06   9.36325289563019e-07   -7.315069898817617e-07
-7.1724101485348235e-06   4.0571503521005803e-07   5.616738325550934e-06
-7.1724101485348235e-06   4.0571503521005803e-07   5.616738325550934e-06
-7.1724101485348235e-06   4.0571503521005803e-07   5.616738325550934e-06
-7.1724101485348235e-06   4.0571503521005803e-07   5.616738325550934e-06
-3.5107381947409425e-06   8.966547606969002e-07   -7.80612099397619e-07
-3.5107381947409425e-06   8.966547606969002e-07   -7.80612099397619e-07
-3.5107381947409425e-06   8.966547606969002e-07   -7.80612099397619e-07
-3.5107381947409425e-06   8.966547606969002e-07   -7.80612099397619e-07
-5.18117412306801e-06   6.983268705330675e-07   2.12244451524577e-06
-5.18117412306801e-06   6.983268705330675e-07   2.12244451524577e-06
-5.18117412306801e-06   6.983268705330675e-07   2.12244451524577e-06
-5.18117412306801e-06   6.983268705330675e-07   2.12244451524577e-06
-3.5107381947409357e-06   4.0571503521005803e-07   5.322174490258818e-06
-3.5107381947409357e-06   4.0571503521005803e-07   5.322174490258818e-06
-3.5107381947409357e-06   4.0571503521005803e-07   5.322174490258818e-06
-3.5107381947409357e-06   4.0571503521005803e-07   5.322174490258818e-06
-7.1724101485348235e-06   8.96654760696846e-07   -4.860482641055029e-07
-7.1724101485348235e-06   8.96654760696846e-07   -4.860482641055029e-07
-7.1724101485348235e-06   8.96654760696846e-07   -4.860482641055029e-07
-7.1724101485348235e-06   8.96654760696846e-07   -4.860482641055029e-07
-7.374773858918983e-06   3.727661220186921e-07   5.859805436202257e-06
-7.374773858918983e-06   3.727661220186921e-07   5.859805436202257e-06
-7.374773858918983e-06   3.727661220186921e-07   5.859805436202257e-06
-7.374773858918983e-06   3.727661220186921e-07   5.859805436202257e-06
-3.666357638104053e-06   8.411625950358655e-07   -6.019261489661966e-07
-3.666357638104053e-06   8.411625950358655e-07   -6.019261489661966e-07
-3.666357638104053e-06   8.411625950358655e-07   -6.019261489661966e-07
-3.666357638104053e-06   8.411625950358655e-07   -6.019261489661966e-07
-5.381706656274283e-06   6.676847820238224e-07   2.3610755691248916e-06
-5.381706656274283e-06   6.676847820238224e-07   2.3610755691248916e-06
-5.381706656274283e-06   6.676847820238224e-07   2.3610755691248916e-06
-5.381706656274283e-06   6.676847820238224e-07   2.3610755691248916e-06
-6.8230691891898886e-06   1.5930653551295484e-06   2.5248009620377208e-06
-6.8230691891898886e-06   1.5930653551295484e-06   2.5248009620377208e-06
-6.8230691891898886e-06   1.5930653551295484e-06   2.5248009620377208e-06
-6.8230691891898886e-06   1.5930653551295484e-06   2.5248009620377208e-06
-1.0276939063213269e-05   1.5892836574951446e-06   -3.233917846581888e-06
-1.0276939063213269e-05   1.5892836574951446e-06   -3.233917846581888e-06
-1.0276939063213269e-05   1.5892836574951446e-06   -3.233917846581888e-06
-1.0276939063213269e-05   1.5892836574951446e-06   -3.233917846581888e-06
-1.0560297409057997e-05   1.5598401786717417e-06   3.8323696101189865e-06
-1.0560297409057997e-05   1.5598401786717417e-06   3.8323696101189865e-06
-1.0560297409057997e-05   1.5598401786717417e-06   3.8323696101189865e-06
-1.0560297409057997e-05   1.5598401786717417e-06   3.8323696101189865e-06
-6.9792244569952965e-06   1.629349085954107e-06   -2.1777906543549584e-06
-6.9792244569952965e-06   1.629349085954107e-06   -2.1777906543549584e-06
-6.9792244569952965e-06   1.629349085954107e-06   -2.1777906543549584e-06
-6.9792244569952965e-06   1.629349085954107e-06   -2.1777906543549584e-06
-8.311265063081953e-06   1.6093759846294619e-06   5.4260883250925184e-08
-8.311265063081953e-06   1.6093759846294619e-06   5.4260883250925184e-08
-8.311265063081953e-06   1.6093759846294619e-06   5.4260883250925184e-08
-8.311265063081953e-06   1.6093759846294619e-06   5.4260883250925184e-08
-6.97922445699529e-06   1.559840178671796e-06   3.7906642657495728e-06
-6.97922445699529e-06   1.559840178671796e-06   3.7906642657495728e-06
-6.97922445699529e-06   1.559840178671796e-06   3.7906642657495728e-06
-6.97922445699529e-06   1.559840178671796e-06   3.7906642657495728e-06
-1.0560297409057997e-05   1.629349085954107e-06   -2.1360853099855514e-06
-1.0560297409057997e-05   1.629349085954107e-06   -2.1360853099855514e-06
-1.0560297409057997e-05   1.629349085954107e-06   -2.1360853099855514e-06
-1.0560297409057997e-05   1.629349085954107e-06   -2.1360853099855514e-06
-1.083795730665505e-05   1.5281104603061474e-06   4.7305440381262525e-06
-1.083795730665505e-05   1.5281104603061474e-06   4.7305440381262525e-06
-1.083795730665505e-05   1.5281104603061474e-06   4.7305440381262525e-06
-1.083795730665505e-05   1.5281104603061474e-06   4.7305440381262525e-06
-7.172410148534813e-06   1.6207543530020758e-06   -1.4342875610251019e-06
-7.172410148534813e-06   1.6207543530020758e-06   -1.4342875610251019e-06
-7.172410148534813e-06   1.6207543530020758e-06   -1.4342875610251019e-06
-7.172410148534813e-06   1.6207543530020758e-06   -1.4342875610251019e-06
-8.653133265730192e-06   1.617603973983492e-06   1.0354745283784708e-06
-8.653133265730192e-06   1.617603973983492e-06   1.0354745283784708e-06
-8.653133265730192e-06   1.617603973983492e-06   1.0354745283784708e-06
-8.653133265730192e-06   1.617603973983492e-06   1.0354745283784708e-06
-7.172410148534813e-06   1.5281104603061474e-06   4.674957702508663e-06
-7.172410148534813e-06   1.5281104603061474e-06   4.674957702508663e-06
-7.172410148534813e-06   1.5281104603061474e-06   4.674957702508663e-06
-7.172410148534813e-06   1.5281104603061474e-06   4.674957702508663e-06
-1.083795730665505e-05   1.6207543530020758e-06   -1.3787012254074785e-06
-1.083795730665505e-05   1.6207543530020758e-06   -1.3787012254074785e-06
-1.083795730665505e-05   1.6207543530020758e-06   -1.3787012254074785e-06
-1.083795730665505e-05   1.6207543530020758e-06   -1.3787012254074785e-06
-1.116702643945565e-05   1.3073344490419536e-06   6.226230686288774e-06
-1.116702643945565e-05   1.3073344490419536e-06   6.226230686288774e-06
-1.116702643945565e-05   1.3073344490419536e-06   6.226230686288774e-06
-1.116702643945565e-05   1.3073344490419536e-06   6.226230686288774e-06
-7.3747738589189595e-06   1.5015840342741198e-06   -2.1074003241166553e-07
-7.3747738589189595e-06   1.5015840342741198e-06   -2.1074003241166553e-07
-7.3747738589189595e-06   1.5015840342741198e-06   -2.1074003241166553e-07
-7.3747738589189595e-06   1.5015840342741198e-06   -2.1074003241166553e-07
-8.75117208684273e-06   1.5478215879561599e-06   2.0555144819187846e-06
-8.75117208684273e-06   1.5478215879561599e-06   2.0555144819187846e-06
-8.75117208684273e-06   1.5478215879561599e-06   2.0555144819187846e-06
-8.75117208684273e-06   1.5478215879561599e-06   2.0555144819187846e-06
6.793915726178281e-06   -9.416026021793816e-07   5.086331857914614e-06
6.793915726178281e-06   -9.416026021793816e-07   5.086331857914614e-06
6.793915726178281e-06   -9.416026021793816e-07   5.086331857914614e-06
6.793915726178281e-06   -9.416026021793816e-07   5.086331857914614e-06
3.3342440135772247e-06   -7.155818515153017e-07   -5.441752126886506e-07
3.3342440135772247e-06   -7.155818515153017e-07   -5.441752126886506e-07
3.3342440135772247e-06   -7.155818515153017e-07   -5.441752126886506e-07
3.3342440135772247e-06   -7.155818515153017e-07   -5.441752126886506e-07
3.2212294926051496e-06   -1.0584849881171737e-06   4.399662239722515e-06
3.2212294926051496e-06   -1.0584849881171737e-06   4.399662239722515e-06
3.2212294926051496e-06   -1.0584849881171737e-06   4.399662239722515e-06
3.2212294926051496e-06   -1.0584849881171737e-06   4.399662239722515e-06
6.587473593723353e-06   -8.224425810963239e-07   -1.352370039686965e-06
6.587473593723353e-06   -8.224425810963239e-07   -1.352370039686965e-06
6.587473593723353e-06   -8.224425810963239e-07   -1.352370039686965e-06
6.587473593723353e-06   -8.224425810963239e-07   -1.352370039686965e-06
4.756522913889919e-06   -8.74908211692259e-07   1.7306938050596265e-06
4.756522913889919e-06   -8.74908211692259e-07   1.7306938050596265e-06
4.756522913889919e-06   -8.74908211692259e-07   1.7306938050596265e-06
4.756522913889919e-06   -8.74908211692259e-07   1.7306938050596265e-06
6.587473593723343e-06   -1.0584849881171737e-06   4.2580367955099565e-06
6.587473593723343e-06   -1.0584849881171737e-06   4.2580367955099565e-06
6.587473593723343e-06   -1.0584849881171737e-06   4.2580367955099565e-06
6.587473593723343e-06   -1.0584849881171737e-06   4.2580367955099565e-06
3.2212294926051597e-06   -8.224425810963239e-07   -1.2107445954744674e-06
3.2212294926051597e-06   -8.224425810963239e-07   -1.2107445954744674e-06
3.2212294926051597e-06   -8.224425810963239e-07   -1.2107445954744674e-06
3.2212294926051597e-06   -8.224425810963239e-07   -1.2107445954744674e-06
3.0947951901919386e-06   -1.0737603330364213e-06   3.927517343353979e-06
3.0947951901919386e-06   -1.0737603330364213e-06   3.927517343353979e-06
3.0947951901919386e-06   -1.0737603330364213e-06   3.927517343353979e-06
3.0947951901919386e-06   -1.0737603330364213e-06   3.927517343353979e-06
6.398752016665702e-06   -8.424830339369893e-07   -1.7178437468952407e-06
6.398752016665702e-06   -8.424830339369893e-07   -1.7178437468952407e-06
6.398752016665702e-06   -8.424830339369893e-07   -1.7178437468952407e-06
6.398752016665702e-06   -8.424830339369893e-07   -1.7178437468952407e-06
4.688285508509026e-06   -9.169753055717129e-07   1.1776291296800392e-06
4.688285508509026e-06   -9.169753055717129e-07   1.1776291296800392e-06
4.688285508509026e-06   -9.169753055717129e-07   1.1776291296800392e-06
4.688285508509026e-06   -9.169753055717129e-07   1.1776291296800392e-06
6.39875201666568e-06   -1.0737603330364213e-06   3.7887509638943797e-06
6.39875201666568e-06   -1.0737603330364213e-06   3.7887509638943797e-06
6.39875201666568e-06   -1.0737603330364213e-06   3.7887509638943797e-06
6.39875201666568e-06   -1.0737603330364213e-06   3.7887509638943797e-06
3.0947951901919454e-06   -8.424830339369893e-07   -1.5790773674356252e-06
3.0947951901919454e-06   -8.424830339369893e-07   -1.5790773674356252e-06
3.0947951901919454e-06   -8.424830339369893e-07   -1.5790773674356252e-06
3.0947951901919454e-06   -8.424830339369893e-07   -1.5790773674356252e-06
2.972393544472939e-06   -1.057646264815968e-06   3.2572636290745434e-06
2.972393544472939e-06   -1.057646264815968e-06   3.2572636290745434e-06
2.972393544472939e-06   -1.057646264815968e-06   3.2572636290745434e-06
2.972393544472939e-06   -1.057646264815968e-06   3.2572636290745434e-06
6.183329261126078e-06   -8.433098747119279e-07   -2.222897732743068e-06
6.183329261126078e-06   -8.433098747119279e-07   -2.222897732743068e-06
6.183329261126078e-06   -8.433098747119279e-07   -2.222897732743068e-06
6.183329261126078e-06   -8.433098747119279e-07   -2.222897732743068e-06
4.465937701213451e-06   -8.985119686207e-07   6.725427901233097e-07
4.465937701213451e-06   -8.985119686207e-07   6.725427901233097e-07
4.465937701213451e-06   -8.985119686207e-07   6.725427901233097e-07
4.465937701213451e-06   -8.985119686207e-07   6.725427901233097e-07
3.3342440135772247e-06   -3.208832297743082e-07   5.1951891839918435e-06
3.3342440135772247e-06   -3.208832297743082e-07   5.1951891839918435e-06
3.3342440135772247e-06   -3.208832297743082e-07   5.1951891839918435e-06
3.3342440135772247e-06   -3.208832297743082e-07   5.1951891839918435e-06
8.535846954499886e-08   -1.3974032750228458e-07   -1.1093431469868511e-07
8.535846954499886e-08   -1.3974032750228458e-07   -1.1093431469868511e-07
8.535846954499886e-08   -1.3974032750228458e-07   -1.1093431469868511e-07
8.535846954499886e-08   -1.3974032750228458e-07   -1.1093431469868511e-07
-2.4033952622938125e-08   -3.8164848559045766e-07   5.2389270995070205e-06
-2.4033952622938125e-08   -3.8164848559045766e-07   5.2389270995070205e-06
-2.4033952622938125e-08   -3.8164848559045766e-07   5.2389270995070205e-06
-2.4033952622938125e-08   -3.8164848559045766e-07   5.2389270995070205e-06
3.2212294926051597e-06   -2.1368851233719705e-07   -2.7062129315841936e-07
3.2212294926051597e-06   -2.1368851233719705e-07   -2.7062129315841936e-07
3.2212294926051597e-06   -2.1368851233719705e-07   -2.7062129315841936e-07
3.2212294926051597e-06   -2.1368851233719705e-07   -2.7062129315841936e-07
1.6336285350214932e-06   -2.5516066293174676e-07   2.400263593171098e-06
1.6336285350214932e-06   -2.5516066293174676e-07   2.400263593171098e-06
1.6336285350214932e-06   -2.5516066293174676e-07   2.400263593171098e-06
1.6336285350214932e-06   -2.5516066293174676e-07   2.400263593171098e-06
3.221229492605158e-06   -3.8164848559045766e-07   5.138151115555064e-06
3.221229492605158e-06   -3.8164848559045766e-07   5.138151115555064e-06
3.221229492605158e-06   -3.8164848559045766e-07   5.138151115555064e-06
3.221229492605158e-06   -3.8164848559045766e-07   5.138151115555064e-06
-2.4033952622938125e-08   -2.1368851233719705e-07   -1.6984530920647993e-07
-2.4033952622938125e-08   -2.1368851233719705e-07   -1.6984530920647993e-07
-2.4033952622938125e-08   -2.1368851233719705e-07   -1.6984530920647993e-07
-2.4033952622938125e-08   -2.1368851233719705e-07   -1.6984530920647993e-07
-1.3780724165726632e-07   -4.1868185619988807e-07   5.147706224438274e-06
-1.3780724165726632e-07   -4.1868185619988807e-07   5.147706224438274e-06
-1.3780724165726632e-07   -4.1868185619988807e-07   5.147706224438274e-06
-1.3780724165726632e-07   -4.1868185619988807e-07   5.147706224438274e-06
3.0947951901919454e-06   -2.663155034021182e-07   -3.313843069891019e-07
3.0947951901919454e-06   -2.663155034021182e-07   -3.313843069891019e-07
3.0947951901919454e-06   -2.663155034021182e-07   -3.313843069891019e-07
3.0947951901919454e-06   -2.663155034021182e-07   -3.313843069891019e-07
1.5059463000972488e-06   -2.928558430017095e-07   2.332621380261892e-06
1.5059463000972488e-06   -2.928558430017095e-07   2.332621380261892e-06
1.5059463000972488e-06   -2.928558430017095e-07   2.332621380261892e-06
1.5059463000972488e-06   -2.928558430017095e-07   2.332621380261892e-06
3.0947951901919386e-06   -4.1868185619988807e-07   5.056286412759585e-06
3.0947951901919386e-06   -4.1868185619988807e-07   5.056286412759585e-06
3.0947951901919386e-06   -4.1868185619988807e-07   5.056286412759585e-06
3.0947951901919386e-06   -4.1868185619988807e-07   5.056286412759585e-06
-1.3780724165726632e-07   -2.663155034021182e-07   -2.399644953104095e-07
-1.3780724165726632e-07   -2.663155034021182e-07   -2.399644953104095e-07
-1.3780724165726632e-07   -2.663155034021182e-07   -2.399644953104095e-07
-1.3780724165726632e-07   -2.663155034021182e-07   -2.399644953104095e-07
-2.562786133062971e-07   -4.304498849216822e-07   5.174420764163923e-06
-2.562786133062971e-07   -4.304498849216822e-07   5.174420764163923e-06
-2.562786133062971e-07   -4.304498849216822e-07   5.174420764163923e-06
-2.562786133062971e-07   -4.304498849216822e-07   5.174420764163923e-06
2.972393544472946e-06   -3.050580786636008e-07   -2.819345825563618e-07
2.972393544472946e-06   -3.050580786636008e-07   -2.819345825563618e-07
2.972393544472946e-06   -3.050580786636008e-07   -2.819345825563618e-07
2.972393544472946e-06   -3.050580786636008e-07   -2.819345825563618e-07
1.4135691036656287e-06   -3.103172866759387e-07   2.3192616769300187e-06
1.4135691036656287e-06   -3.103172866759387e-07   2.3192616769300187e-06
1.4135691036656287e-06   -3.103172866759387e-07   2.3192616769300187e-06
1.4135691036656287e-06   -3.103172866759387e-07   2.3192616769300187e-06
8.535846954499886e-08   3.098272698122645e-07   5.3387260149630146e-06
8.535846954499886e-08   3.098272698122645e-07   5.3387260149630146e-06
8.535846954499886e-08   3.098272698122645e-07   5.3387260149630146e-06
8.535846954499886e-08   3.098272698122645e-07   5.3387260149630146e-06
-3.0748860130240345e-06   4.3115435255445655e-07   1.444481269932674e-07
-3.0748860130240345e-06   4.3115435255445655e-07   1.444481269932674e-07
-3.0748860130240345e-06   4.3115435255445655e-07   1.444481269932674e-07
-3.0748860130240345e-06   4.3115435255445655e-07   1.444481269932674e-07
-3.189712901865331e-06   2.670276005960464e-07   5.4057224078391626e-06
-3.189712901865331e-06   2.670276005960464e-07   5.4057224078391626e-06
-3.189712901865331e-06   2.670276005960464e-07   5.4057224078391626e-06
-3.189712901865331e-06   2.670276005960464e-07   5.4057224078391626e-06
-2.4033952622938125e-08   3.722802679844957e-07   6.643922533548709e-08
-2.4033952622938125e-08   3.722802679844957e-07   6.643922533548709e-08
-2.4033952622938125e-08   3.722802679844957e-07   6.643922533548709e-08
-2.4033952622938125e-08   3.722802679844957e-07   6.643922533548709e-08
-1.553015926128487e-06   3.4658751251295025e-07   2.630158167794285e-06
-1.553015926128487e-06   3.4658751251295025e-07   2.630158167794285e-06
-1.553015926128487e-06   3.4658751251295025e-07   2.630158167794285e-06
-1.553015926128487e-06   3.4658751251295025e-07   2.630158167794285e-06
-2.4033952622938125e-08   2.670276005960464e-07   5.342570807406093e-06
-2.4033952622938125e-08   2.670276005960464e-07   5.342570807406093e-06
-2.4033952622938125e-08   2.670276005960464e-07   5.342570807406093e-06
-2.4033952622938125e-08   2.670276005960464e-07   5.342570807406093e-06
-3.189712901865331e-06   3.722802679844415e-07   1.2959082576851602e-07
-3.189712901865331e-06   3.722802679844415e-07   1.2959082576851602e-07
-3.189712901865331e-06   3.722802679844415e-07   1.2959082576851602e-07
-3.189712901865331e-06   3.722802679844415e-07   1.2959082576851602e-07
-3.3102621788638822e-06   2.2721623105540975e-07   5.449788021825942e-06
-3.3102621788638822e-06   2.2721623105540975e-07   5.449788021825942e-06
-3.3102621788638822e-06   2.2721623105540975e-07   5.449788021825942e-06
-3.3102621788638822e-06   2.2721623105540975e-07   5.449788021825942e-06
-1.3780724165726293e-07   3.1523389941272295e-07   1.095525254672109e-07
-1.3780724165726293e-07   3.1523389941272295e-07   1.095525254672109e-07
-1.3780724165726293e-07   3.1523389941272295e-07   1.095525254672109e-07
-1.3780724165726293e-07   3.1523389941272295e-07   1.095525254672109e-07
-1.6592246445778545e-06   3.144600912712448e-07   2.645712481886395e-06
-1.6592246445778545e-06   3.144600912712448e-07   2.645712481886395e-06
-1.6592246445778545e-06   3.144600912712448e-07   2.645712481886395e-06
-1.6592246445778545e-06   3.144600912712448e-07   2.645712481886395e-06
-1.3780724165726632e-07   2.2721623105540975e-07   5.396977420811565e-06
-1.3780724165726632e-07   2.2721623105540975e-07   5.396977420811565e-06
-1.3780724165726632e-07   2.2721623105540975e-07   5.396977420811565e-06
-1.3780724165726632e-07   2.2721623105540975e-07   5.396977420811565e-06
-3.310262178863889e-06   3.1523389941272295e-07   1.6236312648157782e-07
-3.310262178863889e-06   3.1523389941272295e-07   1.6236312648157782e-07
-3.310262178863889e-06   3.1523389941272295e-07   1.6236312648157782e-07
-3.310262178863889e-06   3.1523389941272295e-07   1.6236312648157782e-07
-3.4342569914407704e-06   1.9946140163558347e-07   5.521103462220294e-06
-3.4342569914407704e-06   1.9946140163558347e-07   5.521103462220294e-06
-3.4342569914407704e-06   1.9946140163558347e-07   5.521103462220294e-06
-3.4342569914407704e-06   1.9946140163558347e-07   5.521103462220294e-06
-2.5627861330630047e-07   2.646230291312524e-07   1.8537585549873822e-07
-2.5627861330630047e-07   2.646230291312524e-07   1.8537585549873822e-07
-2.5627861330630047e-07   2.646230291312524e-07   1.8537585549873822e-07
-2.5627861330630047e-07   2.646230291312524e-07   1.8537585549873822e-07
-1.774226943770522e-06   2.839850375793468e-07   2.7036725345370576e-06
-1.774226943770522e-06   2.839850375793468e-07   2.7036725345370576e-06
-1.774226943770522e-06   2.839850375793468e-07   2.7036725345370576e-06
-1.774226943770522e-06   2.839850375793468e-07   2.7036725345370576e-06
-3.0748860130240447e-06   9.771699007695474e-07   4.700459310131249e-06
-3.0748860130240447e-06   9.771699007695474e-07   4.700459310131249e-06
-3.0748860130240447e-06   9.771699007695474e-07   4.700459310131249e-06
-3.0748860130240447e-06   9.771699007695474e-07   4.700459310131249e-06
-6.162762337072415e-06   9.901736924494502e-07   -4.381989549414277e-07
-6.162762337072415e-06   9.901736924494502e-07   -4.381989549414277e-07
-6.162762337072415e-06   9.901736924494502e-07   -4.381989549414277e-07
-6.162762337072415e-06   9.901736924494502e-07   -4.381989549414277e-07
-6.295721651331676e-06   9.36325289563019e-07   4.781869108838209e-06
-6.295721651331676e-06   9.36325289563019e-07   4.781869108838209e-06
-6.295721651331676e-06   9.36325289563019e-07   4.781869108838209e-06
-6.295721651331676e-06   9.36325289563019e-07   4.781869108838209e-06
-3.189712901865334e-06   9.363227882423623e-07   -3.9481063947993666e-07
-3.189712901865334e-06   9.363227882423623e-07   -3.9481063947993666e-07
-3.189712901865334e-06   9.363227882423623e-07   -3.9481063947993666e-07
-3.189712901865334e-06   9.363227882423623e-07   -3.9481063947993666e-07
-4.65997919526562e-06   9.542428804436265e-07   2.0448811275330746e-06
-4.65997919526562e-06   9.542428804436265e-07   2.0448811275330746e-06
-4.65997919526562e-06   9.542428804436265e-07   2.0448811275330746e-06
-4.65997919526562e-06   9.542428804436265e-07   2.0448811275330746e-06
-3.189712901865334e-06   9.36325289563019e-07   4.781870609630619e-06
-3.189712901865334e-06   9.36325289563019e-07   4.781870609630619e-06
-3.189712901865334e-06   9.36325289563019e-07   4.781870609630619e-06
-3.189712901865334e-06   9.36325289563019e-07   4.781870609630619e-06
-6.2957216513316655e-06   9.363227882423623e-07   -3.9481214027234693e-07
-6.2957216513316655e-06   9.363227882423623e-07   -3.9481214027234693e-07
-6.2957216513316655e-06   9.363227882423623e-07   -3.9481214027234693e-07
-6.2957216513316655e-06   9.363227882423623e-07   -3.9481214027234693e-07
-6.441769460448728e-06   8.96654760696846e-07   5.0050067097689e-06
-6.441769460448728e-06   8.96654760696846e-07   5.0050067097689e-06
-6.441769460448728e-06   8.96654760696846e-07   5.0050067097689e-06
-6.441769460448728e-06   8.96654760696846e-07   5.0050067097689e-06
-3.310262178863889e-06   8.8464011742406e-07   -2.069633069087939e-07
-3.310262178863889e-06   8.8464011742406e-07   -2.069633069087939e-07
-3.310262178863889e-06   8.8464011742406e-07   -2.069633069087939e-07
-3.310262178863889e-06   8.8464011742406e-07   -2.069633069087939e-07
-4.751933978356915e-06   9.251945452448587e-07   2.171490368887074e-06
-4.751933978356915e-06   9.251945452448587e-07   2.171490368887074e-06
-4.751933978356915e-06   9.251945452448587e-07   2.171490368887074e-06
-4.751933978356915e-06   9.251945452448587e-07   2.171490368887074e-06
-3.3102621788638856e-06   8.96654760696846e-07   5.012215495732599e-06
-3.3102621788638856e-06   8.96654760696846e-07   5.012215495732599e-06
-3.3102621788638856e-06   8.96654760696846e-07   5.012215495732599e-06
-3.3102621788638856e-06   8.96654760696846e-07   5.012215495732599e-06
-6.441769460448711e-06   8.8464011742406e-07   -2.1417209287248585e-07
-6.441769460448711e-06   8.8464011742406e-07   -2.1417209287248585e-07
-6.441769460448711e-06   8.8464011742406e-07   -2.1417209287248585e-07
-6.441769460448711e-06   8.8464011742406e-07   -2.1417209287248585e-07
-6.580174847056262e-06   8.411625950358655e-07   5.156877972885287e-06
-6.580174847056262e-06   8.411625950358655e-07   5.156877972885287e-06
-6.580174847056262e-06   8.411625950358655e-07   5.156877972885287e-06
-6.580174847056262e-06   8.411625950358655e-07   5.156877972885287e-06
-3.4342569914407805e-06   8.196739659294995e-07   -7.342527567669155e-08
-3.4342569914407805e-06   8.196739659294995e-07   -7.342527567669155e-08
-3.4342569914407805e-06   8.196739659294995e-07   -7.342527567669155e-08
-3.4342569914407805e-06   8.196739659294995e-07   -7.342527567669155e-08
-4.90754127591491e-06   8.848017503683935e-07   2.342971861117081e-06
-4.90754127591491e-06   8.848017503683935e-07   2.342971861117081e-06
-4.90754127591491e-06   8.848017503683935e-07   2.342971861117081e-06
-4.90754127591491e-06   8.848017503683935e-07   2.342971861117081e-06
-6.162762337072408e-06   1.5892836574951446e-06   2.2903377202989717e-06
-6.162762337072408e-06   1.5892836574951446e-06   2.2903377202989717e-06
-6.162762337072408e-06   1.5892836574951446e-06   2.2903377202989717e-06
-6.162762337072408e-06   1.5892836574951446e-06   2.2903377202989717e-06
-9.144911877438202e-06   1.448850734796876e-06   -2.7641712672629747e-06
-9.144911877438202e-06   1.448850734796876e-06   -2.7641712672629747e-06
-9.144911877438202e-06   1.448850734796876e-06   -2.7641712672629747e-06
-9.144911877438202e-06   1.448850734796876e-06   -2.7641712672629747e-06
-9.354859979568012e-06   1.629349085954107e-06   3.240996390054912e-06
-9.354859979568012e-06   1.629349085954107e-06   3.240996390054912e-06
-9.354859979568012e-06   1.629349085954107e-06   3.240996390054912e-06
-9.354859979568012e-06   1.629349085954107e-06   3.240996390054912e-06
-6.295721651331676e-06   1.471700662103925e-06   -1.7629784360289287e-06
-6.295721651331676e-06   1.471700662103925e-06   -1.7629784360289287e-06
-6.295721651331676e-06   1.471700662103925e-06   -1.7629784360289287e-06
-6.295721651331676e-06   1.471700662103925e-06   -1.7629784360289287e-06
-7.44199446129788e-06   1.521485549236981e-06   1.176053149682738e-07
-7.44199446129788e-06   1.521485549236981e-06   1.176053149682738e-07
-7.44199446129788e-06   1.521485549236981e-06   1.176053149682738e-07
-7.44199446129788e-06   1.521485549236981e-06   1.176053149682738e-07
-6.295721651331662e-06   1.629349085954107e-06   3.335585444364978e-06
-6.295721651331662e-06   1.629349085954107e-06   3.335585444364978e-06
-6.295721651331662e-06   1.629349085954107e-06   3.335585444364978e-06
-6.295721651331662e-06   1.629349085954107e-06   3.335585444364978e-06
-9.354859979568045e-06   1.471700662103925e-06   -1.8575674903390286e-06
-9.354859979568045e-06   1.471700662103925e-06   -1.8575674903390286e-06
-9.354859979568045e-06   1.471700662103925e-06   -1.8575674903390286e-06
-9.354859979568045e-06   1.471700662103925e-06   -1.8575674903390286e-06
-9.557909132019704e-06   1.6207543530020758e-06   3.958875131532946e-06
-9.557909132019704e-06   1.6207543530020758e-06   3.958875131532946e-06
-9.557909132019704e-06   1.6207543530020758e-06   3.958875131532946e-06
-9.557909132019704e-06   1.6207543530020758e-06   3.958875131532946e-06
-6.441769460448728e-06   1.457600550808149e-06   -1.1367987064356833e-06
-6.441769460448728e-06   1.457600550808149e-06   -1.1367987064356833e-06
-6.441769460448728e-06   1.457600550808149e-06   -1.1367987064356833e-06
-6.441769460448728e-06   1.457600550808149e-06   -1.1367987064356833e-06
-7.713594878609467e-06   1.5521805891563554e-06   9.261623008233996e-07
-7.713594878609467e-06   1.5521805891563554e-06   9.261623008233996e-07
-7.713594878609467e-06   1.5521805891563554e-06   9.261623008233996e-07
-7.713594878609467e-06   1.5521805891563554e-06   9.261623008233996e-07
-6.441769460448728e-06   1.6207543530020758e-06   4.056767412849335e-06
-6.441769460448728e-06   1.6207543530020758e-06   4.056767412849335e-06
-6.441769460448728e-06   1.6207543530020758e-06   4.056767412849335e-06
-6.441769460448728e-06   1.6207543530020758e-06   4.056767412849335e-06
-9.557909132019738e-06   1.457600550808149e-06   -1.2346909877520516e-06
-9.557909132019738e-06   1.457600550808149e-06   -1.2346909877520516e-06
-9.557909132019738e-06   1.457600550808149e-06   -1.2346909877520516e-06
-9.557909132019738e-06   1.457600550808149e-06   -1.2346909877520516e-06
-9.793079307877393e-06   1.5015840342741198e-06   5.176399029856621e-06
-9.793079307877393e-06   1.5015840342741198e-06   5.176399029856621e-06
-9.793079307877393e-06   1.5015840342741198e-06   5.176399029856621e-06
-9.793079307877393e-06   1.5015840342741198e-06   5.176399029856621e-06
-6.580174847056262e-06   1.3505387413193025e-06   -8.78145624057342e-08
-6.580174847056262e-06   1.3505387413193025e-06   -8.78145624057342e-08
-6.580174847056262e-06   1.3505387413193025e-06   -8.78145624057342e-08
-6.580174847056262e-06   1.3505387413193025e-06   -8.78145624057342e-08
-7.762230888218771e-06   1.5075469412990385e-06   1.78807391954406e-06
-7.762230888218771e-06   1.5075469412990385e-06   1.78807391954406e-06
-7.762230888218771e-06   1.5075469412990385e-06   1.78807391954406e-06
-7.762230888218771e-06   1.5075469412990385e-06   1.78807391954406e-06
5.33826246350023e-06   -7.155818515153017e-07   4.376530185368915e-06
5.33826246350023e-06   -7.155818515153017e-07   4.376530185368915e-06
5.33826246350023e-06   -7.155818515153017e-07   4.376530185368915e-06
5.33826246350023e-06   -7.155818515153017e-07   4.376530185368915e-06
2.496930681426518e-06   -4.95201083104311e-07   -2.267943237074029e-07
2.496930681426518e-06   -4.95201083104311e-07   -2.267943237074029e-07
2.496930681426518e-06   -4.95201083104311e-07   -2.267943237074029e-07
2.496930681426518e-06   -4.95201083104311e-07   -2.267943237074029e-07
2.3944633586325464e-06   -8.224425810962697e-07   3.826281264068067e-06
2.3944633586325464e-06   -8.224425810962697e-07   3.826281264068067e-06
2.3944633586325464e-06   -8.224425810962697e-07   3.826281264068067e-06
2.3944633586325464e-06   -8.224425810962697e-07   3.826281264068067e-06
5.138755821938098e-06   -5.928866698233894e-07   -8.852730548715813e-07
5.138755821938098e-06   -5.928866698233894e-07   -8.852730548715813e-07
5.138755821938098e-06   -5.928866698233894e-07   -8.852730548715813e-07
5.138755821938098e-06   -5.928866698233894e-07   -8.852730548715813e-07
3.6620270213060283e-06   -6.599532902777389e-07   1.616181585121132e-06
3.6620270213060283e-06   -6.599532902777389e-07   1.616181585121132e-06
3.6620270213060283e-06   -6.599532902777389e-07   1.616181585121132e-06
3.6620270213060283e-06   -6.599532902777389e-07   1.616181585121132e-06
5.138755821938098e-06   -8.224425810962697e-07   3.6885477173043547e-06
5.138755821938098e-06   -8.224425810962697e-07   3.6885477173043547e-06
5.138755821938098e-06   -8.224425810962697e-07   3.6885477173043547e-06
5.138755821938098e-06   -8.224425810962697e-07   3.6885477173043547e-06
2.3944633586325506e-06   -5.928866698233894e-07   -7.475395081078372e-07
2.3944633586325506e-06   -5.928866698233894e-07   -7.475395081078372e-07
2.3944633586325506e-06   -5.928866698233894e-07   -7.475395081078372e-07
2.3944633586325506e-06   -5.928866698233894e-07   -7.475395081078372e-07
2.280145652115378e-06   -8.424830339369893e-07   3.441500166537903e-06
2.280145652115378e-06   -8.424830339369893e-07   3.441500166537903e-06
2.280145652115378e-06   -8.424830339369893e-07   3.441500166537903e-06
2.280145652115378e-06   -8.424830339369893e-07   3.441500166537903e-06
4.962362129239677e-06   -6.177680589920689e-07   -1.1636896136361835e-06
4.962362129239677e-06   -6.177680589920689e-07   -1.1636896136361835e-06
4.962362129239677e-06   -6.177680589920689e-07   -1.1636896136361835e-06
4.962362129239677e-06   -6.177680589920689e-07   -1.1636896136361835e-06
3.5877454909003368e-06   -7.00265638359579e-07   1.1768366645499822e-06
3.5877454909003368e-06   -7.00265638359579e-07   1.1768366645499822e-06
3.5877454909003368e-06   -7.00265638359579e-07   1.1768366645499822e-06
3.5877454909003368e-06   -7.00265638359579e-07   1.1768366645499822e-06
4.962362129239668e-06   -8.424830339370435e-07   3.3066711815709726e-06
4.962362129239668e-06   -8.424830339370435e-07   3.3066711815709726e-06
4.962362129239668e-06   -8.424830339370435e-07   3.3066711815709726e-06
4.962362129239668e-06   -8.424830339370435e-07   3.3066711815709726e-06
2.2801456521153816e-06   -6.177680589920689e-07   -1.028860628669219e-06
2.2801456521153816e-06   -6.177680589920689e-07   -1.028860628669219e-06
2.2801456521153816e-06   -6.177680589920689e-07   -1.028860628669219e-06
2.2801456521153816e-06   -6.177680589920689e-07   -1.028860628669219e-06
2.1739013252290886e-06   -8.433098747119279e-07   2.9089951849801932e-06
2.1739013252290886e-06   -8.433098747119279e-07   2.9089951849801932e-06
2.1739013252290886e-06   -8.433098747119279e-07   2.9089951849801932e-06
2.1739013252290886e-06   -8.433098747119279e-07   2.9089951849801932e-06
4.763017236172519e-06   -6.353835451246661e-07   -1.530953797677868e-06
4.763017236172519e-06   -6.353835451246661e-07   -1.530953797677868e-06
4.763017236172519e-06   -6.353835451246661e-07   -1.530953797677868e-06
4.763017236172519e-06   -6.353835451246661e-07   -1.530953797677868e-06
3.395007202788826e-06   -6.933916613567907e-07   7.838677943676242e-07
3.395007202788826e-06   -6.933916613567907e-07   7.838677943676242e-07
3.395007202788826e-06   -6.933916613567907e-07   7.838677943676242e-07
3.395007202788826e-06   -6.933916613567907e-07   7.838677943676242e-07
2.4969306814265095e-06   -1.397403275023388e-07   4.833313803042212e-06
2.4969306814265095e-06   -1.397403275023388e-07   4.833313803042212e-06
2.4969306814265095e-06   -1.397403275023388e-07   4.833313803042212e-06
2.4969306814265095e-06   -1.397403275023388e-07   4.833313803042212e-06
-1.8324993163956765e-07   -1.4267343326950302e-08   4.416299051039662e-07
-1.8324993163956765e-07   -1.4267343326950302e-08   4.416299051039662e-07
-1.8324993163956765e-07   -1.4267343326950302e-08   4.416299051039662e-07
-1.8324993163956765e-07   -1.4267343326950302e-08   4.416299051039662e-07
-2.802650562461342e-07   -2.1368851233719705e-07   4.836354397616457e-06
-2.802650562461342e-07   -2.1368851233719705e-07   4.836354397616457e-06
-2.802650562461342e-07   -2.1368851233719705e-07   4.836354397616457e-06
-2.802650562461342e-07   -2.1368851233719705e-07   4.836354397616457e-06
2.3944633586325506e-06   -9.71054602832565e-08   3.085238749196369e-07
2.3944633586325506e-06   -9.71054602832565e-08   3.085238749196369e-07
2.3944633586325506e-06   -9.71054602832565e-08   3.085238749196369e-07
2.3944633586325506e-06   -9.71054602832565e-08   3.085238749196369e-07
1.0886673665366062e-06   -1.1955435207019202e-07   2.4983198634850255e-06
1.0886673665366062e-06   -1.1955435207019202e-07   2.4983198634850255e-06
1.0886673665366062e-06   -1.1955435207019202e-07   2.4983198634850255e-06
1.0886673665366062e-06   -1.1955435207019202e-07   2.4983198634850255e-06
2.3944633586325447e-06   -2.1368851233719705e-07   4.766404566384098e-06
2.3944633586325447e-06   -2.1368851233719705e-07   4.766404566384098e-06
2.3944633586325447e-06   -2.1368851233719705e-07   4.766404566384098e-06
2.3944633586325447e-06   -2.1368851233719705e-07   4.766404566384098e-06
-2.802650562461342e-07   -9.71054602833107e-08   3.7847370615198394e-07
-2.802650562461342e-07   -9.71054602833107e-08   3.7847370615198394e-07
-2.802650562461342e-07   -9.71054602833107e-08   3.7847370615198394e-07
-2.802650562461342e-07   -9.71054602833107e-08   3.7847370615198394e-07
-3.7962298445274597e-07   -2.663155034021182e-07   4.7527635311748475e-06
-3.7962298445274597e-07   -2.663155034021182e-07   4.7527635311748475e-06
-3.7962298445274597e-07   -2.663155034021182e-07   4.7527635311748475e-06
-3.7962298445274597e-07   -2.663155034021182e-07   4.7527635311748475e-06
2.2801456521153816e-06   -1.6036499641804364e-07   2.562454993708651e-07
2.2801456521153816e-06   -1.6036499641804364e-07   2.562454993708651e-07
2.2801456521153816e-06   -1.6036499641804364e-07   2.562454993708651e-07
2.2801456521153816e-06   -1.6036499641804364e-07   2.562454993708651e-07
9.77985868402647e-07   -1.696075408570371e-07   2.43205733222235e-06
9.77985868402647e-07   -1.696075408570371e-07   2.43205733222235e-06
9.77985868402647e-07   -1.696075408570371e-07   2.43205733222235e-06
9.77985868402647e-07   -1.696075408570371e-07   2.43205733222235e-06
2.280145652115378e-06   -2.66315503402064e-07   4.68919322698443e-06
2.280145652115378e-06   -2.66315503402064e-07   4.68919322698443e-06
2.280145652115378e-06   -2.66315503402064e-07   4.68919322698443e-06
2.280145652115378e-06   -2.66315503402064e-07   4.68919322698443e-06
-3.7962298445274597e-07   -1.6036499641804364e-07   3.1981580356132337e-07
-3.7962298445274597e-07   -1.6036499641804364e-07   3.1981580356132337e-07
-3.7962298445274597e-07   -1.6036499641804364e-07   3.1981580356132337e-07
-3.7962298445274597e-07   -1.6036499641804364e-07   3.1981580356132337e-07
-4.796905916260667e-07   -3.050580786636008e-07   4.774534002817448e-06
-4.796905916260667e-07   -3.050580786636008e-07   4.774534002817448e-06
-4.796905916260667e-07   -3.050580786636008e-07   4.774534002817448e-06
-4.796905916260667e-07   -3.050580786636008e-07   4.774534002817448e-06
2.173901325229092e-06   -2.1642890914202106e-07   2.9870330634589704e-07
2.173901325229092e-06   -2.1642890914202106e-07   2.9870330634589704e-07
2.173901325229092e-06   -2.1642890914202106e-07   2.9870330634589704e-07
2.173901325229092e-06   -2.1642890914202106e-07   2.9870330634589704e-07
8.965034825024455e-07   -2.042249007768891e-07   2.4203773058712732e-06
8.965034825024455e-07   -2.042249007768891e-07   2.4203773058712732e-06
8.965034825024455e-07   -2.042249007768891e-07   2.4203773058712732e-06
8.965034825024455e-07   -2.042249007768891e-07   2.4203773058712732e-06
-1.8324993163957104e-07   4.3115435255445655e-07   5.091183785594093e-06
-1.8324993163957104e-07   4.3115435255445655e-07   5.091183785594093e-06
-1.8324993163957104e-07   4.3115435255445655e-07   5.091183785594093e-06
-1.8324993163957104e-07   4.3115435255445655e-07   5.091183785594093e-06
-2.8069232583517318e-06   4.483534480604853e-07   7.287143650441124e-07
-2.8069232583517318e-06   4.483534480604853e-07   7.287143650441124e-07
-2.8069232583517318e-06   4.483534480604853e-07   7.287143650441124e-07
-2.8069232583517318e-06   4.483534480604853e-07   7.287143650441124e-07
-2.9051473002996163e-06   3.722802679844415e-07   5.075978752800813e-06
-2.9051473002996163e-06   3.722802679844415e-07   5.075978752800813e-06
-2.9051473002996163e-06   3.722802679844415e-07   5.075978752800813e-06
-2.9051473002996163e-06   3.722802679844415e-07   5.075978752800813e-06
-2.802650562461342e-07   3.7784663572184305e-07   6.978351920692383e-07
-2.802650562461342e-07   3.7784663572184305e-07   6.978351920692383e-07
-2.802650562461342e-07   3.7784663572184305e-07   6.978351920692383e-07
-2.802650562461342e-07   3.7784663572184305e-07   6.978351920692383e-07
-1.547754559274591e-06   3.9892406990000434e-07   2.7976712366097593e-06
-1.547754559274591e-06   3.9892406990000434e-07   2.7976712366097593e-06
-1.547754559274591e-06   3.9892406990000434e-07   2.7976712366097593e-06
-1.547754559274591e-06   3.9892406990000434e-07   2.7976712366097593e-06
-2.802650562461342e-07   3.722802679844415e-07   5.072638932158383e-06
-2.802650562461342e-07   3.722802679844415e-07   5.072638932158383e-06
-2.802650562461342e-07   3.722802679844415e-07   5.072638932158383e-06
-2.802650562461342e-07   3.722802679844415e-07   5.072638932158383e-06
-2.9051473002996163e-06   3.7784663572184305e-07   7.011750127117124e-07
-2.9051473002996163e-06   3.7784663572184305e-07   7.011750127117124e-07
-2.9051473002996163e-06   3.7784663572184305e-07   7.011750127117124e-07
-2.9051473002996163e-06   3.7784663572184305e-07   7.011750127117124e-07
-3.005450758457638e-06   3.1523389941272295e-07   5.0982794638643875e-06
-3.005450758457638e-06   3.1523389941272295e-07   5.0982794638643875e-06
-3.005450758457638e-06   3.1523389941272295e-07   5.0982794638643875e-06
-3.005450758457638e-06   3.1523389941272295e-07   5.0982794638643875e-06
-3.7962298445274597e-07   3.0856541926595725e-07   7.259009286109573e-07
-3.7962298445274597e-07   3.0856541926595725e-07   7.259009286109573e-07
-3.7962298445274597e-07   3.0856541926595725e-07   7.259009286109573e-07
-3.7962298445274597e-07   3.0856541926595725e-07   7.259009286109573e-07
-1.638322480168442e-06   3.525257846108496e-07   2.7973572022636382e-06
-1.638322480168442e-06   3.525257846108496e-07   2.7973572022636382e-06
-1.638322480168442e-06   3.525257846108496e-07   2.7973572022636382e-06
-1.638322480168442e-06   3.525257846108496e-07   2.7973572022636382e-06
-3.7962298445274597e-07   3.1523389941272295e-07   5.102280551952485e-06
-3.7962298445274597e-07   3.1523389941272295e-07   5.102280551952485e-06
-3.7962298445274597e-07   3.1523389941272295e-07   5.102280551952485e-06
-3.7962298445274597e-07   3.1523389941272295e-07   5.102280551952485e-06
-3.005450758457638e-06   3.0856541926595725e-07   7.218998405229176e-07
-3.005450758457638e-06   3.0856541926595725e-07   7.218998405229176e-07
-3.005450758457638e-06   3.0856541926595725e-07   7.218998405229176e-07
-3.005450758457638e-06   3.0856541926595725e-07   7.218998405229176e-07
-3.105372890029684e-06   2.646230291313066e-07   5.1536352745368155e-06
-3.105372890029684e-06   2.646230291313066e-07   5.1536352745368155e-06
-3.105372890029684e-06   2.646230291313066e-07   5.1536352745368155e-06
-3.105372890029684e-06   2.646230291313066e-07   5.1536352745368155e-06
-4.796905916260633e-07   2.4299955816325155e-07   7.904721931115946e-07
-4.796905916260633e-07   2.4299955816325155e-07   7.904721931115946e-07
-4.796905916260633e-07   2.4299955816325155e-07   7.904721931115946e-07
-4.796905916260633e-07   2.4299955816325155e-07   7.904721931115946e-07
-1.7334544849266473e-06   3.076033655520288e-07   2.8413163975127856e-06
-1.7334544849266473e-06   3.076033655520288e-07   2.8413163975127856e-06
-1.7334544849266473e-06   3.076033655520288e-07   2.8413163975127856e-06
-1.7334544849266473e-06   3.076033655520288e-07   2.8413163975127856e-06
-2.806923258351725e-06   9.901736924494502e-07   4.511053885955063e-06
-2.806923258351725e-06   9.901736924494502e-07   4.511053885955063e-06
-2.806923258351725e-06   9.901736924494502e-07   4.511053885955063e-06
-2.806923258351725e-06   9.901736924494502e-07   4.511053885955063e-06
-5.392091354550632e-06   8.967944736817338e-07   1.464128610296063e-07
-5.392091354550632e-06   8.967944736817338e-07   1.464128610296063e-07
-5.392091354550632e-06   8.967944736817338e-07   1.464128610296063e-07
-5.392091354550632e-06   8.967944736817338e-07   1.464128610296063e-07
-5.498364026211336e-06   9.363227882423623e-07   4.488530784837661e-06
-5.498364026211336e-06   9.363227882423623e-07   4.488530784837661e-06
-5.498364026211336e-06   9.363227882423623e-07   4.488530784837661e-06
-5.498364026211336e-06   9.363227882423623e-07   4.488530784837661e-06
-2.905147300299623e-06   8.312452837178357e-07   2.2954941103285034e-07
-2.905147300299623e-06   8.312452837178357e-07   2.2954941103285034e-07
-2.905147300299623e-06   8.312452837178357e-07   2.2954941103285034e-07
-2.905147300299623e-06   8.312452837178357e-07   2.2954941103285034e-07
-4.136385218078274e-06   8.993166999612923e-07   2.2407697575845697e-06
-4.136385218078274e-06   8.993166999612923e-07   2.2407697575845697e-06
-4.136385218078274e-06   8.993166999612923e-07   2.2407697575845697e-06
-4.136385218078274e-06   8.993166999612923e-07   2.2407697575845697e-06
-2.9051473002996163e-06   9.363227882423623e-07   4.5515772875523875e-06
-2.9051473002996163e-06   9.363227882423623e-07   4.5515772875523875e-06
-2.9051473002996163e-06   9.363227882423623e-07   4.5515772875523875e-06
-2.9051473002996163e-06   9.363227882423623e-07   4.5515772875523875e-06
-5.498364026211336e-06   8.312452837178357e-07   1.6650290831815063e-07
-5.498364026211336e-06   8.312452837178357e-07   1.6650290831815063e-07
-5.498364026211336e-06   8.312452837178357e-07   1.6650290831815063e-07
-5.498364026211336e-06   8.312452837178357e-07   1.6650290831815063e-07
-5.61442106480135e-06   8.8464011742406e-07   4.659163166272008e-06
-5.61442106480135e-06   8.8464011742406e-07   4.659163166272008e-06
-5.61442106480135e-06   8.8464011742406e-07   4.659163166272008e-06
-5.61442106480135e-06   8.8464011742406e-07   4.659163166272008e-06
-3.005450758457645e-06   7.683236770873064e-07   3.806691865678393e-07
-3.005450758457645e-06   7.683236770873064e-07   3.806691865678393e-07
-3.005450758457645e-06   7.683236770873064e-07   3.806691865678393e-07
-3.005450758457645e-06   7.683236770873064e-07   3.806691865678393e-07
-4.208726245809612e-06   8.58308749708428e-07   2.3321372885819284e-06
-4.208726245809612e-06   8.58308749708428e-07   2.3321372885819284e-06
-4.208726245809612e-06   8.58308749708428e-07   2.3321372885819284e-06
-4.208726245809612e-06   8.58308749708428e-07   2.3321372885819284e-06
-3.0054507584576415e-06   8.8464011742406e-07   4.7289530304740225e-06
-3.0054507584576415e-06   8.8464011742406e-07   4.7289530304740225e-06
-3.0054507584576415e-06   8.8464011742406e-07   4.7289530304740225e-06
-3.0054507584576415e-06   8.8464011742406e-07   4.7289530304740225e-06
-5.61442106480135e-06   7.683236770873064e-07   3.1087932236580475e-07
-5.61442106480135e-06   7.683236770873064e-07   3.1087932236580475e-07
-5.61442106480135e-06   7.683236770873064e-07   3.1087932236580475e-07
-5.61442106480135e-06   7.683236770873064e-07   3.1087932236580475e-07
-5.719433584201512e-06   8.196739659294995e-07   4.779945654757276e-06
-5.719433584201512e-06   8.196739659294995e-07   4.779945654757276e-06
-5.719433584201512e-06   8.196739659294995e-07   4.779945654757276e-06
-5.719433584201512e-06   8.196739659294995e-07   4.779945654757276e-06
-3.1053728900296873e-06   6.933547790849231e-07   4.989693432443115e-07
-3.1053728900296873e-06   6.933547790849231e-07   4.989693432443115e-07
-3.1053728900296873e-06   6.933547790849231e-07   4.989693432443115e-07
-3.1053728900296873e-06   6.933547790849231e-07   4.989693432443115e-07
-4.331970221299727e-06   8.100065896078342e-07   2.4733071423807985e-06
-4.331970221299727e-06   8.100065896078342e-07   2.4733071423807985e-06
-4.331970221299727e-06   8.100065896078342e-07   2.4733071423807985e-06
-4.331970221299727e-06   8.100065896078342e-07   2.4733071423807985e-06
-5.392091354550632e-06   1.448850734796876e-06   2.2133137959918364e-06
-5.392091354550632e-06   1.448850734796876e-06   2.2133137959918364e-06
-5.392091354550632e-06   1.448850734796876e-06   2.2133137959918364e-06
-5.392091354550632e-06   1.448850734796876e-06   2.2133137959918364e-06
-7.891714657847674e-06   1.2601583653405876e-06   -2.065940464510347e-06
-7.891714657847674e-06   1.2601583653405876e-06   -2.065940464510347e-06
-7.891714657847674e-06   1.2601583653405876e-06   -2.065940464510347e-06
-7.891714657847674e-06   1.2601583653405876e-06   -2.065940464510347e-06
-8.084909405904137e-06   1.4717006621039791e-06   2.9939346425557226e-06
-8.084909405904137e-06   1.4717006621039791e-06   2.9939346425557226e-06
-8.084909405904137e-06   1.4717006621039791e-06   2.9939346425557226e-06
-8.084909405904137e-06   1.4717006621039791e-06   2.9939346425557226e-06
-5.498364026211336e-06   1.2609842512283694e-06   -1.190544477073637e-06
-5.498364026211336e-06   1.2609842512283694e-06   -1.190544477073637e-06
-5.498364026211336e-06   1.2609842512283694e-06   -1.190544477073637e-06
-5.498364026211336e-06   1.2609842512283694e-06   -1.190544477073637e-06
-6.460178077140337e-06   1.3376755620117856e-06   3.664641546713117e-07
-6.460178077140337e-06   1.3376755620117856e-06   3.664641546713117e-07
-6.460178077140337e-06   1.3376755620117856e-06   3.664641546713117e-07
-6.460178077140337e-06   1.3376755620117856e-06   3.664641546713117e-07
-5.498364026211329e-06   1.4717006621039791e-06   3.120364489081072e-06
-5.498364026211329e-06   1.4717006621039791e-06   3.120364489081072e-06
-5.498364026211329e-06   1.4717006621039791e-06   3.120364489081072e-06
-5.498364026211329e-06   1.4717006621039791e-06   3.120364489081072e-06
-8.08490940590415e-06   1.2609842512283152e-06   -1.3169743235990272e-06
-8.08490940590415e-06   1.2609842512283152e-06   -1.3169743235990272e-06
-8.08490940590415e-06   1.2609842512283152e-06   -1.3169743235990272e-06
-8.08490940590415e-06   1.2609842512283152e-06   -1.3169743235990272e-06
-8.255837338626016e-06   1.4576005508080947e-06   3.6045706072913852e-06
-8.255837338626016e-06   1.4576005508080947e-06   3.6045706072913852e-06
-8.255837338626016e-06   1.4576005508080947e-06   3.6045706072913852e-06
-8.255837338626016e-06   1.4576005508080947e-06   3.6045706072913852e-06
-5.61442106480135e-06   1.2376573084458067e-06   -6.658239036656777e-07
-5.61442106480135e-06   1.2376573084458067e-06   -6.658239036656777e-07
-5.61442106480135e-06   1.2376573084458067e-06   -6.658239036656777e-07
-5.61442106480135e-06   1.2376573084458067e-06   -6.658239036656777e-07
-6.692380841019768e-06   1.355045034412319e-06   1.0603430877853342e-06
-6.692380841019768e-06   1.355045034412319e-06   1.0603430877853342e-06
-6.692380841019768e-06   1.355045034412319e-06   1.0603430877853342e-06
-6.692380841019768e-06   1.355045034412319e-06   1.0603430877853342e-06
-5.61442106480135e-06   1.4576005508080947e-06   3.7365365527088177e-06
-5.61442106480135e-06   1.4576005508080947e-06   3.7365365527088177e-06
-5.61442106480135e-06   1.4576005508080947e-06   3.7365365527088177e-06
-5.61442106480135e-06   1.4576005508080947e-06   3.7365365527088177e-06
-8.25583733862603e-06   1.2376573084457525e-06   -7.977898490830695e-07
-8.25583733862603e-06   1.2376573084457525e-06   -7.977898490830695e-07
-8.25583733862603e-06   1.2376573084457525e-06   -7.977898490830695e-07
-8.25583733862603e-06   1.2376573084457525e-06   -7.977898490830695e-07
-8.450278357393276e-06   1.3505387413193025e-06   4.64556587928338e-06
-8.450278357393276e-06   1.3505387413193025e-06   4.64556587928338e-06
-8.450278357393276e-06   1.3505387413193025e-06   4.64556587928338e-06
-8.450278357393276e-06   1.3505387413193025e-06   4.64556587928338e-06
-5.719433584201512e-06   1.129065964304923e-06   2.2704159017238306e-07
-5.719433584201512e-06   1.129065964304923e-06   2.2704159017238306e-07
-5.719433584201512e-06   1.129065964304923e-06   2.2704159017238306e-07
-5.719433584201512e-06   1.129065964304923e-06   2.2704159017238306e-07
-6.7255386097781065e-06   1.3093410256559673e-06   1.795718262656199e-06
-6.7255386097781065e-06   1.3093410256559673e-06   1.795718262656199e-06
-6.7255386097781065e-06   1.3093410256559673e-06   1.795718262656199e-06
-6.7255386097781065e-06   1.3093410256559673e-06   1.795718262656199e-06
3.849386463369672e-06   -4.952010831043652e-07   3.679917972068263e-06
3.849386463369672e-06   -4.952010831043652e-07   3.679917972068263e-06
3.849386463369672e-06   -4.952010831043652e-07   3.679917972068263e-06
3.849386463369672e-06   -4.952010831043652e-07   3.679917972068263e-06
1.6080249541370544e-06   -2.6802768375534455e-07   8.061949628994543e-08
1.6080249541370544e-06   -2.6802768375534455e-07   8.061949628994543e-08
1.6080249541370544e-06   -2.6802768375534455e-07   8.061949628994543e-08
1.6080249541370544e-06   -2.6802768375534455e-07   8.061949628994543e-08
1.5234344494055666e-06   -5.928866698233894e-07   3.2886986895518523e-06
1.5234344494055666e-06   -5.928866698233894e-07   3.2886986895518523e-06
1.5234344494055666e-06   -5.928866698233894e-07   3.2886986895518523e-06
1.5234344494055666e-06   -5.928866698233894e-07   3.2886986895518523e-06
3.66652204673984e-06   -3.581118333930225e-07   -4.23978874530157e-07
3.66652204673984e-06   -3.581118333930225e-07   -4.23978874530157e-07
3.66652204673984e-06   -3.581118333930225e-07   -4.23978874530157e-07
3.66652204673984e-06   -3.581118333930225e-07   -4.23978874530157e-07
2.530594226011342e-06   -4.3723708307110733e-07   1.5167093098242452e-06
2.530594226011342e-06   -4.3723708307110733e-07   1.5167093098242452e-06
2.530594226011342e-06   -4.3723708307110733e-07   1.5167093098242452e-06
2.530594226011342e-06   -4.3723708307110733e-07   1.5167093098242452e-06
3.666522046739847e-06   -5.928866698233894e-07   3.1478337876936484e-06
3.666522046739847e-06   -5.928866698233894e-07   3.1478337876936484e-06
3.666522046739847e-06   -5.928866698233894e-07   3.1478337876936484e-06
3.666522046739847e-06   -5.928866698233894e-07   3.1478337876936484e-06
1.5234344494055615e-06   -3.581118333930225e-07   -2.8311397267194124e-07
1.5234344494055615e-06   -3.581118333930225e-07   -2.8311397267194124e-07
1.5234344494055615e-06   -3.581118333930225e-07   -2.8311397267194124e-07
1.5234344494055615e-06   -3.581118333930225e-07   -2.8311397267194124e-07
1.4270425297882595e-06   -6.177680589920689e-07   3.0008460888122847e-06
1.4270425297882595e-06   -6.177680589920689e-07   3.0008460888122847e-06
1.4270425297882595e-06   -6.177680589920689e-07   3.0008460888122847e-06
1.4270425297882595e-06   -6.177680589920689e-07   3.0008460888122847e-06
3.5081254615263804e-06   -3.876715723298053e-07   -6.056833560819125e-07
3.5081254615263804e-06   -3.876715723298053e-07   -6.056833560819125e-07
3.5081254615263804e-06   -3.876715723298053e-07   -6.056833560819125e-07
3.5081254615263804e-06   -3.876715723298053e-07   -6.056833560819125e-07
2.4561150352282827e-06   -4.7596363282045515e-07   1.2006425907093915e-06
2.4561150352282827e-06   -4.7596363282045515e-07   1.2006425907093915e-06
2.4561150352282827e-06   -4.7596363282045515e-07   1.2006425907093915e-06
2.4561150352282827e-06   -4.7596363282045515e-07   1.2006425907093915e-06
3.5081254615263864e-06   -6.177680589920689e-07   2.862788196814932e-06
3.5081254615263864e-06   -6.177680589920689e-07   2.862788196814932e-06
3.5081254615263864e-06   -6.177680589920689e-07   2.862788196814932e-06
3.5081254615263864e-06   -6.177680589920689e-07   2.862788196814932e-06
1.427042529788257e-06   -3.876715723298053e-07   -4.6762546408455805e-07
1.427042529788257e-06   -3.876715723298053e-07   -4.6762546408455805e-07
1.427042529788257e-06   -3.876715723298053e-07   -4.6762546408455805e-07
1.427042529788257e-06   -3.876715723298053e-07   -4.6762546408455805e-07
1.3400516087303168e-06   -6.353835451246661e-07   2.616334520633921e-06
1.3400516087303168e-06   -6.353835451246661e-07   2.616334520633921e-06
1.3400516087303168e-06   -6.353835451246661e-07   2.616334520633921e-06
1.3400516087303168e-06   -6.353835451246661e-07   2.616334520633921e-06
3.3260565087415896e-06   -4.220823216741665e-07   -8.216543801218357e-07
3.3260565087415896e-06   -4.220823216741665e-07   -8.216543801218357e-07
3.3260565087415896e-06   -4.220823216741665e-07   -8.216543801218357e-07
3.3260565087415896e-06   -4.220823216741665e-07   -8.216543801218357e-07
2.297514293773232e-06   -4.803587506672165e-07   9.275485022212628e-07
2.297514293773232e-06   -4.803587506672165e-07   9.275485022212628e-07
2.297514293773232e-06   -4.803587506672165e-07   9.275485022212628e-07
2.297514293773232e-06   -4.803587506672165e-07   9.275485022212628e-07
1.6080249541370603e-06   -1.4267343326950302e-08   4.409362449983822e-06
1.6080249541370603e-06   -1.4267343326950302e-08   4.409362449983822e-06
1.6080249541370603e-06   -1.4267343326950302e-08   4.409362449983822e-06
1.6080249541370603e-06   -1.4267343326950302e-08   4.409362449983822e-06
-4.823936969082478e-07   1.050516101934408e-07   9.969227370205697e-07
-4.823936969082478e-07   1.050516101934408e-07   9.969227370205697e-07
-4.823936969082478e-07   1.050516101934408e-07   9.969227370205697e-07
-4.823936969082478e-07   1.050516101934408e-07   9.969227370205697e-07
-5.607254472517815e-07   -9.71054602833107e-08   4.412880141954623e-06
-5.607254472517815e-07   -9.71054602833107e-08   4.412880141954623e-06
-5.607254472517815e-07   -9.71054602833107e-08   4.412880141954623e-06
-5.607254472517815e-07   -9.71054602833107e-08   4.412880141954623e-06
1.5234344494055615e-06   1.6424655342202723e-08   8.711622448170862e-07
1.5234344494055615e-06   1.6424655342202723e-08   8.711622448170862e-07
1.5234344494055615e-06   1.6424655342202723e-08   8.711622448170862e-07
1.5234344494055615e-06   1.6424655342202723e-08   8.711622448170862e-07
5.067104064827563e-07   -5.701250274073484e-09   2.5789778597249573e-06
5.067104064827563e-07   -5.701250274073484e-09   2.5789778597249573e-06
5.067104064827563e-07   -5.701250274073484e-09   2.5789778597249573e-06
5.067104064827563e-07   -5.701250274073484e-09   2.5789778597249573e-06
1.5234344494055658e-06   -9.71054602832565e-08   4.344762072579369e-06
1.5234344494055658e-06   -9.71054602832565e-08   4.344762072579369e-06
1.5234344494055658e-06   -9.71054602832565e-08   4.344762072579369e-06
1.5234344494055658e-06   -9.71054602832565e-08   4.344762072579369e-06
-5.607254472517849e-07   1.6424655342229828e-08   9.392803141923891e-07
-5.607254472517849e-07   1.6424655342229828e-08   9.392803141923891e-07
-5.607254472517849e-07   1.6424655342229828e-08   9.392803141923891e-07
-5.607254472517849e-07   1.6424655342229828e-08   9.392803141923891e-07
-6.411254294926889e-07   -1.6036499641804364e-07   4.349670281094417e-06
-6.411254294926889e-07   -1.6036499641804364e-07   4.349670281094417e-06
-6.411254294926889e-07   -1.6036499641804364e-07   4.349670281094417e-06
-6.411254294926889e-07   -1.6036499641804364e-07   4.349670281094417e-06
1.427042529788257e-06   -5.416822268131897e-08   8.390056180508378e-07
1.427042529788257e-06   -5.416822268131897e-08   8.390056180508378e-07
1.427042529788257e-06   -5.416822268131897e-08   8.390056180508378e-07
1.427042529788257e-06   -5.416822268131897e-08   8.390056180508378e-07
4.192000804244622e-07   -6.366052811025138e-08   2.5244384169146613e-06
4.192000804244622e-07   -6.366052811025138e-08   2.5244384169146613e-06
4.192000804244622e-07   -6.366052811025138e-08   2.5244384169146613e-06
4.192000804244622e-07   -6.366052811025138e-08   2.5244384169146613e-06
1.427042529788262e-06   -1.6036499641804364e-07   4.2859522168524095e-06
1.427042529788262e-06   -1.6036499641804364e-07   4.2859522168524095e-06
1.427042529788262e-06   -1.6036499641804364e-07   4.2859522168524095e-06
1.427042529788262e-06   -1.6036499641804364e-07   4.2859522168524095e-06
-6.411254294926923e-07   -5.416822268131897e-08   9.027236822928828e-07
-6.411254294926923e-07   -5.416822268131897e-08   9.027236822928828e-07
-6.411254294926923e-07   -5.416822268131897e-08   9.027236822928828e-07
-6.411254294926923e-07   -5.416822268131897e-08   9.027236822928828e-07
-7.210867832371266e-07   -2.1642890914202106e-07   4.378319978972061e-06
-7.210867832371266e-07   -2.1642890914202106e-07   4.378319978972061e-06
-7.210867832371266e-07   -2.1642890914202106e-07   4.378319978972061e-06
-7.210867832371266e-07   -2.1642890914202106e-07   4.378319978972061e-06
1.3400516087303108e-06   -1.2128865569746984e-07   8.860051736262552e-07
1.3400516087303108e-06   -1.2128865569746984e-07   8.860051736262552e-07
1.3400516087303108e-06   -1.2128865569746984e-07   8.860051736262552e-07
1.3400516087303108e-06   -1.2128865569746984e-07   8.860051736262552e-07
3.523421853898376e-07   -1.0965801799771042e-07   2.5252091632405407e-06
3.523421853898376e-07   -1.0965801799771042e-07   2.5252091632405407e-06
3.523421853898376e-07   -1.0965801799771042e-07   2.5252091632405407e-06
3.523421853898376e-07   -1.0965801799771042e-07   2.5252091632405407e-06
-4.823936969082478e-07   4.4835344806043106e-07   4.757718824732575e-06
-4.823936969082478e-07   4.4835344806043106e-07   4.757718824732575e-06
-4.823936969082478e-07   4.4835344806043106e-07   4.757718824732575e-06
-4.823936969082478e-07   4.4835344806043106e-07   4.757718824732575e-06
-2.5335199113398892e-06   4.477875397170244e-07   1.338835589007105e-06
-2.5335199113398892e-06   4.477875397170244e-07   1.338835589007105e-06
-2.5335199113398892e-06   4.477875397170244e-07   1.338835589007105e-06
-2.5335199113398892e-06   4.477875397170244e-07   1.338835589007105e-06
-2.6114799079238177e-06   3.7784663572184305e-07   4.727173757717467e-06
-2.6114799079238177e-06   3.7784663572184305e-07   4.727173757717467e-06
-2.6114799079238177e-06   3.7784663572184305e-07   4.727173757717467e-06
-2.6114799079238177e-06   3.7784663572184305e-07   4.727173757717467e-06
-5.607254472517815e-07   3.6940018546444717e-07   1.3143175267518685e-06
-5.607254472517815e-07   3.6940018546444717e-07   1.3143175267518685e-06
-5.607254472517815e-07   3.6940018546444717e-07   1.3143175267518685e-06
-5.607254472517815e-07   3.6940018546444717e-07   1.3143175267518685e-06
-1.5510972043916925e-06   3.992024915332464e-07   2.947055738343815e-06
-1.5510972043916925e-06   3.992024915332464e-07   2.947055738343815e-06
-1.5510972043916925e-06   3.992024915332464e-07   2.947055738343815e-06
-1.5510972043916925e-06   3.992024915332464e-07   2.947055738343815e-06
-5.607254472517815e-07   3.7784663572184305e-07   4.732241627871894e-06
-5.607254472517815e-07   3.7784663572184305e-07   4.732241627871894e-06
-5.607254472517815e-07   3.7784663572184305e-07   4.732241627871894e-06
-5.607254472517815e-07   3.7784663572184305e-07   4.732241627871894e-06
-2.6114799079238177e-06   3.6940018546442006e-07   1.309249656597408e-06
-2.6114799079238177e-06   3.6940018546442006e-07   1.309249656597408e-06
-2.6114799079238177e-06   3.6940018546442006e-07   1.309249656597408e-06
-2.6114799079238177e-06   3.6940018546442006e-07   1.309249656597408e-06
-2.6910399789284202e-06   3.0856541926595725e-07   4.74580411364688e-06
-2.6910399789284202e-06   3.0856541926595725e-07   4.74580411364688e-06
-2.6910399789284202e-06   3.0856541926595725e-07   4.74580411364688e-06
-2.6910399789284202e-06   3.0856541926595725e-07   4.74580411364688e-06
-6.411254294926889e-07   2.9197993177060354e-07   1.3392311570845577e-06
-6.411254294926889e-07   2.9197993177060354e-07   1.3392311570845577e-06
-6.411254294926889e-07   2.9197993177060354e-07   1.3392311570845577e-06
-6.411254294926889e-07   2.9197993177060354e-07   1.3392311570845577e-06
-1.6218200508823601e-06   3.432229261739195e-07   2.942976396092118e-06
-1.6218200508823601e-06   3.432229261739195e-07   2.942976396092118e-06
-1.6218200508823601e-06   3.432229261739195e-07   2.942976396092118e-06
-1.6218200508823601e-06   3.432229261739195e-07   2.942976396092118e-06
-6.411254294926923e-07   3.0856541926595725e-07   4.755755406144082e-06
-6.411254294926923e-07   3.0856541926595725e-07   4.755755406144082e-06
-6.411254294926923e-07   3.0856541926595725e-07   4.755755406144082e-06
-6.411254294926923e-07   3.0856541926595725e-07   4.755755406144082e-06
-2.6910399789284202e-06   2.9197993177060354e-07   1.3292798645873698e-06
-2.6910399789284202e-06   2.9197993177060354e-07   1.3292798645873698e-06
-2.6910399789284202e-06   2.9197993177060354e-07   1.3292798645873698e-06
-2.6910399789284202e-06   2.9197993177060354e-07   1.3292798645873698e-06
-2.769399406265836e-06   2.4299955816325155e-07   4.801764321197394e-06
-2.769399406265836e-06   2.4299955816325155e-07   4.801764321197394e-06
-2.769399406265836e-06   2.4299955816325155e-07   4.801764321197394e-06
-2.769399406265836e-06   2.4299955816325155e-07   4.801764321197394e-06
-7.210867832371266e-07   2.1775448678419424e-07   1.403056992310363e-06
-7.210867832371266e-07   2.1775448678419424e-07   1.403056992310363e-06
-7.210867832371266e-07   2.1775448678419424e-07   1.403056992310363e-06
-7.210867832371266e-07   2.1775448678419424e-07   1.403056992310363e-06
-1.696146227764054e-06   2.8880050093900824e-07   2.9855284580290043e-06
-1.696146227764054e-06   2.8880050093900824e-07   2.9855284580290043e-06
-1.696146227764054e-06   2.8880050093900824e-07   2.9855284580290043e-06
-1.696146227764054e-06   2.8880050093900824e-07   2.9855284580290043e-06
-2.5335199113398892e-06   8.967944736817338e-07   4.231105306972636e-06
-2.5335199113398892e-06   8.967944736817338e-07   4.231105306972636e-06
-2.5335199113398892e-06   8.967944736817338e-07   4.231105306972636e-06
-2.5335199113398892e-06   8.967944736817338e-07   4.231105306972636e-06
-4.564458292641811e-06   7.828640637337918e-07   7.778497588340004e-07
-4.564458292641811e-06   7.828640637337918e-07   7.778497588340004e-07
-4.564458292641811e-06   7.828640637337918e-07   7.778497588340004e-07
-4.564458292641811e-06   7.828640637337918e-07   7.778497588340004e-07
-4.648892062646062e-06   8.312452837178357e-07   4.181475070320694e-06
-4.648892062646062e-06   8.312452837178357e-07   4.181475070320694e-06
-4.648892062646062e-06   8.312452837178357e-07   4.181475070320694e-06
-4.648892062646062e-06   8.312452837178357e-07   4.181475070320694e-06
-2.611479907923811e-06   7.077901408547008e-07   8.598612315015601e-07
-2.611479907923811e-06   7.077901408547008e-07   8.598612315015601e-07
-2.611479907923811e-06   7.077901408547008e-07   8.598612315015601e-07
-2.611479907923811e-06   7.077901408547008e-07   8.598612315015601e-07
-3.578971877646122e-06   7.886777110821248e-07   2.42381530556907e-06
-3.578971877646122e-06   7.886777110821248e-07   2.42381530556907e-06
-3.578971877646122e-06   7.886777110821248e-07   2.42381530556907e-06
-3.578971877646122e-06   7.886777110821248e-07   2.42381530556907e-06
-2.6114799079238177e-06   8.312452837178899e-07   4.255548156038619e-06
-2.6114799079238177e-06   8.312452837178899e-07   4.255548156038619e-06
-2.6114799079238177e-06   8.312452837178899e-07   4.255548156038619e-06
-2.6114799079238177e-06   8.312452837178899e-07   4.255548156038619e-06
-4.648892062646056e-06   7.077901408547279e-07   7.857881457836629e-07
-4.648892062646056e-06   7.077901408547279e-07   7.857881457836629e-07
-4.648892062646056e-06   7.077901408547279e-07   7.857881457836629e-07
-4.648892062646056e-06   7.077901408547279e-07   7.857881457836629e-07
-4.743171289869087e-06   7.683236770873064e-07   4.32561648693554e-06
-4.743171289869087e-06   7.683236770873064e-07   4.32561648693554e-06
-4.743171289869087e-06   7.683236770873064e-07   4.32561648693554e-06
-4.743171289869087e-06   7.683236770873064e-07   4.32561648693554e-06
-2.6910399789284135e-06   6.367287224935474e-07   9.843546081240496e-07
-2.6910399789284135e-06   6.367287224935474e-07   9.843546081240496e-07
-2.6910399789284135e-06   6.367287224935474e-07   9.843546081240496e-07
-2.6910399789284135e-06   6.367287224935474e-07   9.843546081240496e-07
-3.6341444523715793e-06   7.382271269144088e-07   2.4952963545435687e-06
-3.6341444523715793e-06   7.382271269144088e-07   2.4952963545435687e-06
-3.6341444523715793e-06   7.382271269144088e-07   2.4952963545435687e-06
-3.6341444523715793e-06   7.382271269144088e-07   2.4952963545435687e-06
-2.6910399789284202e-06   7.683236770873064e-07   4.404573459691795e-06
-2.6910399789284202e-06   7.683236770873064e-07   4.404573459691795e-06
-2.6910399789284202e-06   7.683236770873064e-07   4.404573459691795e-06
-2.6910399789284202e-06   7.683236770873064e-07   4.404573459691795e-06
-4.7431712898690805e-06   6.367287224935474e-07   9.053976353677807e-07
-4.7431712898690805e-06   6.367287224935474e-07   9.053976353677807e-07
-4.7431712898690805e-06   6.367287224935474e-07   9.053976353677807e-07
-4.7431712898690805e-06   6.367287224935474e-07   9.053976353677807e-07
-4.8258056761271814e-06   6.933547790849231e-07   4.4406531302606275e-06
-4.8258056761271814e-06   6.933547790849231e-07   4.4406531302606275e-06
-4.8258056761271814e-06   6.933547790849231e-07   4.4406531302606275e-06
-4.8258056761271814e-06   6.933547790849231e-07   4.4406531302606275e-06
-2.7693994062658225e-06   5.557174063344902e-07   1.0958917708086754e-06
-2.7693994062658225e-06   5.557174063344902e-07   1.0958917708086754e-06
-2.7693994062658225e-06   5.557174063344902e-07   1.0958917708086754e-06
-2.7693994062658225e-06   5.557174063344902e-07   1.0958917708086754e-06
-3.7304960714119993e-06   6.833312976829925e-07   2.6211512112432684e-06
-3.7304960714119993e-06   6.833312976829925e-07   2.6211512112432684e-06
-3.7304960714119993e-06   6.833312976829925e-07   2.6211512112432684e-06
-3.7304960714119993e-06   6.833312976829925e-07   2.6211512112432684e-06
-4.564458292641811e-06   1.2601583653405876e-06   2.063609157137693e-06
-4.564458292641811e-06   1.2601583653405876e-06   2.063609157137693e-06
-4.564458292641811e-06   1.2601583653405876e-06   2.063609157137693e-06
-4.564458292641811e-06   1.2601583653405876e-06   2.063609157137693e-06
-6.511209215471308e-06   1.0502074571680877e-06   -1.3069462591482853e-06
-6.511209215471308e-06   1.0502074571680877e-06   -1.3069462591482853e-06
-6.511209215471308e-06   1.0502074571680877e-06   -1.3069462591482853e-06
-6.511209215471308e-06   1.0502074571680877e-06   -1.3069462591482853e-06
-6.6908168845377e-06   1.2609842512283152e-06   2.6859561456910974e-06
-6.6908168845377e-06   1.2609842512283152e-06   2.6859561456910974e-06
-6.6908168845377e-06   1.2609842512283152e-06   2.6859561456910974e-06
-6.6908168845377e-06   1.2609842512283152e-06   2.6859561456910974e-06
-4.648892062646049e-06   1.03019835249866e-06   -5.787803515571561e-07
-4.648892062646049e-06   1.03019835249866e-06   -5.787803515571561e-07
-4.648892062646049e-06   1.03019835249866e-06   -5.787803515571561e-07
-4.648892062646049e-06   1.03019835249866e-06   -5.787803515571561e-07
-5.392776323700598e-06   1.12680139627584e-06   6.030649239342106e-07
-5.392776323700598e-06   1.12680139627584e-06   6.030649239342106e-07
-5.392776323700598e-06   1.12680139627584e-06   6.030649239342106e-07
-5.392776323700598e-06   1.12680139627584e-06   6.030649239342106e-07
-4.648892062646056e-06   1.2609842512283152e-06   2.824427684928934e-06
-4.648892062646056e-06   1.2609842512283152e-06   2.824427684928934e-06
-4.648892062646056e-06   1.2609842512283152e-06   2.824427684928934e-06
-4.648892062646056e-06   1.2609842512283152e-06   2.824427684928934e-06
-6.690816884537707e-06   1.03019835249866e-06   -7.172518907949519e-07
-6.690816884537707e-06   1.03019835249866e-06   -7.172518907949519e-07
-6.690816884537707e-06   1.03019835249866e-06   -7.172518907949519e-07
-6.690816884537707e-06   1.03019835249866e-06   -7.172518907949519e-07
-6.845479166478779e-06   1.2376573084458067e-06   3.206149398571486e-06
-6.845479166478779e-06   1.2376573084458067e-06   3.206149398571486e-06
-6.845479166478779e-06   1.2376573084458067e-06   3.206149398571486e-06
-6.845479166478779e-06   1.2376573084458067e-06   3.206149398571486e-06
-4.743171289869074e-06   9.997175378914983e-07   -1.5493320011212783e-07
-4.743171289869074e-06   9.997175378914983e-07   -1.5493320011212783e-07
-4.743171289869074e-06   9.997175378914983e-07   -1.5493320011212783e-07
-4.743171289869074e-06   9.997175378914983e-07   -1.5493320011212783e-07
-5.589901220229439e-06   1.1305211125032578e-06   1.177801205721579e-06
-5.589901220229439e-06   1.1305211125032578e-06   1.177801205721579e-06
-5.589901220229439e-06   1.1305211125032578e-06   1.177801205721579e-06
-5.589901220229439e-06   1.1305211125032578e-06   1.177801205721579e-06
-4.743171289869087e-06   1.2376573084458067e-06   3.348913260904071e-06
-4.743171289869087e-06   1.2376573084458067e-06   3.348913260904071e-06
-4.743171289869087e-06   1.2376573084458067e-06   3.348913260904071e-06
-4.743171289869087e-06   1.2376573084458067e-06   3.348913260904071e-06
-6.845479166478779e-06   9.997175378914983e-07   -2.9769706244469935e-07
-6.845479166478779e-06   9.997175378914983e-07   -2.9769706244469935e-07
-6.845479166478779e-06   9.997175378914983e-07   -2.9769706244469935e-07
-6.845479166478779e-06   9.997175378914983e-07   -2.9769706244469935e-07
-7.023105678480049e-06   1.129065964304923e-06   4.102718808121961e-06
-7.023105678480049e-06   1.129065964304923e-06   4.102718808121961e-06
-7.023105678480049e-06   1.129065964304923e-06   4.102718808121961e-06
-7.023105678480049e-06   1.129065964304923e-06   4.102718808121961e-06
-4.825805676127161e-06   8.927358290157787e-07   5.823502187072947e-07
-4.825805676127161e-06   8.927358290157787e-07   5.823502187072947e-07
-4.825805676127161e-06   8.927358290157787e-07   5.823502187072947e-07
-4.825805676127161e-06   8.927358290157787e-07   5.823502187072947e-07
-5.621041632538907e-06   1.0834861156245636e-06   1.7932933074282597e-06
-5.621041632538907e-06   1.0834861156245636e-06   1.7932933074282597e-06
-5.621041632538907e-06   1.0834861156245636e-06   1.7932933074282597e-06
-5.621041632538907e-06   1.0834861156245636e-06   1.7932933074282597e-06
2.322014608139904e-06   -2.6802768375534455e-07   2.999980145500193e-06
2.322014608139904e-06   -2.6802768375534455e-07   2.999980145500193e-06
2.322014608139904e-06   -2.6802768375534455e-07   2.999980145500193e-06
2.322014608139904e-06   -2.6802768375534455e-07   2.999980145500193e-06
6.787219946614547e-07   -3.506292549061924e-08   4.0093797799498065e-07
6.787219946614547e-07   -3.506292549061924e-08   4.0093797799498065e-07
6.787219946614547e-07   -3.506292549061924e-08   4.0093797799498065e-07
6.787219946614547e-07   -3.506292549061924e-08   4.0093797799498065e-07
6.124981551370777e-07   -3.581118333930225e-07   2.7724751125090885e-06
6.124981551370777e-07   -3.581118333930225e-07   2.7724751125090885e-06
6.124981551370777e-07   -3.581118333930225e-07   2.7724751125090885e-06
6.124981551370777e-07   -3.581118333930225e-07   2.7724751125090885e-06
2.156208371112236e-06   -1.1756351072175373e-07   5.529575894774706e-08
2.156208371112236e-06   -1.1756351072175373e-07   5.529575894774706e-08
2.156208371112236e-06   -1.1756351072175373e-07   5.529575894774706e-08
2.156208371112236e-06   -1.1756351072175373e-07   5.529575894774706e-08
1.3605771072113828e-06   -2.0632596821351266e-07   1.4346053399443289e-06
1.3605771072113828e-06   -2.0632596821351266e-07   1.4346053399443289e-06
1.3605771072113828e-06   -2.0632596821351266e-07   1.4346053399443289e-06
1.3605771072113828e-06   -2.0632596821351266e-07   1.4346053399443289e-06
2.1562083711122393e-06   -3.581118333930225e-07   2.6281461189063245e-06
2.1562083711122393e-06   -3.581118333930225e-07   2.6281461189063245e-06
2.1562083711122393e-06   -3.581118333930225e-07   2.6281461189063245e-06
2.1562083711122393e-06   -3.581118333930225e-07   2.6281461189063245e-06
6.12498155137076e-07   -1.1756351072175373e-07   1.996247525504907e-07
6.12498155137076e-07   -1.1756351072175373e-07   1.996247525504907e-07
6.12498155137076e-07   -1.1756351072175373e-07   1.996247525504907e-07
6.12498155137076e-07   -1.1756351072175373e-07   1.996247525504907e-07
5.340159401941562e-07   -3.876715723298053e-07   2.5856841854675615e-06
5.340159401941562e-07   -3.876715723298053e-07   2.5856841854675615e-06
5.340159401941562e-07   -3.876715723298053e-07   2.5856841854675615e-06
5.340159401941562e-07   -3.876715723298053e-07   2.5856841854675615e-06
2.0143200526425285e-06   -1.5107236760861557e-07   -2.3448858112417844e-08
2.0143200526425285e-06   -1.5107236760861557e-07   -2.3448858112417844e-08
2.0143200526425285e-06   -1.5107236760861557e-07   -2.3448858112417844e-08
2.0143200526425285e-06   -1.5107236760861557e-07   -2.3448858112417844e-08
1.2854472354155056e-06   -2.425407578445513e-07   1.246220204740843e-06
1.2854472354155056e-06   -2.425407578445513e-07   1.246220204740843e-06
1.2854472354155056e-06   -2.425407578445513e-07   1.246220204740843e-06
1.2854472354155056e-06   -2.425407578445513e-07   1.246220204740843e-06
2.014320052642532e-06   -3.876715723298053e-07   2.4437246626348612e-06
2.014320052642532e-06   -3.876715723298053e-07   2.4437246626348612e-06
2.014320052642532e-06   -3.876715723298053e-07   2.4437246626348612e-06
2.014320052642532e-06   -3.876715723298053e-07   2.4437246626348612e-06
5.340159401941545e-07   -1.5107236760861557e-07   1.1851066472029601e-07
5.340159401941545e-07   -1.5107236760861557e-07   1.1851066472029601e-07
5.340159401941545e-07   -1.5107236760861557e-07   1.1851066472029601e-07
5.340159401941545e-07   -1.5107236760861557e-07   1.1851066472029601e-07
4.6533849962339975e-07   -4.220823216741665e-07   2.3571804102179788e-06
4.6533849962339975e-07   -4.220823216741665e-07   2.3571804102179788e-06
4.6533849962339975e-07   -4.220823216741665e-07   2.3571804102179788e-06
4.6533849962339975e-07   -4.220823216741665e-07   2.3571804102179788e-06
1.8460136750346787e-06   -2.0298777389212222e-07   -7.54016108033276e-08
1.8460136750346787e-06   -2.0298777389212222e-07   -7.54016108033276e-08
1.8460136750346787e-06   -2.0298777389212222e-07   -7.54016108033276e-08
1.8460136750346787e-06   -2.0298777389212222e-07   -7.54016108033276e-08
1.1607940506412702e-06   -2.574548643167931e-07   1.0993113507738617e-06
1.1607940506412702e-06   -2.574548643167931e-07   1.0993113507738617e-06
1.1607940506412702e-06   -2.574548643167931e-07   1.0993113507738617e-06
1.1607940506412702e-06   -2.574548643167931e-07   1.0993113507738617e-06
6.787219946614564e-07   1.050516101934408e-07   3.984470869077407e-06
6.787219946614564e-07   1.050516101934408e-07   3.984470869077407e-06
6.787219946614564e-07   1.050516101934408e-07   3.984470869077407e-06
6.787219946614564e-07   1.050516101934408e-07   3.984470869077407e-06
-8.063308491554947e-07   2.1476238042634848e-07   1.5752092581888995e-06
-8.063308491554947e-07   2.1476238042634848e-07   1.5752092581888995e-06
-8.063308491554947e-07   2.1476238042634848e-07   1.5752092581888995e-06
-8.063308491554947e-07   2.1476238042634848e-07   1.5752092581888995e-06
-8.652197781813169e-07   1.6424655342229828e-08   3.991464928940273e-06
-8.652197781813169e-07   1.6424655342229828e-08   3.991464928940273e-06
-8.652197781813169e-07   1.6424655342229828e-08   3.991464928940273e-06
-8.652197781813169e-07   1.6424655342229828e-08   3.991464928940273e-06
6.12498155137076e-07   1.2428065357915352e-07   1.4638881078008364e-06
6.12498155137076e-07   1.2428065357915352e-07   1.4638881078008364e-06
6.12498155137076e-07   1.2428065357915352e-07   1.4638881078008364e-06
6.12498155137076e-07   1.2428065357915352e-07   1.4638881078008364e-06
-1.0705886152583165e-07   1.0492754311464602e-07   2.674761668517857e-06
-1.0705886152583165e-07   1.0492754311464602e-07   2.674761668517857e-06
-1.0705886152583165e-07   1.0492754311464602e-07   2.674761668517857e-06
-1.0705886152583165e-07   1.0492754311464602e-07   2.674761668517857e-06
6.124981551370769e-07   1.6424655342202723e-08   3.926751329998124e-06
6.124981551370769e-07   1.6424655342202723e-08   3.926751329998124e-06
6.124981551370769e-07   1.6424655342202723e-08   3.926751329998124e-06
6.124981551370769e-07   1.6424655342202723e-08   3.926751329998124e-06
-8.652197781813169e-07   1.2428065357915352e-07   1.5286017067430005e-06
-8.652197781813169e-07   1.2428065357915352e-07   1.5286017067430005e-06
-8.652197781813169e-07   1.2428065357915352e-07   1.5286017067430005e-06
-8.652197781813169e-07   1.2428065357915352e-07   1.5286017067430005e-06
-9.261277276782174e-07   -5.4168222681291863e-08   3.95459469324213e-06
-9.261277276782174e-07   -5.4168222681291863e-08   3.95459469324213e-06
-9.261277276782174e-07   -5.4168222681291863e-08   3.95459469324213e-06
-9.261277276782174e-07   -5.4168222681291863e-08   3.95459469324213e-06
5.340159401941545e-07   4.963082005061351e-08   1.4587424878157069e-06
5.340159401941545e-07   4.963082005061351e-08   1.4587424878157069e-06
5.340159401941545e-07   4.963082005061351e-08   1.4587424878157069e-06
5.340159401941545e-07   4.963082005061351e-08   1.4587424878157069e-06
-1.7077324711434665e-07   4.310452137758214e-08   2.6373069125337263e-06
-1.7077324711434665e-07   4.310452137758214e-08   2.6373069125337263e-06
-1.7077324711434665e-07   4.310452137758214e-08   2.6373069125337263e-06
-1.7077324711434665e-07   4.310452137758214e-08   2.6373069125337263e-06
5.340159401941562e-07   -5.416822268131897e-08   3.892315267602981e-06
5.340159401941562e-07   -5.416822268131897e-08   3.892315267602981e-06
5.340159401941562e-07   -5.416822268131897e-08   3.892315267602981e-06
5.340159401941562e-07   -5.416822268131897e-08   3.892315267602981e-06
-9.261277276782208e-07   4.963082005061351e-08   1.5210219134548572e-06
-9.261277276782208e-07   4.963082005061351e-08   1.5210219134548572e-06
-9.261277276782208e-07   4.963082005061351e-08   1.5210219134548572e-06
-9.261277276782208e-07   4.963082005061351e-08   1.5210219134548572e-06
-9.864689215359838e-07   -1.2128865569746984e-07   3.995131735762535e-06
-9.864689215359838e-07   -1.2128865569746984e-07   3.995131735762535e-06
-9.864689215359838e-07   -1.2128865569746984e-07   3.995131735762535e-06
-9.864689215359838e-07   -1.2128865569746984e-07   3.995131735762535e-06
4.653384996233989e-07   -2.416781258625378e-08   1.5171801946301785e-06
4.653384996233989e-07   -2.416781258625378e-08   1.5171801946301785e-06
4.653384996233989e-07   -2.416781258625378e-08   1.5171801946301785e-06
4.653384996233989e-07   -2.416781258625378e-08   1.5171801946301785e-06
-2.2334739489989142e-07   -1.0045537309188437e-08   2.6565166536694754e-06
-2.2334739489989142e-07   -1.0045537309188437e-08   2.6565166536694754e-06
-2.2334739489989142e-07   -1.0045537309188437e-08   2.6565166536694754e-06
-2.2334739489989142e-07   -1.0045537309188437e-08   2.6565166536694754e-06
-8.063308491554947e-07   4.477875397170244e-07   4.392549728209766e-06
-8.063308491554947e-07   4.477875397170244e-07   4.392549728209766e-06
-8.063308491554947e-07   4.477875397170244e-07   4.392549728209766e-06
-8.063308491554947e-07   4.477875397170244e-07   4.392549728209766e-06
-2.2582497159005433e-06   4.285890335869514e-07   1.9611658466233306e-06
-2.2582497159005433e-06   4.285890335869514e-07   1.9611658466233306e-06
-2.2582497159005433e-06   4.285890335869514e-07   1.9611658466233306e-06
-2.2582497159005433e-06   4.285890335869514e-07   1.9611658466233306e-06
-2.315389395948863e-06   3.6940018546444717e-07   4.353210877545668e-06
-2.315389395948863e-06   3.6940018546444717e-07   4.353210877545668e-06
-2.315389395948863e-06   3.6940018546444717e-07   4.353210877545668e-06
-2.315389395948863e-06   3.6940018546444717e-07   4.353210877545668e-06
-8.652197781813135e-07   3.472480788742989e-07   1.949552778553865e-06
-8.652197781813135e-07   3.472480788742989e-07   1.949552778553865e-06
-8.652197781813135e-07   3.472480788742989e-07   1.949552778553865e-06
-8.652197781813135e-07   3.472480788742989e-07   1.949552778553865e-06
-1.5648346476480342e-06   3.868518345259914e-07   3.0918153076075203e-06
-1.5648346476480342e-06   3.868518345259914e-07   3.0918153076075203e-06
-1.5648346476480342e-06   3.868518345259914e-07   3.0918153076075203e-06
-1.5648346476480342e-06   3.868518345259914e-07   3.0918153076075203e-06
-8.652197781813169e-07   3.6940018546444717e-07   4.366502141499746e-06
-8.652197781813169e-07   3.6940018546444717e-07   4.366502141499746e-06
-8.652197781813169e-07   3.6940018546444717e-07   4.366502141499746e-06
-8.652197781813169e-07   3.6940018546444717e-07   4.366502141499746e-06
-2.3153893959488595e-06   3.472480788742989e-07   1.936261514599787e-06
-2.3153893959488595e-06   3.472480788742989e-07   1.936261514599787e-06
-2.3153893959488595e-06   3.472480788742989e-07   1.936261514599787e-06
-2.3153893959488595e-06   3.472480788742989e-07   1.936261514599787e-06
-2.3741565599417496e-06   2.9197993177060354e-07   4.3757450970089784e-06
-2.3741565599417496e-06   2.9197993177060354e-07   4.3757450970089784e-06
-2.3741565599417496e-06   2.9197993177060354e-07   4.3757450970089784e-06
-2.3741565599417496e-06   2.9197993177060354e-07   4.3757450970089784e-06
-9.261277276782174e-07   2.6638481339581635e-07   1.97772078092799e-06
-9.261277276782174e-07   2.6638481339581635e-07   1.97772078092799e-06
-9.261277276782174e-07   2.6638481339581635e-07   1.97772078092799e-06
-9.261277276782174e-07   2.6638481339581635e-07   1.97772078092799e-06
-1.6152055512356367e-06   3.259408053588237e-07   3.0904502250125306e-06
-1.6152055512356367e-06   3.259408053588237e-07   3.0904502250125306e-06
-1.6152055512356367e-06   3.259408053588237e-07   3.0904502250125306e-06
-1.6152055512356367e-06   3.259408053588237e-07   3.0904502250125306e-06
-9.261277276782208e-07   2.9197993177060354e-07   4.391102168033818e-06
-9.261277276782208e-07   2.9197993177060354e-07   4.391102168033818e-06
-9.261277276782208e-07   2.9197993177060354e-07   4.391102168033818e-06
-9.261277276782208e-07   2.9197993177060354e-07   4.391102168033818e-06
-2.3741565599417394e-06   2.6638481339584345e-07   1.9623637099031163e-06
-2.3741565599417394e-06   2.6638481339584345e-07   1.9623637099031163e-06
-2.3741565599417394e-06   2.6638481339584345e-07   1.9623637099031163e-06
-2.3741565599417394e-06   2.6638481339584345e-07   1.9623637099031163e-06
-2.431838222533885e-06   2.1775448678419424e-07   4.438145746887812e-06
-2.431838222533885e-06   2.1775448678419424e-07   4.438145746887812e-06
-2.431838222533885e-06   2.1775448678419424e-07   4.438145746887812e-06
-2.431838222533885e-06   2.1775448678419424e-07   4.438145746887812e-06
-9.864689215359838e-07   1.8949839429739787e-07   2.0461505673834246e-06
-9.864689215359838e-07   1.8949839429739787e-07   2.0461505673834246e-06
-9.864689215359838e-07   1.8949839429739787e-07   2.0461505673834246e-06
-9.864689215359838e-07   1.8949839429739787e-07   2.0461505673834246e-06
-1.6690658217873318e-06   2.6652254354826753e-07   3.1375975782518633e-06
-1.6690658217873318e-06   2.6652254354826753e-07   3.1375975782518633e-06
-1.6690658217873318e-06   2.6652254354826753e-07   3.1375975782518633e-06
-1.6690658217873318e-06   2.6652254354826753e-07   3.1375975782518633e-06
-2.2582497159005433e-06   7.828640637337918e-07   3.888403040327391e-06
-2.2582497159005433e-06   7.828640637337918e-07   3.888403040327391e-06
-2.2582497159005433e-06   7.828640637337918e-07   3.888403040327391e-06
-2.2582497159005433e-06   7.828640637337918e-07   3.888403040327391e-06
-3.6950016227062056e-06   6.509663685517922e-07   1.4146779118754155e-06
-3.6950016227062056e-06   6.509663685517922e-07   1.4146779118754155e-06
-3.6950016227062056e-06   6.509663685517922e-07   1.4146779118754155e-06
-3.6950016227062056e-06   6.509663685517922e-07   1.4146779118754155e-06
-3.7579847848700495e-06   7.077901408547008e-07   3.821080090924415e-06
-3.7579847848700495e-06   7.077901408547008e-07   3.821080090924415e-06
-3.7579847848700495e-06   7.077901408547008e-07   3.821080090924415e-06
-3.7579847848700495e-06   7.077901408547008e-07   3.821080090924415e-06
-2.315389395948856e-06   5.698862049790436e-07   1.4994968042478737e-06
-2.315389395948856e-06   5.698862049790436e-07   1.4994968042478737e-06
-2.315389395948856e-06   5.698862049790436e-07   1.4994968042478737e-06
-2.315389395948856e-06   5.698862049790436e-07   1.4994968042478737e-06
-2.9991200277486023e-06   6.642323593567098e-07   2.5824401646209756e-06
-2.9991200277486023e-06   6.642323593567098e-07   2.5824401646209756e-06
-2.9991200277486023e-06   6.642323593567098e-07   2.5824401646209756e-06
-2.9991200277486023e-06   6.642323593567098e-07   2.5824401646209756e-06
-2.315389395948863e-06   7.077901408547008e-07   3.90382245244982e-06
-2.315389395948863e-06   7.077901408547008e-07   3.90382245244982e-06
-2.315389395948863e-06   7.077901408547008e-07   3.90382245244982e-06
-2.315389395948863e-06   7.077901408547008e-07   3.90382245244982e-06
-3.7579847848700427e-06   5.698862049790165e-07   1.4167544427224618e-06
-3.7579847848700427e-06   5.698862049790165e-07   1.4167544427224618e-06
-3.7579847848700427e-06   5.698862049790165e-07   1.4167544427224618e-06
-3.7579847848700427e-06   5.698862049790165e-07   1.4167544427224618e-06
-3.831732966943214e-06   6.367287224935474e-07   3.945671301090525e-06
-3.831732966943214e-06   6.367287224935474e-07   3.945671301090525e-06
-3.831732966943214e-06   6.367287224935474e-07   3.945671301090525e-06
-3.831732966943214e-06   6.367287224935474e-07   3.945671301090525e-06
-2.374156559941736e-06   4.948144900682714e-07   1.6015258288765825e-06
-2.374156559941736e-06   4.948144900682714e-07   1.6015258288765825e-06
-2.374156559941736e-06   4.948144900682714e-07   1.6015258288765825e-06
-2.374156559941736e-06   4.948144900682714e-07   1.6015258288765825e-06
-3.037739613030373e-06   6.076291154978857e-07   2.639808808766516e-06
-3.037739613030373e-06   6.076291154978857e-07   2.639808808766516e-06
-3.037739613030373e-06   6.076291154978857e-07   2.639808808766516e-06
-3.037739613030373e-06   6.076291154978857e-07   2.639808808766516e-06
-2.374156559941746e-06   6.367287224935474e-07   4.030819840545658e-06
-2.374156559941746e-06   6.367287224935474e-07   4.030819840545658e-06
-2.374156559941746e-06   6.367287224935474e-07   4.030819840545658e-06
-2.374156559941746e-06   6.367287224935474e-07   4.030819840545658e-06
-3.831732966943194e-06   4.948144900682714e-07   1.5163772894214155e-06
-3.831732966943194e-06   4.948144900682714e-07   1.5163772894214155e-06
-3.831732966943194e-06   4.948144900682714e-07   1.5163772894214155e-06
-3.831732966943194e-06   4.948144900682714e-07   1.5163772894214155e-06
-3.893956092370542e-06   5.557174063344902e-07   4.060589911179216e-06
-3.893956092370542e-06   5.557174063344902e-07   4.060589911179216e-06
-3.893956092370542e-06   5.557174063344902e-07   4.060589911179216e-06
-3.893956092370542e-06   5.557174063344902e-07   4.060589911179216e-06
-2.4318382225338816e-06   4.1315464461056414e-07   1.7092644518191738e-06
-2.4318382225338816e-06   4.1315464461056414e-07   1.7092644518191738e-06
-2.4318382225338816e-06   4.1315464461056414e-07   1.7092644518191738e-06
-2.4318382225338816e-06   4.1315464461056414e-07   1.7092644518191738e-06
-3.1082670495006818e-06   5.493945770103045e-07   2.7549018706574813e-06
-3.1082670495006818e-06   5.493945770103045e-07   2.7549018706574813e-06
-3.1082670495006818e-06   5.493945770103045e-07   2.7549018706574813e-06
-3.1082670495006818e-06   5.493945770103045e-07   2.7549018706574813e-06
-3.695001622706219e-06   1.0502074571680877e-06   1.8504389501394108e-06
-3.695001622706219e-06   1.0502074571680877e-06   1.8504389501394108e-06
-3.695001622706219e-06   1.0502074571680877e-06   1.8504389501394108e-06
-3.695001622706219e-06   1.0502074571680877e-06   1.8504389501394108e-06
-5.034120466998362e-06   8.231511731688745e-07   -5.176595607470305e-07
-5.034120466998362e-06   8.231511731688745e-07   -5.176595607470305e-07
-5.034120466998362e-06   8.231511731688745e-07   -5.176595607470305e-07
-5.034120466998362e-06   8.231511731688745e-07   -5.176595607470305e-07
-5.197466862898199e-06   1.03019835249866e-06   2.3086906576919725e-06
-5.197466862898199e-06   1.03019835249866e-06   2.3086906576919725e-06
-5.197466862898199e-06   1.03019835249866e-06   2.3086906576919725e-06
-5.197466862898199e-06   1.03019835249866e-06   2.3086906576919725e-06
-3.757984784870036e-06   7.838301260126575e-07   5.7374796869988517e-08
-3.757984784870036e-06   7.838301260126575e-07   5.7374796869988517e-08
-3.757984784870036e-06   7.838301260126575e-07   5.7374796869988517e-08
-3.757984784870036e-06   7.838301260126575e-07   5.7374796869988517e-08
-4.258959927444125e-06   9.018728962438224e-07   8.215077056882795e-07
-4.258959927444125e-06   9.018728962438224e-07   8.215077056882795e-07
-4.258959927444125e-06   9.018728962438224e-07   8.215077056882795e-07
-4.258959927444125e-06   9.018728962438224e-07   8.215077056882795e-07
-3.7579847848700427e-06   1.03019835249866e-06   2.4565115935835686e-06
-3.7579847848700427e-06   1.03019835249866e-06   2.4565115935835686e-06
-3.7579847848700427e-06   1.03019835249866e-06   2.4565115935835686e-06
-3.7579847848700427e-06   1.03019835249866e-06   2.4565115935835686e-06
-5.197466862898199e-06   7.838301260126575e-07   -9.044613902158726e-08
-5.197466862898199e-06   7.838301260126575e-07   -9.044613902158726e-08
-5.197466862898199e-06   7.838301260126575e-07   -9.044613902158726e-08
-5.197466862898199e-06   7.838301260126575e-07   -9.044613902158726e-08
-5.3361838769651316e-06   9.997175378914983e-07   2.7344311978931243e-06
-5.3361838769651316e-06   9.997175378914983e-07   2.7344311978931243e-06
-5.3361838769651316e-06   9.997175378914983e-07   2.7344311978931243e-06
-5.3361838769651316e-06   9.997175378914983e-07   2.7344311978931243e-06
-3.831732966943194e-06   7.482020916957681e-07   3.779222822407178e-07
-3.831732966943194e-06   7.482020916957681e-07   3.779222822407178e-07
-3.831732966943194e-06   7.482020916957681e-07   3.779222822407178e-07
-3.831732966943194e-06   7.482020916957681e-07   3.779222822407178e-07
-4.4199914639436354e-06   8.935218738588178e-07   1.2711612412770392e-06
-4.4199914639436354e-06   8.935218738588178e-07   1.2711612412770392e-06
-4.4199914639436354e-06   8.935218738588178e-07   1.2711612412770392e-06
-4.4199914639436354e-06   8.935218738588178e-07   1.2711612412770392e-06
-3.8317329669432004e-06   9.997175378914983e-07   2.8853404656105895e-06
-3.8317329669432004e-06   9.997175378914983e-07   2.8853404656105895e-06
-3.8317329669432004e-06   9.997175378914983e-07   2.8853404656105895e-06
-3.8317329669432004e-06   9.997175378914983e-07   2.8853404656105895e-06
-5.3361838769651316e-06   7.482020916957681e-07   2.2701301452328647e-07
-5.3361838769651316e-06   7.482020916957681e-07   2.2701301452328647e-07
-5.3361838769651316e-06   7.482020916957681e-07   2.2701301452328647e-07
-5.3361838769651316e-06   7.482020916957681e-07   2.2701301452328647e-07
-5.500071619434136e-06   8.927358290157787e-07   3.482057475048746e-06
-5.500071619434136e-06   8.927358290157787e-07   3.482057475048746e-06
-5.500071619434136e-06   8.927358290157787e-07   3.482057475048746e-06
-5.500071619434136e-06   8.927358290157787e-07   3.482057475048746e-06
-3.8939560923705285e-06   6.467803162168138e-07   9.527715709554561e-07
-3.8939560923705285e-06   6.467803162168138e-07   9.527715709554561e-07
-3.8939560923705285e-06   6.467803162168138e-07   9.527715709554561e-07
-3.8939560923705285e-06   6.467803162168138e-07   9.527715709554561e-07
-4.451301504424602e-06   8.473775558630933e-07   1.7613222472578753e-06
-4.451301504424602e-06   8.473775558630933e-07   1.7613222472578753e-06
-4.451301504424602e-06   8.473775558630933e-07   1.7613222472578753e-06
-4.451301504424602e-06   8.473775558630933e-07   1.7613222472578753e-06
7.388443027158305e-07   -3.506292549061924e-08   2.3355824769423137e-06
7.388443027158305e-07   -3.506292549061924e-08   2.3355824769423137e-06
7.388443027158305e-07   -3.506292549061924e-08   2.3355824769423137e-06
7.388443027158305e-07   -3.506292549061924e-08   2.3355824769423137e-06
-2.833695289169946e-07   1.9543469444540437e-07   7.701913295159049e-07
-2.833695289169946e-07   1.9543469444540437e-07   7.701913295159049e-07
-2.833695289169946e-07   1.9543469444540437e-07   7.701913295159049e-07
-2.833695289169946e-07   1.9543469444540437e-07   7.701913295159049e-07
-3.344548850268006e-07   -1.1756351072172663e-07   2.2687389378029814e-06
-3.344548850268006e-07   -1.1756351072172663e-07   2.2687389378029814e-06
-3.344548850268006e-07   -1.1756351072172663e-07   2.2687389378029814e-06
-3.344548850268006e-07   -1.1756351072172663e-07   2.2687389378029814e-06
5.868042785299153e-07   1.1818656115049472e-07   5.918569554184495e-07
5.868042785299153e-07   1.1818656115049472e-07   5.918569554184495e-07
5.868042785299153e-07   1.1818656115049472e-07   5.918569554184495e-07
5.868042785299153e-07   1.1818656115049472e-07   5.918569554184495e-07
1.4530663316904992e-07   2.6006265042876394e-08   1.3829945420177928e-06
1.4530663316904992e-07   2.6006265042876394e-08   1.3829945420177928e-06
1.4530663316904992e-07   2.6006265042876394e-08   1.3829945420177928e-06
1.4530663316904992e-07   2.6006265042876394e-08   1.3829945420177928e-06
5.868042785299153e-07   -1.1756351072172663e-07   2.1272888946796513e-06
5.868042785299153e-07   -1.1756351072172663e-07   2.1272888946796513e-06
5.868042785299153e-07   -1.1756351072172663e-07   2.1272888946796513e-06
5.868042785299153e-07   -1.1756351072172663e-07   2.1272888946796513e-06
-3.344548850268006e-07   1.1818656115049472e-07   7.333069985418034e-07
-3.344548850268006e-07   1.1818656115049472e-07   7.333069985418034e-07
-3.344548850268006e-07   1.1818656115049472e-07   7.333069985418034e-07
-3.344548850268006e-07   1.1818656115049472e-07   7.333069985418034e-07
-3.982635006716067e-07   -1.5107236760864267e-07   2.1872404091188526e-06
-3.982635006716067e-07   -1.5107236760864267e-07   2.1872404091188526e-06
-3.982635006716067e-07   -1.5107236760864267e-07   2.1872404091188526e-06
-3.982635006716067e-07   -1.5107236760864267e-07   2.1872404091188526e-06
4.530377179068471e-07   7.859157257028939e-08   6.306066807140844e-07
4.530377179068471e-07   7.859157257028939e-08   6.306066807140844e-07
4.530377179068471e-07   7.859157257028939e-08   6.306066807140844e-07
4.530377179068471e-07   7.859157257028939e-08   6.306066807140844e-07
6.63085204548551e-08   -6.686486926128646e-09   1.3263221788319127e-06
6.63085204548551e-08   -6.686486926128646e-09   1.3263221788319127e-06
6.63085204548551e-08   -6.686486926128646e-09   1.3263221788319127e-06
6.63085204548551e-08   -6.686486926128646e-09   1.3263221788319127e-06
4.530377179068488e-07   -1.5107236760861557e-07   2.0494420450114826e-06
4.530377179068488e-07   -1.5107236760861557e-07   2.0494420450114826e-06
4.530377179068488e-07   -1.5107236760861557e-07   2.0494420450114826e-06
4.530377179068488e-07   -1.5107236760861557e-07   2.0494420450114826e-06
-3.982635006716067e-07   7.859157257028939e-08   7.684050448214172e-07
-3.982635006716067e-07   7.859157257028939e-08   7.684050448214172e-07
-3.982635006716067e-07   7.859157257028939e-08   7.684050448214172e-07
-3.982635006716067e-07   7.859157257028939e-08   7.684050448214172e-07
-4.527795764647125e-07   -2.0298777389212222e-07   2.1256402131158086e-06
-4.527795764647125e-07   -2.0298777389212222e-07   2.1256402131158086e-06
-4.527795764647125e-07   -2.0298777389212222e-07   2.1256402131158086e-06
-4.527795764647125e-07   -2.0298777389212222e-07   2.1256402131158086e-06
2.837717886592579e-07   -2.5537152910707055e-09   7.777941694152341e-07
2.837717886592579e-07   -2.5537152910707055e-09   7.777941694152341e-07
2.837717886592579e-07   -2.5537152910707055e-09   7.777941694152341e-07
2.837717886592579e-07   -2.5537152910707055e-09   7.777941694152341e-07
-2.909168625208122e-08   -3.2362827960237886e-08   1.3171187618689722e-06
-2.909168625208122e-08   -3.2362827960237886e-08   1.3171187618689722e-06
-2.909168625208122e-08   -3.2362827960237886e-08   1.3171187618689722e-06
-2.909168625208122e-08   -3.2362827960237886e-08   1.3171187618689722e-06
-2.833695289169946e-07   2.1476238042634848e-07   3.5823258669581264e-06
-2.833695289169946e-07   2.1476238042634848e-07   3.5823258669581264e-06
-2.833695289169946e-07   2.1476238042634848e-07   3.5823258669581264e-06
-2.833695289169946e-07   2.1476238042634848e-07   3.5823258669581264e-06
-1.1331820174545017e-06   2.6582075988027865e-07   2.196606747067957e-06
-1.1331820174545017e-06   2.6582075988027865e-07   2.196606747067957e-06
-1.1331820174545017e-06   2.6582075988027865e-07   2.196606747067957e-06
-1.1331820174545017e-06   2.6582075988027865e-07   2.196606747067957e-06
-1.1731817269381822e-06   1.2428065357915352e-07   3.567114291851199e-06
-1.1731817269381822e-06   1.2428065357915352e-07   3.567114291851199e-06
-1.1731817269381822e-06   1.2428065357915352e-07   3.567114291851199e-06
-1.1731817269381822e-06   1.2428065357915352e-07   3.567114291851199e-06
-3.344548850268006e-07   1.8113398490894627e-07   2.13512422320102e-06
-3.344548850268006e-07   1.8113398490894627e-07   2.13512422320102e-06
-3.344548850268006e-07   1.8113398490894627e-07   2.13512422320102e-06
-3.344548850268006e-07   1.8113398490894627e-07   2.13512422320102e-06
-7.384181424442099e-07   1.8501885584869845e-07   2.806065396332846e-06
-7.384181424442099e-07   1.8501885584869845e-07   2.806065396332846e-06
-7.384181424442099e-07   1.8501885584869845e-07   2.806065396332846e-06
-7.384181424442099e-07   1.8501885584869845e-07   2.806065396332846e-06
-3.3445488502680147e-07   1.2428065357915352e-07   3.533002293053288e-06
-3.3445488502680147e-07   1.2428065357915352e-07   3.533002293053288e-06
-3.3445488502680147e-07   1.2428065357915352e-07   3.533002293053288e-06
-3.3445488502680147e-07   1.2428065357915352e-07   3.533002293053288e-06
-1.1731817269381788e-06   1.8113398490894627e-07   2.169236221998897e-06
-1.1731817269381788e-06   1.8113398490894627e-07   2.169236221998897e-06
-1.1731817269381788e-06   1.8113398490894627e-07   2.169236221998897e-06
-1.1731817269381788e-06   1.8113398490894627e-07   2.169236221998897e-06
-1.2146504891820526e-06   4.963082005061351e-08   3.56105064016894e-06
-1.2146504891820526e-06   4.963082005061351e-08   3.56105064016894e-06
-1.2146504891820526e-06   4.963082005061351e-08   3.56105064016894e-06
-1.2146504891820526e-06   4.963082005061351e-08   3.56105064016894e-06
-3.982635006716067e-07   1.05594833308423e-07   2.16682725136351e-06
-3.982635006716067e-07   1.05594833308423e-07   2.16682725136351e-06
-3.982635006716067e-07   1.05594833308423e-07   2.16682725136351e-06
-3.982635006716067e-07   1.05594833308423e-07   2.16682725136351e-06
-7.797240152251912e-07   1.2469415974672004e-07   2.791135179756563e-06
-7.797240152251912e-07   1.2469415974672004e-07   2.791135179756563e-06
-7.797240152251912e-07   1.2469415974672004e-07   2.791135179756563e-06
-7.797240152251912e-07   1.2469415974672004e-07   2.791135179756563e-06
-3.982635006716067e-07   4.963082005061351e-08   3.527472232214238e-06
-3.982635006716067e-07   4.963082005061351e-08   3.527472232214238e-06
-3.982635006716067e-07   4.963082005061351e-08   3.527472232214238e-06
-3.982635006716067e-07   4.963082005061351e-08   3.527472232214238e-06
-1.2146504891820526e-06   1.05594833308423e-07   2.200405659318202e-06
-1.2146504891820526e-06   1.05594833308423e-07   2.200405659318202e-06
-1.2146504891820526e-06   1.05594833308423e-07   2.200405659318202e-06
-1.2146504891820526e-06   1.05594833308423e-07   2.200405659318202e-06
-1.2558866308480766e-06   -2.416781258625378e-08   3.6171989449900285e-06
-1.2558866308480766e-06   -2.416781258625378e-08   3.6171989449900285e-06
-1.2558866308480766e-06   -2.416781258625378e-08   3.6171989449900285e-06
-1.2558866308480766e-06   -2.416781258625378e-08   3.6171989449900285e-06
-4.5277957646471166e-07   2.65549459303033e-08   2.2482535325745134e-06
-4.5277957646471166e-07   2.65549459303033e-08   2.2482535325745134e-06
-4.5277957646471166e-07   2.65549459303033e-08   2.2482535325745134e-06
-4.5277957646471166e-07   2.65549459303033e-08   2.2482535325745134e-06
-8.200278466323238e-07   6.792815569116404e-08   2.8355100569973595e-06
-8.200278466323238e-07   6.792815569116404e-08   2.8355100569973595e-06
-8.200278466323238e-07   6.792815569116404e-08   2.8355100569973595e-06
-8.200278466323238e-07   6.792815569116404e-08   2.8355100569973595e-06
-1.1331820174545017e-06   4.285890335869514e-07   4.010436586742938e-06
-1.1331820174545017e-06   4.285890335869514e-07   4.010436586742938e-06
-1.1331820174545017e-06   4.285890335869514e-07   4.010436586742938e-06
-1.1331820174545017e-06   4.285890335869514e-07   4.010436586742938e-06
-1.9653649722260784e-06   3.36187231459264e-07   2.5680239141803485e-06
-1.9653649722260784e-06   3.36187231459264e-07   2.5680239141803485e-06
-1.9653649722260784e-06   3.36187231459264e-07   2.5680239141803485e-06
-1.9653649722260784e-06   3.36187231459264e-07   2.5680239141803485e-06
-2.000191445698705e-06   3.472480788742989e-07   3.935594406385463e-06
-2.000191445698705e-06   3.472480788742989e-07   3.935594406385463e-06
-2.000191445698705e-06   3.472480788742989e-07   3.935594406385463e-06
-2.000191445698705e-06   3.472480788742989e-07   3.935594406385463e-06
-1.1731817269381788e-06   2.5979648341333396e-07   2.6097158323945145e-06
-1.1731817269381788e-06   2.5979648341333396e-07   2.6097158323945145e-06
-1.1731817269381788e-06   2.5979648341333396e-07   2.6097158323945145e-06
-1.1731817269381788e-06   2.5979648341333396e-07   2.6097158323945145e-06
-1.5697866321837075e-06   3.3416090761909795e-07   3.226105353280244e-06
-1.5697866321837075e-06   3.3416090761909795e-07   3.226105353280244e-06
-1.5697866321837075e-06   3.3416090761909795e-07   3.226105353280244e-06
-1.5697866321837075e-06   3.3416090761909795e-07   3.226105353280244e-06
-1.1731817269381788e-06   3.472480788742989e-07   3.988065363662064e-06
-1.1731817269381788e-06   3.472480788742989e-07   3.988065363662064e-06
-1.1731817269381788e-06   3.472480788742989e-07   3.988065363662064e-06
-1.1731817269381788e-06   3.472480788742989e-07   3.988065363662064e-06
-2.000191445698705e-06   2.5979648341333396e-07   2.557244875117934e-06
-2.000191445698705e-06   2.5979648341333396e-07   2.557244875117934e-06
-2.000191445698705e-06   2.5979648341333396e-07   2.557244875117934e-06
-2.000191445698705e-06   2.5979648341333396e-07   2.557244875117934e-06
-2.0371333395694012e-06   2.6638481339584345e-07   3.967343504163601e-06
-2.0371333395694012e-06   2.6638481339584345e-07   3.967343504163601e-06
-2.0371333395694012e-06   2.6638481339584345e-07   3.967343504163601e-06
-2.0371333395694012e-06   2.6638481339584345e-07   3.967343504163601e-06
-1.2146504891820526e-06   1.82374807598416e-07   2.6469447569964726e-06
-1.2146504891820526e-06   1.82374807598416e-07   2.6469447569964726e-06
-1.2146504891820526e-06   1.82374807598416e-07   2.6469447569964726e-06
-1.2146504891820526e-06   1.82374807598416e-07   2.6469447569964726e-06
-1.5996045226758882e-06   2.741232005033247e-07   3.2334857770766192e-06
-1.5996045226758882e-06   2.741232005033247e-07   3.2334857770766192e-06
-1.5996045226758882e-06   2.741232005033247e-07   3.2334857770766192e-06
-1.5996045226758882e-06   2.741232005033247e-07   3.2334857770766192e-06
-1.2146504891820526e-06   2.6638481339584345e-07   4.0177495076420525e-06
-1.2146504891820526e-06   2.6638481339584345e-07   4.0177495076420525e-06
-1.2146504891820526e-06   2.6638481339584345e-07   4.0177495076420525e-06
-1.2146504891820526e-06   2.6638481339584345e-07   4.0177495076420525e-06
-2.0371333395694012e-06   1.82374807598416e-07   2.5965387535180283e-06
-2.0371333395694012e-06   1.82374807598416e-07   2.5965387535180283e-06
-2.0371333395694012e-06   1.82374807598416e-07   2.5965387535180283e-06
-2.0371333395694012e-06   1.82374807598416e-07   2.5965387535180283e-06
-2.0733358052578532e-06   1.8949839429739787e-07   4.0402102601859934e-06
-2.0733358052578532e-06   1.8949839429739787e-07   4.0402102601859934e-06
-2.0733358052578532e-06   1.8949839429739787e-07   4.0402102601859934e-06
-2.0733358052578532e-06   1.8949839429739787e-07   4.0402102601859934e-06
-1.2558866308480732e-06   1.100208081464629e-07   2.7254815211935764e-06
-1.2558866308480732e-06   1.100208081464629e-07   2.7254815211935764e-06
-1.2558866308480732e-06   1.100208081464629e-07   2.7254815211935764e-06
-1.2558866308480732e-06   1.100208081464629e-07   2.7254815211935764e-06
-1.6327462282684214e-06   2.154174561011784e-07   3.2903428614546653e-06
-1.6327462282684214e-06   2.154174561011784e-07   3.2903428614546653e-06
-1.6327462282684214e-06   2.154174561011784e-07   3.2903428614546653e-06
-1.6327462282684214e-06   2.154174561011784e-07   3.2903428614546653e-06
-1.9653649722260852e-06   6.509663685517922e-07   3.487646187827614e-06
-1.9653649722260852e-06   6.509663685517922e-07   3.487646187827614e-06
-1.9653649722260852e-06   6.509663685517922e-07   3.487646187827614e-06
-1.9653649722260852e-06   6.509663685517922e-07   3.487646187827614e-06
-2.790805377022653e-06   4.6578500240794236e-07   2.0008033601469855e-06
-2.790805377022653e-06   4.6578500240794236e-07   2.0008033601469855e-06
-2.790805377022653e-06   4.6578500240794236e-07   2.0008033601469855e-06
-2.790805377022653e-06   4.6578500240794236e-07   2.0008033601469855e-06
-2.829404246584567e-06   5.698862049790165e-07   3.388299742025473e-06
-2.829404246584567e-06   5.698862049790165e-07   3.388299742025473e-06
-2.829404246584567e-06   5.698862049790165e-07   3.388299742025473e-06
-2.829404246584567e-06   5.698862049790165e-07   3.388299742025473e-06
-2.000191445698705e-06   3.8566961496551725e-07   2.1168083612237954e-06
-2.000191445698705e-06   3.8566961496551725e-07   2.1168083612237954e-06
-2.000191445698705e-06   3.8566961496551725e-07   2.1168083612237954e-06
-2.000191445698705e-06   3.8566961496551725e-07   2.1168083612237954e-06
-2.391309127826389e-06   5.107612442110119e-07   2.693616187222621e-06
-2.391309127826389e-06   5.107612442110119e-07   2.693616187222621e-06
-2.391309127826389e-06   5.107612442110119e-07   2.693616187222621e-06
-2.391309127826389e-06   5.107612442110119e-07   2.693616187222621e-06
-2.000191445698705e-06   5.698862049790165e-07   3.4988296960335565e-06
-2.000191445698705e-06   5.698862049790165e-07   3.4988296960335565e-06
-2.000191445698705e-06   5.698862049790165e-07   3.4988296960335565e-06
-2.000191445698705e-06   5.698862049790165e-07   3.4988296960335565e-06
-2.8294042465845602e-06   3.8566961496549015e-07   2.0062784072156714e-06
-2.8294042465845602e-06   3.8566961496549015e-07   2.0062784072156714e-06
-2.8294042465845602e-06   3.8566961496549015e-07   2.0062784072156714e-06
-2.8294042465845602e-06   3.8566961496549015e-07   2.0062784072156714e-06
-2.880751321727305e-06   4.948144900682714e-07   3.4976251175816784e-06
-2.880751321727305e-06   4.948144900682714e-07   3.4976251175816784e-06
-2.880751321727305e-06   4.948144900682714e-07   3.4976251175816784e-06
-2.880751321727305e-06   4.948144900682714e-07   3.4976251175816784e-06
-2.0371333395694012e-06   3.1334698080926014e-07   2.2004756528739395e-06
-2.0371333395694012e-06   3.1334698080926014e-07   2.2004756528739395e-06
-2.0371333395694012e-06   3.1334698080926014e-07   2.2004756528739395e-06
-2.0371333395694012e-06   3.1334698080926014e-07   2.2004756528739395e-06
-2.412140324337487e-06   4.526491449928472e-07   2.741905995643911e-06
-2.412140324337487e-06   4.526491449928472e-07   2.741905995643911e-06
-2.412140324337487e-06   4.526491449928472e-07   2.741905995643911e-06
-2.412140324337487e-06   4.526491449928472e-07   2.741905995643911e-06
-2.0371333395694012e-06   4.948144900682443e-07   3.6065056231370473e-06
-2.0371333395694012e-06   4.948144900682443e-07   3.6065056231370473e-06
-2.0371333395694012e-06   4.948144900682443e-07   3.6065056231370473e-06
-2.0371333395694012e-06   4.948144900682443e-07   3.6065056231370473e-06
-2.8807513217272984e-06   3.1334698080923303e-07   2.0915951473185165e-06
-2.8807513217272984e-06   3.1334698080923303e-07   2.0915951473185165e-06
-2.8807513217272984e-06   3.1334698080923303e-07   2.0915951473185165e-06
-2.8807513217272984e-06   3.1334698080923303e-07   2.0915951473185165e-06
-2.9214509297997e-06   4.1315464461056414e-07   3.6155152942382942e-06
-2.9214509297997e-06   4.1315464461056414e-07   3.6155152942382942e-06
-2.9214509297997e-06   4.1315464461056414e-07   3.6155152942382942e-06
-2.9214509297997e-06   4.1315464461056414e-07   3.6155152942382942e-06
-2.0733358052578532e-06   2.3855046815140124e-07   2.3067525925440785e-06
-2.0733358052578532e-06   2.3855046815140124e-07   2.3067525925440785e-06
-2.0733358052578532e-06   2.3855046815140124e-07   2.3067525925440785e-06
-2.0733358052578532e-06   2.3855046815140124e-07   2.3067525925440785e-06
-2.4557735894466948e-06   3.961633342631349e-07   2.8495811798585105e-06
-2.4557735894466948e-06   3.961633342631349e-07   2.8495811798585105e-06
-2.4557735894466948e-06   3.961633342631349e-07   2.8495811798585105e-06
-2.4557735894466948e-06   3.961633342631349e-07   2.8495811798585105e-06
-2.790805377022653e-06   8.231511731689016e-07   1.5804336659183698e-06
-2.790805377022653e-06   8.231511731689016e-07   1.5804336659183698e-06
-2.790805377022653e-06   8.231511731689016e-07   1.5804336659183698e-06
-2.790805377022653e-06   8.231511731689016e-07   1.5804336659183698e-06
-3.490654163861747e-06   5.699114746798178e-07   2.620752020931127e-07
-3.490654163861747e-06   5.699114746798178e-07   2.620752020931127e-07
-3.490654163861747e-06   5.699114746798178e-07   2.620752020931127e-07
-3.490654163861747e-06   5.699114746798178e-07   2.620752020931127e-07
-3.6304626621055578e-06   7.838301260126575e-07   1.8687594482311935e-06
-3.6304626621055578e-06   7.838301260126575e-07   1.8687594482311935e-06
-3.6304626621055578e-06   7.838301260126575e-07   1.8687594482311935e-06
-3.6304626621055578e-06   7.838301260126575e-07   1.8687594482311935e-06
-2.829404246584567e-06   5.168957127763224e-07   6.938227369713396e-07
-2.829404246584567e-06   5.168957127763224e-07   6.938227369713396e-07
-2.829404246584567e-06   5.168957127763224e-07   6.938227369713396e-07
-2.829404246584567e-06   5.168957127763224e-07   6.938227369713396e-07
-3.073541321074028e-06   6.629490834901444e-07   1.0130858386921777e-06
-3.073541321074028e-06   6.629490834901444e-07   1.0130858386921777e-06
-3.073541321074028e-06   6.629490834901444e-07   1.0130858386921777e-06
-3.073541321074028e-06   6.629490834901444e-07   1.0130858386921777e-06
-2.8294042465845602e-06   7.838301260126575e-07   2.0289200961729593e-06
-2.8294042465845602e-06   7.838301260126575e-07   2.0289200961729593e-06
-2.8294042465845602e-06   7.838301260126575e-07   2.0289200961729593e-06
-2.8294042465845602e-06   7.838301260126575e-07   2.0289200961729593e-06
-3.6304626621055578e-06   5.168957127763495e-07   5.336620890295463e-07
-3.6304626621055578e-06   5.168957127763495e-07   5.336620890295463e-07
-3.6304626621055578e-06   5.168957127763495e-07   5.336620890295463e-07
-3.6304626621055578e-06   5.168957127763495e-07   5.336620890295463e-07
-3.748986958037912e-06   7.482020916957681e-07   2.19796220630032e-06
-3.748986958037912e-06   7.482020916957681e-07   2.19796220630032e-06
-3.748986958037912e-06   7.482020916957681e-07   2.19796220630032e-06
-3.748986958037912e-06   7.482020916957681e-07   2.19796220630032e-06
-2.8807513217272984e-06   4.795222515279732e-07   9.121107165499764e-07
-2.8807513217272984e-06   4.795222515279732e-07   9.121107165499764e-07
-2.8807513217272984e-06   4.795222515279732e-07   9.121107165499764e-07
-2.8807513217272984e-06   4.795222515279732e-07   9.121107165499764e-07
-3.1945871513341684e-06   6.440832812462953e-07   1.3364338147305054e-06
-3.1945871513341684e-06   6.440832812462953e-07   1.3364338147305054e-06
-3.1945871513341684e-06   6.440832812462953e-07   1.3364338147305054e-06
-3.1945871513341684e-06   6.440832812462953e-07   1.3364338147305054e-06
-2.8807513217272984e-06   7.482020916957681e-07   2.359170110400967e-06
-2.8807513217272984e-06   7.482020916957681e-07   2.359170110400967e-06
-2.8807513217272984e-06   7.482020916957681e-07   2.359170110400967e-06
-2.8807513217272984e-06   7.482020916957681e-07   2.359170110400967e-06
-3.748986958037912e-06   4.795222515279732e-07   7.509028124492848e-07
-3.748986958037912e-06   4.795222515279732e-07   7.509028124492848e-07
-3.748986958037912e-06   4.795222515279732e-07   7.509028124492848e-07
-3.748986958037912e-06   4.795222515279732e-07   7.509028124492848e-07
-3.896578082488567e-06   6.467803162168409e-07   2.789862469797325e-06
-3.896578082488567e-06   6.467803162168409e-07   2.789862469797325e-06
-3.896578082488567e-06   6.467803162168409e-07   2.789862469797325e-06
-3.896578082488567e-06   6.467803162168409e-07   2.789862469797325e-06
-2.9214509297997e-06   3.889509818641489e-07   1.3193481492608365e-06
-2.9214509297997e-06   3.889509818641489e-07   1.3193481492608365e-06
-2.9214509297997e-06   3.889509818641489e-07   1.3193481492608365e-06
-2.9214509297997e-06   3.889509818641489e-07   1.3193481492608365e-06
-3.2248962218647046e-06   6.014890583331677e-07   1.6975674568210826e-06
-3.2248962218647046e-06   6.014890583331677e-07   1.6975674568210826e-06
-3.2248962218647046e-06   6.014890583331677e-07   1.6975674568210826e-06
-3.2248962218647046e-06   6.014890583331677e-07   1.6975674568210826e-06
-9.616013811159767e-07   1.9543469444540437e-07   1.7584289099883559e-06
-9.616013811159767e-07   1.9543469444540437e-07   1.7584289099883559e-06
-9.616013811159767e-07   1.9543469444540437e-07   1.7584289099883559e-06
-9.616013811159767e-07   1.9543469444540437e-07   1.7584289099883559e-06
-1.255597782256912e-06   4.0626657103320094e-07   1.3949340340394645e-06
-1.255597782256912e-06   4.0626657103320094e-07   1.3949340340394645e-06
-1.255597782256912e-06   4.0626657103320094e-07   1.3949340340394645e-06
-1.255597782256912e-06   4.0626657103320094e-07   1.3949340340394645e-06
-1.2981483738399004e-06   1.1818656115049472e-07   1.833086510174005e-06
-1.2981483738399004e-06   1.1818656115049472e-07   1.833086510174005e-06
-1.2981483738399004e-06   1.1818656115049472e-07   1.833086510174005e-06
-1.2981483738399004e-06   1.1818656115049472e-07   1.833086510174005e-06
-1.120488302665041e-06   3.099983433330788e-07   1.421899322239683e-06
-1.120488302665041e-06   3.099983433330788e-07   1.421899322239683e-06
-1.120488302665041e-06   3.099983433330788e-07   1.421899322239683e-06
-1.120488302665041e-06   3.099983433330788e-07   1.421899322239683e-06
-1.136285619115349e-06   2.3683291027879513e-07   1.4921274428227662e-06
-1.136285619115349e-06   2.3683291027879513e-07   1.4921274428227662e-06
-1.136285619115349e-06   2.3683291027879513e-07   1.4921274428227662e-06
-1.136285619115349e-06   2.3683291027879513e-07   1.4921274428227662e-06
-1.1204883026650443e-06   1.1818656115049472e-07   1.7179994408644166e-06
-1.1204883026650443e-06   1.1818656115049472e-07   1.7179994408644166e-06
-1.1204883026650443e-06   1.1818656115049472e-07   1.7179994408644166e-06
-1.1204883026650443e-06   1.1818656115049472e-07   1.7179994408644166e-06
-1.2981483738399004e-06   3.099983433330788e-07   1.5369863915492307e-06
-1.2981483738399004e-06   3.099983433330788e-07   1.5369863915492307e-06
-1.2981483738399004e-06   3.099983433330788e-07   1.5369863915492307e-06
-1.2981483738399004e-06   3.099983433330788e-07   1.5369863915492307e-06
-1.3529805668569013e-06   7.859157257026229e-08   1.8587430741725684e-06
-1.3529805668569013e-06   7.859157257026229e-08   1.8587430741725684e-06
-1.3529805668569013e-06   7.859157257026229e-08   1.8587430741725684e-06
-1.3529805668569013e-06   7.859157257026229e-08   1.8587430741725684e-06
-1.2773895630046758e-06   2.4637215158645445e-07   1.6320897203424402e-06
-1.2773895630046758e-06   2.4637215158645445e-07   1.6320897203424402e-06
-1.2773895630046758e-06   2.4637215158645445e-07   1.6320897203424402e-06
-1.2773895630046758e-06   2.4637215158645445e-07   1.6320897203424402e-06
-1.2297173307461422e-06   1.9618347235359824e-07   1.5827492074512183e-06
-1.2297173307461422e-06   1.9618347235359824e-07   1.5827492074512183e-06
-1.2297173307461422e-06   1.9618347235359824e-07   1.5827492074512183e-06
-1.2297173307461422e-06   1.9618347235359824e-07   1.5827492074512183e-06
-1.2773895630046792e-06   7.859157257026229e-08   1.7580747267628016e-06
-1.2773895630046792e-06   7.859157257026229e-08   1.7580747267628016e-06
-1.2773895630046792e-06   7.859157257026229e-08   1.7580747267628016e-06
-1.2773895630046792e-06   7.859157257026229e-08   1.7580747267628016e-06
-1.3529805668569013e-06   2.4637215158645445e-07   1.7327580677521697e-06
-1.3529805668569013e-06   2.4637215158645445e-07   1.7327580677521697e-06
-1.3529805668569013e-06   2.4637215158645445e-07   1.7327580677521697e-06
-1.3529805668569013e-06   2.4637215158645445e-07   1.7327580677521697e-06
-1.3916012873681303e-06   -2.5537152910436005e-09   1.9862700649739555e-06
-1.3916012873681303e-06   -2.5537152910436005e-09   1.9862700649739555e-06
-1.3916012873681303e-06   -2.5537152910436005e-09   1.9862700649739555e-06
-1.3916012873681303e-06   -2.5537152910436005e-09   1.9862700649739555e-06
-1.445943773337227e-06   9.149520375279668e-08   2.0204115234961044e-06
-1.445943773337227e-06   9.149520375279668e-08   2.0204115234961044e-06
-1.445943773337227e-06   9.149520375279668e-08   2.0204115234961044e-06
-1.445943773337227e-06   9.149520375279668e-08   2.0204115234961044e-06
-1.3063412554323103e-06   1.4997568338741025e-07   1.7526523725404347e-06
-1.3063412554323103e-06   1.4997568338741025e-07   1.7526523725404347e-06
-1.3063412554323103e-06   1.4997568338741025e-07   1.7526523725404347e-06
-1.3063412554323103e-06   1.4997568338741025e-07   1.7526523725404347e-06
-1.2555977822569086e-06   2.6582075988025155e-07   3.280708425820741e-06
-1.2555977822569086e-06   2.6582075988025155e-07   3.280708425820741e-06
-1.2555977822569086e-06   2.6582075988025155e-07   3.280708425820741e-06
-1.2555977822569086e-06   2.6582075988025155e-07   3.280708425820741e-06
-1.3975306941037881e-06   1.070485364414311e-07   2.9488902386793096e-06
-1.3975306941037881e-06   1.070485364414311e-07   2.9488902386793096e-06
-1.3975306941037881e-06   1.070485364414311e-07   2.9488902386793096e-06
-1.3975306941037881e-06   1.070485364414311e-07   2.9488902386793096e-06
-1.4161964383923144e-06   1.8113398490897338e-07   3.1536300357128388e-06
-1.4161964383923144e-06   1.8113398490897338e-07   3.1536300357128388e-06
-1.4161964383923144e-06   1.8113398490897338e-07   3.1536300357128388e-06
-1.4161964383923144e-06   1.8113398490897338e-07   3.1536300357128388e-06
-1.2981483738399004e-06   4.5677819708296943e-08   3.0381569605791932e-06
-1.2981483738399004e-06   4.5677819708296943e-08   3.0381569605791932e-06
-1.2981483738399004e-06   4.5677819708296943e-08   3.0381569605791932e-06
-1.2981483738399004e-06   4.5677819708296943e-08   3.0381569605791932e-06
-1.3404968015281727e-06   1.303556339812351e-07   3.057930984829228e-06
-1.3404968015281727e-06   1.303556339812351e-07   3.057930984829228e-06
-1.3404968015281727e-06   1.303556339812351e-07   3.057930984829228e-06
-1.3404968015281727e-06   1.303556339812351e-07   3.057930984829228e-06
-1.2981483738398987e-06   1.8113398490894627e-07   3.234903734833174e-06
-1.2981483738398987e-06   1.8113398490894627e-07   3.234903734833174e-06
-1.2981483738398987e-06   1.8113398490894627e-07   3.234903734833174e-06
-1.2981483738398987e-06   1.8113398490894627e-07   3.234903734833174e-06
-1.416196438392311e-06   4.5677819708296943e-08   2.956883261458802e-06
-1.416196438392311e-06   4.5677819708296943e-08   2.956883261458802e-06
-1.416196438392311e-06   4.5677819708296943e-08   2.956883261458802e-06
-1.416196438392311e-06   4.5677819708296943e-08   2.956883261458802e-06
-1.438249280985223e-06   1.0559483330845011e-07   3.181593208053651e-06
-1.438249280985223e-06   1.0559483330845011e-07   3.181593208053651e-06
-1.438249280985223e-06   1.0559483330845011e-07   3.181593208053651e-06
-1.438249280985223e-06   1.0559483330845011e-07   3.181593208053651e-06
-1.3529805668569013e-06   -2.0358621126586088e-08   3.1150507571674305e-06
-1.3529805668569013e-06   -2.0358621126586088e-08   3.1150507571674305e-06
-1.3529805668569013e-06   -2.0358621126586088e-08   3.1150507571674305e-06
-1.3529805668569013e-06   -2.0358621126586088e-08   3.1150507571674305e-06
-1.3622002288328585e-06   8.22761962931078e-08   3.0688359700088286e-06
-1.3622002288328585e-06   8.22761962931078e-08   3.0688359700088286e-06
-1.3622002288328585e-06   8.22761962931078e-08   3.0688359700088286e-06
-1.3622002288328585e-06   8.22761962931078e-08   3.0688359700088286e-06
-1.3529805668569013e-06   1.0559483330845011e-07   3.2571652807146105e-06
-1.3529805668569013e-06   1.0559483330845011e-07   3.2571652807146105e-06
-1.3529805668569013e-06   1.0559483330845011e-07   3.2571652807146105e-06
-1.3529805668569013e-06   1.0559483330845011e-07   3.2571652807146105e-06
-1.4382492809852197e-06   -2.0358621126586088e-08   3.03947868450641e-06
-1.4382492809852197e-06   -2.0358621126586088e-08   3.03947868450641e-06
-1.4382492809852197e-06   -2.0358621126586088e-08   3.03947868450641e-06
-1.4382492809852197e-06   -2.0358621126586088e-08   3.03947868450641e-06
-1.4574212315905796e-06   2.6554945930276196e-08   3.2581472122686762e-06
-1.4574212315905796e-06   2.6554945930276196e-08   3.2581472122686762e-06
-1.4574212315905796e-06   2.6554945930276196e-08   3.2581472122686762e-06
-1.4574212315905796e-06   2.6554945930276196e-08   3.2581472122686762e-06
-1.3916012873681286e-06   -1.0398135524291338e-07   3.2267690859351495e-06
-1.3916012873681286e-06   -1.0398135524291338e-07   3.2267690859351495e-06
-1.3916012873681286e-06   -1.0398135524291338e-07   3.2267690859351495e-06
-1.3916012873681286e-06   -1.0398135524291338e-07   3.2267690859351495e-06
-1.3915137130326822e-06   2.8873204272432526e-08   3.1469103930001154e-06
-1.3915137130326822e-06   2.8873204272432526e-08   3.1469103930001154e-06
-1.3915137130326822e-06   2.8873204272432526e-08   3.1469103930001154e-06
-1.3915137130326822e-06   2.8873204272432526e-08   3.1469103930001154e-06
-1.3975306941037915e-06   3.361872314592369e-07   3.612303340146464e-06
-1.3975306941037915e-06   3.361872314592369e-07   3.612303340146464e-06
-1.3975306941037915e-06   3.361872314592369e-07   3.612303340146464e-06
-1.3975306941037915e-06   3.361872314592369e-07   3.612303340146464e-06
-1.6057230383093623e-06   3.24773215284015e-08   3.0830901538453375e-06
-1.6057230383093623e-06   3.24773215284015e-08   3.0830901538453375e-06
-1.6057230383093623e-06   3.24773215284015e-08   3.0830901538453375e-06
-1.6057230383093623e-06   3.24773215284015e-08   3.0830901538453375e-06
-1.6174573529020999e-06   2.5979648341333396e-07   3.4285188035323695e-06
-1.6174573529020999e-06   2.5979648341333396e-07   3.4285188035323695e-06
-1.6174573529020999e-06   2.5979648341333396e-07   3.4285188035323695e-06
-1.6174573529020999e-06   2.5979648341333396e-07   3.4285188035323695e-06
-1.416196438392311e-06   -1.6188254213454745e-08   3.258674788592118e-06
-1.416196438392311e-06   -1.6188254213454745e-08   3.258674788592118e-06
-1.416196438392311e-06   -1.6188254213454745e-08   3.258674788592118e-06
-1.416196438392311e-06   -1.6188254213454745e-08   3.258674788592118e-06
-1.5080073061045228e-06   1.462638619289375e-07   3.314221631760378e-06
-1.5080073061045228e-06   1.462638619289375e-07   3.314221631760378e-06
-1.5080073061045228e-06   1.462638619289375e-07   3.314221631760378e-06
-1.5080073061045228e-06   1.462638619289375e-07   3.314221631760378e-06
-1.4161964383923144e-06   2.5979648341333396e-07   3.5941096461084156e-06
-1.4161964383923144e-06   2.5979648341333396e-07   3.5941096461084156e-06
-1.4161964383923144e-06   2.5979648341333396e-07   3.5941096461084156e-06
-1.4161964383923144e-06   2.5979648341333396e-07   3.5941096461084156e-06
-1.6174573529020999e-06   -1.6188254213454745e-08   3.093083946016048e-06
-1.6174573529020999e-06   -1.6188254213454745e-08   3.093083946016048e-06
-1.6174573529020999e-06   -1.6188254213454745e-08   3.093083946016048e-06
-1.6174573529020999e-06   -1.6188254213454745e-08   3.093083946016048e-06
-1.6324883906960701e-06   1.82374807598416e-07   3.4741730283279404e-06
-1.6324883906960701e-06   1.82374807598416e-07   3.4741730283279404e-06
-1.6324883906960701e-06   1.82374807598416e-07   3.4741730283279404e-06
-1.6324883906960701e-06   1.82374807598416e-07   3.4741730283279404e-06
-1.438249280985223e-06   -7.42239880748729e-08   3.304400456213824e-06
-1.438249280985223e-06   -7.42239880748729e-08   3.304400456213824e-06
-1.438249280985223e-06   -7.42239880748729e-08   3.304400456213824e-06
-1.438249280985223e-06   -7.42239880748729e-08   3.304400456213824e-06
-1.5165259697797e-06   9.942611745399868e-08   3.330671540887199e-06
-1.5165259697797e-06   9.942611745399868e-08   3.330671540887199e-06
-1.5165259697797e-06   9.942611745399868e-08   3.330671540887199e-06
-1.5165259697797e-06   9.942611745399868e-08   3.330671540887199e-06
-1.438249280985223e-06   1.82374807598416e-07   3.6281323057318676e-06
-1.438249280985223e-06   1.82374807598416e-07   3.6281323057318676e-06
-1.438249280985223e-06   1.82374807598416e-07   3.6281323057318676e-06
-1.438249280985223e-06   1.82374807598416e-07   3.6281323057318676e-06
-1.6324883906960634e-06   -7.42239880748729e-08   3.1504411788098326e-06
-1.6324883906960634e-06   -7.42239880748729e-08   3.1504411788098326e-06
-1.6324883906960634e-06   -7.42239880748729e-08   3.1504411788098326e-06
-1.6324883906960634e-06   -7.42239880748729e-08   3.1504411788098326e-06
-1.6452554892576547e-06   1.1002080814649e-07   3.5606233638717515e-06
-1.6452554892576547e-06   1.1002080814649e-07   3.5606233638717515e-06
-1.6452554892576547e-06   1.1002080814649e-07   3.5606233638717515e-06
-1.6452554892576547e-06   1.1002080814649e-07   3.5606233638717515e-06
-1.4574212315905762e-06   -1.3050949503028576e-07   3.3918844496660003e-06
-1.4574212315905762e-06   -1.3050949503028576e-07   3.3918844496660003e-06
-1.4574212315905762e-06   -1.3050949503028576e-07   3.3918844496660003e-06
-1.4574212315905762e-06   -1.3050949503028576e-07   3.3918844496660003e-06
-1.5279886281811196e-06   5.1707698154679696e-08   3.4001664614058248e-06
-1.5279886281811196e-06   5.1707698154679696e-08   3.4001664614058248e-06
-1.5279886281811196e-06   5.1707698154679696e-08   3.4001664614058248e-06
-1.5279886281811196e-06   5.1707698154679696e-08   3.4001664614058248e-06
-1.6057230383093623e-06   4.6578500240794236e-07   2.9739656598409088e-06
-1.6057230383093623e-06   4.6578500240794236e-07   2.9739656598409088e-06
-1.6057230383093623e-06   4.6578500240794236e-07   2.9739656598409088e-06
-1.6057230383093623e-06   4.6578500240794236e-07   2.9739656598409088e-06
-1.8623747157810042e-06   1.583991372898502e-07   2.361781344984006e-06
-1.8623747157810042e-06   1.583991372898502e-07   2.361781344984006e-06
-1.8623747157810042e-06   1.583991372898502e-07   2.361781344984006e-06
-1.8623747157810042e-06   1.583991372898502e-07   2.361781344984006e-06
-1.8736279018136603e-06   3.8566961496551725e-07   2.812600145147946e-06
-1.8736279018136603e-06   3.8566961496551725e-07   2.812600145147946e-06
-1.8736279018136603e-06   3.8566961496551725e-07   2.812600145147946e-06
-1.8736279018136603e-06   3.8566961496551725e-07   2.812600145147946e-06
-1.6174573529020999e-06   9.319937414834921e-08   2.5611313747856277e-06
-1.6174573529020999e-06   9.319937414834921e-08   2.5611313747856277e-06
-1.6174573529020999e-06   9.319937414834921e-08   2.5611313747856277e-06
-1.6174573529020999e-06   9.319937414834921e-08   2.5611313747856277e-06
-1.735486186527218e-06   2.79619147736202e-07   2.645994233341434e-06
-1.735486186527218e-06   2.79619147736202e-07   2.645994233341434e-06
-1.735486186527218e-06   2.79619147736202e-07   2.645994233341434e-06
-1.735486186527218e-06   2.79619147736202e-07   2.645994233341434e-06
-1.6174573529020999e-06   3.8566961496549015e-07   2.9880822896382036e-06
-1.6174573529020999e-06   3.8566961496549015e-07   2.9880822896382036e-06
-1.6174573529020999e-06   3.8566961496549015e-07   2.9880822896382036e-06
-1.6174573529020999e-06   3.8566961496549015e-07   2.9880822896382036e-06
-1.8736279018136603e-06   9.319937414834921e-08   2.385649230295358e-06
-1.8736279018136603e-06   9.319937414834921e-08   2.385649230295358e-06
-1.8736279018136603e-06   9.319937414834921e-08   2.385649230295358e-06
-1.8736279018136603e-06   9.319937414834921e-08   2.385649230295358e-06
-1.9005922507442748e-06   3.1334698080923303e-07   2.912159614972947e-06
-1.9005922507442748e-06   3.1334698080923303e-07   2.912159614972947e-06
-1.9005922507442748e-06   3.1334698080923303e-07   2.912159614972947e-06
-1.9005922507442748e-06   3.1334698080923303e-07   2.912159614972947e-06
-1.6324883906960701e-06   3.6763126291092696e-08   2.631270160936776e-06
-1.6324883906960701e-06   3.6763126291092696e-08   2.631270160936776e-06
-1.6324883906960701e-06   3.6763126291092696e-08   2.631270160936776e-06
-1.6324883906960701e-06   3.6763126291092696e-08   2.631270160936776e-06
-1.737896333083687e-06   2.2754921138980948e-07   2.69247841385681e-06
-1.737896333083687e-06   2.2754921138980948e-07   2.69247841385681e-06
-1.737896333083687e-06   2.2754921138980948e-07   2.69247841385681e-06
-1.737896333083687e-06   2.2754921138980948e-07   2.69247841385681e-06
-1.6324883906960634e-06   3.1334698080923303e-07   3.07810992768375e-06
-1.6324883906960634e-06   3.1334698080923303e-07   3.07810992768375e-06
-1.6324883906960634e-06   3.1334698080923303e-07   3.07810992768375e-06
-1.6324883906960634e-06   3.1334698080923303e-07   3.07810992768375e-06
-1.9005922507442748e-06   3.6763126291079144e-08   2.4653198482259087e-06
-1.9005922507442748e-06   3.6763126291079144e-08   2.4653198482259087e-06
-1.9005922507442748e-06   3.6763126291079144e-08   2.4653198482259087e-06
-1.9005922507442748e-06   3.6763126291079144e-08   2.4653198482259087e-06
-1.9189083810414116e-06   2.3855046815140124e-07   3.0341351453209173e-06
-1.9189083810414116e-06   2.3855046815140124e-07   3.0341351453209173e-06
-1.9189083810414116e-06   2.3855046815140124e-07   3.0341351453209173e-06
-1.9189083810414116e-06   2.3855046815140124e-07   3.0341351453209173e-06
-1.6452554892576479e-06   -2.052593450176316e-08   2.7334928339398456e-06
-1.6452554892576479e-06   -2.052593450176316e-08   2.7334928339398456e-06
-1.6452554892576479e-06   -2.052593450176316e-08   2.7334928339398456e-06
-1.6452554892576479e-06   -2.052593450176316e-08   2.7334928339398456e-06
-1.7544284118228564e-06   1.8021981127260608e-07   2.795000257417151e-06
-1.7544284118228564e-06   1.8021981127260608e-07   2.795000257417151e-06
-1.7544284118228564e-06   1.8021981127260608e-07   2.795000257417151e-06
-1.7544284118228564e-06   1.8021981127260608e-07   2.795000257417151e-06
-1.8623747157810042e-06   5.699114746798178e-07   1.202749801809623e-06
-1.8623747157810042e-06   5.699114746798178e-07   1.202749801809623e-06
-1.8623747157810042e-06   5.699114746798178e-07   1.202749801809623e-06
-1.8623747157810042e-06   5.699114746798178e-07   1.202749801809623e-06
-1.9551210777901185e-06   2.747932511631653e-07   8.711015976844303e-07
-1.9551210777901185e-06   2.747932511631653e-07   8.711015976844303e-07
-1.9551210777901185e-06   2.747932511631653e-07   8.711015976844303e-07
-1.9551210777901185e-06   2.747932511631653e-07   8.711015976844303e-07
-2.0562304520256217e-06   5.168957127763495e-07   1.3261552660693502e-06
-2.0562304520256217e-06   5.168957127763495e-07   1.3261552660693502e-06
-2.0562304520256217e-06   5.168957127763495e-07   1.3261552660693502e-06
-2.0562304520256217e-06   5.168957127763495e-07   1.3261552660693502e-06
-1.8736279018136535e-06   2.2691369805260988e-07   1.1958068912169871e-06
-1.8736279018136535e-06   2.2691369805260988e-07   1.1958068912169871e-06
-1.8736279018136535e-06   2.2691369805260988e-07   1.1958068912169871e-06
-1.8736279018136535e-06   2.2691369805260988e-07   1.1958068912169871e-06
-1.8728146997541839e-06   4.0599735797475244e-07   1.0870013584979207e-06
-1.8728146997541839e-06   4.0599735797475244e-07   1.0870013584979207e-06
-1.8728146997541839e-06   4.0599735797475244e-07   1.0870013584979207e-06
-1.8728146997541839e-06   4.0599735797475244e-07   1.0870013584979207e-06
-1.8736279018136468e-06   5.168957127763495e-07   1.500144474903567e-06
-1.8736279018136468e-06   5.168957127763495e-07   1.500144474903567e-06
-1.8736279018136468e-06   5.168957127763495e-07   1.500144474903567e-06
-1.8736279018136468e-06   5.168957127763495e-07   1.500144474903567e-06
-2.0562304520256353e-06   2.2691369805260988e-07   1.0218176823827366e-06
-2.0562304520256353e-06   2.2691369805260988e-07   1.0218176823827366e-06
-2.0562304520256353e-06   2.2691369805260988e-07   1.0218176823827366e-06
-2.0562304520256353e-06   2.2691369805260988e-07   1.0218176823827366e-06
-2.144132223330197e-06   4.795222515279732e-07   1.5625880880984651e-06
-2.144132223330197e-06   4.795222515279732e-07   1.5625880880984651e-06
-2.144132223330197e-06   4.795222515279732e-07   1.5625880880984651e-06
-2.144132223330197e-06   4.795222515279732e-07   1.5625880880984651e-06
-1.9005922507442748e-06   1.9604375801811976e-07   1.3267752298944731e-06
-1.9005922507442748e-06   1.9604375801811976e-07   1.3267752298944731e-06
-1.9005922507442748e-06   1.9604375801811976e-07   1.3267752298944731e-06
-1.9005922507442748e-06   1.9604375801811976e-07   1.3267752298944731e-06
-1.9478602219896725e-06   3.807457693082259e-07   1.2947339751959744e-06
-1.9478602219896725e-06   3.807457693082259e-07   1.2947339751959744e-06
-1.9478602219896725e-06   3.807457693082259e-07   1.2947339751959744e-06
-1.9478602219896725e-06   3.807457693082259e-07   1.2947339751959744e-06
-1.900592250744268e-06   4.795222515279732e-07   1.7326751842043392e-06
-1.900592250744268e-06   4.795222515279732e-07   1.7326751842043392e-06
-1.900592250744268e-06   4.795222515279732e-07   1.7326751842043392e-06
-1.900592250744268e-06   4.795222515279732e-07   1.7326751842043392e-06
-2.1441322233302243e-06   1.9604375801811976e-07   1.1566881337885414e-06
-2.1441322233302243e-06   1.9604375801811976e-07   1.1566881337885414e-06
-2.1441322233302243e-06   1.9604375801811976e-07   1.1566881337885414e-06
-2.1441322233302243e-06   1.9604375801811976e-07   1.1566881337885414e-06
-2.2678838011309233e-06   3.889509818641489e-07   1.9954539431187685e-06
-2.2678838011309233e-06   3.889509818641489e-07   1.9954539431187685e-06
-2.2678838011309233e-06   3.889509818641489e-07   1.9954539431187685e-06
-2.2678838011309233e-06   3.889509818641489e-07   1.9954539431187685e-06
-1.918908381041405e-06   1.2888554054021157e-07   1.5698675077639458e-06
-1.918908381041405e-06   1.2888554054021157e-07   1.5698675077639458e-06
-1.918908381041405e-06   1.2888554054021157e-07   1.5698675077639458e-06
-1.918908381041405e-06   1.2888554054021157e-07   1.5698675077639458e-06
-1.9739153038834875e-06   3.467669100854718e-07   1.5308168907734435e-06
-1.9739153038834875e-06   3.467669100854718e-07   1.5308168907734435e-06
-1.9739153038834875e-06   3.467669100854718e-07   1.5308168907734435e-06
-1.9739153038834875e-06   3.467669100854718e-07   1.5308168907734435e-06
-3.0494691901476366e-06   4.0626657103320094e-07   1.5454684272572488e-06
-3.0494691901476366e-06   4.0626657103320094e-07   1.5454684272572488e-06
-3.0494691901476366e-06   4.0626657103320094e-07   1.5454684272572488e-06
-3.0494691901476366e-06   4.0626657103320094e-07   1.5454684272572488e-06
-2.1533021313270576e-06   5.50945775912522e-07   3.1258877148858136e-06
-2.1533021313270576e-06   5.50945775912522e-07   3.1258877148858136e-06
-2.1533021313270576e-06   5.50945775912522e-07   3.1258877148858136e-06
-2.1533021313270576e-06   5.50945775912522e-07   3.1258877148858136e-06
-2.158845659216185e-06   3.099983433330788e-07   1.6669203011645403e-06
-2.158845659216185e-06   3.099983433330788e-07   1.6669203011645403e-06
-2.158845659216185e-06   3.099983433330788e-07   1.6669203011645403e-06
-2.158845659216185e-06   3.099983433330788e-07   1.6669203011645403e-06
-3.4118363124535477e-06   1.7619999223299259e-07   3.835517067220224e-06
-3.4118363124535477e-06   1.7619999223299259e-07   3.835517067220224e-06
-3.4118363124535477e-06   1.7619999223299259e-07   3.835517067220224e-06
-3.4118363124535477e-06   1.7619999223299259e-07   3.835517067220224e-06
-2.5524000013362876e-06   3.1557173170141024e-07   2.3195001716770752e-06
-2.5524000013362876e-06   3.1557173170141024e-07   2.3195001716770752e-06
-2.5524000013362876e-06   3.1557173170141024e-07   2.3195001716770752e-06
-2.5524000013362876e-06   3.1557173170141024e-07   2.3195001716770752e-06
-3.4118363124535536e-06   3.099983433330788e-07   1.7471993118245947e-06
-3.4118363124535536e-06   3.099983433330788e-07   1.7471993118245947e-06
-3.4118363124535536e-06   3.099983433330788e-07   1.7471993118245947e-06
-3.4118363124535536e-06   3.099983433330788e-07   1.7471993118245947e-06
-2.158845659216185e-06   1.7619999223299259e-07   3.755238056560169e-06
-2.158845659216185e-06   1.7619999223299259e-07   3.755238056560169e-06
-2.158845659216185e-06   1.7619999223299259e-07   3.755238056560169e-06
-2.158845659216185e-06   1.7619999223299259e-07   3.755238056560169e-06
-2.2049785936994356e-06   2.4637215158645445e-07   1.8227149033178566e-06
-2.2049785936994356e-06   2.4637215158645445e-07   1.8227149033178566e-06
-2.2049785936994356e-06   2.4637215158645445e-07   1.8227149033178566e-06
-2.2049785936994356e-06   2.4637215158645445e-07   1.8227149033178566e-06
-3.438972012035956e-06   1.0975603067026664e-07   3.961340273095089e-06
-3.438972012035956e-06   1.0975603067026664e-07   3.961340273095089e-06
-3.438972012035956e-06   1.0975603067026664e-07   3.961340273095089e-06
-3.438972012035956e-06   1.0975603067026664e-07   3.961340273095089e-06
-2.7503558154003458e-06   1.7986035793699276e-07   2.7715840156756714e-06
-2.7503558154003458e-06   1.7986035793699276e-07   2.7715840156756714e-06
-2.7503558154003458e-06   1.7986035793699276e-07   2.7715840156756714e-06
-2.7503558154003458e-06   1.7986035793699276e-07   2.7715840156756714e-06
-3.4389720120359626e-06   2.4637215158645445e-07   1.904684575867572e-06
-3.4389720120359626e-06   2.4637215158645445e-07   1.904684575867572e-06
-3.4389720120359626e-06   2.4637215158645445e-07   1.904684575867572e-06
-3.4389720120359626e-06   2.4637215158645445e-07   1.904684575867572e-06
-2.204978593699432e-06   1.0975603067026664e-07   3.879370600545377e-06
-2.204978593699432e-06   1.0975603067026664e-07   3.879370600545377e-06
-2.204978593699432e-06   1.0975603067026664e-07   3.879370600545377e-06
-2.204978593699432e-06   1.0975603067026664e-07   3.879370600545377e-06
-2.197877686161096e-06   9.149520375279668e-08   2.09197672329374e-06
-2.197877686161096e-06   9.149520375279668e-08   2.09197672329374e-06
-2.197877686161096e-06   9.149520375279668e-08   2.09197672329374e-06
-2.197877686161096e-06   9.149520375279668e-08   2.09197672329374e-06
-3.5022839333580937e-06   -1.826631361686367e-07   4.430482139241578e-06
-3.5022839333580937e-06   -1.826631361686367e-07   4.430482139241578e-06
-3.5022839333580937e-06   -1.826631361686367e-07   4.430482139241578e-06
-3.5022839333580937e-06   -1.826631361686367e-07   4.430482139241578e-06
-2.7253039344337754e-06   6.634125978933006e-08   2.9861128367929402e-06
-2.7253039344337754e-06   6.634125978933006e-08   2.9861128367929402e-06
-2.7253039344337754e-06   6.634125978933006e-08   2.9861128367929402e-06
-2.7253039344337754e-06   6.634125978933006e-08   2.9861128367929402e-06
-2.15330213132706e-06   1.070485364414311e-07   3.2814954888879882e-06
-2.15330213132706e-06   1.070485364414311e-07   3.2814954888879882e-06
-2.15330213132706e-06   1.070485364414311e-07   3.2814954888879882e-06
-2.15330213132706e-06   1.070485364414311e-07   3.2814954888879882e-06
-1.3666941174354348e-06   -7.732582474599979e-07   4.064324775033175e-06
-1.3666941174354348e-06   -7.732582474599979e-07   4.064324775033175e-06
-1.3666941174354348e-06   -7.732582474599979e-07   4.064324775033175e-06
-1.3666941174354348e-06   -7.732582474599979e-07   4.064324775033175e-06
-1.3801405406368983e-06   4.5677819708296943e-08   2.7518158545810923e-06
-1.3801405406368983e-06   4.5677819708296943e-08   2.7518158545810923e-06
-1.3801405406368983e-06   4.5677819708296943e-08   2.7518158545810923e-06
-1.3801405406368983e-06   4.5677819708296943e-08   2.7518158545810923e-06
-2.158845659216185e-06   -6.481138729807516e-07   4.465932734493356e-06
-2.158845659216185e-06   -6.481138729807516e-07   4.465932734493356e-06
-2.158845659216185e-06   -6.481138729807516e-07   4.465932734493356e-06
-2.158845659216185e-06   -6.481138729807516e-07   4.465932734493356e-06
-1.7593786035383051e-06   -3.8543299619105717e-07   3.642545782289741e-06
-1.7593786035383051e-06   -3.8543299619105717e-07   3.642545782289741e-06
-1.7593786035383051e-06   -3.8543299619105717e-07   3.642545782289741e-06
-1.7593786035383051e-06   -3.8543299619105717e-07   3.642545782289741e-06
-2.1588456592161866e-06   4.5677819708296943e-08   3.1680908701944876e-06
-2.1588456592161866e-06   4.5677819708296943e-08   3.1680908701944876e-06
-2.1588456592161866e-06   4.5677819708296943e-08   3.1680908701944876e-06
-2.1588456592161866e-06   4.5677819708296943e-08   3.1680908701944876e-06
-1.380140540636895e-06   -6.481138729807516e-07   4.04965771887992e-06
-1.380140540636895e-06   -6.481138729807516e-07   4.04965771887992e-06
-1.380140540636895e-06   -6.481138729807516e-07   4.04965771887992e-06
-1.380140540636895e-06   -6.481138729807516e-07   4.04965771887992e-06
-1.4007746259543808e-06   -2.0358621126586088e-08   2.8225440310163027e-06
-1.4007746259543808e-06   -2.0358621126586088e-08   2.8225440310163027e-06
-1.4007746259543808e-06   -2.0358621126586088e-08   2.8225440310163027e-06
-1.4007746259543808e-06   -2.0358621126586088e-08   2.8225440310163027e-06
-2.204978593699432e-06   -6.577978906546062e-07   4.545347538974849e-06
-2.204978593699432e-06   -6.577978906546062e-07   4.545347538974849e-06
-2.204978593699432e-06   -6.577978906546062e-07   4.545347538974849e-06
-2.204978593699432e-06   -6.577978906546062e-07   4.545347538974849e-06
-1.757421868793537e-06   -3.37485749445882e-07   3.607232379406446e-06
-1.757421868793537e-06   -3.37485749445882e-07   3.607232379406446e-06
-1.757421868793537e-06   -3.37485749445882e-07   3.607232379406446e-06
-1.757421868793537e-06   -3.37485749445882e-07   3.607232379406446e-06
-2.2049785936994356e-06   -2.0358621126586088e-08   3.2050075927331174e-06
-2.2049785936994356e-06   -2.0358621126586088e-08   3.2050075927331174e-06
-2.2049785936994356e-06   -2.0358621126586088e-08   3.2050075927331174e-06
-2.2049785936994356e-06   -2.0358621126586088e-08   3.2050075927331174e-06
-1.4007746259543808e-06   -6.577978906546062e-07   4.162883977258036e-06
-1.4007746259543808e-06   -6.577978906546062e-07   4.162883977258036e-06
-1.4007746259543808e-06   -6.577978906546062e-07   4.162883977258036e-06
-1.4007746259543808e-06   -6.577978906546062e-07   4.162883977258036e-06
-1.4053522612612687e-06   -1.0398135524291338e-07   2.9144441746044655e-06
-1.4053522612612687e-06   -1.0398135524291338e-07   2.9144441746044655e-06
-1.4053522612612687e-06   -1.0398135524291338e-07   2.9144441746044655e-06
-1.4053522612612687e-06   -1.0398135524291338e-07   2.9144441746044655e-06
-2.19787768616109e-06   -6.497492880795872e-07   4.562780642472817e-06
-2.19787768616109e-06   -6.497492880795872e-07   4.562780642472817e-06
-2.19787768616109e-06   -6.497492880795872e-07   4.562780642472817e-06
-2.19787768616109e-06   -6.497492880795872e-07   4.562780642472817e-06
-1.7817538563363576e-06   -3.693383120252679e-07   3.700994340465687e-06
-1.7817538563363576e-06   -3.693383120252679e-07   3.700994340465687e-06
-1.7817538563363576e-06   -3.693383120252679e-07   3.700994340465687e-06
-1.7817538563363576e-06   -3.693383120252679e-07   3.700994340465687e-06
-1.3666941174354348e-06   3.24773215284015e-08   3.0697372796716614e-06
-1.3666941174354348e-06   3.24773215284015e-08   3.0697372796716614e-06
-1.3666941174354348e-06   3.24773215284015e-08   3.0697372796716614e-06
-1.3666941174354348e-06   3.24773215284015e-08   3.0697372796716614e-06
-1.0596825444735884e-06   -6.05707565422972e-07   3.1985123024372637e-06
-1.0596825444735884e-06   -6.05707565422972e-07   3.1985123024372637e-06
-1.0596825444735884e-06   -6.05707565422972e-07   3.1985123024372637e-06
-1.0596825444735884e-06   -6.05707565422972e-07   3.1985123024372637e-06
-1.0623963441184047e-06   -1.6188254213454745e-08   2.7063533982804176e-06
-1.0623963441184047e-06   -1.6188254213454745e-08   2.7063533982804176e-06
-1.0623963441184047e-06   -1.6188254213454745e-08   2.7063533982804176e-06
-1.0623963441184047e-06   -1.6188254213454745e-08   2.7063533982804176e-06
-1.380140540636895e-06   -5.949448932701011e-07   3.583181042578589e-06
-1.380140540636895e-06   -5.949448932701011e-07   3.583181042578589e-06
-1.380140540636895e-06   -5.949448932701011e-07   3.583181042578589e-06
-1.380140540636895e-06   -5.949448932701011e-07   3.583181042578589e-06
-1.2115927985306059e-06   -3.028765681860633e-07   3.1270271440177048e-06
-1.2115927985306059e-06   -3.028765681860633e-07   3.1270271440177048e-06
-1.2115927985306059e-06   -3.028765681860633e-07   3.1270271440177048e-06
-1.2115927985306059e-06   -3.028765681860633e-07   3.1270271440177048e-06
-1.380140540636895e-06   -1.6188254213454745e-08   3.053607381714408e-06
-1.380140540636895e-06   -1.6188254213454745e-08   3.053607381714408e-06
-1.380140540636895e-06   -1.6188254213454745e-08   3.053607381714408e-06
-1.380140540636895e-06   -1.6188254213454745e-08   3.053607381714408e-06
-1.0623963441184047e-06   -5.949448932701079e-07   3.235927059144589e-06
-1.0623963441184047e-06   -5.949448932701079e-07   3.235927059144589e-06
-1.0623963441184047e-06   -5.949448932701079e-07   3.235927059144589e-06
-1.0623963441184047e-06   -5.949448932701079e-07   3.235927059144589e-06
-1.068829528719177e-06   -7.42239880748729e-08   2.7658702683627226e-06
-1.068829528719177e-06   -7.42239880748729e-08   2.7658702683627226e-06
-1.068829528719177e-06   -7.42239880748729e-08   2.7658702683627226e-06
-1.068829528719177e-06   -7.42239880748729e-08   2.7658702683627226e-06
-1.4007746259543808e-06   -6.102165453431761e-07   3.6407076314490215e-06
-1.4007746259543808e-06   -6.102165453431761e-07   3.6407076314490215e-06
-1.4007746259543808e-06   -6.102165453431761e-07   3.6407076314490215e-06
-1.4007746259543808e-06   -6.102165453431761e-07   3.6407076314490215e-06
-1.2131576875140762e-06   -3.1645190217052517e-07   3.1517539481448666e-06
-1.2131576875140762e-06   -3.1645190217052517e-07   3.1517539481448666e-06
-1.2131576875140762e-06   -3.1645190217052517e-07   3.1517539481448666e-06
-1.2131576875140762e-06   -3.1645190217052517e-07   3.1517539481448666e-06
-1.4007746259543808e-06   -7.42239880748729e-08   3.087465802723703e-06
-1.4007746259543808e-06   -7.42239880748729e-08   3.087465802723703e-06
-1.4007746259543808e-06   -7.42239880748729e-08   3.087465802723703e-06
-1.4007746259543808e-06   -7.42239880748729e-08   3.087465802723703e-06
-1.0688295287191837e-06   -6.102165453431829e-07   3.3191120970880477e-06
-1.0688295287191837e-06   -6.102165453431829e-07   3.3191120970880477e-06
-1.0688295287191837e-06   -6.102165453431829e-07   3.3191120970880477e-06
-1.0688295287191837e-06   -6.102165453431829e-07   3.3191120970880477e-06
-1.0649747994527685e-06   -1.305094950302993e-07   2.859915524842848e-06
-1.0649747994527685e-06   -1.305094950302993e-07   2.859915524842848e-06
-1.0649747994527685e-06   -1.305094950302993e-07   2.859915524842848e-06
-1.0649747994527685e-06   -1.305094950302993e-07   2.859915524842848e-06
-1.4053522612612687e-06   -6.271191520242653e-07   3.725177088720047e-06
-1.4053522612612687e-06   -6.271191520242653e-07   3.725177088720047e-06
-1.4053522612612687e-06   -6.271191520242653e-07   3.725177088720047e-06
-1.4053522612612687e-06   -6.271191520242653e-07   3.725177088720047e-06
-1.215908529741371e-06   -3.3912025912610094e-07   3.2366382004479882e-06
-1.215908529741371e-06   -3.3912025912610094e-07   3.2366382004479882e-06
-1.215908529741371e-06   -3.3912025912610094e-07   3.2366382004479882e-06
-1.215908529741371e-06   -3.3912025912610094e-07   3.2366382004479882e-06
-1.0596825444735884e-06   1.583991372898502e-07   2.1499490577103522e-06
-1.0596825444735884e-06   1.583991372898502e-07   2.1499490577103522e-06
-1.0596825444735884e-06   1.583991372898502e-07   2.1499490577103522e-06
-1.0596825444735884e-06   1.583991372898502e-07   2.1499490577103522e-06
-9.472559243106231e-07   -2.5401284952515613e-07   2.0898795658929383e-06
-9.472559243106231e-07   -2.5401284952515613e-07   2.0898795658929383e-06
-9.472559243106231e-07   -2.5401284952515613e-07   2.0898795658929383e-06
-9.472559243106231e-07   -2.5401284952515613e-07   2.0898795658929383e-06
-9.409332626150776e-07   9.319937414834921e-08   1.9431458849855746e-06
-9.409332626150776e-07   9.319937414834921e-08   1.9431458849855746e-06
-9.409332626150776e-07   9.319937414834921e-08   1.9431458849855746e-06
-9.409332626150776e-07   9.319937414834921e-08   1.9431458849855746e-06
-1.0623963441184047e-06   -2.9222552929233404e-07   2.376839296222215e-06
-1.0623963441184047e-06   -2.9222552929233404e-07   2.376839296222215e-06
-1.0623963441184047e-06   -2.9222552929233404e-07   2.376839296222215e-06
-1.0623963441184047e-06   -2.9222552929233404e-07   2.376839296222215e-06
-9.95878055729999e-07   -5.884185436908504e-08   2.125945277287649e-06
-9.95878055729999e-07   -5.884185436908504e-08   2.125945277287649e-06
-9.95878055729999e-07   -5.884185436908504e-08   2.125945277287649e-06
-9.95878055729999e-07   -5.884185436908504e-08   2.125945277287649e-06
-1.0623963441184047e-06   9.319937414834921e-08   2.174400827049994e-06
-1.0623963441184047e-06   9.319937414834921e-08   2.174400827049994e-06
-1.0623963441184047e-06   9.319937414834921e-08   2.174400827049994e-06
-1.0623963441184047e-06   9.319937414834921e-08   2.174400827049994e-06
-9.409332626150776e-07   -2.9222552929233404e-07   2.1455843541578124e-06
-9.409332626150776e-07   -2.9222552929233404e-07   2.1455843541578124e-06
-9.409332626150776e-07   -2.9222552929233404e-07   2.1455843541578124e-06
-9.409332626150776e-07   -2.9222552929233404e-07   2.1455843541578124e-06
-9.462223443877345e-07   3.6763126291092696e-08   2.031131715541897e-06
-9.462223443877345e-07   3.6763126291092696e-08   2.031131715541897e-06
-9.462223443877345e-07   3.6763126291092696e-08   2.031131715541897e-06
-9.462223443877345e-07   3.6763126291092696e-08   2.031131715541897e-06
-1.068829528719177e-06   -3.2251609862188866e-07   2.4510445577087265e-06
-1.068829528719177e-06   -3.2251609862188866e-07   2.4510445577087265e-06
-1.068829528719177e-06   -3.2251609862188866e-07   2.4510445577087265e-06
-1.068829528719177e-06   -3.2251609862188866e-07   2.4510445577087265e-06
-9.891475310818947e-07   -9.652582373482143e-08   2.1826470633809313e-06
-9.891475310818947e-07   -9.652582373482143e-08   2.1826470633809313e-06
-9.891475310818947e-07   -9.652582373482143e-08   2.1826470633809313e-06
-9.891475310818947e-07   -9.652582373482143e-08   2.1826470633809313e-06
-1.068829528719177e-06   3.6763126291092696e-08   2.246699250489656e-06
-1.068829528719177e-06   3.6763126291092696e-08   2.246699250489656e-06
-1.068829528719177e-06   3.6763126291092696e-08   2.246699250489656e-06
-1.068829528719177e-06   3.6763126291092696e-08   2.246699250489656e-06
-9.462223443877345e-07   -3.225160986218819e-07   2.2354770227609404e-06
-9.462223443877345e-07   -3.225160986218819e-07   2.2354770227609404e-06
-9.462223443877345e-07   -3.225160986218819e-07   2.2354770227609404e-06
-9.462223443877345e-07   -3.225160986218819e-07   2.2354770227609404e-06
-9.460574559222432e-07   -2.052593450176316e-08   2.1415830448986485e-06
-9.460574559222432e-07   -2.052593450176316e-08   2.1415830448986485e-06
-9.460574559222432e-07   -2.052593450176316e-08   2.1415830448986485e-06
-9.460574559222432e-07   -2.052593450176316e-08   2.1415830448986485e-06
-1.0649747994527685e-06   -3.609576780419133e-07   2.5440376635736163e-06
-1.0649747994527685e-06   -3.609576780419133e-07   2.5440376635736163e-06
-1.0649747994527685e-06   -3.609576780419133e-07   2.5440376635736163e-06
-1.0649747994527685e-06   -3.609576780419133e-07   2.5440376635736163e-06
-9.889480341426017e-07   -1.3085451481477015e-07   2.2792644901204346e-06
-9.889480341426017e-07   -1.3085451481477015e-07   2.2792644901204346e-06
-9.889480341426017e-07   -1.3085451481477015e-07   2.2792644901204346e-06
-9.889480341426017e-07   -1.3085451481477015e-07   2.2792644901204346e-06
-9.472559243106231e-07   2.7479325116315176e-07   5.888930524317778e-07
-9.472559243106231e-07   2.7479325116315176e-07   5.888930524317778e-07
-9.472559243106231e-07   2.7479325116315176e-07   5.888930524317778e-07
-9.472559243106231e-07   2.7479325116315176e-07   5.888930524317778e-07
-6.464971455905571e-07   -1.9559864899511596e-08   9.135458139942717e-07
-6.464971455905571e-07   -1.9559864899511596e-08   9.135458139942717e-07
-6.464971455905571e-07   -1.9559864899511596e-08   9.135458139942717e-07
-6.464971455905571e-07   -1.9559864899511596e-08   9.135458139942717e-07
-6.942281648148315e-07   2.2691369805260988e-07   5.985655747198801e-07
-6.942281648148315e-07   2.2691369805260988e-07   5.985655747198801e-07
-6.942281648148315e-07   2.2691369805260988e-07   5.985655747198801e-07
-6.942281648148315e-07   2.2691369805260988e-07   5.985655747198801e-07
-9.409332626150776e-07   -3.098292059294517e-08   1.164478708907683e-06
-9.409332626150776e-07   -3.098292059294517e-08   1.164478708907683e-06
-9.409332626150776e-07   -3.098292059294517e-08   1.164478708907683e-06
-9.409332626150776e-07   -3.098292059294517e-08   1.164478708907683e-06
-7.791822545150319e-07   1.434700486044251e-07   7.902219138891989e-07
-7.791822545150319e-07   1.434700486044251e-07   7.902219138891989e-07
-7.791822545150319e-07   1.434700486044251e-07   7.902219138891989e-07
-7.791822545150319e-07   1.434700486044251e-07   7.902219138891989e-07
-9.409332626150843e-07   2.2691369805260988e-07   7.533035459071982e-07
-9.409332626150843e-07   2.2691369805260988e-07   7.533035459071982e-07
-9.409332626150843e-07   2.2691369805260988e-07   7.533035459071982e-07
-9.409332626150843e-07   2.2691369805260988e-07   7.533035459071982e-07
-6.942281648148315e-07   -3.098292059294517e-08   1.0097407377203174e-06
-6.942281648148315e-07   -3.098292059294517e-08   1.0097407377203174e-06
-6.942281648148315e-07   -3.098292059294517e-08   1.0097407377203174e-06
-6.942281648148315e-07   -3.098292059294517e-08   1.0097407377203174e-06
-7.352168267525964e-07   1.9604375801811976e-07   7.478325440982213e-07
-7.352168267525964e-07   1.9604375801811976e-07   7.478325440982213e-07
-7.352168267525964e-07   1.9604375801811976e-07   7.478325440982213e-07
-7.352168267525964e-07   1.9604375801811976e-07   7.478325440982213e-07
-9.462223443877345e-07   -4.5213830502292645e-08   1.2442629599356767e-06
-9.462223443877345e-07   -4.5213830502292645e-08   1.2442629599356767e-06
-9.462223443877345e-07   -4.5213830502292645e-08   1.2442629599356767e-06
-9.462223443877345e-07   -4.5213830502292645e-08   1.2442629599356767e-06
-8.075239152885544e-07   1.2205531154096125e-07   9.127374262110313e-07
-8.075239152885544e-07   1.2205531154096125e-07   9.127374262110313e-07
-8.075239152885544e-07   1.2205531154096125e-07   9.127374262110313e-07
-8.075239152885544e-07   1.2205531154096125e-07   9.127374262110313e-07
-9.462223443877345e-07   1.9604375801811976e-07   8.925870972104511e-07
-9.462223443877345e-07   1.9604375801811976e-07   8.925870972104511e-07
-9.462223443877345e-07   1.9604375801811976e-07   8.925870972104511e-07
-9.462223443877345e-07   1.9604375801811976e-07   8.925870972104511e-07
-7.352168267525829e-07   -4.521383050228587e-08   1.0995084068234334e-06
-7.352168267525829e-07   -4.521383050228587e-08   1.0995084068234334e-06
-7.352168267525829e-07   -4.521383050228587e-08   1.0995084068234334e-06
-7.352168267525829e-07   -4.521383050228587e-08   1.0995084068234334e-06
-8.120417596721685e-07   1.2888554054021157e-07   1.0160728022603192e-06
-8.120417596721685e-07   1.2888554054021157e-07   1.0160728022603192e-06
-8.120417596721685e-07   1.2888554054021157e-07   1.0160728022603192e-06
-8.120417596721685e-07   1.2888554054021157e-07   1.0160728022603192e-06
-9.460574559222432e-07   -6.666572288370915e-08   1.3567630540647772e-06
-9.460574559222432e-07   -6.666572288370915e-08   1.3567630540647772e-06
-9.460574559222432e-07   -6.666572288370915e-08   1.3567630540647772e-06
-9.460574559222432e-07   -6.666572288370915e-08   1.3567630540647772e-06
-8.215270537276312e-07   1.0535551931426445e-07   1.0459996384216415e-06
-8.215270537276312e-07   1.0535551931426445e-07   1.0459996384216415e-06
-8.215270537276312e-07   1.0535551931426445e-07   1.0459996384216415e-06
-8.215270537276312e-07   1.0535551931426445e-07   1.0459996384216415e-06
-7.670263122318084e-06   5.509457759125287e-07   3.904831378358452e-06
-7.670263122318084e-06   5.509457759125287e-07   3.904831378358452e-06
-7.670263122318084e-06   5.509457759125287e-07   3.904831378358452e-06
-7.670263122318084e-06   5.509457759125287e-07   3.904831378358452e-06
-1.732017468793331e-06   -4.505637545754544e-06   1.0767957474566135e-05
-1.732017468793331e-06   -4.505637545754544e-06   1.0767957474566135e-05
-1.732017468793331e-06   -4.505637545754544e-06   1.0767957474566135e-05
-1.732017468793331e-06   -4.505637545754544e-06   1.0767957474566135e-05
-2.0816444108327965e-06   1.7619999223299259e-07   2.081349586041758e-06
-2.0816444108327965e-06   1.7619999223299259e-07   2.081349586041758e-06
-2.0816444108327965e-06   1.7619999223299259e-07   2.081349586041758e-06
-2.0816444108327965e-06   1.7619999223299259e-07   2.081349586041758e-06
-6.996000795832919e-06   -3.6164232013904856e-06   1.2547517477216033e-05
-6.996000795832919e-06   -3.6164232013904856e-06   1.2547517477216033e-05
-6.996000795832919e-06   -3.6164232013904856e-06   1.2547517477216033e-05
-6.996000795832919e-06   -3.6164232013904856e-06   1.2547517477216033e-05
-4.645784546021414e-06   -1.7953542221745472e-06   7.5378490066672936e-06
-4.645784546021414e-06   -1.7953542221745472e-06   7.5378490066672936e-06
-4.645784546021414e-06   -1.7953542221745472e-06   7.5378490066672936e-06
-4.645784546021414e-06   -1.7953542221745472e-06   7.5378490066672936e-06
-6.996000795832907e-06   1.7619999223299259e-07   4.3569235022158414e-06
-6.996000795832907e-06   1.7619999223299259e-07   4.3569235022158414e-06
-6.996000795832907e-06   1.7619999223299259e-07   4.3569235022158414e-06
-6.996000795832907e-06   1.7619999223299259e-07   4.3569235022158414e-06
-2.0816444108328e-06   -3.6164232013904856e-06   1.0271943561041947e-05
-2.0816444108328e-06   -3.6164232013904856e-06   1.0271943561041947e-05
-2.0816444108328e-06   -3.6164232013904856e-06   1.0271943561041947e-05
-2.0816444108328e-06   -3.6164232013904856e-06   1.0271943561041947e-05
-2.153056179122831e-06   1.0975603067025987e-07   2.2915396112282277e-06
-2.153056179122831e-06   1.0975603067025987e-07   2.2915396112282277e-06
-2.153056179122831e-06   1.0975603067025987e-07   2.2915396112282277e-06
-2.153056179122831e-06   1.0975603067025987e-07   2.2915396112282277e-06
-6.606286520005227e-06   -3.2032137861836447e-06   1.170137206947788e-05
-6.606286520005227e-06   -3.2032137861836447e-06   1.170137206947788e-05
-6.606286520005227e-06   -3.2032137861836447e-06   1.170137206947788e-05
-6.606286520005227e-06   -3.2032137861836447e-06   1.170137206947788e-05
-4.525975467252139e-06   -1.7130447316650768e-06   7.340085548844934e-06
-4.525975467252139e-06   -1.7130447316650768e-06   7.340085548844934e-06
-4.525975467252139e-06   -1.7130447316650768e-06   7.340085548844934e-06
-4.525975467252139e-06   -1.7130447316650768e-06   7.340085548844934e-06
-6.606286520005215e-06   1.0975603067025987e-07   4.2793215013405655e-06
-6.606286520005215e-06   1.0975603067025987e-07   4.2793215013405655e-06
-6.606286520005215e-06   1.0975603067025987e-07   4.2793215013405655e-06
-6.606286520005215e-06   1.0975603067025987e-07   4.2793215013405655e-06
-2.1530561791228343e-06   -3.2032137861836447e-06   9.71359017936554e-06
-2.1530561791228343e-06   -3.2032137861836447e-06   9.71359017936554e-06
-2.1530561791228343e-06   -3.2032137861836447e-06   9.71359017936554e-06
-2.1530561791228343e-06   -3.2032137861836447e-06   9.71359017936554e-06
-2.4081051930650974e-06   -1.826631361686367e-07   2.8467898550673033e-06
-2.4081051930650974e-06   -1.826631361686367e-07   2.8467898550673033e-06
-2.4081051930650974e-06   -1.826631361686367e-07   2.8467898550673033e-06
-2.4081051930650974e-06   -1.826631361686367e-07   2.8467898550673033e-06
-6.098588996662316e-06   -2.644685718359215e-06   1.0474809743710332e-05
-6.098588996662316e-06   -2.644685718359215e-06   1.0474809743710332e-05
-6.098588996662316e-06   -2.644685718359215e-06   1.0474809743710332e-05
-6.098588996662316e-06   -2.644685718359215e-06   1.0474809743710332e-05
-4.378868527440164e-06   -1.5866947276852188e-06   6.973814367269018e-06
-4.378868527440164e-06   -1.5866947276852188e-06   6.973814367269018e-06
-4.378868527440164e-06   -1.5866947276852188e-06   6.973814367269018e-06
-4.378868527440164e-06   -1.5866947276852188e-06   6.973814367269018e-06
-1.7320174687933293e-06   -7.732582474599979e-07   2.337502515846424e-06
-1.7320174687933293e-06   -7.732582474599979e-07   2.337502515846424e-06
-1.7320174687933293e-06   -7.732582474599979e-07   2.337502515846424e-06
-1.7320174687933293e-06   -7.732582474599979e-07   2.337502515846424e-06
-5.825103523578699e-07   -1.6060034474673605e-06   3.753700589901115e-06
-5.825103523578699e-07   -1.6060034474673605e-06   3.753700589901115e-06
-5.825103523578699e-07   -1.6060034474673605e-06   3.753700589901115e-06
-5.825103523578699e-07   -1.6060034474673605e-06   3.753700589901115e-06
-6.793537423215861e-07   -6.481138729807584e-07   1.9558124130329487e-06
-6.793537423215861e-07   -6.481138729807584e-07   1.9558124130329487e-06
-6.793537423215861e-07   -6.481138729807584e-07   1.9558124130329487e-06
-6.793537423215861e-07   -6.481138729807584e-07   1.9558124130329487e-06
-2.0816444108328e-06   -2.0418336245507333e-06   5.12919537816028e-06
-2.0816444108328e-06   -2.0418336245507333e-06   5.12919537816028e-06
-2.0816444108328e-06   -2.0418336245507333e-06   5.12919537816028e-06
-2.0816444108328e-06   -2.0418336245507333e-06   5.12919537816028e-06
-1.2022943207699513e-06   -1.0381813814191439e-06   3.0614205488432302e-06
-1.2022943207699513e-06   -1.0381813814191439e-06   3.0614205488432302e-06
-1.2022943207699513e-06   -1.0381813814191439e-06   3.0614205488432302e-06
-1.2022943207699513e-06   -1.0381813814191439e-06   3.0614205488432302e-06
-2.081644410832795e-06   -6.481138729807584e-07   2.792044263974911e-06
-2.081644410832795e-06   -6.481138729807584e-07   2.792044263974911e-06
-2.081644410832795e-06   -6.481138729807584e-07   2.792044263974911e-06
-2.081644410832795e-06   -6.481138729807584e-07   2.792044263974911e-06
-6.793537423215861e-07   -2.0418336245507333e-06   4.292963527218294e-06
-6.793537423215861e-07   -2.0418336245507333e-06   4.292963527218294e-06
-6.793537423215861e-07   -2.0418336245507333e-06   4.292963527218294e-06
-6.793537423215861e-07   -2.0418336245507333e-06   4.292963527218294e-06
-7.645229189743585e-07   -6.577978906545994e-07   2.202665470623909e-06
-7.645229189743585e-07   -6.577978906545994e-07   2.202665470623909e-06
-7.645229189743585e-07   -6.577978906545994e-07   2.202665470623909e-06
-7.645229189743585e-07   -6.577978906545994e-07   2.202665470623909e-06
-2.1530561791228343e-06   -1.915883022377601e-06   5.271738649905148e-06
-2.1530561791228343e-06   -1.915883022377601e-06   5.271738649905148e-06
-2.1530561791228343e-06   -1.915883022377601e-06   5.271738649905148e-06
-2.1530561791228343e-06   -1.915883022377601e-06   5.271738649905148e-06
-1.3879459665289475e-06   -1.2417095939841412e-06   3.592050905212624e-06
-1.3879459665289475e-06   -1.2417095939841412e-06   3.592050905212624e-06
-1.3879459665289475e-06   -1.2417095939841412e-06   3.592050905212624e-06
-1.3879459665289475e-06   -1.2417095939841412e-06   3.592050905212624e-06
-2.153056179122831e-06   -6.577978906545994e-07   2.957516549657705e-06
-2.153056179122831e-06   -6.577978906545994e-07   2.957516549657705e-06
-2.153056179122831e-06   -6.577978906545994e-07   2.957516549657705e-06
-2.153056179122831e-06   -6.577978906545994e-07   2.957516549657705e-06
-7.645229189743585e-07   -1.915883022377601e-06   4.516887570871352e-06
-7.645229189743585e-07   -1.915883022377601e-06   4.516887570871352e-06
-7.645229189743585e-07   -1.915883022377601e-06   4.516887570871352e-06
-7.645229189743585e-07   -1.915883022377601e-06   4.516887570871352e-06
-9.078544617466783e-07   -6.497492880795872e-07   2.434654917281062e-06
-9.078544617466783e-07   -6.497492880795872e-07   2.434654917281062e-06
-9.078544617466783e-07   -6.497492880795872e-07   2.434654917281062e-06
-9.078544617466783e-07   -6.497492880795872e-07   2.434654917281062e-06
-2.408105193065101e-06   -1.8312966963635013e-06   5.644001247782096e-06
-2.408105193065101e-06   -1.8312966963635013e-06   5.644001247782096e-06
-2.408105193065101e-06   -1.8312966963635013e-06   5.644001247782096e-06
-2.408105193065101e-06   -1.8312966963635013e-06   5.644001247782096e-06
-1.512883020713373e-06   -1.1383035600181307e-06   3.7361684120553376e-06
-1.512883020713373e-06   -1.1383035600181307e-06   3.7361684120553376e-06
-1.512883020713373e-06   -1.1383035600181307e-06   3.7361684120553376e-06
-1.512883020713373e-06   -1.1383035600181307e-06   3.7361684120553376e-06
-5.825103523578699e-07   -6.05707565422972e-07   1.3549538554169144e-06
-5.825103523578699e-07   -6.05707565422972e-07   1.3549538554169144e-06
-5.825103523578699e-07   -6.05707565422972e-07   1.3549538554169144e-06
-5.825103523578699e-07   -6.05707565422972e-07   1.3549538554169144e-06
-3.378802543867429e-07   -5.670278578502478e-07   1.7858785099124307e-06
-3.378802543867429e-07   -5.670278578502478e-07   1.7858785099124307e-06
-3.378802543867429e-07   -5.670278578502478e-07   1.7858785099124307e-06
-3.378802543867429e-07   -5.670278578502478e-07   1.7858785099124307e-06
-3.396399092318972e-07   -5.949448932701079e-07   1.4242913254489315e-06
-3.396399092318972e-07   -5.949448932701079e-07   1.4242913254489315e-06
-3.396399092318972e-07   -5.949448932701079e-07   1.4242913254489315e-06
-3.396399092318972e-07   -5.949448932701079e-07   1.4242913254489315e-06
-6.793537423215861e-07   -7.033522454078932e-07   2.055525458547733e-06
-6.793537423215861e-07   -7.033522454078932e-07   2.055525458547733e-06
-6.793537423215861e-07   -7.033522454078932e-07   2.055525458547733e-06
-6.793537423215861e-07   -7.033522454078932e-07   2.055525458547733e-06
-4.527563867702495e-07   -5.656526266105179e-07   1.5952434280170635e-06
-4.527563867702495e-07   -5.656526266105179e-07   1.5952434280170635e-06
-4.527563867702495e-07   -5.656526266105179e-07   1.5952434280170635e-06
-4.527563867702495e-07   -5.656526266105179e-07   1.5952434280170635e-06
-6.793537423215861e-07   -5.949448932701011e-07   1.4893357367316106e-06
-6.793537423215861e-07   -5.949448932701011e-07   1.4893357367316106e-06
-6.793537423215861e-07   -5.949448932701011e-07   1.4893357367316106e-06
-6.793537423215861e-07   -5.949448932701011e-07   1.4893357367316106e-06
-3.396399092318972e-07   -7.033522454078932e-07   1.990481047265064e-06
-3.396399092318972e-07   -7.033522454078932e-07   1.990481047265064e-06
-3.396399092318972e-07   -7.033522454078932e-07   1.990481047265064e-06
-3.396399092318972e-07   -7.033522454078932e-07   1.990481047265064e-06
-3.554834925248581e-07   -6.102165453431829e-07   1.5328090655684185e-06
-3.554834925248581e-07   -6.102165453431829e-07   1.5328090655684185e-06
-3.554834925248581e-07   -6.102165453431829e-07   1.5328090655684185e-06
-3.554834925248581e-07   -6.102165453431829e-07   1.5328090655684185e-06
-7.645229189743585e-07   -8.563499774206638e-07   2.362221502230717e-06
-7.645229189743585e-07   -8.563499774206638e-07   2.362221502230717e-06
-7.645229189743585e-07   -8.563499774206638e-07   2.362221502230717e-06
-7.645229189743585e-07   -8.563499774206638e-07   2.362221502230717e-06
-4.989908199009056e-07   -6.175412717268626e-07   1.776382780358684e-06
-4.989908199009056e-07   -6.175412717268626e-07   1.776382780358684e-06
-4.989908199009056e-07   -6.175412717268626e-07   1.776382780358684e-06
-4.989908199009056e-07   -6.175412717268626e-07   1.776382780358684e-06
-7.645229189743585e-07   -6.102165453431829e-07   1.6804891248148806e-06
-7.645229189743585e-07   -6.102165453431829e-07   1.6804891248148806e-06
-7.645229189743585e-07   -6.102165453431829e-07   1.6804891248148806e-06
-7.645229189743585e-07   -6.102165453431829e-07   1.6804891248148806e-06
-3.554834925248581e-07   -8.563499774206638e-07   2.2145414429842276e-06
-3.554834925248581e-07   -8.563499774206638e-07   2.2145414429842276e-06
-3.554834925248581e-07   -8.563499774206638e-07   2.2145414429842276e-06
-3.554834925248581e-07   -8.563499774206638e-07   2.2145414429842276e-06
-3.8845667474825274e-07   -6.271191520242721e-07   1.7011123710187971e-06
-3.8845667474825274e-07   -6.271191520242721e-07   1.7011123710187971e-06
-3.8845667474825274e-07   -6.271191520242721e-07   1.7011123710187971e-06
-3.8845667474825274e-07   -6.271191520242721e-07   1.7011123710187971e-06
-9.078544617466783e-07   -9.994520723767528e-07   2.790175101560969e-06
-9.078544617466783e-07   -9.994520723767528e-07   2.790175101560969e-06
-9.078544617466783e-07   -9.994520723767528e-07   2.790175101560969e-06
-9.078544617466783e-07   -9.994520723767528e-07   2.790175101560969e-06
-5.553074316124556e-07   -6.603217136495088e-07   1.9991185027675953e-06
-5.553074316124556e-07   -6.603217136495088e-07   1.9991185027675953e-06
-5.553074316124556e-07   -6.603217136495088e-07   1.9991185027675953e-06
-5.553074316124556e-07   -6.603217136495088e-07   1.9991185027675953e-06
-3.378802543867429e-07   -2.5401284952515613e-07   5.169761355052338e-07
-3.378802543867429e-07   -2.5401284952515613e-07   5.169761355052338e-07
-3.378802543867429e-07   -2.5401284952515613e-07   5.169761355052338e-07
-3.378802543867429e-07   -2.5401284952515613e-07   5.169761355052338e-07
-2.799315297081424e-07   -3.7555432528212684e-08   7.434317935010699e-07
-2.799315297081424e-07   -3.7555432528212684e-08   7.434317935010699e-07
-2.799315297081424e-07   -3.7555432528212684e-08   7.434317935010699e-07
-2.799315297081424e-07   -3.7555432528212684e-08   7.434317935010699e-07
-2.392112480711282e-07   -2.9222552929233404e-07   6.823714673448309e-07
-2.392112480711282e-07   -2.9222552929233404e-07   6.823714673448309e-07
-2.392112480711282e-07   -2.9222552929233404e-07   6.823714673448309e-07
-2.392112480711282e-07   -2.9222552929233404e-07   6.823714673448309e-07
-3.396399092318972e-07   -9.694568792857353e-08   7.325846644611652e-07
-3.396399092318972e-07   -9.694568792857353e-08   7.325846644611652e-07
-3.396399092318972e-07   -9.694568792857353e-08   7.325846644611652e-07
-3.396399092318972e-07   -9.694568792857353e-08   7.325846644611652e-07
-2.795976727444207e-07   -1.601455197772061e-07   6.704341694245254e-07
-2.795976727444207e-07   -1.601455197772061e-07   6.704341694245254e-07
-2.795976727444207e-07   -1.601455197772061e-07   6.704341694245254e-07
-2.795976727444207e-07   -1.601455197772061e-07   6.704341694245254e-07
-3.396399092318972e-07   -2.9222552929233404e-07   5.652035625265785e-07
-3.396399092318972e-07   -2.9222552929233404e-07   5.652035625265785e-07
-3.396399092318972e-07   -2.9222552929233404e-07   5.652035625265785e-07
-3.396399092318972e-07   -2.9222552929233404e-07   5.652035625265785e-07
-2.392112480711282e-07   -9.694568792857353e-08   8.497525692794346e-07
-2.392112480711282e-07   -9.694568792857353e-08   8.497525692794346e-07
-2.392112480711282e-07   -9.694568792857353e-08   8.497525692794346e-07
-2.392112480711282e-07   -9.694568792857353e-08   8.497525692794346e-07
-2.223214136835226e-07   -3.225160986218819e-07   7.509722834751986e-07
-2.223214136835226e-07   -3.225160986218819e-07   7.509722834751986e-07
-2.223214136835226e-07   -3.225160986218819e-07   7.509722834751986e-07
-2.223214136835226e-07   -3.225160986218819e-07   7.509722834751986e-07
-3.554834925248581e-07   -1.7879816981171794e-07   8.866783242579741e-07
-3.554834925248581e-07   -1.7879816981171794e-07   8.866783242579741e-07
-3.554834925248581e-07   -1.7879816981171794e-07   8.866783242579741e-07
-3.554834925248581e-07   -1.7879816981171794e-07   8.866783242579741e-07
-2.652467968724841e-07   -1.9626872590335225e-07   7.467661651589815e-07
-2.652467968724841e-07   -1.9626872590335225e-07   7.467661651589815e-07
-2.652467968724841e-07   -1.9626872590335225e-07   7.467661651589815e-07
-2.652467968724841e-07   -1.9626872590335225e-07   7.467661651589815e-07
-3.554834925248581e-07   -3.225160986218819e-07   6.647415261890703e-07
-3.554834925248581e-07   -3.225160986218819e-07   6.647415261890703e-07
-3.554834925248581e-07   -3.225160986218819e-07   6.647415261890703e-07
-3.554834925248581e-07   -3.225160986218819e-07   6.647415261890703e-07
-2.223214136835226e-07   -1.7879816981171794e-07   9.729090815440618e-07
-2.223214136835226e-07   -1.7879816981171794e-07   9.729090815440618e-07
-2.223214136835226e-07   -1.7879816981171794e-07   9.729090815440618e-07
-2.223214136835226e-07   -1.7879816981171794e-07   9.729090815440618e-07
-1.972012759121004e-07   -3.609576780419133e-07   8.356034911025377e-07
-1.972012759121004e-07   -3.609576780419133e-07   8.356034911025377e-07
-1.972012759121004e-07   -3.609576780419133e-07   8.356034911025377e-07
-1.972012759121004e-07   -3.609576780419133e-07   8.356034911025377e-07
-3.8845667474825274e-07   -3.3151642631891743e-07   1.13669773812899e-06
-3.8845667474825274e-07   -3.3151642631891743e-07   1.13669773812899e-06
-3.8845667474825274e-07   -3.3151642631891743e-07   1.13669773812899e-06
-3.8845667474825274e-07   -3.3151642631891743e-07   1.13669773812899e-06
-2.596918464408295e-07   -2.456034113974427e-07   8.705418819970884e-07
-2.596918464408295e-07   -2.456034113974427e-07   8.705418819970884e-07
-2.596918464408295e-07   -2.456034113974427e-07   8.705418819970884e-07
-2.596918464408295e-07   -2.456034113974427e-07   8.705418819970884e-07
-2.799315297081424e-07   -1.9559864899511596e-08   -3.528712965576684e-07
-2.799315297081424e-07   -1.9559864899511596e-08   -3.528712965576684e-07
-2.799315297081424e-07   -1.9559864899511596e-08   -3.528712965576684e-07
-2.799315297081424e-07   -1.9559864899511596e-08   -3.528712965576684e-07
-8.27466913139131e-08   2.774701614571682e-08   4.154229393181453e-09
-8.27466913139131e-08   2.774701614571682e-08   4.154229393181453e-09
-8.27466913139131e-08   2.774701614571682e-08   4.154229393181453e-09
-8.27466913139131e-08   2.774701614571682e-08   4.154229393181453e-09
-4.389022455525871e-08   -3.098292059294517e-08   -2.5426713443245505e-07
-4.389022455525871e-08   -3.098292059294517e-08   -2.5426713443245505e-07
-4.389022455525871e-08   -3.098292059294517e-08   -2.5426713443245505e-07
-4.389022455525871e-08   -3.098292059294517e-08   -2.5426713443245505e-07
-2.392112480711282e-07   4.31288185285026e-08   2.680086128775737e-08
-2.392112480711282e-07   4.31288185285026e-08   2.680086128775737e-08
-2.392112480711282e-07   4.31288185285026e-08   2.680086128775737e-08
-2.392112480711282e-07   4.31288185285026e-08   2.680086128775737e-08
-1.4737792754391176e-07   1.65294379475653e-08   -1.102950445757366e-07
-1.4737792754391176e-07   1.65294379475653e-08   -1.102950445757366e-07
-1.4737792754391176e-07   1.65294379475653e-08   -1.102950445757366e-07
-1.4737792754391176e-07   1.65294379475653e-08   -1.102950445757366e-07
-2.39211248071135e-07   -3.098292059294517e-08   -2.9873417790535623e-07
-2.39211248071135e-07   -3.098292059294517e-08   -2.9873417790535623e-07
-2.39211248071135e-07   -3.098292059294517e-08   -2.9873417790535623e-07
-2.39211248071135e-07   -3.098292059294517e-08   -2.9873417790535623e-07
-4.389022455525871e-08   4.31288185285026e-08   7.126790476062468e-08
-4.389022455525871e-08   4.31288185285026e-08   7.126790476062468e-08
-4.389022455525871e-08   4.31288185285026e-08   7.126790476062468e-08
-4.389022455525871e-08   4.31288185285026e-08   7.126790476062468e-08
-2.9247455537664705e-08   -4.5213830502292645e-08   -1.9904253464154238e-07
-2.9247455537664705e-08   -4.5213830502292645e-08   -1.9904253464154238e-07
-2.9247455537664705e-08   -4.5213830502292645e-08   -1.9904253464154238e-07
-2.9247455537664705e-08   -4.5213830502292645e-08   -1.9904253464154238e-07
-2.223214136835226e-07   2.345157734526997e-08   8.154815089299078e-08
-2.223214136835226e-07   2.345157734526997e-08   8.154815089299078e-08
-2.223214136835226e-07   2.345157734526997e-08   8.154815089299078e-08
-2.223214136835226e-07   2.345157734526997e-08   8.154815089299078e-08
-1.2152801249167805e-07   9.69649574803828e-09   -7.818780213504411e-08
-1.2152801249167805e-07   9.69649574803828e-09   -7.818780213504411e-08
-1.2152801249167805e-07   9.69649574803828e-09   -7.818780213504411e-08
-1.2152801249167805e-07   9.69649574803828e-09   -7.818780213504411e-08
-2.223214136835226e-07   -4.5213830502292645e-08   -2.402417793500718e-07
-2.223214136835226e-07   -4.5213830502292645e-08   -2.402417793500718e-07
-2.223214136835226e-07   -4.5213830502292645e-08   -2.402417793500718e-07
-2.223214136835226e-07   -4.5213830502292645e-08   -2.402417793500718e-07
-2.9247455537678257e-08   2.345157734526997e-08   1.22747395601527e-07
-2.9247455537678257e-08   2.345157734526997e-08   1.22747395601527e-07
-2.9247455537678257e-08   2.345157734526997e-08   1.22747395601527e-07
-2.9247455537678257e-08   2.345157734526997e-08   1.22747395601527e-07
-1.4791397508212437e-08   -6.666572288370915e-08   -1.10814927084253e-07
-1.4791397508212437e-08   -6.666572288370915e-08   -1.10814927084253e-07
-1.4791397508212437e-08   -6.666572288370915e-08   -1.10814927084253e-07
-1.4791397508212437e-08   -6.666572288370915e-08   -1.10814927084253e-07
-1.972012759121004e-07   -5.6704808871317695e-09   1.5660439172425283e-07
-1.972012759121004e-07   -5.6704808871317695e-09   1.5660439172425283e-07
-1.972012759121004e-07   -5.6704808871317695e-09   1.5660439172425283e-07
-1.972012759121004e-07   -5.6704808871317695e-09   1.5660439172425283e-07
-9.944631798607556e-08   -1.167643165336308e-09   -9.022240785513404e-09
-9.944631798607556e-08   -1.167643165336308e-09   -9.022240785513404e-09
-9.944631798607556e-08   -1.167643165336308e-09   -9.022240785513404e-09
-9.944631798607556e-08   -1.167643165336308e-09   -9.022240785513404e-09
              </DataArray>   
             <DataArray type="Float64" NumberOfComponents="3" Name="Stress" format="ascii">   
-0.40914155263522045   -0.10228538815880511   -0.10228538815880511
-0.40914155263522045   -0.10228538815880511   -0.10228538815880511
-0.40914155263522045   -0.10228538815880511   -0.10228538815880511
-0.40914155263522045   -0.10228538815880511   -0.10228538815880511
-0.23636122434021445   -0.008342731897106201   -0.005073982425247276
-0.23636122434021445   -0.008342731897106201   -0.005073982425247276
-0.23636122434021445   -0.008342731897106201   -0.005073982425247276
-0.23636122434021445   -0.008342731897106201   -0.005073982425247276
-0.2540218708356518   -0.06350546770891295   -0.06350546770891295
-0.2540218708356518   -0.06350546770891295   -0.06350546770891295
-0.2540218708356518   -0.06350546770891295   -0.06350546770891295
-0.2540218708356518   -0.06350546770891295   -0.06350546770891295
-0.39400154623966577   -0.03302892073662553   -0.012842596875893363
-0.39400154623966577   -0.03302892073662553   -0.012842596875893363
-0.39400154623966577   -0.03302892073662553   -0.012842596875893363
-0.39400154623966577   -0.03302892073662553   -0.012842596875893363
-0.30880865992255063   -0.051026248138107654   -0.0008993486651856981
-0.30880865992255063   -0.051026248138107654   -0.0008993486651856981
-0.30880865992255063   -0.051026248138107654   -0.0008993486651856981
-0.30880865992255063   -0.051026248138107654   -0.0008993486651856981
-0.42758582524129185   -0.10689645631032296   -0.10689645631032296
-0.42758582524129185   -0.10689645631032296   -0.10689645631032296
-0.42758582524129185   -0.10689645631032296   -0.10689645631032296
-0.42758582524129185   -0.10689645631032296   -0.10689645631032296
-0.22847132187311225   0.0023283378256985857   -0.0015865284308267686
-0.22847132187311225   0.0023283378256985857   -0.0015865284308267686
-0.22847132187311225   0.0023283378256985857   -0.0015865284308267686
-0.22847132187311225   0.0023283378256985857   -0.0015865284308267686
-0.2542134463134354   -0.06355336157835885   -0.06355336157835885
-0.2542134463134354   -0.06355336157835885   -0.06355336157835885
-0.2542134463134354   -0.06355336157835885   -0.06355336157835885
-0.2542134463134354   -0.06355336157835885   -0.06355336157835885
-0.40665378009740655   -0.03318088717371088   -0.01874644271341009
-0.40665378009740655   -0.03318088717371088   -0.01874644271341009
-0.40665378009740655   -0.03318088717371088   -0.01874644271341009
-0.40665378009740655   -0.03318088717371088   -0.01874644271341009
-0.31976344916705685   -0.04785259490027552   -0.016916289936875037
-0.31976344916705685   -0.04785259490027552   -0.016916289936875037
-0.31976344916705685   -0.04785259490027552   -0.016916289936875037
-0.31976344916705685   -0.04785259490027552   -0.016916289936875037
-0.4402981267999812   -0.1100745316999953   -0.1100745316999953
-0.4402981267999812   -0.1100745316999953   -0.1100745316999953
-0.4402981267999812   -0.1100745316999953   -0.1100745316999953
-0.4402981267999812   -0.1100745316999953   -0.1100745316999953
-0.22731783857047352   0.006591543988313499   0.0007797715697782145
-0.22731783857047352   0.006591543988313499   0.0007797715697782145
-0.22731783857047352   0.006591543988313499   0.0007797715697782145
-0.22731783857047352   0.006591543988313499   0.0007797715697782145
-0.25348821736876354   -0.06337205434219088   -0.06337205434219088
-0.25348821736876354   -0.06337205434219088   -0.06337205434219088
-0.25348821736876354   -0.06337205434219088   -0.06337205434219088
-0.25348821736876354   -0.06337205434219088   -0.06337205434219088
-0.42943415567552157   -0.028723932364362603   -0.011525496967874388
-0.42943415567552157   -0.028723932364362603   -0.011525496967874388
-0.42943415567552157   -0.028723932364362603   -0.011525496967874388
-0.42943415567552157   -0.028723932364362603   -0.011525496967874388
-0.3276869415333321   -0.04694769477467606   -0.030467738512311833
-0.3276869415333321   -0.04694769477467606   -0.030467738512311833
-0.3276869415333321   -0.04694769477467606   -0.030467738512311833
-0.3276869415333321   -0.04694769477467606   -0.030467738512311833
-0.2596420905286046   -0.06491052263215115   -0.06491052263215115
-0.2596420905286046   -0.06491052263215115   -0.06491052263215115
-0.2596420905286046   -0.06491052263215115   -0.06491052263215115
-0.2596420905286046   -0.06491052263215115   -0.06491052263215115
-0.1090254077744757   -0.007816466976686736   -0.002488641360709391
-0.1090254077744757   -0.007816466976686736   -0.002488641360709391
-0.1090254077744757   -0.007816466976686736   -0.002488641360709391
-0.1090254077744757   -0.007816466976686736   -0.002488641360709391
-0.11379609149419416   -0.02844902287354854   -0.02844902287354854
-0.11379609149419416   -0.02844902287354854   -0.02844902287354854
-0.11379609149419416   -0.02844902287354854   -0.02844902287354854
-0.11379609149419416   -0.02844902287354854   -0.02844902287354854
-0.2360301204418828   -0.028094140152350983   -0.008958043296629855
-0.2360301204418828   -0.028094140152350983   -0.008958043296629855
-0.2360301204418828   -0.028094140152350983   -0.008958043296629855
-0.2360301204418828   -0.028094140152350983   -0.008958043296629855
-0.17443975554134772   -0.03323798299186318   0.001275114836420334
-0.17443975554134772   -0.03323798299186318   0.001275114836420334
-0.17443975554134772   -0.03323798299186318   0.001275114836420334
-0.17443975554134772   -0.03323798299186318   0.001275114836420334
-0.2540218708356516   -0.0635054677089129   -0.0635054677089129
-0.2540218708356516   -0.0635054677089129   -0.0635054677089129
-0.2540218708356516   -0.0635054677089129   -0.0635054677089129
-0.2540218708356516   -0.0635054677089129   -0.0635054677089129
-0.10238530812761412   0.0003813376558244423   -0.00022546657002138135
-0.10238530812761412   0.0003813376558244423   -0.00022546657002138135
-0.10238530812761412   0.0003813376558244423   -0.00022546657002138135
-0.10238530812761412   0.0003813376558244423   -0.00022546657002138135
-0.11074351436110581   -0.027685878590276453   -0.027685878590276453
-0.11074351436110581   -0.027685878590276453   -0.027685878590276453
-0.11074351436110581   -0.027685878590276453   -0.027685878590276453
-0.11074351436110581   -0.027685878590276453   -0.027685878590276453
-0.23492781606039476   -0.022779230881742902   -0.007899341009771563
-0.23492781606039476   -0.022779230881742902   -0.007899341009771563
-0.23492781606039476   -0.022779230881742902   -0.007899341009771563
-0.23492781606039476   -0.022779230881742902   -0.007899341009771563
-0.17150174228239645   -0.0278759734641019   -0.00891062125517728
-0.17150174228239645   -0.0278759734641019   -0.00891062125517728
-0.17150174228239645   -0.0278759734641019   -0.00891062125517728
-0.17150174228239645   -0.0278759734641019   -0.00891062125517728
-0.2542134463134354   -0.06355336157835885   -0.06355336157835885
-0.2542134463134354   -0.06355336157835885   -0.06355336157835885
-0.2542134463134354   -0.06355336157835885   -0.06355336157835885
-0.2542134463134354   -0.06355336157835885   -0.06355336157835885
-0.09783300225978744   0.006713133954617218   0.002467669371421742
-0.09783300225978744   0.006713133954617218   0.002467669371421742
-0.09783300225978744   0.006713133954617218   0.002467669371421742
-0.09783300225978744   0.006713133954617218   0.002467669371421742
-0.1078772079281231   -0.026969301982030774   -0.026969301982030774
-0.1078772079281231   -0.026969301982030774   -0.026969301982030774
-0.1078772079281231   -0.026969301982030774   -0.026969301982030774
-0.1078772079281231   -0.026969301982030774   -0.026969301982030774
-0.23264312835922116   -0.01742922370919893   -0.0050894399274738975
-0.23264312835922116   -0.01742922370919893   -0.0050894399274738975
-0.23264312835922116   -0.01742922370919893   -0.0050894399274738975
-0.23264312835922116   -0.01742922370919893   -0.0050894399274738975
-0.1718003224720795   -0.024522737536247965   -0.019774902780643113
-0.1718003224720795   -0.024522737536247965   -0.019774902780643113
-0.1718003224720795   -0.024522737536247965   -0.019774902780643113
-0.1718003224720795   -0.024522737536247965   -0.019774902780643113
-0.11884931789666295   -0.029712329474165737   -0.029712329474165737
-0.11884931789666295   -0.029712329474165737   -0.029712329474165737
-0.11884931789666295   -0.029712329474165737   -0.029712329474165737
-0.11884931789666295   -0.029712329474165737   -0.029712329474165737
0.012486146842942096   0.0005432421070408742   0.00012552096069124547
0.012486146842942096   0.0005432421070408742   0.00012552096069124547
0.012486146842942096   0.0005432421070408742   0.00012552096069124547
0.012486146842942096   0.0005432421070408742   0.00012552096069124547
0.01719362787436143   0.0042984069685903575   0.0042984069685903575
0.01719362787436143   0.0042984069685903575   0.0042984069685903575
0.01719362787436143   0.0042984069685903575   0.0042984069685903575
0.01719362787436143   0.0042984069685903575   0.0042984069685903575
-0.10695173232667772   -0.01847136419475202   -0.004204885714762805
-0.10695173232667772   -0.01847136419475202   -0.004204885714762805
-0.10695173232667772   -0.01847136419475202   -0.004204885714762805
-0.10695173232667772   -0.01847136419475202   -0.004204885714762805
-0.046601829035760683   -0.01178781741846837   0.007503974789842843
-0.046601829035760683   -0.01178781741846837   0.007503974789842843
-0.046601829035760683   -0.01178781741846837   0.007503974789842843
-0.046601829035760683   -0.01178781741846837   0.007503974789842843
-0.11379609149419416   -0.02844902287354854   -0.02844902287354854
-0.11379609149419416   -0.02844902287354854   -0.02844902287354854
-0.11379609149419416   -0.02844902287354854   -0.02844902287354854
-0.11379609149419416   -0.02844902287354854   -0.02844902287354854
0.017577583585163578   0.00781566219067251   0.002700930300518811
0.017577583585163578   0.00781566219067251   0.002700930300518811
0.017577583585163578   0.00781566219067251   0.002700930300518811
0.017577583585163578   0.00781566219067251   0.002700930300518811
0.020000748194622484   0.005000187048655621   0.005000187048655621
0.020000748194622484   0.005000187048655621   0.005000187048655621
0.020000748194622484   0.005000187048655621   0.005000187048655621
0.020000748194622484   0.005000187048655621   0.005000187048655621
-0.10268484828980287   -0.012263987242012497   -0.002814439582026541
-0.10268484828980287   -0.012263987242012497   -0.002814439582026541
-0.10268484828980287   -0.012263987242012497   -0.002814439582026541
-0.10268484828980287   -0.012263987242012497   -0.002814439582026541
-0.04419604221353117   -0.007212215049596961   -0.0027284735940226986
-0.04419604221353117   -0.007212215049596961   -0.0027284735940226986
-0.04419604221353117   -0.007212215049596961   -0.0027284735940226986
-0.04419604221353117   -0.007212215049596961   -0.0027284735940226986
-0.11074351436110581   -0.027685878590276453   -0.027685878590276453
-0.11074351436110581   -0.027685878590276453   -0.027685878590276453
-0.11074351436110581   -0.027685878590276453   -0.027685878590276453
-0.11074351436110581   -0.027685878590276453   -0.027685878590276453
0.021730245401025132   0.014092909532019398   0.00455495059730494
0.021730245401025132   0.014092909532019398   0.00455495059730494
0.021730245401025132   0.014092909532019398   0.00455495059730494
0.021730245401025132   0.014092909532019398   0.00455495059730494
0.023603527732213355   0.005900881933053339   0.005900881933053339
0.023603527732213355   0.005900881933053339   0.005900881933053339
0.023603527732213355   0.005900881933053339   0.005900881933053339
0.023603527732213355   0.005900881933053339   0.005900881933053339
-0.09804981103822699   -0.004902750282826527   0.00010113076824503058
-0.09804981103822699   -0.004902750282826527   0.00010113076824503058
-0.09804981103822699   -0.004902750282826527   0.00010113076824503058
-0.09804981103822699   -0.004902750282826527   0.00010113076824503058
-0.042346833860135304   -0.0028004220961870916   -0.012868777289481813
-0.042346833860135304   -0.0028004220961870916   -0.012868777289481813
-0.042346833860135304   -0.0028004220961870916   -0.012868777289481813
-0.042346833860135304   -0.0028004220961870916   -0.012868777289481813
0.013724882477106327   0.003431220619276582   0.003431220619276582
0.013724882477106327   0.003431220619276582   0.003431220619276582
0.013724882477106327   0.003431220619276582   0.003431220619276582
0.013724882477106327   0.003431220619276582   0.003431220619276582
0.14592236126600783   0.013455527037757122   0.004802276180450729
0.14592236126600783   0.013455527037757122   0.004802276180450729
0.14592236126600783   0.013455527037757122   0.004802276180450729
0.14592236126600783   0.013455527037757122   0.004802276180450729
0.15901660495326553   0.03975415123831638   0.03975415123831638
0.15901660495326553   0.03975415123831638   0.03975415123831638
0.15901660495326553   0.03975415123831638   0.03975415123831638
0.15901660495326553   0.03975415123831638   0.03975415123831638
0.013046733404076893   -0.010222206888126865   -0.0019154515261153669
0.013046733404076893   -0.010222206888126865   -0.0019154515261153669
0.013046733404076893   -0.010222206888126865   -0.0019154515261153669
0.013046733404076893   -0.010222206888126865   -0.0019154515261153669
0.08278484037935017   0.01033767219770947   0.014918182980704745
0.08278484037935017   0.01033767219770947   0.014918182980704745
0.08278484037935017   0.01033767219770947   0.014918182980704745
0.08278484037935017   0.01033767219770947   0.014918182980704745
0.01719362787436149   0.004298406968590372   0.004298406968590372
0.01719362787436149   0.004298406968590372   0.004298406968590372
0.01719362787436149   0.004298406968590372   0.004298406968590372
0.01719362787436149   0.004298406968590372   0.004298406968590372
0.14828939311089281   0.01865322000951105   0.007219023255258248
0.14828939311089281   0.01865322000951105   0.007219023255258248
0.14828939311089281   0.01865322000951105   0.007219023255258248
0.14828939311089281   0.01865322000951105   0.007219023255258248
0.15890161827275662   0.039725404568189154   0.039725404568189154
0.15890161827275662   0.039725404568189154   0.039725404568189154
0.15890161827275662   0.039725404568189154   0.039725404568189154
0.15890161827275662   0.039725404568189154   0.039725404568189154
0.01722265781035898   -0.004130742109524839   0.00024066428551842165
0.01722265781035898   -0.004130742109524839   0.00024066428551842165
0.01722265781035898   -0.004130742109524839   0.00024066428551842165
0.01722265781035898   -0.004130742109524839   0.00024066428551842165
0.08275043261142845   0.013782219590255503   0.0037556396358710154
0.08275043261142845   0.013782219590255503   0.0037556396358710154
0.08275043261142845   0.013782219590255503   0.0037556396358710154
0.08275043261142845   0.013782219590255503   0.0037556396358710154
0.0200007481946225   0.005000187048655625   0.005000187048655625
0.0200007481946225   0.005000187048655625   0.005000187048655625
0.0200007481946225   0.005000187048655625   0.005000187048655625
0.0200007481946225   0.005000187048655625   0.005000187048655625
0.14960966097336412   0.024080608494879717   0.008910414144536073
0.14960966097336412   0.024080608494879717   0.008910414144536073
0.14960966097336412   0.024080608494879717   0.008910414144536073
0.14960966097336412   0.024080608494879717   0.008910414144536073
0.16252297141251382   0.040630742853128454   0.040630742853128454
0.16252297141251382   0.040630742853128454   0.040630742853128454
0.16252297141251382   0.040630742853128454   0.040630742853128454
0.16252297141251382   0.040630742853128454   0.040630742853128454
0.02255343516464155   0.003875245320519244   0.0026760557077282164
0.02255343516464155   0.003875245320519244   0.0026760557077282164
0.02255343516464155   0.003875245320519244   0.0026760557077282164
0.02255343516464155   0.003875245320519244   0.0026760557077282164
0.08458507849492486   0.018838215759400666   -0.006591192400832838
0.08458507849492486   0.018838215759400666   -0.006591192400832838
0.08458507849492486   0.018838215759400666   -0.006591192400832838
0.08458507849492486   0.018838215759400666   -0.006591192400832838
0.1580786673581847   0.03951966683954618   0.03951966683954618
0.1580786673581847   0.03951966683954618   0.03951966683954618
0.1580786673581847   0.03951966683954618   0.03951966683954618
0.1580786673581847   0.03951966683954618   0.03951966683954618
0.33129029116425723   0.025433954264901817   0.009405733864449525
0.33129029116425723   0.025433954264901817   0.009405733864449525
0.33129029116425723   0.025433954264901817   0.009405733864449525
0.33129029116425723   0.025433954264901817   0.009405733864449525
0.3392876729826517   0.08482191824566293   0.08482191824566293
0.3392876729826517   0.08482191824566293   0.08482191824566293
0.3392876729826517   0.08482191824566293   0.08482191824566293
0.3392876729826517   0.08482191824566293   0.08482191824566293
0.1414898167005897   -0.0077919172054683045   -0.00033372158127800006
0.1414898167005897   -0.0077919172054683045   -0.00033372158127800006
0.1414898167005897   -0.0077919172054683045   -0.00033372158127800006
0.1414898167005897   -0.0077919172054683045   -0.00033372158127800006
0.23580853624108858   0.03357132497727529   0.026397090461285615
0.23580853624108858   0.03357132497727529   0.026397090461285615
0.23580853624108858   0.03357132497727529   0.026397090461285615
0.23580853624108858   0.03357132497727529   0.026397090461285615
0.1590166049532654   0.03975415123831635   0.03975415123831635
0.1590166049532654   0.03975415123831635   0.03975415123831635
0.1590166049532654   0.03975415123831635   0.03975415123831635
0.1590166049532654   0.03975415123831635   0.03975415123831635
0.31468851932039194   0.03020348439229529   0.016444583787737
0.31468851932039194   0.03020348439229529   0.016444583787737
0.31468851932039194   0.03020348439229529   0.016444583787737
0.31468851932039194   0.03020348439229529   0.016444583787737
0.32982690688552857   0.08245672672138214   0.08245672672138214
0.32982690688552857   0.08245672672138214   0.08245672672138214
0.32982690688552857   0.08245672672138214   0.08245672672138214
0.32982690688552857   0.08245672672138214   0.08245672672138214
0.14251945980367123   -0.0039953131674669365   0.001535329958418331
0.14251945980367123   -0.0039953131674669365   0.001535329958418331
0.14251945980367123   -0.0039953131674669365   0.001535329958418331
0.14251945980367123   -0.0039953131674669365   0.001535329958418331
0.2294475786119181   0.03471634601629775   0.012623645406006842
0.2294475786119181   0.03471634601629775   0.012623645406006842
0.2294475786119181   0.03471634601629775   0.012623645406006842
0.2294475786119181   0.03471634601629775   0.012623645406006842
0.15890161827275662   0.039725404568189154   0.039725404568189154
0.15890161827275662   0.039725404568189154   0.039725404568189154
0.15890161827275662   0.039725404568189154   0.039725404568189154
0.15890161827275662   0.039725404568189154   0.039725404568189154
0.3051758252521658   0.030467085821449615   0.011190959454506004
0.3051758252521658   0.030467085821449615   0.011190959454506004
0.3051758252521658   0.030467085821449615   0.011190959454506004
0.3051758252521658   0.030467085821449615   0.011190959454506004
0.3153468444539182   0.07883671111347955   0.07883671111347955
0.3153468444539182   0.07883671111347955   0.07883671111347955
0.3153468444539182   0.07883671111347955   0.07883671111347955
0.3153468444539182   0.07883671111347955   0.07883671111347955
0.14836784319066118   0.005533263089978483   0.0049525815070152164
0.14836784319066118   0.005533263089978483   0.0049525815070152164
0.14836784319066118   0.005533263089978483   0.0049525815070152164
0.14836784319066118   0.005533263089978483   0.0049525815070152164
0.2202888229368989   0.037850425147857296   -0.003465351598382499
0.2202888229368989   0.037850425147857296   -0.003465351598382499
0.2202888229368989   0.037850425147857296   -0.003465351598382499
0.2202888229368989   0.037850425147857296   -0.003465351598382499
-0.3184780131022215   -0.02289345248403552   0.004289203402113395
-0.3184780131022215   -0.02289345248403552   0.004289203402113395
-0.3184780131022215   -0.02289345248403552   0.004289203402113395
-0.3184780131022215   -0.02289345248403552   0.004289203402113395
-0.20340929487841802   -0.005359595832505941   -0.0015622313651317034
-0.20340929487841802   -0.005359595832505941   -0.0015622313651317034
-0.20340929487841802   -0.005359595832505941   -0.0015622313651317034
-0.20340929487841802   -0.005359595832505941   -0.0015622313651317034
-0.204224213994984   0.008436935720972392   0.004709353167414478
-0.204224213994984   0.008436935720972392   0.004709353167414478
-0.204224213994984   0.008436935720972392   0.004709353167414478
-0.204224213994984   0.008436935720972392   0.004709353167414478
-0.3229351964131877   -0.022383583752575494   -0.004135070708088292
-0.3229351964131877   -0.022383583752575494   -0.004135070708088292
-0.3229351964131877   -0.022383583752575494   -0.004135070708088292
-0.3229351964131877   -0.022383583752575494   -0.004135070708088292
-0.25201200251336703   -0.00881801351330247   -0.0013605190800886034
-0.25201200251336703   -0.00881801351330247   -0.0013605190800886034
-0.25201200251336703   -0.00881801351330247   -0.0013605190800886034
-0.25201200251336703   -0.00881801351330247   -0.0013605190800886034
-0.32026818429358894   -0.01529203978730459   0.002108445924634543
-0.32026818429358894   -0.01529203978730459   0.002108445924634543
-0.32026818429358894   -0.01529203978730459   0.002108445924634543
-0.32026818429358894   -0.01529203978730459   0.002108445924634543
-0.20719622977389246   0.001040388096392418   -0.0027541781025439607
-0.20719622977389246   0.001040388096392418   -0.0027541781025439607
-0.20719622977389246   0.001040388096392418   -0.0027541781025439607
-0.20719622977389246   0.001040388096392418   -0.0027541781025439607
-0.2041231286144212   0.01212293770491922   0.005242030196755454
-0.2041231286144212   0.01212293770491922   0.005242030196755454
-0.2041231286144212   0.01212293770491922   0.005242030196755454
-0.2041231286144212   0.01212293770491922   0.005242030196755454
-0.3244092259430247   -0.01958819942364423   -0.005424096046889863
-0.3244092259430247   -0.01958819942364423   -0.005424096046889863
-0.3244092259430247   -0.01958819942364423   -0.005424096046889863
-0.3244092259430247   -0.01958819942364423   -0.005424096046889863
-0.2586577096660887   -0.005763456940185305   -0.0026277557827655354
-0.2586577096660887   -0.005763456940185305   -0.0026277557827655354
-0.2586577096660887   -0.005763456940185305   -0.0026277557827655354
-0.2586577096660887   -0.005763456940185305   -0.0026277557827655354
-0.3182282748241985   -0.008806671293057095   0.01469913141665121
-0.3182282748241985   -0.008806671293057095   0.01469913141665121
-0.3182282748241985   -0.008806671293057095   0.01469913141665121
-0.3182282748241985   -0.008806671293057095   0.01469913141665121
-0.2078154160948596   0.0038300732127197062   -0.004926542713235248
-0.2078154160948596   0.0038300732127197062   -0.004926542713235248
-0.2078154160948596   0.0038300732127197062   -0.004926542713235248
-0.2078154160948596   0.0038300732127197062   -0.004926542713235248
-0.20002286815665984   0.021299495733291887   0.009180356001536504
-0.20002286815665984   0.021299495733291887   0.009180356001536504
-0.20002286815665984   0.021299495733291887   0.009180356001536504
-0.20002286815665984   0.021299495733291887   0.009180356001536504
-0.31472051607752627   -0.015505067727684396   -0.0087078661367706
-0.31472051607752627   -0.015505067727684396   -0.0087078661367706
-0.31472051607752627   -0.015505067727684396   -0.0087078661367706
-0.31472051607752627   -0.015505067727684396   -0.0087078661367706
-0.24822745658957468   0.002637079429644147   0.005617996655600886
-0.24822745658957468   0.002637079429644147   0.005617996655600886
-0.24822745658957468   0.002637079429644147   0.005617996655600886
-0.24822745658957468   0.002637079429644147   0.005617996655600886
-0.20826293502305415   -0.027836874782020207   -0.0033531531387980687
-0.20826293502305415   -0.027836874782020207   -0.0033531531387980687
-0.20826293502305415   -0.027836874782020207   -0.0033531531387980687
-0.20826293502305415   -0.027836874782020207   -0.0033531531387980687
-0.09682354435745905   -0.0025896797096465266   0.0009232917227304533
-0.09682354435745905   -0.0025896797096465266   0.0009232917227304533
-0.09682354435745905   -0.0025896797096465266   0.0009232917227304533
-0.09682354435745905   -0.0025896797096465266   0.0009232917227304533
-0.0978652334598122   0.0016581075863554076   0.0016383084148317607
-0.0978652334598122   0.0016581075863554076   0.0016383084148317607
-0.0978652334598122   0.0016581075863554076   0.0016383084148317607
-0.0978652334598122   0.0016581075863554076   0.0016383084148317607
-0.212177005785747   -0.02031151307110981   -0.006306156994318274
-0.212177005785747   -0.02031151307110981   -0.006306156994318274
-0.212177005785747   -0.02031151307110981   -0.006306156994318274
-0.212177005785747   -0.02031151307110981   -0.006306156994318274
-0.1538104990438523   -0.012698179583970307   -0.0037049654843506405
-0.1538104990438523   -0.012698179583970307   -0.0037049654843506405
-0.1538104990438523   -0.012698179583970307   -0.0037049654843506405
-0.1538104990438523   -0.012698179583970307   -0.0037049654843506405
-0.2119078683657327   -0.022110398059055396   -0.0031615849063017683
-0.2119078683657327   -0.022110398059055396   -0.0031615849063017683
-0.2119078683657327   -0.022110398059055396   -0.0031615849063017683
-0.2119078683657327   -0.022110398059055396   -0.0031615849063017683
-0.0977636793561427   0.0038276840979848126   -2.349757844944192e-05
-0.0977636793561427   0.0038276840979848126   -2.349757844944192e-05
-0.0977636793561427   0.0038276840979848126   -2.349757844944192e-05
-0.0977636793561427   0.0038276840979848126   -2.349757844944192e-05
-0.09718725216355056   0.006767005747818213   0.002091278241190063
-0.09718725216355056   0.006767005747818213   0.002091278241190063
-0.09718725216355056   0.006767005747818213   0.002091278241190063
-0.09718725216355056   0.006767005747818213   0.002091278241190063
-0.21190730386433587   -0.014709531506656166   -0.0068463768412425005
-0.21190730386433587   -0.014709531506656166   -0.0068463768412425005
-0.21190730386433587   -0.014709531506656166   -0.0068463768412425005
-0.21190730386433587   -0.014709531506656166   -0.0068463768412425005
-0.153200027930608   -0.0069937838251582715   -0.0017747473673084962
-0.153200027930608   -0.0069937838251582715   -0.0017747473673084962
-0.153200027930608   -0.0069937838251582715   -0.0017747473673084962
-0.153200027930608   -0.0069937838251582715   -0.0017747473673084962
-0.21102034937792336   -0.016535080438717993   -0.0005860554771181734
-0.21102034937792336   -0.016535080438717993   -0.0005860554771181734
-0.21102034937792336   -0.016535080438717993   -0.0005860554771181734
-0.21102034937792336   -0.016535080438717993   -0.0005860554771181734
-0.09738158922453422   0.00928517210530935   -0.0013985734212175593
-0.09738158922453422   0.00928517210530935   -0.0013985734212175593
-0.09738158922453422   0.00928517210530935   -0.0013985734212175593
-0.09738158922453422   0.00928517210530935   -0.0013985734212175593
-0.09526507848170872   0.011866666373980303   0.004011960610910031
-0.09526507848170872   0.011866666373980303   0.004011960610910031
-0.09526507848170872   0.011866666373980303   0.004011960610910031
-0.09526507848170872   0.011866666373980303   0.004011960610910031
-0.20929194635483583   -0.00823139654023166   -0.007634142715820809
-0.20929194635483583   -0.00823139654023166   -0.007634142715820809
-0.20929194635483583   -0.00823139654023166   -0.007634142715820809
-0.20929194635483583   -0.00823139654023166   -0.007634142715820809
-0.15222317654669548   -0.0015892357823722586   0.0007482438838036717
-0.15222317654669548   -0.0015892357823722586   0.0007482438838036717
-0.15222317654669548   -0.0015892357823722586   0.0007482438838036717
-0.15222317654669548   -0.0015892357823722586   0.0007482438838036717
-0.10196122914012927   -0.02320191638480438   -0.00415289551546366
-0.10196122914012927   -0.02320191638480438   -0.00415289551546366
-0.10196122914012927   -0.02320191638480438   -0.00415289551546366
-0.10196122914012927   -0.02320191638480438   -0.00415289551546366
0.008859877952308578   0.001996135024989562   0.003969718067140665
0.008859877952308578   0.001996135024989562   0.003969718067140665
0.008859877952308578   0.001996135024989562   0.003969718067140665
0.008859877952308578   0.001996135024989562   0.003969718067140665
0.008691643390365973   0.005572794230586292   0.0003725306948850805
0.008691643390365973   0.005572794230586292   0.0003725306948850805
0.008691643390365973   0.005572794230586292   0.0003725306948850805
0.008691643390365973   0.005572794230586292   0.0003725306948850805
-0.10210748712768022   -0.015249409540640458   -0.0026654427975125227
-0.10210748712768022   -0.015249409540640458   -0.0026654427975125227
-0.10210748712768022   -0.015249409540640458   -0.0026654427975125227
-0.10210748712768022   -0.015249409540640458   -0.0026654427975125227
-0.047085851401330744   -0.007812614117623169   -0.0015823397402899247
-0.047085851401330744   -0.007812614117623169   -0.0015823397402899247
-0.047085851401330744   -0.007812614117623169   -0.0015823397402899247
-0.047085851401330744   -0.007812614117623169   -0.0015823397402899247
-0.10282299436175722   -0.0175859309671025   -0.003906457541435438
-0.10282299436175722   -0.0175859309671025   -0.003906457541435438
-0.10282299436175722   -0.0175859309671025   -0.003906457541435438
-0.10282299436175722   -0.0175859309671025   -0.003906457541435438
0.0097791015108016   0.008281266543406931   0.003101348984242584
0.0097791015108016   0.008281266543406931   0.003101348984242584
0.0097791015108016   0.008281266543406931   0.003101348984242584
0.0097791015108016   0.008281266543406931   0.003101348984242584
0.009801815798274254   0.011159127451051593   0.001814469795216787
0.009801815798274254   0.011159127451051593   0.001814469795216787
0.009801815798274254   0.011159127451051593   0.001814469795216787
0.009801815798274254   0.011159127451051593   0.001814469795216787
-0.10145172356246471   -0.009114524805209757   -0.0033495482003527565
-0.10145172356246471   -0.009114524805209757   -0.0033495482003527565
-0.10145172356246471   -0.009114524805209757   -0.0033495482003527565
-0.10145172356246471   -0.009114524805209757   -0.0033495482003527565
-0.04605317839442434   -0.0018969105381243193   0.00047684717243672015
-0.04605317839442434   -0.0018969105381243193   0.00047684717243672015
-0.04605317839442434   -0.0018969105381243193   0.00047684717243672015
-0.04605317839442434   -0.0018969105381243193   0.00047684717243672015
-0.10175225624461105   -0.011923273499856377   -0.0020434629164377697
-0.10175225624461105   -0.011923273499856377   -0.0020434629164377697
-0.10175225624461105   -0.011923273499856377   -0.0020434629164377697
-0.10175225624461105   -0.011923273499856377   -0.0020434629164377697
0.010505695352730616   0.014371223018008241   0.0021217720005418978
0.010505695352730616   0.014371223018008241   0.0021217720005418978
0.010505695352730616   0.014371223018008241   0.0021217720005418978
0.010505695352730616   0.014371223018008241   0.0021217720005418978
0.010356508899415508   0.017344387322050833   0.002930498854989326
0.010356508899415508   0.017344387322050833   0.002930498854989326
0.010356508899415508   0.017344387322050833   0.002930498854989326
0.010356508899415508   0.017344387322050833   0.002930498854989326
-0.09980835923967094   -0.00258067913301116   -0.004257097671909104
-0.09980835923967094   -0.00258067913301116   -0.004257097671909104
-0.09980835923967094   -0.00258067913301116   -0.004257097671909104
-0.09980835923967094   -0.00258067913301116   -0.004257097671909104
-0.04459321359098739   0.00428838682679104   0.002731923976265234
-0.04459321359098739   0.00428838682679104   0.002731923976265234
-0.04459321359098739   0.00428838682679104   0.002731923976265234
-0.04459321359098739   0.00428838682679104   0.002731923976265234
0.0031936311263028377   -0.01710312536154472   -0.0052622556763537495
0.0031936311263028377   -0.01710312536154472   -0.0052622556763537495
0.0031936311263028377   -0.01710312536154472   -0.0052622556763537495
0.0031936311263028377   -0.01710312536154472   -0.0052622556763537495
0.11805881147840976   0.007955218396275127   0.00739335399629583
0.11805881147840976   0.007955218396275127   0.00739335399629583
0.11805881147840976   0.007955218396275127   0.00739335399629583
0.11805881147840976   0.007955218396275127   0.00739335399629583
0.11818969056499945   0.010940002266479475   -0.0012473629140064514
0.11818969056499945   0.010940002266479475   -0.0012473629140064514
0.11818969056499945   0.010940002266479475   -0.0012473629140064514
0.11818969056499945   0.010940002266479475   -0.0012473629140064514
0.005674352740167679   -0.010062095287695597   0.0009209669621755021
0.005674352740167679   -0.010062095287695597   0.0009209669621755021
0.005674352740167679   -0.010062095287695597   0.0009209669621755021
0.005674352740167679   -0.010062095287695597   0.0009209669621755021
0.06050393825044209   -0.0016039074576259735   2.3241193759769747e-05
0.06050393825044209   -0.0016039074576259735   2.3241193759769747e-05
0.06050393825044209   -0.0016039074576259735   2.3241193759769747e-05
0.06050393825044209   -0.0016039074576259735   2.3241193759769747e-05
0.004217814306310899   -0.01240805375118144   -0.0040157667436224904
0.004217814306310899   -0.01240805375118144   -0.0040157667436224904
0.004217814306310899   -0.01240805375118144   -0.0040157667436224904
0.004217814306310899   -0.01240805375118144   -0.0040157667436224904
0.12033425332900521   0.013973985060114172   0.006441468112386815
0.12033425332900521   0.013973985060114172   0.006441468112386815
0.12033425332900521   0.013973985060114172   0.006441468112386815
0.12033425332900521   0.013973985060114172   0.006441468112386815
0.11951526089767275   0.01648578772185067   0.00103071035508218
0.11951526089767275   0.01648578772185067   0.00103071035508218
0.11951526089767275   0.01648578772185067   0.00103071035508218
0.11951526089767275   0.01648578772185067   0.00103071035508218
0.006261104781344437   -0.004559545140042099   -0.00017041269833860677
0.006261104781344437   -0.004559545140042099   -0.00017041269833860677
0.006261104781344437   -0.004559545140042099   -0.00017041269833860677
0.006261104781344437   -0.004559545140042099   -0.00017041269833860677
0.06169047903080856   0.003684176709378194   0.002556609977501775
0.06169047903080856   0.003684176709378194   0.002556609977501775
0.06169047903080856   0.003684176709378194   0.002556609977501775
0.06169047903080856   0.003684176709378194   0.002556609977501775
0.0051653606883550075   -0.007193391709745735   -0.003015286593582088
0.0051653606883550075   -0.007193391709745735   -0.003015286593582088
0.0051653606883550075   -0.007193391709745735   -0.003015286593582088
0.0051653606883550075   -0.007193391709745735   -0.003015286593582088
0.12111209803350963   0.019620727334401393   0.00587995642171367
0.12111209803350963   0.019620727334401393   0.00587995642171367
0.12111209803350963   0.019620727334401393   0.00587995642171367
0.12111209803350963   0.019620727334401393   0.00587995642171367
0.11790801510608377   0.02287681543925298   0.0023293263599546586
0.11790801510608377   0.02287681543925298   0.0023293263599546586
0.11790801510608377   0.02287681543925298   0.0023293263599546586
0.11790801510608377   0.02287681543925298   0.0023293263599546586
0.006517931129882681   0.0021933523141711687   -0.0011113549847951518
0.006517931129882681   0.0021933523141711687   -0.0011113549847951518
0.006517931129882681   0.0021933523141711687   -0.0011113549847951518
0.006517931129882681   0.0021933523141711687   -0.0011113549847951518
0.06297317981936519   0.009717598736110262   0.004921802017684044
0.06297317981936519   0.009717598736110262   0.004921802017684044
0.06297317981936519   0.009717598736110262   0.004921802017684044
0.06297317981936519   0.009717598736110262   0.004921802017684044
0.10838273216067791   -0.023029224289934664   -0.01000259990615356
0.10838273216067791   -0.023029224289934664   -0.01000259990615356
0.10838273216067791   -0.023029224289934664   -0.01000259990615356
0.10838273216067791   -0.023029224289934664   -0.01000259990615356
0.2248081708739649   0.014868417622547675   0.007522750310233146
0.2248081708739649   0.014868417622547675   0.007522750310233146
0.2248081708739649   0.014868417622547675   0.007522750310233146
0.2248081708739649   0.014868417622547675   0.007522750310233146
0.22776233293721646   0.006512500657630073   -0.015084148502413103
0.22776233293721646   0.006512500657630073   -0.015084148502413103
0.22776233293721646   0.006512500657630073   -0.015084148502413103
0.22776233293721646   0.006512500657630073   -0.015084148502413103
0.11632753060580828   -0.004228512155004426   0.0046103517115195745
0.11632753060580828   -0.004228512155004426   0.0046103517115195745
0.11632753060580828   -0.004228512155004426   0.0046103517115195745
0.11632753060580828   -0.004228512155004426   0.0046103517115195745
0.16083627164851674   -0.0031697766457965265   -0.004294284652856278
0.16083627164851674   -0.0031697766457965265   -0.004294284652856278
0.16083627164851674   -0.0031697766457965265   -0.004294284652856278
0.16083627164851674   -0.0031697766457965265   -0.004294284652856278
0.11189222643885187   -0.015003022664344366   -0.006791658613920955
0.11189222643885187   -0.015003022664344366   -0.006791658613920955
0.11189222643885187   -0.015003022664344366   -0.006791658613920955
0.11189222643885187   -0.015003022664344366   -0.006791658613920955
0.2343375893558146   0.01942696341861206   0.004877670829595657
0.2343375893558146   0.01942696341861206   0.004877670829595657
0.2343375893558146   0.01942696341861206   0.004877670829595657
0.2343375893558146   0.01942696341861206   0.004877670829595657
0.23086158863747938   0.012597652877239678   -0.003841968651856714
0.23086158863747938   0.012597652877239678   -0.003841968651856714
0.23086158863747938   0.012597652877239678   -0.003841968651856714
0.23086158863747938   0.012597652877239678   -0.003841968651856714
0.11623038786549934   -0.0014448042429993022   0.0025369371590629472
0.11623038786549934   -0.0014448042429993022   0.0025369371590629472
0.11623038786549934   -0.0014448042429993022   0.0025369371590629472
0.11623038786549934   -0.0014448042429993022   0.0025369371590629472
0.16990319318638666   0.004279136971011552   0.00286079643103505
0.16990319318638666   0.004279136971011552   0.00286079643103505
0.16990319318638666   0.004279136971011552   0.00286079643103505
0.16990319318638666   0.004279136971011552   0.00286079643103505
0.11261498173893002   -0.01140021192954592   -0.00558468578723585
0.11261498173893002   -0.01140021192954592   -0.00558468578723585
0.11261498173893002   -0.01140021192954592   -0.00558468578723585
0.11261498173893002   -0.01140021192954592   -0.00558468578723585
0.23423290025001675   0.022308966049754627   0.0033032762383151852
0.23423290025001675   0.022308966049754627   0.0033032762383151852
0.23423290025001675   0.022308966049754627   0.0033032762383151852
0.23423290025001675   0.022308966049754627   0.0033032762383151852
0.23114438355471445   0.019954485053678417   -0.005717849038538607
0.23114438355471445   0.019954485053678417   -0.005717849038538607
0.23114438355471445   0.019954485053678417   -0.005717849038538607
0.23114438355471445   0.019954485053678417   -0.005717849038538607
0.11414005363196689   0.0048374436284136305   0.00152889080020757
0.11414005363196689   0.0048374436284136305   0.00152889080020757
0.11414005363196689   0.0048374436284136305   0.00152889080020757
0.11414005363196689   0.0048374436284136305   0.00152889080020757
0.1660227527496751   0.007733244895654221   0.0023361598033641738
0.1660227527496751   0.007733244895654221   0.0023361598033641738
0.1660227527496751   0.007733244895654221   0.0023361598033641738
0.1660227527496751   0.007733244895654221   0.0023361598033641738
-0.24633215140499387   -0.010936739433314191   0.013474907157402915
-0.24633215140499387   -0.010936739433314191   0.013474907157402915
-0.24633215140499387   -0.010936739433314191   0.013474907157402915
-0.24633215140499387   -0.010936739433314191   0.013474907157402915
-0.16482226929401514   -0.006774785129074638   -0.003505789470692869
-0.16482226929401514   -0.006774785129074638   -0.003505789470692869
-0.16482226929401514   -0.006774785129074638   -0.003505789470692869
-0.16482226929401514   -0.006774785129074638   -0.003505789470692869
-0.15843913308127477   0.013586861549567064   0.01122109247071155
-0.15843913308127477   0.013586861549567064   0.01122109247071155
-0.15843913308127477   0.013586861549567064   0.01122109247071155
-0.15843913308127477   0.013586861549567064   0.01122109247071155
-0.24731014430107032   -0.017837802396095857   -0.005444266844695482
-0.24731014430107032   -0.017837802396095857   -0.005444266844695482
-0.24731014430107032   -0.017837802396095857   -0.005444266844695482
-0.24731014430107032   -0.017837802396095857   -0.005444266844695482
-0.19601621446635586   -0.0030203267096833852   -0.0007189809606610535
-0.19601621446635586   -0.0030203267096833852   -0.0007189809606610535
-0.19601621446635586   -0.0030203267096833852   -0.0007189809606610535
-0.19601621446635586   -0.0030203267096833852   -0.0007189809606610535
-0.2400580730870902   -0.0019879063165970726   0.01496619314570632
-0.2400580730870902   -0.0019879063165970726   0.01496619314570632
-0.2400580730870902   -0.0019879063165970726   0.01496619314570632
-0.2400580730870902   -0.0019879063165970726   0.01496619314570632
-0.16455693805662466   -0.0011287682913011798   -0.004652302565169662
-0.16455693805662466   -0.0011287682913011798   -0.004652302565169662
-0.16455693805662466   -0.0011287682913011798   -0.004652302565169662
-0.16455693805662466   -0.0011287682913011798   -0.004652302565169662
-0.15762140114743647   0.01692159035994282   0.010337028075457173
-0.15762140114743647   0.01692159035994282   0.010337028075457173
-0.15762140114743647   0.01692159035994282   0.010337028075457173
-0.15762140114743647   0.01692159035994282   0.010337028075457173
-0.2430975778121754   -0.01479600920190844   -0.007397451105251418
-0.2430975778121754   -0.01479600920190844   -0.007397451105251418
-0.2430975778121754   -0.01479600920190844   -0.007397451105251418
-0.2430975778121754   -0.01479600920190844   -0.007397451105251418
-0.19611722149086783   0.0008926730098899119   0.0020850968078853834
-0.19611722149086783   0.0008926730098899119   0.0020850968078853834
-0.19611722149086783   0.0008926730098899119   0.0020850968078853834
-0.19611722149086783   0.0008926730098899119   0.0020850968078853834
-0.23636661872343429   0.0011645068808007822   0.010296828255744787
-0.23636661872343429   0.0011645068808007822   0.010296828255744787
-0.23636661872343429   0.0011645068808007822   0.010296828255744787
-0.23636661872343429   0.0011645068808007822   0.010296828255744787
-0.16398072372785008   0.001332710785561339   -0.005870705252227826
-0.16398072372785008   0.001332710785561339   -0.005870705252227826
-0.16398072372785008   0.001332710785561339   -0.005870705252227826
-0.16398072372785008   0.001332710785561339   -0.005870705252227826
-0.1576188272208702   0.01929812016125486   0.00820638445126962
-0.1576188272208702   0.01929812016125486   0.00820638445126962
-0.1576188272208702   0.01929812016125486   0.00820638445126962
-0.1576188272208702   0.01929812016125486   0.00820638445126962
-0.23773324917899505   -0.011466368377429252   -0.009383497698914417
-0.23773324917899505   -0.011466368377429252   -0.009383497698914417
-0.23773324917899505   -0.011466368377429252   -0.009383497698914417
-0.23773324917899505   -0.011466368377429252   -0.009383497698914417
-0.19021308127320055   0.004443352241251176   0.00464500641268119
-0.19021308127320055   0.004443352241251176   0.00464500641268119
-0.19021308127320055   0.004443352241251176   0.00464500641268119
-0.19021308127320055   0.004443352241251176   0.00464500641268119
-0.16507852775052617   -0.015614756757725487   0.004052889875402756
-0.16507852775052617   -0.015614756757725487   0.004052889875402756
-0.16507852775052617   -0.015614756757725487   0.004052889875402756
-0.16507852775052617   -0.015614756757725487   0.004052889875402756
-0.08451156273590445   -0.003344738843900557   0.00010658695798159302
-0.08451156273590445   -0.003344738843900557   0.00010658695798159302
-0.08451156273590445   -0.003344738843900557   0.00010658695798159302
-0.08451156273590445   -0.003344738843900557   0.00010658695798159302
-0.08189917226987815   0.008219276507669591   0.0060699573837099015
-0.08189917226987815   0.008219276507669591   0.0060699573837099015
-0.08189917226987815   0.008219276507669591   0.0060699573837099015
-0.08189917226987815   0.008219276507669591   0.0060699573837099015
-0.16763879945375   -0.015396866137728275   -0.005793511704370565
-0.16763879945375   -0.015396866137728275   -0.005793511704370565
-0.16763879945375   -0.015396866137728275   -0.005793511704370565
-0.16763879945375   -0.015396866137728275   -0.005793511704370565
-0.12437927370698146   -0.00610791107492227   -0.0026905200853493743
-0.12437927370698146   -0.00610791107492227   -0.0026905200853493743
-0.12437927370698146   -0.00610791107492227   -0.0026905200853493743
-0.12437927370698146   -0.00610791107492227   -0.0026905200853493743
-0.16437244050651734   -0.00871757103132264   0.0038589879253879134
-0.16437244050651734   -0.00871757103132264   0.0038589879253879134
-0.16437244050651734   -0.00871757103132264   0.0038589879253879134
-0.16437244050651734   -0.00871757103132264   0.0038589879253879134
-0.08451704446909118   0.002188468149283491   -0.000988595253968598
-0.08451704446909118   0.002188468149283491   -0.000988595253968598
-0.08451704446909118   0.002188468149283491   -0.000988595253968598
-0.08451704446909118   0.002188468149283491   -0.000988595253968598
-0.08149073137656238   0.013787676457001002   0.00522309048926986
-0.08149073137656238   0.013787676457001002   0.00522309048926986
-0.08149073137656238   0.013787676457001002   0.00522309048926986
-0.08149073137656238   0.013787676457001002   0.00522309048926986
-0.16649064816945325   -0.010228604787673897   -0.006859011887009925
-0.16649064816945325   -0.010228604787673897   -0.006859011887009925
-0.16649064816945325   -0.010228604787673897   -0.006859011887009925
-0.16649064816945325   -0.010228604787673897   -0.006859011887009925
-0.12285846790183988   -0.0005256716623947728   -0.00010263489537953602
-0.12285846790183988   -0.0005256716623947728   -0.00010263489537953602
-0.12285846790183988   -0.0005256716623947728   -0.00010263489537953602
-0.12285846790183988   -0.0005256716623947728   -0.00010263489537953602
-0.16316132467789266   -0.003066050120412493   0.0026250509035316612
-0.16316132467789266   -0.003066050120412493   0.0026250509035316612
-0.16316132467789266   -0.003066050120412493   0.0026250509035316612
-0.16316132467789266   -0.003066050120412493   0.0026250509035316612
-0.08429308135306296   0.007152095304800335   -0.0021530782410309713
-0.08429308135306296   0.007152095304800335   -0.0021530782410309713
-0.08429308135306296   0.007152095304800335   -0.0021530782410309713
-0.08429308135306296   0.007152095304800335   -0.0021530782410309713
-0.08132135172919944   0.019667540478559672   0.00388994775249946
-0.08132135172919944   0.019667540478559672   0.00388994775249946
-0.08132135172919944   0.019667540478559672   0.00388994775249946
-0.08132135172919944   0.019667540478559672   0.00388994775249946
-0.16551550379281302   -0.004612229020714342   -0.007366649226475548
-0.16551550379281302   -0.004612229020714342   -0.007366649226475548
-0.16551550379281302   -0.004612229020714342   -0.007366649226475548
-0.16551550379281302   -0.004612229020714342   -0.007366649226475548
-0.1227599314276305   0.0046458679167335   0.0018999326423962716
-0.1227599314276305   0.0046458679167335   0.0018999326423962716
-0.1227599314276305   0.0046458679167335   0.0018999326423962716
-0.1227599314276305   0.0046458679167335   0.0018999326423962716
-0.0875609936326752   -0.018149203482825022   -0.00033610288694847513
-0.0875609936326752   -0.018149203482825022   -0.00033610288694847513
-0.0875609936326752   -0.018149203482825022   -0.00033610288694847513
-0.0875609936326752   -0.018149203482825022   -0.00033610288694847513
-0.004860738545773379   0.0005189022870026941   0.003726689669528817
-0.004860738545773379   0.0005189022870026941   0.003726689669528817
-0.004860738545773379   0.0005189022870026941   0.003726689669528817
-0.004860738545773379   0.0005189022870026941   0.003726689669528817
-0.005038507207649075   0.005057956050935963   0.001802405240338415
-0.005038507207649075   0.005057956050935963   0.001802405240338415
-0.005038507207649075   0.005057956050935963   0.001802405240338415
-0.005038507207649075   0.005057956050935963   0.001802405240338415
-0.08747338676378331   -0.011470840416110198   -0.0021109981620361087
-0.08747338676378331   -0.011470840416110198   -0.0021109981620361087
-0.08747338676378331   -0.011470840416110198   -0.0021109981620361087
-0.08747338676378331   -0.011470840416110198   -0.0021109981620361087
-0.04638399281326042   -0.005801744597173788   -0.0015421600742442992
-0.04638399281326042   -0.005801744597173788   -0.0015421600742442992
-0.04638399281326042   -0.005801744597173788   -0.0015421600742442992
-0.04638399281326042   -0.005801744597173788   -0.0015421600742442992
-0.08737755507639888   -0.011992392165938764   -0.0011102879752853928
-0.08737755507639888   -0.011992392165938764   -0.0011102879752853928
-0.08737755507639888   -0.011992392165938764   -0.0011102879752853928
-0.08737755507639888   -0.011992392165938764   -0.0011102879752853928
-0.004653786126859973   0.00606006056893839   0.002723906126281557
-0.004653786126859973   0.00606006056893839   0.002723906126281557
-0.004653786126859973   0.00606006056893839   0.002723906126281557
-0.004653786126859973   0.00606006056893839   0.002723906126281557
-0.004488320848085427   0.011110820435930646   0.0008137752909699696
-0.004488320848085427   0.011110820435930646   0.0008137752909699696
-0.004488320848085427   0.011110820435930646   0.0008137752909699696
-0.004488320848085427   0.011110820435930646   0.0008137752909699696
-0.0871003481193968   -0.005911972628345174   -0.003125344139555455
-0.0871003481193968   -0.005911972628345174   -0.003125344139555455
-0.0871003481193968   -0.005911972628345174   -0.003125344139555455
-0.0871003481193968   -0.005911972628345174   -0.003125344139555455
-0.04579006049968818   -0.0002263524739802049   0.0005566997958210327
-0.04579006049968818   -0.0002263524739802049   0.0005566997958210327
-0.04579006049968818   -0.0002263524739802049   0.0005566997958210327
-0.04579006049968818   -0.0002263524739802049   0.0005566997958210327
-0.08697363875369045   -0.006024793492715104   -0.002378976446653747
-0.08697363875369045   -0.006024793492715104   -0.002378976446653747
-0.08697363875369045   -0.006024793492715104   -0.002378976446653747
-0.08697363875369045   -0.006024793492715104   -0.002378976446653747
-0.004219468650742318   0.01161920286335005   0.001649653850266173
-0.004219468650742318   0.01161920286335005   0.001649653850266173
-0.004219468650742318   0.01161920286335005   0.001649653850266173
-0.004219468650742318   0.01161920286335005   0.001649653850266173
-0.0042522222101552265   0.017334538108485845   -0.0002371484939397983
-0.0042522222101552265   0.017334538108485845   -0.0002371484939397983
-0.0042522222101552265   0.017334538108485845   -0.0002371484939397983
-0.0042522222101552265   0.017334538108485845   -0.0002371484939397983
-0.08691885344586145   -0.0002678071930838112   -0.004162213159167499
-0.08691885344586145   -0.0002678071930838112   -0.004162213159167499
-0.08691885344586145   -0.0002678071930838112   -0.004162213159167499
-0.08691885344586145   -0.0002678071930838112   -0.004162213159167499
-0.04529486202170042   0.00535520106068715   0.0024840610118411176
-0.04529486202170042   0.00535520106068715   0.0024840610118411176
-0.04529486202170042   0.00535520106068715   0.0024840610118411176
-0.04529486202170042   0.00535520106068715   0.0024840610118411176
-0.010604479715362127   -0.020125611183350708   -0.004347502708061482
-0.010604479715362127   -0.020125611183350708   -0.004347502708061482
-0.010604479715362127   -0.020125611183350708   -0.004347502708061482
-0.010604479715362127   -0.020125611183350708   -0.004347502708061482
0.07422596200781785   0.004995504365964432   0.007106747369523658
0.07422596200781785   0.004995504365964432   0.007106747369523658
0.07422596200781785   0.004995504365964432   0.007106747369523658
0.07422596200781785   0.004995504365964432   0.007106747369523658
0.0717528621229522   0.0023725388391833933   -0.002984371786214075
0.0717528621229522   0.0023725388391833933   -0.002984371786214075
0.0717528621229522   0.0023725388391833933   -0.002984371786214075
0.0717528621229522   0.0023725388391833933   -0.002984371786214075
-0.007511306911144572   -0.007163693971047573   0.0016600567448445248
-0.007511306911144572   -0.007163693971047573   0.0016600567448445248
-0.007511306911144572   -0.007163693971047573   0.0016600567448445248
-0.007511306911144572   -0.007163693971047573   0.0016600567448445248
0.03149745227241885   -0.0048885537938274225   -0.0009087832854331422
0.03149745227241885   -0.0048885537938274225   -0.0009087832854331422
0.03149745227241885   -0.0048885537938274225   -0.0009087832854331422
0.03149745227241885   -0.0048885537938274225   -0.0009087832854331422
-0.010426167143994209   -0.014568316945877768   -0.00550962144457347
-0.010426167143994209   -0.014568316945877768   -0.00550962144457347
-0.010426167143994209   -0.014568316945877768   -0.00550962144457347
-0.010426167143994209   -0.014568316945877768   -0.00550962144457347
0.07521545484204656   0.010324894300257981   0.006376236348183089
0.07521545484204656   0.010324894300257981   0.006376236348183089
0.07521545484204656   0.010324894300257981   0.006376236348183089
0.07521545484204656   0.010324894300257981   0.006376236348183089
0.07316861975006304   0.008019530489879648   -0.004182549517448477
0.07316861975006304   0.008019530489879648   -0.004182549517448477
0.07316861975006304   0.008019530489879648   -0.004182549517448477
0.07316861975006304   0.008019530489879648   -0.004182549517448477
-0.007195204152964608   -0.002177859337306728   0.000568038539811559
-0.007195204152964608   -0.002177859337306728   0.000568038539811559
-0.007195204152964608   -0.002177859337306728   0.000568038539811559
-0.007195204152964608   -0.002177859337306728   0.000568038539811559
0.03198529340202311   0.00019290146090928956   0.001190994466675704
0.03198529340202311   0.00019290146090928956   0.001190994466675704
0.03198529340202311   0.00019290146090928956   0.001190994466675704
0.03198529340202311   0.00019290146090928956   0.001190994466675704
-0.010034515334475393   -0.009121551637123483   -0.0066848250679256965
-0.010034515334475393   -0.009121551637123483   -0.0066848250679256965
-0.010034515334475393   -0.009121551637123483   -0.0066848250679256965
-0.010034515334475393   -0.009121551637123483   -0.0066848250679256965
0.07660606094237048   0.015561352800493053   0.0054628341334753625
0.07660606094237048   0.015561352800493053   0.0054628341334753625
0.07660606094237048   0.015561352800493053   0.0054628341334753625
0.07660606094237048   0.015561352800493053   0.0054628341334753625
0.07411057528578191   0.01504713898267479   -0.004435065798177241
0.07411057528578191   0.01504713898267479   -0.004435065798177241
0.07411057528578191   0.01504713898267479   -0.004435065798177241
0.07411057528578191   0.01504713898267479   -0.004435065798177241
-0.007057096272036713   0.003595609626501161   -0.000522590321362484
-0.007057096272036713   0.003595609626501161   -0.000522590321362484
-0.007057096272036713   0.003595609626501161   -0.000522590321362484
-0.007057096272036713   0.003595609626501161   -0.000522590321362484
0.03333820764631848   0.005801116310805924   0.00365985430494804
0.03333820764631848   0.005801116310805924   0.00365985430494804
0.03333820764631848   0.005801116310805924   0.00365985430494804
0.03333820764631848   0.005801116310805924   0.00365985430494804
0.06605967445831865   -0.020109724104191547   -0.008619461907815729
0.06605967445831865   -0.020109724104191547   -0.008619461907815729
0.06605967445831865   -0.020109724104191547   -0.008619461907815729
0.06605967445831865   -0.020109724104191547   -0.008619461907815729
0.14722686689631784   0.01096800188901281   0.008148473931869116
0.14722686689631784   0.01096800188901281   0.008148473931869116
0.14722686689631784   0.01096800188901281   0.008148473931869116
0.14722686689631784   0.01096800188901281   0.008148473931869116
0.146133985542457   -0.001485880798014757   -0.011482946440180782
0.146133985542457   -0.001485880798014757   -0.011482946440180782
0.146133985542457   -0.001485880798014757   -0.011482946440180782
0.146133985542457   -0.001485880798014757   -0.011482946440180782
0.0727167430872837   -0.001331859031330332   0.005539430905957875
0.0727167430872837   -0.001331859031330332   0.005539430905957875
0.0727167430872837   -0.001331859031330332   0.005539430905957875
0.0727167430872837   -0.001331859031330332   0.005539430905957875
0.10277726806697492   -0.004119219172378709   -0.003520266706238482
0.10277726806697492   -0.004119219172378709   -0.003520266706238482
0.10277726806697492   -0.004119219172378709   -0.003520266706238482
0.10277726806697492   -0.004119219172378709   -0.003520266706238482
0.0662957351848682   -0.017280362590821906   -0.010617105046627755
0.0662957351848682   -0.017280362590821906   -0.010617105046627755
0.0662957351848682   -0.017280362590821906   -0.010617105046627755
0.0662957351848682   -0.017280362590821906   -0.010617105046627755
0.15301079687845695   0.014918426195061653   0.006496803246742629
0.15301079687845695   0.014918426195061653   0.006496803246742629
0.15301079687845695   0.014918426195061653   0.006496803246742629
0.15301079687845695   0.014918426195061653   0.006496803246742629
0.15016209224890428   0.0017349843195493264   -0.015495824411598861
0.15016209224890428   0.0017349843195493264   -0.015495824411598861
0.15016209224890428   0.0017349843195493264   -0.015495824411598861
0.15016209224890428   0.0017349843195493264   -0.015495824411598861
0.07346505872663663   0.001131664658542305   0.004187511196758017
0.07346505872663663   0.001131664658542305   0.004187511196758017
0.07346505872663663   0.001131664658542305   0.004187511196758017
0.07346505872663663   0.001131664658542305   0.004187511196758017
0.10780746243436404   -0.0006007879318877529   -0.0009900954042104818
0.10780746243436404   -0.0006007879318877529   -0.0009900954042104818
0.10780746243436404   -0.0006007879318877529   -0.0009900954042104818
0.10780746243436404   -0.0006007879318877529   -0.0009900954042104818
0.0672611156451462   -0.014071795024427477   -0.01162874452772479
0.0672611156451462   -0.014071795024427477   -0.01162874452772479
0.0672611156451462   -0.014071795024427477   -0.01162874452772479
0.0672611156451462   -0.014071795024427477   -0.01162874452772479
0.15737936062680957   0.017951769298934047   0.004373732498543759
0.15737936062680957   0.017951769298934047   0.004373732498543759
0.15737936062680957   0.017951769298934047   0.004373732498543759
0.15737936062680957   0.017951769298934047   0.004373732498543759
0.15653389341535404   0.010073718497224916   -0.014683574639123157
0.15653389341535404   0.010073718497224916   -0.014683574639123157
0.15653389341535404   0.010073718497224916   -0.014683574639123157
0.15653389341535404   0.010073718497224916   -0.014683574639123157
0.07389632762847692   0.006443514989479862   0.0030973199084940134
0.07389632762847692   0.006443514989479862   0.0030973199084940134
0.07389632762847692   0.006443514989479862   0.0030973199084940134
0.07389632762847692   0.006443514989479862   0.0030973199084940134
0.10899519399779377   0.003366993966291306   0.0018649928216582469
0.10899519399779377   0.003366993966291306   0.0018649928216582469
0.10899519399779377   0.003366993966291306   0.0018649928216582469
0.10899519399779377   0.003366993966291306   0.0018649928216582469
-0.17271663562151165   -0.005254272319112803   0.011991140906612859
-0.17271663562151165   -0.005254272319112803   0.011991140906612859
-0.17271663562151165   -0.005254272319112803   0.011991140906612859
-0.17271663562151165   -0.005254272319112803   0.011991140906612859
-0.1224137120149618   -0.008580448731816459   -0.004433175378632392
-0.1224137120149618   -0.008580448731816459   -0.004433175378632392
-0.1224137120149618   -0.008580448731816459   -0.004433175378632392
-0.1224137120149618   -0.008580448731816459   -0.004433175378632392
-0.11496418982758824   0.01175458183043869   0.010171699814495174
-0.11496418982758824   0.01175458183043869   0.010171699814495174
-0.11496418982758824   0.01175458183043869   0.010171699814495174
-0.11496418982758824   0.01175458183043869   0.010171699814495174
-0.1727119638202251   -0.014307138780070196   -0.0065049951133069215
-0.1727119638202251   -0.014307138780070196   -0.0065049951133069215
-0.1727119638202251   -0.014307138780070196   -0.0065049951133069215
-0.1727119638202251   -0.014307138780070196   -0.0065049951133069215
-0.13981891571883023   -0.0021370599899237716   -0.0006318272712612996
-0.13981891571883023   -0.0021370599899237716   -0.0006318272712612996
-0.13981891571883023   -0.0021370599899237716   -0.0006318272712612996
-0.13981891571883023   -0.0021370599899237716   -0.0006318272712612996
-0.16591772278766   0.0018011246078457957   0.011357946661602497
-0.16591772278766   0.0018011246078457957   0.011357946661602497
-0.16591772278766   0.0018011246078457957   0.011357946661602497
-0.16591772278766   0.0018011246078457957   0.011357946661602497
-0.12119814173418442   -0.0037933924315085403   -0.005450085456537424
-0.12119814173418442   -0.0037933924315085403   -0.005450085456537424
-0.12119814173418442   -0.0037933924315085403   -0.005450085456537424
-0.12119814173418442   -0.0037933924315085403   -0.005450085456537424
-0.11386688502429722   0.014241574913154878   0.008559776682187034
-0.11386688502429722   0.014241574913154878   0.008559776682187034
-0.11386688502429722   0.014241574913154878   0.008559776682187034
-0.11386688502429722   0.014241574913154878   0.008559776682187034
-0.16842162897677446   -0.011526400584798289   -0.008173571839283088
-0.16842162897677446   -0.011526400584798289   -0.008173571839283088
-0.16842162897677446   -0.011526400584798289   -0.008173571839283088
-0.16842162897677446   -0.011526400584798289   -0.008173571839283088
-0.13869615683323333   0.001122619206220709   0.0012531807718316676
-0.13869615683323333   0.001122619206220709   0.0012531807718316676
-0.13869615683323333   0.001122619206220709   0.0012531807718316676
-0.13869615683323333   0.001122619206220709   0.0012531807718316676
-0.1617130876594126   0.004774104901866645   0.009068629260861251
-0.1617130876594126   0.004774104901866645   0.009068629260861251
-0.1617130876594126   0.004774104901866645   0.009068629260861251
-0.1617130876594126   0.004774104901866645   0.009068629260861251
-0.12007583790255133   -0.0015593421344021613   -0.006684070661525572
-0.12007583790255133   -0.0015593421344021613   -0.006684070661525572
-0.12007583790255133   -0.0015593421344021613   -0.006684070661525572
-0.12007583790255133   -0.0015593421344021613   -0.006684070661525572
-0.11326606499614808   0.01677594256908656   0.007360872850817667
-0.11326606499614808   0.01677594256908656   0.007360872850817667
-0.11326606499614808   0.01677594256908656   0.007360872850817667
-0.11326606499614808   0.01677594256908656   0.007360872850817667
-0.16273328990632935   -0.007799435420131614   -0.009755741917964782
-0.16273328990632935   -0.007799435420131614   -0.009755741917964782
-0.16273328990632935   -0.007799435420131614   -0.009755741917964782
-0.16273328990632935   -0.007799435420131614   -0.009755741917964782
-0.13338802858733745   0.004225612289748951   0.0038346642281106534
-0.13338802858733745   0.004225612289748951   0.0038346642281106534
-0.13338802858733745   0.004225612289748951   0.0038346642281106534
-0.13338802858733745   0.004225612289748951   0.0038346642281106534
-0.12080390862385508   -0.00968120570339186   0.004716598548475695
-0.12080390862385508   -0.00968120570339186   0.004716598548475695
-0.12080390862385508   -0.00968120570339186   0.004716598548475695
-0.12080390862385508   -0.00968120570339186   0.004716598548475695
-0.07148827254132986   -0.0055501118772987214   -0.0007215404387788406
-0.07148827254132986   -0.0055501118772987214   -0.0007215404387788406
-0.07148827254132986   -0.0055501118772987214   -0.0007215404387788406
-0.07148827254132986   -0.0055501118772987214   -0.0007215404387788406
-0.06782073591332907   0.006821030134880595   0.0054779061182529
-0.06782073591332907   0.006821030134880595   0.0054779061182529
-0.06782073591332907   0.006821030134880595   0.0054779061182529
-0.06782073591332907   0.006821030134880595   0.0054779061182529
-0.12269384494033381   -0.011624068084542126   -0.005097925834251926
-0.12269384494033381   -0.011624068084542126   -0.005097925834251926
-0.12269384494033381   -0.011624068084542126   -0.005097925834251926
-0.12269384494033381   -0.011624068084542126   -0.005097925834251926
-0.09536051879420465   -0.0045518770938218385   -0.0020856442206236853
-0.09536051879420465   -0.0045518770938218385   -0.0020856442206236853
-0.09536051879420465   -0.0045518770938218385   -0.0020856442206236853
-0.09536051879420465   -0.0045518770938218385   -0.0020856442206236853
-0.11933981939666334   -0.0038072841879377844   0.003855417987495278
-0.11933981939666334   -0.0038072841879377844   0.003855417987495278
-0.11933981939666334   -0.0038072841879377844   0.003855417987495278
-0.11933981939666334   -0.0038072841879377844   0.003855417987495278
-0.07074218602914857   -0.0005631783338725781   -0.0017451359920913844
-0.07074218602914857   -0.0005631783338725781   -0.0017451359920913844
-0.07074218602914857   -0.0005631783338725781   -0.0017451359920913844
-0.07074218602914857   -0.0005631783338725781   -0.0017451359920913844
-0.06696375219720091   0.011943177810717832   0.004473005132696374
-0.06696375219720091   0.011943177810717832   0.004473005132696374
-0.06696375219720091   0.011943177810717832   0.004473005132696374
-0.06696375219720091   0.011943177810717832   0.004473005132696374
-0.12099816123980267   -0.0068363488423549175   -0.00601868063983045
-0.12099816123980267   -0.0068363488423549175   -0.00601868063983045
-0.12099816123980267   -0.0068363488423549175   -0.00601868063983045
-0.12099816123980267   -0.0068363488423549175   -0.00601868063983045
-0.09351901119874323   0.0004275300998460886   5.7174507333378546e-05
-0.09351901119874323   0.0004275300998460886   5.7174507333378546e-05
-0.09351901119874323   0.0004275300998460886   5.7174507333378546e-05
-0.09351901119874323   0.0004275300998460886   5.7174507333378546e-05
-0.11739122133711492   0.0016658474687053643   0.0035138225625480574
-0.11739122133711492   0.0016658474687053643   0.0035138225625480574
-0.11739122133711492   0.0016658474687053643   0.0035138225625480574
-0.11739122133711492   0.0016658474687053643   0.0035138225625480574
-0.0700336798219632   0.003977993777583136   -0.002911448957979678
-0.0700336798219632   0.003977993777583136   -0.002911448957979678
-0.0700336798219632   0.003977993777583136   -0.002911448957979678
-0.0700336798219632   0.003977993777583136   -0.002911448957979678
-0.06613405226498749   0.017444846701323635   0.0035372778558888287
-0.06613405226498749   0.017444846701323635   0.0035372778558888287
-0.06613405226498749   0.017444846701323635   0.0035372778558888287
-0.06613405226498749   0.017444846701323635   0.0035372778558888287
-0.11974616598252438   -0.0016311847177813317   -0.006632504794196017
-0.11974616598252438   -0.0016311847177813317   -0.006632504794196017
-0.11974616598252438   -0.0016311847177813317   -0.006632504794196017
-0.11974616598252438   -0.0016311847177813317   -0.006632504794196017
-0.09278330537437544   0.005171706749508526   0.002119773102405546
-0.09278330537437544   0.005171706749508526   0.002119773102405546
-0.09278330537437544   0.005171706749508526   0.002119773102405546
-0.09278330537437544   0.005171706749508526   0.002119773102405546
-0.07292005804896193   -0.013770346265323705   0.0003397664110853716
-0.07292005804896193   -0.013770346265323705   0.0003397664110853716
-0.07292005804896193   -0.013770346265323705   0.0003397664110853716
-0.07292005804896193   -0.013770346265323705   0.0003397664110853716
-0.02095050334448916   -0.001939012846785404   0.00294077869328456
-0.02095050334448916   -0.001939012846785404   0.00294077869328456
-0.02095050334448916   -0.001939012846785404   0.00294077869328456
-0.02095050334448916   -0.001939012846785404   0.00294077869328456
-0.020501976028932476   0.0025464309441317664   0.0010039479043228597
-0.020501976028932476   0.0025464309441317664   0.0010039479043228597
-0.020501976028932476   0.0025464309441317664   0.0010039479043228597
-0.020501976028932476   0.0025464309441317664   0.0010039479043228597
-0.07212687429549583   -0.007910431036290633   -0.0013213246214104169
-0.07212687429549583   -0.007910431036290633   -0.0013213246214104169
-0.07212687429549583   -0.007910431036290633   -0.0013213246214104169
-0.07212687429549583   -0.007910431036290633   -0.0013213246214104169
-0.04671139371727421   -0.005033174273745483   -0.0014999401889817332
-0.04671139371727421   -0.005033174273745483   -0.0014999401889817332
-0.04671139371727421   -0.005033174273745483   -0.0014999401889817332
-0.04671139371727421   -0.005033174273745483   -0.0014999401889817332
-0.07199970446577106   -0.008060904688263298   -0.0005350018208138813
-0.07199970446577106   -0.008060904688263298   -0.0005350018208138813
-0.07199970446577106   -0.008060904688263298   -0.0005350018208138813
-0.07199970446577106   -0.008060904688263298   -0.0005350018208138813
-0.020195192244495296   0.0031308582102663853   0.001953439560374146
-0.020195192244495296   0.0031308582102663853   0.001953439560374146
-0.020195192244495296   0.0031308582102663853   0.001953439560374146
-0.020195192244495296   0.0031308582102663853   0.001953439560374146
-0.019463281015757127   0.008281779820038675   0.00020635099872218362
-0.019463281015757127   0.008281779820038675   0.00020635099872218362
-0.019463281015757127   0.008281779820038675   0.00020635099872218362
-0.019463281015757127   0.008281779820038675   0.00020635099872218362
-0.07126651250369334   -0.002800210807351669   -0.0022974077816962533
-0.07126651250369334   -0.002800210807351669   -0.0022974077816962533
-0.07126651250369334   -0.002800210807351669   -0.0022974077816962533
-0.07126651250369334   -0.002800210807351669   -0.0022974077816962533
-0.045599712906799775   9.737769357493799e-05   0.0005296228720687345
-0.045599712906799775   9.737769357493799e-05   0.0005296228720687345
-0.045599712906799775   9.737769357493799e-05   0.0005296228720687345
-0.045599712906799775   9.737769357493799e-05   0.0005296228720687345
-0.07099435287540773   -0.0023442240342998865   -0.0013925964133200178
-0.07099435287540773   -0.0023442240342998865   -0.0013925964133200178
-0.07099435287540773   -0.0023442240342998865   -0.0013925964133200178
-0.07099435287540773   -0.0023442240342998865   -0.0013925964133200178
-0.01933449853307456   0.008226735157955089   0.0009053080742187705
-0.01933449853307456   0.008226735157955089   0.0009053080742187705
-0.01933449853307456   0.008226735157955089   0.0009053080742187705
-0.01933449853307456   0.008226735157955089   0.0009053080742187705
-0.018524278612351584   0.014100542356777638   -0.000715040243370115
-0.018524278612351584   0.014100542356777638   -0.000715040243370115
-0.018524278612351584   0.014100542356777638   -0.000715040243370115
-0.018524278612351584   0.014100542356777638   -0.000715040243370115
-0.07052404371307437   0.0023644065070800857   -0.0033322391903025236
-0.07052404371307437   0.0023644065070800857   -0.0033322391903025236
-0.07052404371307437   0.0023644065070800857   -0.0033322391903025236
-0.07052404371307437   0.0023644065070800857   -0.0033322391903025236
-0.04458622550925077   0.00525300012689194   0.0024851406379847335
-0.04458622550925077   0.00525300012689194   0.0024851406379847335
-0.04458622550925077   0.00525300012689194   0.0024851406379847335
-0.04458622550925077   0.00525300012689194   0.0024851406379847335
-0.025355390734271316   -0.01712220823070041   -0.0039004628717113914
-0.025355390734271316   -0.01712220823070041   -0.0039004628717113914
-0.025355390734271316   -0.01712220823070041   -0.0039004628717113914
-0.025355390734271316   -0.01712220823070041   -0.0039004628717113914
0.028604563216051815   0.0020814878603353654   0.006358805392858685
0.028604563216051815   0.0020814878603353654   0.006358805392858685
0.028604563216051815   0.0020814878603353654   0.006358805392858685
0.028604563216051815   0.0020814878603353654   0.006358805392858685
0.026239336988983366   -0.0015036585848734359   -0.003790410224410811
0.026239336988983366   -0.0015036585848734359   -0.003790410224410811
0.026239336988983366   -0.0015036585848734359   -0.003790410224410811
0.026239336988983366   -0.0015036585848734359   -0.003790410224410811
-0.02149297546115897   -0.003853920959987947   0.0024493026473100896
-0.02149297546115897   -0.003853920959987947   0.0024493026473100896
-0.02149297546115897   -0.003853920959987947   0.0024493026473100896
-0.02149297546115897   -0.003853920959987947   0.0024493026473100896
0.0018261201244785853   -0.0049543836101036305   -0.0010805193144461935
0.0018261201244785853   -0.0049543836101036305   -0.0010805193144461935
0.0018261201244785853   -0.0049543836101036305   -0.0010805193144461935
0.0018261201244785853   -0.0049543836101036305   -0.0010805193144461935
-0.024555277748448692   -0.011873104531085494   -0.004843025218040964
-0.024555277748448692   -0.011873104531085494   -0.004843025218040964
-0.024555277748448692   -0.011873104531085494   -0.004843025218040964
-0.024555277748448692   -0.011873104531085494   -0.004843025218040964
0.029816594015047312   0.007030479724998577   0.005561736596036424
0.029816594015047312   0.007030479724998577   0.005561736596036424
0.029816594015047312   0.007030479724998577   0.005561736596036424
0.029816594015047312   0.007030479724998577   0.005561736596036424
0.02819707002850749   0.00392552489178138   -0.004307314496219995
0.02819707002850749   0.00392552489178138   -0.004307314496219995
0.02819707002850749   0.00392552489178138   -0.004307314496219995
0.02819707002850749   0.00392552489178138   -0.004307314496219995
-0.02074575569528111   0.0007155018274811716   0.0013602555936599399
-0.02074575569528111   0.0007155018274811716   0.0013602555936599399
-0.02074575569528111   0.0007155018274811716   0.0013602555936599399
-0.02074575569528111   0.0007155018274811716   0.0013602555936599399
0.0028832419479214114   -0.000269608520564933   0.0009947785979433333
0.0028832419479214114   -0.000269608520564933   0.0009947785979433333
0.0028832419479214114   -0.000269608520564933   0.0009947785979433333
0.0028832419479214114   -0.000269608520564933   0.0009947785979433333
-0.023701763312491315   -0.006778029175130322   -0.005926251489779702
-0.023701763312491315   -0.006778029175130322   -0.005926251489779702
-0.023701763312491315   -0.006778029175130322   -0.005926251489779702
-0.023701763312491315   -0.006778029175130322   -0.005926251489779702
0.03160069851430151   0.011866676762976584   0.004769676061554392
0.03160069851430151   0.011866676762976584   0.004769676061554392
0.03160069851430151   0.011866676762976584   0.004769676061554392
0.03160069851430151   0.011866676762976584   0.004769676061554392
0.029783616194072146   0.010068213654936299   -0.005000282645295657
0.029783616194072146   0.010068213654936299   -0.005000282645295657
0.029783616194072146   0.010068213654936299   -0.005000282645295657
0.029783616194072146   0.010068213654936299   -0.005000282645295657
-0.01994976164979029   0.005934315422441022   0.00032377150377281083
-0.01994976164979029   0.005934315422441022   0.00032377150377281083
-0.01994976164979029   0.005934315422441022   0.00032377150377281083
-0.01994976164979029   0.005934315422441022   0.00032377150377281083
0.0044631370499011   0.004763518560381897   0.003123100597979329
0.0044631370499011   0.004763518560381897   0.003123100597979329
0.0044631370499011   0.004763518560381897   0.003123100597979329
0.0044631370499011   0.004763518560381897   0.003123100597979329
0.02189483502216512   -0.01729147401286616   -0.007816873703373006
0.02189483502216512   -0.01729147401286616   -0.007816873703373006
0.02189483502216512   -0.01729147401286616   -0.007816873703373006
0.02189483502216512   -0.01729147401286616   -0.007816873703373006
0.07161614465866119   0.00725511503407021   0.008438697821276984
0.07161614465866119   0.00725511503407021   0.008438697821276984
0.07161614465866119   0.00725511503407021   0.008438697821276984
0.07161614465866119   0.00725511503407021   0.008438697821276984
0.07077548698605707   -0.004890705123295813   -0.010313543452644819
0.07077548698605707   -0.004890705123295813   -0.010313543452644819
0.07077548698605707   -0.004890705123295813   -0.010313543452644819
0.07077548698605707   -0.004890705123295813   -0.010313543452644819
0.02889304357234304   0.001645216846220019   0.006329247261293861
0.02889304357234304   0.001645216846220019   0.006329247261293861
0.02889304357234304   0.001645216846220019   0.006329247261293861
0.02889304357234304   0.001645216846220019   0.006329247261293861
0.04575543022212706   -0.003775010048570192   -0.0026087671096823887
0.04575543022212706   -0.003775010048570192   -0.0026087671096823887
0.04575543022212706   -0.003775010048570192   -0.0026087671096823887
0.04575543022212706   -0.003775010048570192   -0.0026087671096823887
0.022632687692529053   -0.014268349458153369   -0.009058965833402679
0.022632687692529053   -0.014268349458153369   -0.009058965833402679
0.022632687692529053   -0.014268349458153369   -0.009058965833402679
0.022632687692529053   -0.014268349458153369   -0.009058965833402679
0.07756071857874319   0.011547736893949886   0.007174172493541137
0.07756071857874319   0.011547736893949886   0.007174172493541137
0.07756071857874319   0.011547736893949886   0.007174172493541137
0.07756071857874319   0.011547736893949886   0.007174172493541137
0.07511420470318325   -0.0018638004905888184   -0.0124389605254423
0.07511420470318325   -0.0018638004905888184   -0.0124389605254423
0.07511420470318325   -0.0018638004905888184   -0.0124389605254423
0.07511420470318325   -0.0018638004905888184   -0.0124389605254423
0.030041648578729933   0.0038670429857498956   0.004974060160923212
0.030041648578729933   0.0038670429857498956   0.004974060160923212
0.030041648578729933   0.0038670429857498956   0.004974060160923212
0.030041648578729933   0.0038670429857498956   0.004974060160923212
0.050020651430098276   -0.0006906888009286863   -0.0001940823353895828
0.050020651430098276   -0.0006906888009286863   -0.0001940823353895828
0.050020651430098276   -0.0006906888009286863   -0.0001940823353895828
0.050020651430098276   -0.0006906888009286863   -0.0001940823353895828
0.023812281626762997   -0.011747949436180561   -0.010557782176980763
0.023812281626762997   -0.011747949436180561   -0.010557782176980763
0.023812281626762997   -0.011747949436180561   -0.010557782176980763
0.023812281626762997   -0.011747949436180561   -0.010557782176980763
0.08189663299197684   0.014304253268168175   0.005305127159769613
0.08189663299197684   0.014304253268168175   0.005305127159769613
0.08189663299197684   0.014304253268168175   0.005305127159769613
0.08189663299197684   0.014304253268168175   0.005305127159769613
0.08184276911712109   0.0047380743467434795   -0.013376324793832052
0.08184276911712109   0.0047380743467434795   -0.013376324793832052
0.08184276911712109   0.0047380743467434795   -0.013376324793832052
0.08184276911712109   0.0047380743467434795   -0.013376324793832052
0.031212945328268092   0.008246488840723052   0.003968087839897098
0.031212945328268092   0.008246488840723052   0.003968087839897098
0.031212945328268092   0.008246488840723052   0.003968087839897098
0.031212945328268092   0.008246488840723052   0.003968087839897098
0.05233705212781798   0.0026540548900817144   0.001933656948645039
0.05233705212781798   0.0026540548900817144   0.001933656948645039
0.05233705212781798   0.0026540548900817144   0.001933656948645039
0.05233705212781798   0.0026540548900817144   0.001933656948645039
-0.10056717606779479   -0.001216071279185351   0.010542175937356112
-0.10056717606779479   -0.001216071279185351   0.010542175937356112
-0.10056717606779479   -0.001216071279185351   0.010542175937356112
-0.10056717606779479   -0.001216071279185351   0.010542175937356112
-0.08047788401685803   -0.01055451032937563   -0.005058403942794494
-0.08047788401685803   -0.01055451032937563   -0.005058403942794494
-0.08047788401685803   -0.01055451032937563   -0.005058403942794494
-0.08047788401685803   -0.01055451032937563   -0.005058403942794494
-0.07276399750977317   0.008777109331703118   0.008968279135109638
-0.07276399750977317   0.008777109331703118   0.008968279135109638
-0.07276399750977317   0.008777109331703118   0.008968279135109638
-0.07276399750977317   0.008777109331703118   0.008968279135109638
-0.10024316693003985   -0.01099684752307339   -0.0069482364125338985
-0.10024316693003985   -0.01099684752307339   -0.0069482364125338985
-0.10024316693003985   -0.01099684752307339   -0.0069482364125338985
-0.10024316693003985   -0.01099684752307339   -0.0069482364125338985
-0.0852207168535709   -0.002241466080329501   -0.0015740569342001598
-0.0852207168535709   -0.002241466080329501   -0.0015740569342001598
-0.0852207168535709   -0.002241466080329501   -0.0015740569342001598
-0.0852207168535709   -0.002241466080329501   -0.0015740569342001598
-0.09368453152555732   0.004807471099071189   0.01004062198773414
-0.09368453152555732   0.004807471099071189   0.01004062198773414
-0.09368453152555732   0.004807471099071189   0.01004062198773414
-0.09368453152555732   0.004807471099071189   0.01004062198773414
-0.0788484880496077   -0.006553064425793311   -0.006123999806565652
-0.0788484880496077   -0.006553064425793311   -0.006123999806565652
-0.0788484880496077   -0.006553064425793311   -0.006123999806565652
-0.0788484880496077   -0.006553064425793311   -0.006123999806565652
-0.07106779534499101   0.011089596844724273   0.007552581676548202
-0.07106779534499101   0.011089596844724273   0.007552581676548202
-0.07106779534499101   0.011089596844724273   0.007552581676548202
-0.07106779534499101   0.011089596844724273   0.007552581676548202
-0.09553039914970185   -0.008371559173106601   -0.008627061280022039
-0.09553039914970185   -0.008371559173106601   -0.008627061280022039
-0.09553039914970185   -0.008371559173106601   -0.008627061280022039
-0.09553039914970185   -0.008371559173106601   -0.008627061280022039
-0.08275396900976058   0.0007616198729150404   0.0003733705815778107
-0.08275396900976058   0.0007616198729150404   0.0003733705815778107
-0.08275396900976058   0.0007616198729150404   0.0003733705815778107
-0.08275396900976058   0.0007616198729150404   0.0003733705815778107
-0.08899423819737873   0.007608524000528586   0.008073660307957479
-0.08899423819737873   0.007608524000528586   0.008073660307957479
-0.08899423819737873   0.007608524000528586   0.008073660307957479
-0.08899423819737873   0.007608524000528586   0.008073660307957479
-0.07716211851639108   -0.004448648547987851   -0.007380788787739061
-0.07716211851639108   -0.004448648547987851   -0.007380788787739061
-0.07716211851639108   -0.004448648547987851   -0.007380788787739061
-0.07716211851639108   -0.004448648547987851   -0.007380788787739061
-0.06972713652717485   0.014054636716019107   0.006508465383634359
-0.06972713652717485   0.014054636716019107   0.006508465383634359
-0.06972713652717485   0.014054636716019107   0.006508465383634359
-0.06972713652717485   0.014054636716019107   0.006508465383634359
-0.08921443510222983   -0.0041516583387809815   -0.009962648705319856
-0.08921443510222983   -0.0041516583387809815   -0.009962648705319856
-0.08921443510222983   -0.0041516583387809815   -0.009962648705319856
-0.08921443510222983   -0.0041516583387809815   -0.009962648705319856
-0.07785634375024679   0.0037711471658490245   0.002750109097729123
-0.07785634375024679   0.0037711471658490245   0.002750109097729123
-0.07785634375024679   0.0037711471658490245   0.002750109097729123
-0.07785634375024679   0.0037711471658490245   0.002750109097729123
-0.07743436032229163   -0.0055617337546691025   0.005166437955331024
-0.07743436032229163   -0.0055617337546691025   0.005166437955331024
-0.07743436032229163   -0.0055617337546691025   0.005166437955331024
-0.07743436032229163   -0.0055617337546691025   0.005166437955331024
-0.05866156077900701   -0.007977547265520999   -0.0014861670533583829
-0.05866156077900701   -0.007977547265520999   -0.0014861670533583829
-0.05866156077900701   -0.007977547265520999   -0.0014861670533583829
-0.05866156077900701   -0.007977547265520999   -0.0014861670533583829
-0.05444121932134621   0.003964188252335096   0.0045907302311446515
-0.05444121932134621   0.003964188252335096   0.0045907302311446515
-0.05444121932134621   0.003964188252335096   0.0045907302311446515
-0.05444121932134621   0.003964188252335096   0.0045907302311446515
-0.07876774507378521   -0.008056562720784376   -0.00421678663246168
-0.07876774507378521   -0.008056562720784376   -0.00421678663246168
-0.07876774507378521   -0.008056562720784376   -0.00421678663246168
-0.07876774507378521   -0.008056562720784376   -0.00421678663246168
-0.06718492985647283   -0.004031464676116722   -0.0019178220852276435
-0.06718492985647283   -0.004031464676116722   -0.0019178220852276435
-0.06718492985647283   -0.004031464676116722   -0.0019178220852276435
-0.06718492985647283   -0.004031464676116722   -0.0019178220852276435
-0.0754916092682129   -0.00028547487362028286   0.004392804548234434
-0.0754916092682129   -0.00028547487362028286   0.004392804548234434
-0.0754916092682129   -0.00028547487362028286   0.004392804548234434
-0.0754916092682129   -0.00028547487362028286   0.004392804548234434
-0.05733554515991849   -0.003425089627829175   -0.0024916210815524188
-0.05733554515991849   -0.003425089627829175   -0.0024916210815524188
-0.05733554515991849   -0.003425089627829175   -0.0024916210815524188
-0.05733554515991849   -0.003425089627829175   -0.0024916210815524188
-0.05299052634386872   0.008700500611609792   0.003657931734061058
-0.05299052634386872   0.008700500611609792   0.003657931734061058
-0.05299052634386872   0.008700500611609792   0.003657931734061058
-0.05299052634386872   0.008700500611609792   0.003657931734061058
-0.07651935544695841   -0.0035567179897383686   -0.005058903998824708
-0.07651935544695841   -0.0035567179897383686   -0.005058903998824708
-0.07651935544695841   -0.0035567179897383686   -0.005058903998824708
-0.07651935544695841   -0.0035567179897383686   -0.005058903998824708
-0.06503305543192842   0.00048116961482787095   0.00010233759846973783
-0.06503305543192842   0.00048116961482787095   0.00010233759846973783
-0.06503305543192842   0.00048116961482787095   0.00010233759846973783
-0.06503305543192842   0.00048116961482787095   0.00010233759846973783
-0.0730485942548737   0.004754114564140658   0.003984069407718426
-0.0730485942548737   0.004754114564140658   0.003984069407718426
-0.0730485942548737   0.004754114564140658   0.003984069407718426
-0.0730485942548737   0.004754114564140658   0.003984069407718426
-0.056020800041865305   0.0008301555518189473   -0.0036230916961312405
-0.056020800041865305   0.0008301555518189473   -0.0036230916961312405
-0.056020800041865305   0.0008301555518189473   -0.0036230916961312405
-0.056020800041865305   0.0008301555518189473   -0.0036230916961312405
-0.05154241065425132   0.013889904719501772   0.0027691870639464256
-0.05154241065425132   0.013889904719501772   0.0027691870639464256
-0.05154241065425132   0.013889904719501772   0.0027691870639464256
-0.05154241065425132   0.013889904719501772   0.0027691870639464256
-0.07470193650754939   0.0014067707284625385   -0.005717668530680642
-0.07470193650754939   0.0014067707284625385   -0.005717668530680642
-0.07470193650754939   0.0014067707284625385   -0.005717668530680642
-0.07470193650754939   0.0014067707284625385   -0.005717668530680642
-0.06349411158714517   0.00496315569973484   0.0020994010737655656
-0.06349411158714517   0.00496315569973484   0.0020994010737655656
-0.06349411158714517   0.00496315569973484   0.0020994010737655656
-0.06349411158714517   0.00496315569973484   0.0020994010737655656
-0.05853505642570038   -0.009841931426794999   0.0010107388744478
-0.05853505642570038   -0.009841931426794999   0.0010107388744478
-0.05853505642570038   -0.009841931426794999   0.0010107388744478
-0.05853505642570038   -0.009841931426794999   0.0010107388744478
-0.037003253740845565   -0.004467153201313178   0.002094843779762781
-0.037003253740845565   -0.004467153201313178   0.002094843779762781
-0.037003253740845565   -0.004467153201313178   0.002094843779762781
-0.037003253740845565   -0.004467153201313178   0.002094843779762781
-0.035965694216347405   -0.00036335570679673756   0.00025287194691064516
-0.035965694216347405   -0.00036335570679673756   0.00025287194691064516
-0.035965694216347405   -0.00036335570679673756   0.00025287194691064516
-0.035965694216347405   -0.00036335570679673756   0.00025287194691064516
-0.05711958514066391   -0.004378873450435878   -0.00045803716267283365
-0.05711958514066391   -0.004378873450435878   -0.00045803716267283365
-0.05711958514066391   -0.004378873450435878   -0.00045803716267283365
-0.05711958514066391   -0.004378873450435878   -0.00045803716267283365
-0.04723471938039525   -0.004533866256178368   -0.001413287267512187
-0.04723471938039525   -0.004533866256178368   -0.001413287267512187
-0.04723471938039525   -0.004533866256178368   -0.001413287267512187
-0.04723471938039525   -0.004533866256178368   -0.001413287267512187
-0.05703157401237914   -0.004588730874768572   0.00019187590308320456
-0.05703157401237914   -0.004588730874768572   0.00019187590308320456
-0.05703157401237914   -0.004588730874768572   0.00019187590308320456
-0.05703157401237914   -0.004588730874768572   0.00019187590308320456
-0.035672593985092   0.00022761307707540052   0.0011274043193154975
-0.035672593985092   0.00022761307707540052   0.0011274043193154975
-0.035672593985092   0.00022761307707540052   0.0011274043193154975
-0.035672593985092   0.00022761307707540052   0.0011274043193154975
-0.03437436201065274   0.004933320458972474   -0.0005219019431161251
-0.03437436201065274   0.004933320458972474   -0.0005219019431161251
-0.03437436201065274   0.004933320458972474   -0.0005219019431161251
-0.03437436201065274   0.004933320458972474   -0.0005219019431161251
-0.05566427748557227   0.0003850218818918453   -0.001395345244738971
-0.05566427748557227   0.0003850218818918453   -0.001395345244738971
-0.05566427748557227   0.0003850218818918453   -0.001395345244738971
-0.05566427748557227   0.0003850218818918453   -0.001395345244738971
-0.04554775802095344   0.00020368055040719847   0.0005576148128656759
-0.04554775802095344   0.00020368055040719847   0.0005576148128656759
-0.04554775802095344   0.00020368055040719847   0.0005576148128656759
-0.04554775802095344   0.00020368055040719847   0.0005576148128656759
-0.05545460826427456   0.0006910467879996038   -0.0006530240443586568
-0.05545460826427456   0.0006910467879996038   -0.0006530240443586568
-0.05545460826427456   0.0006910467879996038   -0.0006530240443586568
-0.05545460826427456   0.0006910467879996038   -0.0006530240443586568
-0.03423847101919365   0.004972855765621483   0.00011801770753060376
-0.03423847101919365   0.004972855765621483   0.00011801770753060376
-0.03423847101919365   0.004972855765621483   0.00011801770753060376
-0.03423847101919365   0.004972855765621483   0.00011801770753060376
-0.03286897125506562   0.010283835558738179   -0.0013901663900227268
-0.03286897125506562   0.010283835558738179   -0.0013901663900227268
-0.03286897125506562   0.010283835558738179   -0.0013901663900227268
-0.03286897125506562   0.010283835558738179   -0.0013901663900227268
-0.054319893454887844   0.0051838493911377966   -0.0024121716108719783
-0.054319893454887844   0.0051838493911377966   -0.0024121716108719783
-0.054319893454887844   0.0051838493911377966   -0.0024121716108719783
-0.054319893454887844   0.0051838493911377966   -0.0024121716108719783
-0.0439617414138291   0.004959003916245347   0.002447891190420291
-0.0439617414138291   0.004959003916245347   0.002447891190420291
-0.0439617414138291   0.004959003916245347   0.002447891190420291
-0.0439617414138291   0.004959003916245347   0.002447891190420291
-0.039863242043346854   -0.013515237047439673   -0.0031570138866178323
-0.039863242043346854   -0.013515237047439673   -0.0031570138866178323
-0.039863242043346854   -0.013515237047439673   -0.0031570138866178323
-0.039863242043346854   -0.013515237047439673   -0.0031570138866178323
-0.016306580952392652   -0.0007479718259307325   0.005464363829104198
-0.016306580952392652   -0.0007479718259307325   0.005464363829104198
-0.016306580952392652   -0.0007479718259307325   0.005464363829104198
-0.016306580952392652   -0.0007479718259307325   0.005464363829104198
-0.01806988628343611   -0.004518375072632241   -0.004296057093632325
-0.01806988628343611   -0.004518375072632241   -0.004296057093632325
-0.01806988628343611   -0.004518375072632241   -0.004296057093632325
-0.01806988628343611   -0.004518375072632241   -0.004296057093632325
-0.03540237215282953   -0.0005019368166047176   0.00320806337430768
-0.03540237215282953   -0.0005019368166047176   0.00320806337430768
-0.03540237215282953   -0.0005019368166047176   0.00320806337430768
-0.03540237215282953   -0.0005019368166047176   0.00320806337430768
-0.02736520575977182   -0.004616241284273543   -0.0010246798777578464
-0.02736520575977182   -0.004616241284273543   -0.0010246798777578464
-0.02736520575977182   -0.004616241284273543   -0.0010246798777578464
-0.02736520575977182   -0.004616241284273543   -0.0010246798777578464
-0.0384592416354107   -0.008543899079450785   -0.004034321775752369
-0.0384592416354107   -0.008543899079450785   -0.004034321775752369
-0.0384592416354107   -0.008543899079450785   -0.004034321775752369
-0.0384592416354107   -0.008543899079450785   -0.004034321775752369
-0.014588345694260381   0.003948258296808699   0.004645012482805616
-0.014588345694260381   0.003948258296808699   0.004645012482805616
-0.014588345694260381   0.003948258296808699   0.004645012482805616
-0.014588345694260381   0.003948258296808699   0.004645012482805616
-0.01566629919282017   0.0004907858449312644   -0.004842780821550535
-0.01566629919282017   0.0004907858449312644   -0.004842780821550535
-0.01566629919282017   0.0004907858449312644   -0.004842780821550535
-0.01566629919282017   0.0004907858449312644   -0.004842780821550535
-0.03407111017446473   0.0037712493589754257   0.0021564283378209576
-0.03407111017446473   0.0037712493589754257   0.0021564283378209576
-0.03407111017446473   0.0037712493589754257   0.0021564283378209576
-0.03407111017446473   0.0037712493589754257   0.0021564283378209576
-0.02553695457975039   -0.00017715507079868638   0.0009931955928115092
-0.02553695457975039   -0.00017715507079868638   0.0009931955928115092
-0.02553695457975039   -0.00017715507079868638   0.0009931955928115092
-0.02553695457975039   -0.00017715507079868638   0.0009931955928115092
-0.03702975562729101   -0.003822049325933232   -0.005043500241402182
-0.03702975562729101   -0.003822049325933232   -0.005043500241402182
-0.03702975562729101   -0.003822049325933232   -0.005043500241402182
-0.03702975562729101   -0.003822049325933232   -0.005043500241402182
-0.012311518078894034   0.008480220190939754   0.003941690402071896
-0.012311518078894034   0.008480220190939754   0.003941690402071896
-0.012311518078894034   0.008480220190939754   0.003941690402071896
-0.012311518078894034   0.008480220190939754   0.003941690402071896
-0.013639780788356521   0.006042923191310776   -0.005443170513310279
-0.013639780788356521   0.006042923191310776   -0.005443170513310279
-0.013639780788356521   0.006042923191310776   -0.005443170513310279
-0.013639780788356521   0.006042923191310776   -0.005443170513310279
-0.032707320387420934   0.008560205688481759   0.0011417178184571072
-0.032707320387420934   0.008560205688481759   0.0011417178184571072
-0.032707320387420934   0.008560205688481759   0.0011417178184571072
-0.032707320387420934   0.008560205688481759   0.0011417178184571072
-0.023682251136210065   0.004390109685419625   0.0029906334227428636
-0.023682251136210065   0.004390109685419625   0.0029906334227428636
-0.023682251136210065   0.004390109685419625   0.0029906334227428636
-0.023682251136210065   0.004390109685419625   0.0029906334227428636
-0.021537137693457047   -0.014458799450865487   -0.0069775922512832576
-0.021537137693457047   -0.014458799450865487   -0.0069775922512832576
-0.021537137693457047   -0.014458799450865487   -0.0069775922512832576
-0.021537137693457047   -0.014458799450865487   -0.0069775922512832576
-0.0019734644285292306   0.003667734533793526   0.008532406366225865
-0.0019734644285292306   0.003667734533793526   0.008532406366225865
-0.0019734644285292306   0.003667734533793526   0.008532406366225865
-0.0019734644285292306   0.003667734533793526   0.008532406366225865
-0.0021120601540022777   -0.007680465188460174   -0.009294059185761787
-0.0021120601540022777   -0.007680465188460174   -0.009294059185761787
-0.0021120601540022777   -0.007680465188460174   -0.009294059185761787
-0.0021120601540022777   -0.007680465188460174   -0.009294059185761787
-0.013993940428503156   0.00457400900777671   0.0069912881006234905
-0.013993940428503156   0.00457400900777671   0.0069912881006234905
-0.013993940428503156   0.00457400900777671   0.0069912881006234905
-0.013993940428503156   0.00457400900777671   0.0069912881006234905
-0.009787845735729916   -0.003269075460956705   -0.0014747128100373824
-0.009787845735729916   -0.003269075460956705   -0.0014747128100373824
-0.009787845735729916   -0.003269075460956705   -0.0014747128100373824
-0.009787845735729916   -0.003269075460956705   -0.0014747128100373824
-0.020120810798114695   -0.011031012023384832   -0.00803804271627266
-0.020120810798114695   -0.011031012023384832   -0.00803804271627266
-0.020120810798114695   -0.011031012023384832   -0.00803804271627266
-0.020120810798114695   -0.011031012023384832   -0.00803804271627266
0.004465831657207358   0.008375577284298826   0.007539357397527391
0.004465831657207358   0.008375577284298826   0.007539357397527391
0.004465831657207358   0.008375577284298826   0.007539357397527391
0.004465831657207358   0.008375577284298826   0.007539357397527391
0.0026127089525888945   -0.004831825347665514   -0.0110913418800128
0.0026127089525888945   -0.004831825347665514   -0.0110913418800128
0.0026127089525888945   -0.004831825347665514   -0.0110913418800128
0.0026127089525888945   -0.004831825347665514   -0.0110913418800128
-0.012340620837704238   0.006642909170171074   0.0056334876287893205
-0.012340620837704238   0.006642909170171074   0.0056334876287893205
-0.012340620837704238   0.006642909170171074   0.0056334876287893205
-0.012340620837704238   0.006642909170171074   0.0056334876287893205
-0.006027925270253862   -0.0003100202928816915   0.0006809209115496951
-0.006027925270253862   -0.0003100202928816915   0.0006809209115496951
-0.006027925270253862   -0.0003100202928816915   0.0006809209115496951
-0.006027925270253862   -0.0003100202928816915   0.0006809209115496951
-0.01840097181835198   -0.008684470622255662   -0.009340887482022657
-0.01840097181835198   -0.008684470622255662   -0.009340887482022657
-0.01840097181835198   -0.008684470622255662   -0.009340887482022657
-0.01840097181835198   -0.008684470622255662   -0.009340887482022657
0.00912948483279603   0.010951979344320613   0.005708732829036747
0.00912948483279603   0.010951979344320613   0.005708732829036747
0.00912948483279603   0.010951979344320613   0.005708732829036747
0.00912948483279603   0.010951979344320613   0.005708732829036747
0.009349426438832555   0.000694931806206596   -0.01192617844325156
0.009349426438832555   0.000694931806206596   -0.01192617844325156
0.009349426438832555   0.000694931806206596   -0.01192617844325156
0.009349426438832555   0.000694931806206596   -0.01192617844325156
-0.010805725022403156   0.010186022110487863   0.0045840093972796935
-0.010805725022403156   0.010186022110487863   0.0045840093972796935
-0.010805725022403156   0.010186022110487863   0.0045840093972796935
-0.010805725022403156   0.010186022110487863   0.0045840093972796935
-0.002436997750027071   0.0027477629004948574   0.002832227873477268
-0.002436997750027071   0.0027477629004948574   0.002832227873477268
-0.002436997750027071   0.0027477629004948574   0.002832227873477268
-0.002436997750027071   0.0027477629004948574   0.002832227873477268
-0.030109640166259704   0.002485819706531559   0.009775002386143119
-0.030109640166259704   0.002485819706531559   0.009775002386143119
-0.030109640166259704   0.002485819706531559   0.009775002386143119
-0.030109640166259704   0.002485819706531559   0.009775002386143119
-0.0396342271891339   -0.012548608297080054   -0.005581020316236308
-0.0396342271891339   -0.012548608297080054   -0.005581020316236308
-0.0396342271891339   -0.012548608297080054   -0.005581020316236308
-0.0396342271891339   -0.012548608297080054   -0.005581020316236308
-0.031647190956095944   0.00570387739715498   0.007959412214664046
-0.031647190956095944   0.00570387739715498   0.007959412214664046
-0.031647190956095944   0.00570387739715498   0.007959412214664046
-0.031647190956095944   0.00570387739715498   0.007959412214664046
-0.029347319633620986   -0.007743325964427945   -0.007274692381147549
-0.029347319633620986   -0.007743325964427945   -0.007274692381147549
-0.029347319633620986   -0.007743325964427945   -0.007274692381147549
-0.029347319633620986   -0.007743325964427945   -0.007274692381147549
-0.03198129670489839   -0.002438539624293909   -0.002849377252094211
-0.03198129670489839   -0.002438539624293909   -0.002849377252094211
-0.03198129670489839   -0.002438539624293909   -0.002849377252094211
-0.03198129670489839   -0.002438539624293909   -0.002849377252094211
-0.022994472313345147   0.007659818611610891   0.009086399644192802
-0.022994472313345147   0.007659818611610891   0.009086399644192802
-0.022994472313345147   0.007659818611610891   0.009086399644192802
-0.022994472313345147   0.007659818611610891   0.009086399644192802
-0.03757532394939534   -0.009274552851907411   -0.0067028225027705255
-0.03757532394939534   -0.009274552851907411   -0.0067028225027705255
-0.03757532394939534   -0.009274552851907411   -0.0067028225027705255
-0.03757532394939534   -0.009274552851907411   -0.0067028225027705255
-0.029372491815624662   0.007918538557074133   0.006665520036804444
-0.029372491815624662   0.007918538557074133   0.006665520036804444
-0.029372491815624662   0.007918538557074133   0.006665520036804444
-0.029372491815624662   0.007918538557074133   0.006665520036804444
-0.024150981956166502   -0.0052404675605214395   -0.008996823084902674
-0.024150981956166502   -0.0052404675605214395   -0.008996823084902674
-0.024150981956166502   -0.0052404675605214395   -0.008996823084902674
-0.024150981956166502   -0.0052404675605214395   -0.008996823084902674
-0.028154646697719   0.0003638572030652612   -0.0007590820966288986
-0.028154646697719   0.0003638572030652612   -0.0007590820966288986
-0.028154646697719   0.0003638572030652612   -0.0007590820966288986
-0.028154646697719   0.0003638572030652612   -0.0007590820966288986
-0.017789886781279508   0.010346327168653703   0.007221858060357144
-0.017789886781279508   0.010346327168653703   0.007221858060357144
-0.017789886781279508   0.010346327168653703   0.007221858060357144
-0.017789886781279508   0.010346327168653703   0.007221858060357144
-0.03534141130085548   -0.007276080482444839   -0.007984458349830685
-0.03534141130085548   -0.007276080482444839   -0.007984458349830685
-0.03534141130085548   -0.007276080482444839   -0.007984458349830685
-0.03534141130085548   -0.007276080482444839   -0.007984458349830685
-0.02731872429450884   0.0113703515802856   0.005751690082292077
-0.02731872429450884   0.0113703515802856   0.005751690082292077
-0.02731872429450884   0.0113703515802856   0.005751690082292077
-0.02731872429450884   0.0113703515802856   0.005751690082292077
-0.017201292172646234   -0.0004896671800922302   -0.010114952314107237
-0.017201292172646234   -0.0004896671800922302   -0.010114952314107237
-0.017201292172646234   -0.0004896671800922302   -0.010114952314107237
-0.017201292172646234   -0.0004896671800922302   -0.010114952314107237
-0.02363298584301838   0.0033389835027230336   0.0014461915756238887
-0.02363298584301838   0.0033389835027230336   0.0014461915756238887
-0.02363298584301838   0.0033389835027230336   0.0014461915756238887
-0.02363298584301838   0.0033389835027230336   0.0014461915756238887
-0.03523142573291028   -0.0018478425933908032   0.005732221261192023
-0.03523142573291028   -0.0018478425933908032   0.005732221261192023
-0.03523142573291028   -0.0018478425933908032   0.005732221261192023
-0.03523142573291028   -0.0018478425933908032   0.005732221261192023
-0.04630496960017708   -0.010253070525855505   -0.0021749488831756046
-0.04630496960017708   -0.010253070525855505   -0.0021749488831756046
-0.04630496960017708   -0.010253070525855505   -0.0021749488831756046
-0.04630496960017708   -0.010253070525855505   -0.0021749488831756046
-0.04163916892256961   0.0009534104064142963   0.0037045028523160616
-0.04163916892256961   0.0009534104064142963   0.0037045028523160616
-0.04163916892256961   0.0009534104064142963   0.0037045028523160616
-0.04163916892256961   0.0009534104064142963   0.0037045028523160616
-0.03591279329499108   -0.004448091837220274   -0.003216630245435885
-0.03591279329499108   -0.004448091837220274   -0.003216630245435885
-0.03591279329499108   -0.004448091837220274   -0.003216630245435885
-0.03591279329499108   -0.004448091837220274   -0.003216630245435885
-0.03984215351575776   -0.003576981812667763   -0.0019155234390529786
-0.03984215351575776   -0.003576981812667763   -0.0019155234390529786
-0.03984215351575776   -0.003576981812667763   -0.0019155234390529786
-0.03984215351575776   -0.003576981812667763   -0.0019155234390529786
-0.03278409477912752   0.0029827323033096995   0.0049960381933509875
-0.03278409477912752   0.0029827323033096995   0.0049960381933509875
-0.03278409477912752   0.0029827323033096995   0.0049960381933509875
-0.03278409477912752   0.0029827323033096995   0.0049960381933509875
-0.04443215907137678   -0.006141705367060131   -0.003165332118245631
-0.04443215907137678   -0.006141705367060131   -0.003165332118245631
-0.04443215907137678   -0.006141705367060131   -0.003165332118245631
-0.04443215907137678   -0.006141705367060131   -0.003165332118245631
-0.03962372401715175   0.005397230531772145   0.002815207178921193
-0.03962372401715175   0.005397230531772145   0.002815207178921193
-0.03962372401715175   0.005397230531772145   0.002815207178921193
-0.03962372401715175   0.005397230531772145   0.002815207178921193
-0.03313416725316653   -0.00022053166723922345   -0.004003786926591028
-0.03313416725316653   -0.00022053166723922345   -0.004003786926591028
-0.03313416725316653   -0.00022053166723922345   -0.004003786926591028
-0.03313416725316653   -0.00022053166723922345   -0.004003786926591028
-0.0373949727419725   0.0005203353752446169   -2.3487860120055895e-06
-0.0373949727419725   0.0005203353752446169   -2.3487860120055895e-06
-0.0373949727419725   0.0005203353752446169   -2.3487860120055895e-06
-0.0373949727419725   0.0005203353752446169   -2.3487860120055895e-06
-0.029849143225846256   0.007691054635669268   0.0045097469071013275
-0.029849143225846256   0.007691054635669268   0.0045097469071013275
-0.029849143225846256   0.007691054635669268   0.0045097469071013275
-0.029849143225846256   0.007691054635669268   0.0045097469071013275
-0.04254986197657455   -0.002155469703239732   -0.004262782383181708
-0.04254986197657455   -0.002155469703239732   -0.004262782383181708
-0.04254986197657455   -0.002155469703239732   -0.004262782383181708
-0.04254986197657455   -0.002155469703239732   -0.004262782383181708
-0.03759400050131939   0.010365769850174473   0.001969391071649047
-0.03759400050131939   0.010365769850174473   0.001969391071649047
-0.03759400050131939   0.010365769850174473   0.001969391071649047
-0.03759400050131939   0.010365769850174473   0.001969391071649047
-0.03078106466771229   0.004522927269394992   -0.004712587472834081
-0.03078106466771229   0.004522927269394992   -0.004712587472834081
-0.03078106466771229   0.004522927269394992   -0.004712587472834081
-0.03078106466771229   0.004522927269394992   -0.004712587472834081
-0.035076233016203266   0.00480794897653492   0.001964916801615269
-0.035076233016203266   0.00480794897653492   0.001964916801615269
-0.035076233016203266   0.00480794897653492   0.001964916801615269
-0.035076233016203266   0.00480794897653492   0.001964916801615269
-0.04470035542417581   -0.006088776666448081   0.0016838281374223448
-0.04470035542417581   -0.006088776666448081   0.0016838281374223448
-0.04470035542417581   -0.006088776666448081   0.0016838281374223448
-0.04470035542417581   -0.006088776666448081   0.0016838281374223448
-0.052823159902659754   -0.00676397190455208   0.0012826664492591642
-0.052823159902659754   -0.00676397190455208   0.0012826664492591642
-0.052823159902659754   -0.00676397190455208   0.0012826664492591642
-0.052823159902659754   -0.00676397190455208   0.0012826664492591642
-0.05126030298235437   -0.0032167048665569502   -0.0005064764015877345
-0.05126030298235437   -0.0032167048665569502   -0.0005064764015877345
-0.05126030298235437   -0.0032167048665569502   -0.0005064764015877345
-0.05126030298235437   -0.0032167048665569502   -0.0005064764015877345
-0.042634020412571694   -0.0007718327089972759   0.00045548851771721457
-0.042634020412571694   -0.0007718327089972759   0.00045548851771721457
-0.042634020412571694   -0.0007718327089972759   0.00045548851771721457
-0.042634020412571694   -0.0007718327089972759   0.00045548851771721457
-0.047926975495981156   -0.0039732806001404365   -0.0013000595701834422
-0.047926975495981156   -0.0039732806001404365   -0.0013000595701834422
-0.047926975495981156   -0.0039732806001404365   -0.0013000595701834422
-0.047926975495981156   -0.0039732806001404365   -0.0013000595701834422
-0.042634958169731625   -0.0012121226826090799   0.0008910897055288756
-0.042634958169731625   -0.0012121226826090799   0.0008910897055288756
-0.042634958169731625   -0.0012121226826090799   0.0008910897055288756
-0.042634958169731625   -0.0012121226826090799   0.0008910897055288756
-0.05093921422732926   -0.0024562638950799826   0.00033852640206125236
-0.05093921422732926   -0.0024562638950799826   0.00033852640206125236
-0.05093921422732926   -0.0024562638950799826   0.00033852640206125236
-0.05093921422732926   -0.0024562638950799826   0.00033852640206125236
-0.049127163279270115   0.0017184451469927572   -0.0012653431255365568
-0.049127163279270115   0.0017184451469927572   -0.0012653431255365568
-0.049127163279270115   0.0017184451469927572   -0.0012653431255365568
-0.049127163279270115   0.0017184451469927572   -0.0012653431255365568
-0.04062488316893487   0.0036518148467691233   -0.0004451728949913976
-0.04062488316893487   0.0036518148467691233   -0.0004451728949913976
-0.04062488316893487   0.0036518148467691233   -0.0004451728949913976
-0.04062488316893487   0.0036518148467691233   -0.0004451728949913976
-0.045687938905458324   0.0004154397732517197   0.0006017636187569892
-0.045687938905458324   0.0004154397732517197   0.0006017636187569892
-0.045687938905458324   0.0004154397732517197   0.0006017636187569892
-0.045687938905458324   0.0004154397732517197   0.0006017636187569892
-0.04051468405759135   0.0037046142651122847   5.3023243382312266e-05
-0.04051468405759135   0.0037046142651122847   5.3023243382312266e-05
-0.04051468405759135   0.0037046142651122847   5.3023243382312266e-05
-0.04051468405759135   0.0037046142651122847   5.3023243382312266e-05
-0.048955709547975436   0.0019472985712876787   -0.0006369278933580566
-0.048955709547975436   0.0019472985712876787   -0.0006369278933580566
-0.048955709547975436   0.0019472985712876787   -0.0006369278933580566
-0.048955709547975436   0.0019472985712876787   -0.0006369278933580566
-0.04708289072632821   0.0066922883141874775   -0.002106979724183203
-0.04708289072632821   0.0066922883141874775   -0.002106979724183203
-0.04708289072632821   0.0066922883141874775   -0.002106979724183203
-0.04708289072632821   0.0066922883141874775   -0.002106979724183203
-0.038732183429213   0.008093665846180919   -0.0014494195638252681
-0.038732183429213   0.008093665846180919   -0.0014494195638252681
-0.038732183429213   0.008093665846180919   -0.0014494195638252681
-0.038732183429213   0.008093665846180919   -0.0014494195638252681
-0.04356528292583259   0.00481435730583683   0.0024130534379476366
-0.04356528292583259   0.00481435730583683   0.0024130534379476366
-0.04356528292583259   0.00481435730583683   0.0024130534379476366
-0.04356528292583259   0.00481435730583683   0.0024130534379476366
-0.05419394402207848   -0.009904468680138532   -0.0024307573722489673
-0.05419394402207848   -0.009904468680138532   -0.0024307573722489673
-0.05419394402207848   -0.009904468680138532   -0.0024307573722489673
-0.05419394402207848   -0.009904468680138532   -0.0024307573722489673
-0.06005685331465178   -0.0033357147522425513   0.0045555708293881295
-0.06005685331465178   -0.0033357147522425513   0.0045555708293881295
-0.06005685331465178   -0.0033357147522425513   0.0045555708293881295
-0.06005685331465178   -0.0033357147522425513   0.0045555708293881295
-0.06120591029554954   -0.007268165265498399   -0.004819540727440713
-0.06120591029554954   -0.007268165265498399   -0.004819540727440713
-0.06120591029554954   -0.007268165265498399   -0.004819540727440713
-0.06120591029554954   -0.007268165265498399   -0.004819540727440713
-0.04914902573093998   0.002885764437011506   0.003947440551915739
-0.04914902573093998   0.002885764437011506   0.003947440551915739
-0.04914902573093998   0.002885764437011506   0.003947440551915739
-0.04914902573093998   0.002885764437011506   0.003947440551915739
-0.05589149566969377   -0.0041390447333319435   -0.0008287982503955523
-0.05589149566969377   -0.0041390447333319435   -0.0008287982503955523
-0.05589149566969377   -0.0041390447333319435   -0.0008287982503955523
-0.05589149566969377   -0.0041390447333319435   -0.0008287982503955523
-0.05219703929857858   -0.005153212908724419   -0.0032536499405417816
-0.05219703929857858   -0.005153212908724419   -0.0032536499405417816
-0.05219703929857858   -0.005153212908724419   -0.0032536499405417816
-0.05219703929857858   -0.005153212908724419   -0.0032536499405417816
-0.05782289674589653   0.001105812062251861   0.003721549693074073
-0.05782289674589653   0.001105812062251861   0.003721549693074073
-0.05782289674589653   0.001105812062251861   0.003721549693074073
-0.05782289674589653   0.001105812062251861   0.003721549693074073
-0.05832703448211065   -0.002593433913482485   -0.005411063716822675
-0.05832703448211065   -0.002593433913482485   -0.005411063716822675
-0.05832703448211065   -0.002593433913482485   -0.005411063716822675
-0.05832703448211065   -0.002593433913482485   -0.005411063716822675
-0.04725614862674035   0.006868152485757988   0.002940022798346628
-0.04725614862674035   0.006868152485757988   0.002940022798346628
-0.04725614862674035   0.006868152485757988   0.002940022798346628
-0.04725614862674035   0.006868152485757988   0.002940022798346628
-0.05328895475094873   0.00010742593357925337   0.0011440040343614552
-0.05328895475094873   0.00010742593357925337   0.0011440040343614552
-0.05328895475094873   0.00010742593357925337   0.0011440040343614552
-0.05328895475094873   0.00010742593357925337   0.0011440040343614552
-0.05020716895824874   -0.000730527783360968   -0.004216398590076999
-0.05020716895824874   -0.000730527783360968   -0.004216398590076999
-0.05020716895824874   -0.000730527783360968   -0.004216398590076999
-0.05020716895824874   -0.000730527783360968   -0.004216398590076999
-0.0550376556455129   0.005343604860725803   0.0030987916919582416
-0.0550376556455129   0.005343604860725803   0.0030987916919582416
-0.0550376556455129   0.005343604860725803   0.0030987916919582416
-0.0550376556455129   0.005343604860725803   0.0030987916919582416
-0.05582003080427546   0.002518863338730172   -0.0059522835134463055
-0.05582003080427546   0.002518863338730172   -0.0059522835134463055
-0.05582003080427546   0.002518863338730172   -0.0059522835134463055
-0.05582003080427546   0.002518863338730172   -0.0059522835134463055
-0.045358957915924994   0.01126000826935477   0.0019449643726655464
-0.045358957915924994   0.01126000826935477   0.0019449643726655464
-0.045358957915924994   0.01126000826935477   0.0019449643726655464
-0.045358957915924994   0.01126000826935477   0.0019449643726655464
-0.051156677481639795   0.004266170572347114   0.0030112537251375886
-0.051156677481639795   0.004266170572347114   0.0030112537251375886
-0.051156677481639795   0.004266170572347114   0.0030112537251375886
-0.051156677481639795   0.004266170572347114   0.0030112537251375886
-0.06388113266369434   -0.011667157100081964   -0.006234383567986481
-0.06388113266369434   -0.011667157100081964   -0.006234383567986481
-0.06388113266369434   -0.011667157100081964   -0.006234383567986481
-0.06388113266369434   -0.011667157100081964   -0.006234383567986481
-0.0732926990618867   0.00028629513845056936   0.008443356559612428
-0.0732926990618867   0.00028629513845056936   0.008443356559612428
-0.0732926990618867   0.00028629513845056936   0.008443356559612428
-0.0732926990618867   0.00028629513845056936   0.008443356559612428
-0.07270326658896527   -0.010245347957254607   -0.008396170564070968
-0.07270326658896527   -0.010245347957254607   -0.008396170564070968
-0.07270326658896527   -0.010245347957254607   -0.008396170564070968
-0.07270326658896527   -0.010245347957254607   -0.008396170564070968
-0.05578989673483112   0.007430213929043118   0.007562147881609394
-0.05578989673483112   0.007430213929043118   0.007562147881609394
-0.05578989673483112   0.007430213929043118   0.007562147881609394
-0.05578989673483112   0.007430213929043118   0.007562147881609394
-0.0636991360770821   -0.0027100767510277284   -0.0002019258365657372
-0.0636991360770821   -0.0027100767510277284   -0.0002019258365657372
-0.0636991360770821   -0.0027100767510277284   -0.0002019258365657372
-0.0636991360770821   -0.0027100767510277284   -0.0002019258365657372
-0.06177941859783278   -0.007810328122571647   -0.007144919381784838
-0.06177941859783278   -0.007810328122571647   -0.007144919381784838
-0.06177941859783278   -0.007810328122571647   -0.007144919381784838
-0.06177941859783278   -0.007810328122571647   -0.007144919381784838
-0.06636093551365885   0.005348003306664018   0.007722133548541606
-0.06636093551365885   0.005348003306664018   0.007722133548541606
-0.06636093551365885   0.005348003306664018   0.007722133548541606
-0.06636093551365885   0.005348003306664018   0.007722133548541606
-0.06756026767112468   -0.007537409695073575   -0.010048459864013495
-0.06756026767112468   -0.007537409695073575   -0.010048459864013495
-0.06756026767112468   -0.007537409695073575   -0.010048459864013495
-0.06756026767112468   -0.007537409695073575   -0.010048459864013495
-0.05361644187088306   0.009338989308505321   0.00620947611732746
-0.05361644187088306   0.009338989308505321   0.00620947611732746
-0.05361644187088306   0.009338989308505321   0.00620947611732746
-0.05361644187088306   0.009338989308505321   0.00620947611732746
-0.06039903321676511   0.00014684388941446982   0.0016645354457344554
-0.06039903321676511   0.00014684388941446982   0.0016645354457344554
-0.06039903321676511   0.00014684388941446982   0.0016645354457344554
-0.06039903321676511   0.00014684388941446982   0.0016645354457344554
-0.05950340389793927   -0.005578011591269619   -0.00830833311817912
-0.05950340389793927   -0.005578011591269619   -0.00830833311817912
-0.05950340389793927   -0.005578011591269619   -0.00830833311817912
-0.05950340389793927   -0.005578011591269619   -0.00830833311817912
-0.061301201093491964   0.007751695755277798   0.005957767573798731
-0.061301201093491964   0.007751695755277798   0.005957767573798731
-0.061301201093491964   0.007751695755277798   0.005957767573798731
-0.061301201093491964   0.007751695755277798   0.005957767573798731
-0.06068197956898424   -0.00291127277325102   -0.011026210474833636
-0.06068197956898424   -0.00291127277325102   -0.011026210474833636
-0.06068197956898424   -0.00291127277325102   -0.011026210474833636
-0.06068197956898424   -0.00291127277325102   -0.011026210474833636
-0.0516949658465998   0.012077746611721453   0.005114158001939991
-0.0516949658465998   0.012077746611721453   0.005114158001939991
-0.0516949658465998   0.012077746611721453   0.005114158001939991
-0.0516949658465998   0.012077746611721453   0.005114158001939991
-0.05551712628419949   0.0029529868597248238   0.0038719336173472247
-0.05551712628419949   0.0029529868597248238   0.0038719336173472247
-0.05551712628419949   0.0029529868597248238   0.0038719336173472247
-0.05551712628419949   0.0029529868597248238   0.0038719336173472247
0.039143583941652065   0.006164154893419721   0.009204984505476596
0.039143583941652065   0.006164154893419721   0.009204984505476596
0.039143583941652065   0.006164154893419721   0.009204984505476596
0.039143583941652065   0.006164154893419721   0.009204984505476596
0.0001440027089732931   -0.014623401666898982   -0.005934583517717731
0.0001440027089732931   -0.014623401666898982   -0.005934583517717731
0.0001440027089732931   -0.014623401666898982   -0.005934583517717731
0.0001440027089732931   -0.014623401666898982   -0.005934583517717731
0.008395119523799139   0.0026739734171230046   0.00706936536919091
0.008395119523799139   0.0026739734171230046   0.00706936536919091
0.008395119523799139   0.0026739734171230046   0.00706936536919091
0.008395119523799139   0.0026739734171230046   0.00706936536919091
0.04034778235131355   -0.004571050520129996   -0.0075044467153781765
0.04034778235131355   -0.004571050520129996   -0.0075044467153781765
0.04034778235131355   -0.004571050520129996   -0.0075044467153781765
0.04034778235131355   -0.004571050520129996   -0.0075044467153781765
0.020085908010900815   -0.0026303836969920613   -0.004492072748863961
0.020085908010900815   -0.0026303836969920613   -0.004492072748863961
0.020085908010900815   -0.0026303836969920613   -0.004492072748863961
0.020085908010900815   -0.0026303836969920613   -0.004492072748863961
0.046531686236283516   0.010546848436375024   0.008297173752966621
0.046531686236283516   0.010546848436375024   0.008297173752966621
0.046531686236283516   0.010546848436375024   0.008297173752966621
0.046531686236283516   0.010546848436375024   0.008297173752966621
0.0026191487729762433   -0.01203599240523367   -0.007100522562566897
0.0026191487729762433   -0.01203599240523367   -0.007100522562566897
0.0026191487729762433   -0.01203599240523367   -0.007100522562566897
0.0026191487729762433   -0.01203599240523367   -0.007100522562566897
0.011194817239314326   0.0048013334964852475   0.00586638300464994
0.011194817239314326   0.0048013334964852475   0.00586638300464994
0.011194817239314326   0.0048013334964852475   0.00586638300464994
0.011194817239314326   0.0048013334964852475   0.00586638300464994
0.04601677992313368   -0.0021752356221251424   -0.009306126125533835
0.04601677992313368   -0.0021752356221251424   -0.009306126125533835
0.04601677992313368   -0.0021752356221251424   -0.009306126125533835
0.04601677992313368   -0.0021752356221251424   -0.009306126125533835
0.025234979324001656   -1.1678155990436055e-05   -0.0022042377365794675
0.025234979324001656   -1.1678155990436055e-05   -0.0022042377365794675
0.025234979324001656   -1.1678155990436055e-05   -0.0022042377365794675
0.025234979324001656   -1.1678155990436055e-05   -0.0022042377365794675
0.05224015058188743   0.01313685156107653   0.00649863998503325
0.05224015058188743   0.01313685156107653   0.00649863998503325
0.05224015058188743   0.01313685156107653   0.00649863998503325
0.05224015058188743   0.01313685156107653   0.00649863998503325
0.0053581381074367255   -0.010124062159841475   -0.008391616998410862
0.0053581381074367255   -0.010124062159841475   -0.008391616998410862
0.0053581381074367255   -0.010124062159841475   -0.008391616998410862
0.0053581381074367255   -0.010124062159841475   -0.008391616998410862
0.013899214735124269   0.008767917974014754   0.005072466548657183
0.013899214735124269   0.008767917974014754   0.005072466548657183
0.013899214735124269   0.008767917974014754   0.005072466548657183
0.013899214735124269   0.008767917974014754   0.005072466548657183
0.05357587552179525   0.0031682619066792555   -0.010236258408243734
0.05357587552179525   0.0031682619066792555   -0.010236258408243734
0.05357587552179525   0.0031682619066792555   -0.010236258408243734
0.05357587552179525   0.0031682619066792555   -0.010236258408243734
0.02939480469586331   0.002969471063942908   -7.999806984248419e-05
0.02939480469586331   0.002969471063942908   -7.999806984248419e-05
0.02939480469586331   0.002969471063942908   -7.999806984248419e-05
0.02939480469586331   0.002969471063942908   -7.999806984248419e-05
0.00592246081539134   0.0019118886694906427   0.006422416677982878
0.00592246081539134   0.0019118886694906427   0.006422416677982878
0.00592246081539134   0.0019118886694906427   0.006422416677982878
0.00592246081539134   0.0019118886694906427   0.006422416677982878
-0.03458547487062811   -0.012495030952168345   -0.0027378109092707948
-0.03458547487062811   -0.012495030952168345   -0.0027378109092707948
-0.03458547487062811   -0.012495030952168345   -0.0027378109092707948
-0.03458547487062811   -0.012495030952168345   -0.0027378109092707948
-0.02950068716023301   -0.0019531668949839794   0.0028458883309875156
-0.02950068716023301   -0.0019531668949839794   0.0028458883309875156
-0.02950068716023301   -0.0019531668949839794   0.0028458883309875156
-0.02950068716023301   -0.0019531668949839794   0.0028458883309875156
0.00582878661545529   -0.0010128161269698291   -0.0020755096284355012
0.00582878661545529   -0.0010128161269698291   -0.0020755096284355012
0.00582878661545529   -0.0010128161269698291   -0.0020755096284355012
0.00582878661545529   -0.0010128161269698291   -0.0020755096284355012
-0.013392455622914811   -0.003068675935497696   -0.0021142970902423676
-0.013392455622914811   -0.003068675935497696   -0.0021142970902423676
-0.013392455622914811   -0.003068675935497696   -0.0021142970902423676
-0.013392455622914811   -0.003068675935497696   -0.0021142970902423676
0.008841875776250157   0.00628466002985746   0.0056924600187115496
0.008841875776250157   0.00628466002985746   0.0056924600187115496
0.008841875776250157   0.00628466002985746   0.0056924600187115496
0.008841875776250157   0.00628466002985746   0.0056924600187115496
-0.032208325606147385   -0.008945192336930783   -0.003700278456637592
-0.032208325606147385   -0.008945192336930783   -0.003700278456637592
-0.032208325606147385   -0.008945192336930783   -0.003700278456637592
-0.032208325606147385   -0.008945192336930783   -0.003700278456637592
-0.02696357195536366   0.002214260472200618   0.001999578472809143
-0.02696357195536366   0.002214260472200618   0.001999578472809143
-0.02696357195536366   0.002214260472200618   0.001999578472809143
-0.02696357195536366   0.002214260472200618   0.001999578472809143
0.009074388988125555   0.0028898760697346993   -0.002824300824543361
0.009074388988125555   0.0028898760697346993   -0.002824300824543361
0.009074388988125555   0.0028898760697346993   -0.002824300824543361
0.009074388988125555   0.0028898760697346993   -0.002824300824543361
-0.010694415052499158   0.0005679164263807383   -0.0002975592169986754
-0.010694415052499158   0.0005679164263807383   -0.0002975592169986754
-0.010694415052499158   0.0005679164263807383   -0.0002975592169986754
-0.010694415052499158   0.0005679164263807383   -0.0002975592169986754
0.012219776369969671   0.010674597394657172   0.005117914759754747
0.012219776369969671   0.010674597394657172   0.005117914759754747
0.012219776369969671   0.010674597394657172   0.005117914759754747
0.012219776369969671   0.010674597394657172   0.005117914759754747
-0.0298115539665305   -0.0052730554820426614   -0.004753015628781778
-0.0298115539665305   -0.0052730554820426614   -0.004753015628781778
-0.0298115539665305   -0.0052730554820426614   -0.004753015628781778
-0.0298115539665305   -0.0052730554820426614   -0.004753015628781778
-0.024404091446574055   0.006979513063419504   0.0011933682761502392
-0.024404091446574055   0.006979513063419504   0.0011933682761502392
-0.024404091446574055   0.006979513063419504   0.0011933682761502392
-0.024404091446574055   0.006979513063419504   0.0011933682761502392
0.011887569981293977   0.007369232454326406   -0.0035870717008059322
0.011887569981293977   0.007369232454326406   -0.0035870717008059322
0.011887569981293977   0.007369232454326406   -0.0035870717008059322
0.011887569981293977   0.007369232454326406   -0.0035870717008059322
-0.0076554876765722694   0.004637286507409868   0.0016594299416104752
-0.0076554876765722694   0.004637286507409868   0.0016594299416104752
-0.0076554876765722694   0.004637286507409868   0.0016594299416104752
-0.0076554876765722694   0.004637286507409868   0.0016594299416104752
-0.03152078890700058   -0.002284927836610313   0.0023755157933088296
-0.03152078890700058   -0.002284927836610313   0.0023755157933088296
-0.03152078890700058   -0.002284927836610313   0.0023755157933088296
-0.03152078890700058   -0.002284927836610313   0.0023755157933088296
-0.06864473683260505   -0.009180034655264969   0.0004970953972778529
-0.06864473683260505   -0.009180034655264969   0.0004970953972778529
-0.06864473683260505   -0.009180034655264969   0.0004970953972778529
-0.06864473683260505   -0.009180034655264969   0.0004970953972778529
-0.06648133831722557   -0.005887113504187738   -0.0012735975535812243
-0.06648133831722557   -0.005887113504187738   -0.0012735975535812243
-0.06648133831722557   -0.005887113504187738   -0.0012735975535812243
-0.06648133831722557   -0.005887113504187738   -0.0012735975535812243
-0.028911704821626236   0.0024514031983956137   0.0013862299306422756
-0.028911704821626236   0.0024514031983956137   0.0013862299306422756
-0.028911704821626236   0.0024514031983956137   0.0013862299306422756
-0.028911704821626236   0.0024514031983956137   0.0013862299306422756
-0.04895887549787544   -0.0034365328961086317   -0.0012701767384480482
-0.04895887549787544   -0.0034365328961086317   -0.0012701767384480482
-0.04895887549787544   -0.0034365328961086317   -0.0012701767384480482
-0.04895887549787544   -0.0034365328961086317   -0.0012701767384480482
-0.0289176698195333   0.002201584444972893   0.0016062236945296698
-0.0289176698195333   0.002201584444972893   0.0016062236945296698
-0.0289176698195333   0.002201584444972893   0.0016062236945296698
-0.0289176698195333   0.002201584444972893   0.0016062236945296698
-0.06620572396837135   -0.005367645399816592   -0.0004149939136813053
-0.06620572396837135   -0.005367645399816592   -0.0004149939136813053
-0.06620572396837135   -0.005367645399816592   -0.0004149939136813053
-0.06620572396837135   -0.005367645399816592   -0.0004149939136813053
-0.06379967141726092   -0.0012943444534162744   -0.002001181147592337
-0.06379967141726092   -0.0012943444534162744   -0.002001181147592337
-0.06379967141726092   -0.0012943444534162744   -0.002001181147592337
-0.06379967141726092   -0.0012943444534162744   -0.002001181147592337
-0.026402368011345156   0.006474922612828119   0.0005449360522746345
-0.026402368011345156   0.006474922612828119   0.0005449360522746345
-0.026402368011345156   0.006474922612828119   0.0005449360522746345
-0.026402368011345156   0.006474922612828119   0.0005449360522746345
-0.04617984018914551   0.0005784915671181844   0.0005740040476473036
-0.04617984018914551   0.0005784915671181844   0.0005740040476473036
-0.04617984018914551   0.0005784915671181844   0.0005740040476473036
-0.04617984018914551   0.0005784915671181844   0.0005740040476473036
-0.026300346934757586   0.006759791235175819   0.0007701728128647958
-0.026300346934757586   0.006759791235175819   0.0007701728128647958
-0.026300346934757586   0.006759791235175819   0.0007701728128647958
-0.026300346934757586   0.006759791235175819   0.0007701728128647958
-0.06368043070688569   -0.0013579512888025405   -0.0013413707603304606
-0.06368043070688569   -0.0013579512888025405   -0.0013413707603304606
-0.06368043070688569   -0.0013579512888025405   -0.0013413707603304606
-0.06368043070688569   -0.0013579512888025405   -0.0013413707603304606
-0.06122295936776092   0.003322319850960282   -0.002815373601380536
-0.06122295936776092   0.003322319850960282   -0.002815373601380536
-0.06122295936776092   0.003322319850960282   -0.002815373601380536
-0.06122295936776092   0.003322319850960282   -0.002815373601380536
-0.024024467502513948   0.010509990249533887   -0.00043898918966315745
-0.024024467502513948   0.010509990249533887   -0.00043898918966315745
-0.024024467502513948   0.010509990249533887   -0.00043898918966315745
-0.024024467502513948   0.010509990249533887   -0.00043898918966315745
-0.043559518190128696   0.004587727544780009   0.0022981868595166282
-0.043559518190128696   0.004587727544780009   0.0022981868595166282
-0.043559518190128696   0.004587727544780009   0.0022981868595166282
-0.043559518190128696   0.004587727544780009   0.0022981868595166282
-0.06851887815792224   -0.006291635886407958   -0.0017620099981646032
-0.06851887815792224   -0.006291635886407958   -0.0017620099981646032
-0.06851887815792224   -0.006291635886407958   -0.0017620099981646032
-0.06851887815792224   -0.006291635886407958   -0.0017620099981646032
-0.10278154509308098   -0.006049601968717382   0.003639018223192343
-0.10278154509308098   -0.006049601968717382   0.003639018223192343
-0.10278154509308098   -0.006049601968717382   0.003639018223192343
-0.10278154509308098   -0.006049601968717382   0.003639018223192343
-0.10316726753661506   -0.00977838109106027   -0.00535504528276807
-0.10316726753661506   -0.00977838109106027   -0.00535504528276807
-0.10316726753661506   -0.00977838109106027   -0.00535504528276807
-0.10316726753661506   -0.00977838109106027   -0.00535504528276807
-0.06294677989803817   0.005866156102436577   0.004645924935731442
-0.06294677989803817   0.005866156102436577   0.004645924935731442
-0.06294677989803817   0.005866156102436577   0.004645924935731442
-0.06294677989803817   0.005866156102436577   0.004645924935731442
-0.0838648160433548   -0.0036880865557749054   -0.0005657583361312404
-0.0838648160433548   -0.0036880865557749054   -0.0005657583361312404
-0.0838648160433548   -0.0036880865557749054   -0.0005657583361312404
-0.0838648160433548   -0.0036880865557749054   -0.0005657583361312404
-0.06590363358981312   -0.001757568941072301   -0.0025146184796339837
-0.06590363358981312   -0.001757568941072301   -0.0025146184796339837
-0.06590363358981312   -0.001757568941072301   -0.0025146184796339837
-0.06590363358981312   -0.001757568941072301   -0.0025146184796339837
-0.09997747768595963   -0.0019217198886700773   0.0027372427681196408
-0.09997747768595963   -0.0019217198886700773   0.0027372427681196408
-0.09997747768595963   -0.0019217198886700773   0.0027372427681196408
-0.09997747768595963   -0.0019217198886700773   0.0027372427681196408
-0.09973243089968435   -0.005407721290132197   -0.005963063808160301
-0.09973243089968435   -0.005407721290132197   -0.005963063808160301
-0.09973243089968435   -0.005407721290132197   -0.005963063808160301
-0.09973243089968435   -0.005407721290132197   -0.005963063808160301
-0.06049665019203032   0.00951602550299514   0.0037035550221492467
-0.06049665019203032   0.00951602550299514   0.0037035550221492467
-0.06049665019203032   0.00951602550299514   0.0037035550221492467
-0.06049665019203032   0.00951602550299514   0.0037035550221492467
-0.08044628623238292   0.00036934629208652814   0.0013487192816202878
-0.08044628623238292   0.00036934629208652814   0.0013487192816202878
-0.08044628623238292   0.00036934629208652814   0.0013487192816202878
-0.08044628623238292   0.00036934629208652814   0.0013487192816202878
-0.06335170367633897   0.0023749162807409387   -0.0034306031771400127
-0.06335170367633897   0.0023749162807409387   -0.0034306031771400127
-0.06335170367633897   0.0023749162807409387   -0.0034306031771400127
-0.06335170367633897   0.0023749162807409387   -0.0034306031771400127
-0.09661771978885664   0.0019930455586410246   0.002209724897205001
-0.09661771978885664   0.0019930455586410246   0.002209724897205001
-0.09661771978885664   0.0019930455586410246   0.002209724897205001
-0.09661771978885664   0.0019930455586410246   0.002209724897205001
-0.09667062717536827   -0.0006777324732277039   -0.0064320700808035355
-0.09667062717536827   -0.0006777324732277039   -0.0064320700808035355
-0.09667062717536827   -0.0006777324732277039   -0.0064320700808035355
-0.09667062717536827   -0.0006777324732277039   -0.0064320700808035355
-0.0580748440288289   0.01349682175933201   0.0027507011849078073
-0.0580748440288289   0.01349682175933201   0.0027507011849078073
-0.0580748440288289   0.01349682175933201   0.0027507011849078073
-0.0580748440288289   0.01349682175933201   0.0027507011849078073
-0.07801253872601503   0.004105832272086479   0.0030501497066279786
-0.07801253872601503   0.004105832272086479   0.0030501497066279786
-0.07801253872601503   0.004105832272086479   0.0030501497066279786
-0.07801253872601503   0.004105832272086479   0.0030501497066279786
-0.10519651813728652   -0.008900191484885352   -0.005585257481667379
-0.10519651813728652   -0.008900191484885352   -0.005585257481667379
-0.10519651813728652   -0.008900191484885352   -0.005585257481667379
-0.10519651813728652   -0.008900191484885352   -0.005585257481667379
-0.14207109686127048   -0.002994805536371395   0.008228224473810249
-0.14207109686127048   -0.002994805536371395   0.008228224473810249
-0.14207109686127048   -0.002994805536371395   0.008228224473810249
-0.14207109686127048   -0.002994805536371395   0.008228224473810249
-0.14060663585110586   -0.012563438995539595   -0.00758937762502943
-0.14060663585110586   -0.012563438995539595   -0.00758937762502943
-0.14060663585110586   -0.012563438995539595   -0.00758937762502943
-0.14060663585110586   -0.012563438995539595   -0.00758937762502943
-0.09651233069491634   0.010032063615080408   0.00810919421958483
-0.09651233069491634   0.010032063615080408   0.00810919421958483
-0.09651233069491634   0.010032063615080408   0.00810919421958483
-0.09651233069491634   0.010032063615080408   0.00810919421958483
-0.11583773260074497   -0.002111941016221995   0.0011282117415810358
-0.11583773260074497   -0.002111941016221995   0.0011282117415810358
-0.11583773260074497   -0.002111941016221995   0.0011282117415810358
-0.11583773260074497   -0.002111941016221995   0.0011282117415810358
-0.1023393329771965   -0.004659044675915724   -0.006334708900819435
-0.1023393329771965   -0.004659044675915724   -0.006334708900819435
-0.1023393329771965   -0.004659044675915724   -0.006334708900819435
-0.1023393329771965   -0.004659044675915724   -0.006334708900819435
-0.1345612165975363   0.002346086266746209   0.007728193380529995
-0.1345612165975363   0.002346086266746209   0.007728193380529995
-0.1345612165975363   0.002346086266746209   0.007728193380529995
-0.1345612165975363   0.002346086266746209   0.007728193380529995
-0.1349856094581027   -0.009990853971604267   -0.009070572696000829
-0.1349856094581027   -0.009990853971604267   -0.009070572696000829
-0.1349856094581027   -0.009990853971604267   -0.009070572696000829
-0.1349856094581027   -0.009990853971604267   -0.009070572696000829
-0.09377113450159832   0.011727367924509256   0.006708328967627672
-0.09377113450159832   0.011727367924509256   0.006708328967627672
-0.09377113450159832   0.011727367924509256   0.006708328967627672
-0.09377113450159832   0.011727367924509256   0.006708328967627672
-0.11291436187185593   0.0006152773208122735   0.0026514801030853704
-0.11291436187185593   0.0006152773208122735   0.0026514801030853704
-0.11291436187185593   0.0006152773208122735   0.0026514801030853704
-0.11291436187185593   0.0006152773208122735   0.0026514801030853704
-0.09943753089221445   -0.0025386506095131933   -0.00735763445142987
-0.09943753089221445   -0.0025386506095131933   -0.00735763445142987
-0.09943753089221445   -0.0025386506095131933   -0.00735763445142987
-0.09943753089221445   -0.0025386506095131933   -0.00735763445142987
-0.1290589546930221   0.004535422936881937   0.006036424220914834
-0.1290589546930221   0.004535422936881937   0.006036424220914834
-0.1290589546930221   0.004535422936881937   0.006036424220914834
-0.1290589546930221   0.004535422936881937   0.006036424220914834
-0.12793563453625498   -0.006226156645582761   -0.01016468959492589
-0.12793563453625498   -0.006226156645582761   -0.01016468959492589
-0.12793563453625498   -0.006226156645582761   -0.01016468959492589
-0.12793563453625498   -0.006226156645582761   -0.01016468959492589
-0.09140292793354034   0.013645516248806968   0.005583177406301449
-0.09140292793354034   0.013645516248806968   0.005583177406301449
-0.09140292793354034   0.013645516248806968   0.005583177406301449
-0.09140292793354034   0.013645516248806968   0.005583177406301449
-0.10675632444027588   0.0031238992468861533   0.004853277048652336
-0.10675632444027588   0.0031238992468861533   0.004853277048652336
-0.10675632444027588   0.0031238992468861533   0.004853277048652336
-0.10675632444027588   0.0031238992468861533   0.004853277048652336
0.10793341429904035   0.00990289094822564   0.008907467967838312
0.10793341429904035   0.00990289094822564   0.008907467967838312
0.10793341429904035   0.00990289094822564   0.008907467967838312
0.10793341429904035   0.00990289094822564   0.008907467967838312
0.03898362692631963   -0.01702122611369244   -0.005839664751349901
0.03898362692631963   -0.01702122611369244   -0.005839664751349901
0.03898362692631963   -0.01702122611369244   -0.005839664751349901
0.03898362692631963   -0.01702122611369244   -0.005839664751349901
0.04739173929156542   -0.0003890010026732886   0.006361843931645832
0.04739173929156542   -0.0003890010026732886   0.006361843931645832
0.04739173929156542   -0.0003890010026732886   0.006361843931645832
0.04739173929156542   -0.0003890010026732886   0.006361843931645832
0.1094569911731908   -0.0016742760907444837   -0.007487898602967342
0.1094569911731908   -0.0016742760907444837   -0.007487898602967342
0.1094569911731908   -0.0016742760907444837   -0.007487898602967342
0.1094569911731908   -0.0016742760907444837   -0.007487898602967342
0.07127884457730632   -0.002867375781959742   -0.006665477025084118
0.07127884457730632   -0.002867375781959742   -0.006665477025084118
0.07127884457730632   -0.002867375781959742   -0.006665477025084118
0.07127884457730632   -0.002867375781959742   -0.006665477025084118
0.11553987550407842   0.01351558903803768   0.007736657922687679
0.11553987550407842   0.01351558903803768   0.007736657922687679
0.11553987550407842   0.01351558903803768   0.007736657922687679
0.11553987550407842   0.01351558903803768   0.007736657922687679
0.04176107235009178   -0.015126648742042738   -0.007053843036351929
0.04176107235009178   -0.015126648742042738   -0.007053843036351929
0.04176107235009178   -0.015126648742042738   -0.007053843036351929
0.04176107235009178   -0.015126648742042738   -0.007053843036351929
0.050515146339052096   0.001627956221357054   0.005211466675966417
0.050515146339052096   0.001627956221357054   0.005211466675966417
0.050515146339052096   0.001627956221357054   0.005211466675966417
0.050515146339052096   0.001627956221357054   0.005211466675966417
0.11542598561029752   0.0006021860556773111   -0.009331636950624406
0.11542598561029752   0.0006021860556773111   -0.009331636950624406
0.11542598561029752   0.0006021860556773111   -0.009331636950624406
0.11542598561029752   0.0006021860556773111   -0.009331636950624406
0.07760979578265431   -0.00043581071118904344   -0.004098982468914425
0.07760979578265431   -0.00043581071118904344   -0.004098982468914425
0.07760979578265431   -0.00043581071118904344   -0.004098982468914425
0.07760979578265431   -0.00043581071118904344   -0.004098982468914425
0.12155140302265643   0.015977034546878283   0.005920601619968216
0.12155140302265643   0.015977034546878283   0.005920601619968216
0.12155140302265643   0.015977034546878283   0.005920601619968216
0.12155140302265643   0.015977034546878283   0.005920601619968216
0.04485127312147419   -0.013285348075063073   -0.008194595115502992
0.04485127312147419   -0.013285348075063073   -0.008194595115502992
0.04485127312147419   -0.013285348075063073   -0.008194595115502992
0.04485127312147419   -0.013285348075063073   -0.008194595115502992
0.05363882458912869   0.006131218695597748   0.004515576469015279
0.05363882458912869   0.006131218695597748   0.004515576469015279
0.05363882458912869   0.006131218695597748   0.004515576469015279
0.05363882458912869   0.006131218695597748   0.004515576469015279
0.1233144403179639   0.0065262255110254755   -0.01003335935258185
0.1233144403179639   0.0065262255110254755   -0.01003335935258185
0.1233144403179639   0.0065262255110254755   -0.01003335935258185
0.1233144403179639   0.0065262255110254755   -0.01003335935258185
0.08125926774750075   0.0025720443122043864   -0.0019367375206610334
0.08125926774750075   0.0025720443122043864   -0.0019367375206610334
0.08125926774750075   0.0025720443122043864   -0.0019367375206610334
0.08125926774750075   0.0025720443122043864   -0.0019367375206610334
0.04615392857638646   0.005665446163455904   0.00732517122183588
0.04615392857638646   0.005665446163455904   0.00732517122183588
0.04615392857638646   0.005665446163455904   0.00732517122183588
0.04615392857638646   0.005665446163455904   0.00732517122183588
-0.0235132479110623   -0.01591967028787208   -0.003095378804146507
-0.0235132479110623   -0.01591967028787208   -0.003095378804146507
-0.0235132479110623   -0.01591967028787208   -0.003095378804146507
-0.0235132479110623   -0.01591967028787208   -0.003095378804146507
-0.017864871128457062   -0.0049118568168185234   0.002122944666233379
-0.017864871128457062   -0.0049118568168185234   0.002122944666233379
-0.017864871128457062   -0.0049118568168185234   0.002122944666233379
-0.017864871128457062   -0.0049118568168185234   0.002122944666233379
0.04619536629983391   0.0008200413535200592   -0.0008290633832045459
0.04619536629983391   0.0008200413535200592   -0.0008290633832045459
0.04619536629983391   0.0008200413535200592   -0.0008290633832045459
0.04619536629983391   0.0008200413535200592   -0.0008290633832045459
0.012128913781927545   -0.003164171431429822   -0.0027648824020784376
0.012128913781927545   -0.003164171431429822   -0.0027648824020784376
0.012128913781927545   -0.003164171431429822   -0.0027648824020784376
0.012128913781927545   -0.003164171431429822   -0.0027648824020784376
0.04939112707294279   0.009423925214488958   0.0065458566213709365
0.04939112707294279   0.009423925214488958   0.0065458566213709365
0.04939112707294279   0.009423925214488958   0.0065458566213709365
0.04939112707294279   0.009423925214488958   0.0065458566213709365
-0.020770674584939072   -0.013225783361160554   -0.004092146071834635
-0.020770674584939072   -0.013225783361160554   -0.004092146071834635
-0.020770674584939072   -0.013225783361160554   -0.004092146071834635
-0.020770674584939072   -0.013225783361160554   -0.004092146071834635
-0.0149688659057877   -0.0010901920353908114   0.0013186135437423402
-0.0149688659057877   -0.0010901920353908114   0.0013186135437423402
-0.0149688659057877   -0.0010901920353908114   0.0013186135437423402
-0.0149688659057877   -0.0010901920353908114   0.0013186135437423402
0.04966873883859125   0.004211971154385543   -0.0016045857593662825
0.04966873883859125   0.004211971154385543   -0.0016045857593662825
0.04966873883859125   0.004211971154385543   -0.0016045857593662825
0.04966873883859125   0.004211971154385543   -0.0016045857593662825
0.014901081655536394   -0.00016492741328845732   -0.0010886768538000344
0.014901081655536394   -0.00016492741328845732   -0.0010886768538000344
0.014901081655536394   -0.00016492741328845732   -0.0010886768538000344
0.014901081655536394   -0.00016492741328845732   -0.0010886768538000344
0.05299735369095496   0.013407850922147342   0.00584260873469045
0.05299735369095496   0.013407850922147342   0.00584260873469045
0.05299735369095496   0.013407850922147342   0.00584260873469045
0.05299735369095496   0.013407850922147342   0.00584260873469045
-0.018009809646815898   -0.009998400691815824   -0.004977896504973637
-0.018009809646815898   -0.009998400691815824   -0.004977896504973637
-0.018009809646815898   -0.009998400691815824   -0.004977896504973637
-0.018009809646815898   -0.009998400691815824   -0.004977896504973637
-0.0120973793950633   0.00339431562041685   0.0005232935060035643
-0.0120973793950633   0.00339431562041685   0.0005232935060035643
-0.0120973793950633   0.00339431562041685   0.0005232935060035643
-0.0120973793950633   0.00339431562041685   0.0005232935060035643
0.05270828741520336   0.008300193280609068   -0.002306083985622729
0.05270828741520336   0.008300193280609068   -0.002306083985622729
0.05270828741520336   0.008300193280609068   -0.002306083985622729
0.05270828741520336   0.008300193280609068   -0.002306083985622729
0.018444782699310873   0.0035610877982339664   0.0008830743976624955
0.018444782699310873   0.0035610877982339664   0.0008830743976624955
0.018444782699310873   0.0035610877982339664   0.0008830743976624955
0.018444782699310873   0.0035610877982339664   0.0008830743976624955
-0.018809213467651624   0.0013238963027309997   0.003181226822304275
-0.018809213467651624   0.0013238963027309997   0.003181226822304275
-0.018809213467651624   0.0013238963027309997   0.003181226822304275
-0.018809213467651624   0.0013238963027309997   0.003181226822304275
-0.08479327592303378   -0.014184558919581935   -0.0004905847037451345
-0.08479327592303378   -0.014184558919581935   -0.0004905847037451345
-0.08479327592303378   -0.014184558919581935   -0.0004905847037451345
-0.08479327592303378   -0.014184558919581935   -0.0004905847037451345
-0.08141563811977909   -0.008719630242898636   -0.001965003977683785
-0.08141563811977909   -0.008719630242898636   -0.001965003977683785
-0.08141563811977909   -0.008719630242898636   -0.001965003977683785
-0.08141563811977909   -0.008719630242898636   -0.001965003977683785
-0.016359929637370457   0.002680480330567991   0.0020553149742798755
-0.016359929637370457   0.002680480330567991   0.0020553149742798755
-0.016359929637370457   0.002680480330567991   0.0020553149742798755
-0.016359929637370457   0.002680480330567991   0.0020553149742798755
-0.0504259102193695   -0.004294662706369128   -0.0017432981859584762
-0.0504259102193695   -0.004294662706369128   -0.0017432981859584762
-0.0504259102193695   -0.004294662706369128   -0.0017432981859584762
-0.0504259102193695   -0.004294662706369128   -0.0017432981859584762
-0.01576150874577491   0.005291480316668786   0.0024364194461568172
-0.01576150874577491   0.005291480316668786   0.0024364194461568172
-0.01576150874577491   0.005291480316668786   0.0024364194461568172
-0.01576150874577491   0.005291480316668786   0.0024364194461568172
-0.08180380297032609   -0.01112037418795218   -0.0015050842853653367
-0.08180380297032609   -0.01112037418795218   -0.0015050842853653367
-0.08180380297032609   -0.01112037418795218   -0.0015050842853653367
-0.08180380297032609   -0.01112037418795218   -0.0015050842853653367
-0.07821298070054979   -0.004525802470310904   -0.0026480766742158542
-0.07821298070054979   -0.004525802470310904   -0.0026480766742158542
-0.07821298070054979   -0.004525802470310904   -0.0026480766742158542
-0.07821298070054979   -0.004525802470310904   -0.0026480766742158542
-0.013547461167901717   0.006114826594980412   0.0012206186028010284
-0.013547461167901717   0.006114826594980412   0.0012206186028010284
-0.013547461167901717   0.006114826594980412   0.0012206186028010284
-0.013547461167901717   0.006114826594980412   0.0012206186028010284
-0.04718721576393212   -0.0007931850663259812   -1.680289297425336e-05
-0.04718721576393212   -0.0007931850663259812   -1.680289297425336e-05
-0.04718721576393212   -0.0007931850663259812   -1.680289297425336e-05
-0.04718721576393212   -0.0007931850663259812   -1.680289297425336e-05
-0.012818857101182482   0.00939860890890104   0.0015798566224765657
-0.012818857101182482   0.00939860890890104   0.0015798566224765657
-0.012818857101182482   0.00939860890890104   0.0015798566224765657
-0.012818857101182482   0.00939860890890104   0.0015798566224765657
-0.07874975792795105   -0.007617757944913579   -0.002240007336619581
-0.07874975792795105   -0.007617757944913579   -0.002240007336619581
-0.07874975792795105   -0.007617757944913579   -0.002240007336619581
-0.07874975792795105   -0.007617757944913579   -0.002240007336619581
-0.07522499858629622   -0.0003313093176878397   -0.0034449559419895293
-0.07522499858629622   -0.0003313093176878397   -0.0034449559419895293
-0.07522499858629622   -0.0003313093176878397   -0.0034449559419895293
-0.07522499858629622   -0.0003313093176878397   -0.0034449559419895293
-0.010885848548658346   0.009607239587853455   0.0003680237705917292
-0.010885848548658346   0.009607239587853455   0.0003680237705917292
-0.010885848548658346   0.009607239587853455   0.0003680237705917292
-0.010885848548658346   0.009607239587853455   0.0003680237705917292
-0.044225659910038205   0.0026986887738212027   0.00161917135660628
-0.044225659910038205   0.0026986887738212027   0.00161917135660628
-0.044225659910038205   0.0026986887738212027   0.00161917135660628
-0.044225659910038205   0.0026986887738212027   0.00161917135660628
-0.08266445435926723   -0.0029668288562431436   -0.001064206948250217
-0.08266445435926723   -0.0029668288562431436   -0.001064206948250217
-0.08266445435926723   -0.0029668288562431436   -0.001064206948250217
-0.08266445435926723   -0.0029668288562431436   -0.001064206948250217
-0.14525889439933243   -0.011723897971908488   0.002423160124223986
-0.14525889439933243   -0.011723897971908488   0.002423160124223986
-0.14525889439933243   -0.011723897971908488   0.002423160124223986
-0.14525889439933243   -0.011723897971908488   0.002423160124223986
-0.14391372777610537   -0.012429081296101003   -0.005863314178889256
-0.14391372777610537   -0.012429081296101003   -0.005863314178889256
-0.14391372777610537   -0.012429081296101003   -0.005863314178889256
-0.14391372777610537   -0.012429081296101003   -0.005863314178889256
-0.07712289698932023   0.005748890470665551   0.005030180961047072
-0.07712289698932023   0.005748890470665551   0.005030180961047072
-0.07712289698932023   0.005748890470665551   0.005030180961047072
-0.07712289698932023   0.005748890470665551   0.005030180961047072
-0.11146562027178773   -0.0047202247682980765   -0.0006254626912014722
-0.11146562027178773   -0.0047202247682980765   -0.0006254626912014722
-0.11146562027178773   -0.0047202247682980765   -0.0006254626912014722
-0.11146562027178773   -0.0047202247682980765   -0.0006254626912014722
-0.079358010568832   0.001312854739969848   -0.0017093512058160539
-0.079358010568832   0.001312854739969848   -0.0017093512058160539
-0.079358010568832   0.001312854739969848   -0.0017093512058160539
-0.079358010568832   0.001312854739969848   -0.0017093512058160539
-0.14161958969803734   -0.007934021066847582   0.0011123159821985074
-0.14161958969803734   -0.007934021066847582   0.0011123159821985074
-0.14161958969803734   -0.007934021066847582   0.0011123159821985074
-0.14161958969803734   -0.007934021066847582   0.0011123159821985074
-0.13967013660260122   -0.008357053949003976   -0.006488355827275454
-0.13967013660260122   -0.008357053949003976   -0.006488355827275454
-0.13967013660260122   -0.008357053949003976   -0.006488355827275454
-0.13967013660260122   -0.008357053949003976   -0.006488355827275454
-0.07417021517160352   0.008995200323529774   0.004044748176675573
-0.07417021517160352   0.008995200323529774   0.004044748176675573
-0.07417021517160352   0.008995200323529774   0.004044748176675573
-0.07417021517160352   0.008995200323529774   0.004044748176675573
-0.10708662743406387   -0.0008647682932111482   0.0011276712687616096
-0.10708662743406387   -0.0008647682932111482   0.0011276712687616096
-0.10708662743406387   -0.0008647682932111482   0.0011276712687616096
-0.10708662743406387   -0.0008647682932111482   0.0011276712687616096
-0.07626996369744429   0.005107410809735584   -0.002566204938734556
-0.07626996369744429   0.005107410809735584   -0.002566204938734556
-0.07626996369744429   0.005107410809735584   -0.002566204938734556
-0.07626996369744429   0.005107410809735584   -0.002566204938734556
-0.1374097987890258   -0.004308675147475228   0.0007649544390728518
-0.1374097987890258   -0.004308675147475228   0.0007649544390728518
-0.1374097987890258   -0.004308675147475228   0.0007649544390728518
-0.1374097987890258   -0.004308675147475228   0.0007649544390728518
-0.1358817883214329   -0.00398234054206046   -0.006838166029450546
-0.1358817883214329   -0.00398234054206046   -0.006838166029450546
-0.1358817883214329   -0.00398234054206046   -0.006838166029450546
-0.1358817883214329   -0.00398234054206046   -0.006838166029450546
-0.07131133634312925   0.01251734782235878   0.0032746981337992516
-0.07131133634312925   0.01251734782235878   0.0032746981337992516
-0.07131133634312925   0.01251734782235878   0.0032746981337992516
-0.07131133634312925   0.01251734782235878   0.0032746981337992516
-0.10429618332775506   0.002394298296756775   0.002626634125939128
-0.10429618332775506   0.002394298296756775   0.002626634125939128
-0.10429618332775506   0.002394298296756775   0.002626634125939128
-0.10429618332775506   0.002394298296756775   0.002626634125939128
-0.14567110298403024   -0.006360673174933447   -0.005001107596240244
-0.14567110298403024   -0.006360673174933447   -0.005001107596240244
-0.14567110298403024   -0.006360673174933447   -0.005001107596240244
-0.14567110298403024   -0.006360673174933447   -0.005001107596240244
-0.2087844394343403   -0.0076957295368884   0.008596753360058051
-0.2087844394343403   -0.0076957295368884   0.008596753360058051
-0.2087844394343403   -0.0076957295368884   0.008596753360058051
-0.2087844394343403   -0.0076957295368884   0.008596753360058051
-0.2055295137750136   -0.014756366047071697   -0.006815771011078436
-0.2055295137750136   -0.014756366047071697   -0.006815771011078436
-0.2055295137750136   -0.014756366047071697   -0.006815771011078436
-0.2055295137750136   -0.014756366047071697   -0.006815771011078436
-0.13623137609730024   0.011288266283352666   0.00883109663568265
-0.13623137609730024   0.011288266283352666   0.00883109663568265
-0.13623137609730024   0.011288266283352666   0.00883109663568265
-0.13623137609730024   0.011288266283352666   0.00883109663568265
-0.16629106979809274   -0.002038593730762178   0.0021768541758091405
-0.16629106979809274   -0.002038593730762178   0.0021768541758091405
-0.16629106979809274   -0.002038593730762178   0.0021768541758091405
-0.16629106979809274   -0.002038593730762178   0.0021768541758091405
-0.14171978375867694   -0.0017465007659651678   -0.005576174621882452
-0.14171978375867694   -0.0017465007659651678   -0.005576174621882452
-0.14171978375867694   -0.0017465007659651678   -0.005576174621882452
-0.14171978375867694   -0.0017465007659651678   -0.005576174621882452
-0.19991026890485347   -0.0015907617889693304   0.008114849081618223
-0.19991026890485347   -0.0015907617889693304   0.008114849081618223
-0.19991026890485347   -0.0015907617889693304   0.008114849081618223
-0.19991026890485347   -0.0015907617889693304   0.008114849081618223
-0.19891209236250812   -0.012254926298291821   -0.00806218428547178
-0.19891209236250812   -0.012254926298291821   -0.00806218428547178
-0.19891209236250812   -0.012254926298291821   -0.00806218428547178
-0.19891209236250812   -0.012254926298291821   -0.00806218428547178
-0.13272746823285114   0.012825322986554713   0.007042609085916208
-0.13272746823285114   0.012825322986554713   0.007042609085916208
-0.13272746823285114   0.012825322986554713   0.007042609085916208
-0.13272746823285114   0.012825322986554713   0.007042609085916208
-0.16324672997572076   0.0007082502849517711   0.0035705979192351602
-0.16324672997572076   0.0007082502849517711   0.0035705979192351602
-0.16324672997572076   0.0007082502849517711   0.0035705979192351602
-0.16324672997572076   0.0007082502849517711   0.0035705979192351602
-0.1379248971707857   0.00027592256142219135   -0.0063951351786241
-0.1379248971707857   0.00027592256142219135   -0.0063951351786241
-0.1379248971707857   0.00027592256142219135   -0.0063951351786241
-0.1379248971707857   0.00027592256142219135   -0.0063951351786241
-0.19357576034107862   0.00043337721033636506   0.005931172313044292
-0.19357576034107862   0.00043337721033636506   0.005931172313044292
-0.19357576034107862   0.00043337721033636506   0.005931172313044292
-0.19357576034107862   0.00043337721033636506   0.005931172313044292
-0.1915654429480777   -0.00935209774880763   -0.009242377567234204
-0.1915654429480777   -0.00935209774880763   -0.009242377567234204
-0.1915654429480777   -0.00935209774880763   -0.009242377567234204
-0.1915654429480777   -0.00935209774880763   -0.009242377567234204
-0.12970286701603215   0.014088353443604998   0.005985746511887623
-0.12970286701603215   0.014088353443604998   0.005985746511887623
-0.12970286701603215   0.014088353443604998   0.005985746511887623
-0.12970286701603215   0.014088353443604998   0.005985746511887623
-0.15566857041008994   0.002946142065404056   0.005783833738740415
-0.15566857041008994   0.002946142065404056   0.005783833738740415
-0.15566857041008994   0.002946142065404056   0.005783833738740415
-0.15566857041008994   0.002946142065404056   0.005783833738740415
0.1760288088446979   0.013320840885572695   0.008825488326597516
0.1760288088446979   0.013320840885572695   0.008825488326597516
0.1760288088446979   0.013320840885572695   0.008825488326597516
0.1760288088446979   0.013320840885572695   0.008825488326597516
0.07681675765540785   -0.019787528466333703   -0.004269935551790473
0.07681675765540785   -0.019787528466333703   -0.004269935551790473
0.07681675765540785   -0.019787528466333703   -0.004269935551790473
0.07681675765540785   -0.019787528466333703   -0.004269935551790473
0.08494548769531468   -0.0038829234798856797   0.005980367929210459
0.08494548769531468   -0.0038829234798856797   0.005980367929210459
0.08494548769531468   -0.0038829234798856797   0.005980367929210459
0.08494548769531468   -0.0038829234798856797   0.005980367929210459
0.17756580207727055   0.0006233391692684817   -0.00654408567844497
0.17756580207727055   0.0006233391692684817   -0.00654408567844497
0.17756580207727055   0.0006233391692684817   -0.00654408567844497
0.17756580207727055   0.0006233391692684817   -0.00654408567844497
0.12133596692095608   -0.0032966465582801655   -0.009151371021644669
0.12133596692095608   -0.0032966465582801655   -0.009151371021644669
0.12133596692095608   -0.0032966465582801655   -0.009151371021644669
0.12133596692095608   -0.0032966465582801655   -0.009151371021644669
0.18344289989661505   0.01609452824336776   0.0073702143441772856
0.18344289989661505   0.01609452824336776   0.0073702143441772856
0.18344289989661505   0.01609452824336776   0.0073702143441772856
0.18344289989661505   0.01609452824336776   0.0073702143441772856
0.07964146746502357   -0.018781034964931644   -0.005641621737198623
0.07964146746502357   -0.018781034964931644   -0.005641621737198623
0.07964146746502357   -0.018781034964931644   -0.005641621737198623
0.07964146746502357   -0.018781034964931644   -0.005641621737198623
0.08796753268694367   -0.0020631472739408123   0.004800149324638833
0.08796753268694367   -0.0020631472739408123   0.004800149324638833
0.08796753268694367   -0.0020631472739408123   0.004800149324638833
0.08796753268694367   -0.0020631472739408123   0.004800149324638833
0.18308120728004143   0.002614431671665078   -0.008076415787261457
0.18308120728004143   0.002614431671665078   -0.008076415787261457
0.18308120728004143   0.002614431671665078   -0.008076415787261457
0.18308120728004143   0.002614431671665078   -0.008076415787261457
0.1284198037175982   -0.001203009764291909   -0.006284336643222727
0.1284198037175982   -0.001203009764291909   -0.006284336643222727
0.1284198037175982   -0.001203009764291909   -0.006284336643222727
0.1284198037175982   -0.001203009764291909   -0.006284336643222727
0.18891006672722382   0.01825149357770879   0.0054308195426067025
0.18891006672722382   0.01825149357770879   0.0054308195426067025
0.18891006672722382   0.01825149357770879   0.0054308195426067025
0.18891006672722382   0.01825149357770879   0.0054308195426067025
0.0826313203558382   -0.017207562063907618   -0.006736497540921694
0.0826313203558382   -0.017207562063907618   -0.006736497540921694
0.0826313203558382   -0.017207562063907618   -0.006736497540921694
0.0826313203558382   -0.017207562063907618   -0.006736497540921694
0.09072623744598582   0.0028570315416964545   0.004208873672751143
0.09072623744598582   0.0028570315416964545   0.004208873672751143
0.09072623744598582   0.0028570315416964545   0.004208873672751143
0.09072623744598582   0.0028570315416964545   0.004208873672751143
0.18994274997488628   0.008472634369686972   -0.00842251864826566
0.18994274997488628   0.008472634369686972   -0.00842251864826566
0.18994274997488628   0.008472634369686972   -0.00842251864826566
0.18994274997488628   0.008472634369686972   -0.00842251864826566
0.13075813746089293   0.0016751077835703773   -0.004354281576052894
0.13075813746089293   0.0016751077835703773   -0.004354281576052894
0.13075813746089293   0.0016751077835703773   -0.004354281576052894
0.13075813746089293   0.0016751077835703773   -0.004354281576052894
0.0849119199937293   0.008056757157176712   0.008361590516305861
0.0849119199937293   0.008056757157176712   0.008361590516305861
0.0849119199937293   0.008056757157176712   0.008361590516305861
0.0849119199937293   0.008056757157176712   0.008361590516305861
-0.012158087423157285   -0.023999250665365568   -0.0024882800737542603
-0.012158087423157285   -0.023999250665365568   -0.0024882800737542603
-0.012158087423157285   -0.023999250665365568   -0.0024882800737542603
-0.012158087423157285   -0.023999250665365568   -0.0024882800737542603
-0.005326068966408616   -0.00893045293188987   0.001939900455980672
-0.005326068966408616   -0.00893045293188987   0.001939900455980672
-0.005326068966408616   -0.00893045293188987   0.001939900455980672
-0.005326068966408616   -0.00893045293188987   0.001939900455980672
0.08403553478127226   -0.002986371406280372   0.0005340512853930762
0.08403553478127226   -0.002986371406280372   0.0005340512853930762
0.08403553478127226   -0.002986371406280372   0.0005340512853930762
0.08403553478127226   -0.002986371406280372   0.0005340512853930762
0.0368309995856837   -0.006270327922994777   -0.004181695328467174
0.0368309995856837   -0.006270327922994777   -0.004181695328467174
0.0368309995856837   -0.006270327922994777   -0.004181695328467174
0.0368309995856837   -0.006270327922994777   -0.004181695328467174
0.08818612450945358   0.01087010948007524   0.007430519039944025
0.08818612450945358   0.01087010948007524   0.007430519039944025
0.08818612450945358   0.01087010948007524   0.007430519039944025
0.08818612450945358   0.01087010948007524   0.007430519039944025
-0.009157325956043873   -0.022467601079699424   -0.003679236344386063
-0.009157325956043873   -0.022467601079699424   -0.003679236344386063
-0.009157325956043873   -0.022467601079699424   -0.003679236344386063
-0.009157325956043873   -0.022467601079699424   -0.003679236344386063
-0.0022535400579373763   -0.0056252916373810725   0.0011313791783215995
-0.0022535400579373763   -0.0056252916373810725   0.0011313791783215995
-0.0022535400579373763   -0.0056252916373810725   0.0011313791783215995
-0.0022535400579373763   -0.0056252916373810725   0.0011313791783215995
0.087229469259567   -0.00048791725073477413   -0.0004653978354505631
0.087229469259567   -0.00048791725073477413   -0.0004653978354505631
0.087229469259567   -0.00048791725073477413   -0.0004653978354505631
0.087229469259567   -0.00048791725073477413   -0.0004653978354505631
0.03943668916441046   -0.004226286890975341   -0.00267695027693499
0.03943668916441046   -0.004226286890975341   -0.00267695027693499
0.03943668916441046   -0.004226286890975341   -0.00267695027693499
0.03943668916441046   -0.004226286890975341   -0.00267695027693499
0.09160330264471432   0.014252476196161401   0.0066633756433899325
0.09160330264471432   0.014252476196161401   0.0066633756433899325
0.09160330264471432   0.014252476196161401   0.0066633756433899325
0.09160330264471432   0.014252476196161401   0.0066633756433899325
-0.0064221458521077045   -0.02016045749330152   -0.005176483936609594
-0.0064221458521077045   -0.02016045749330152   -0.005176483936609594
-0.0064221458521077045   -0.02016045749330152   -0.005176483936609594
-0.0064221458521077045   -0.02016045749330152   -0.005176483936609594
0.0001683858023388007   -0.0016823809377033393   0.0003209465356797999
0.0001683858023388007   -0.0016823809377033393   0.0003209465356797999
0.0001683858023388007   -0.0016823809377033393   0.0003209465356797999
0.0001683858023388007   -0.0016823809377033393   0.0003209465356797999
0.08959158598309983   0.0027463165855871295   -0.0013536686855704196
0.08959158598309983   0.0027463165855871295   -0.0013536686855704196
0.08959158598309983   0.0027463165855871295   -0.0013536686855704196
0.08959158598309983   0.0027463165855871295   -0.0013536686855704196
0.04280763646879079   -0.0011401660079984784   -0.0010161269757041746
0.04280763646879079   -0.0011401660079984784   -0.0010161269757041746
0.04280763646879079   -0.0011401660079984784   -0.0010161269757041746
0.04280763646879079   -0.0011401660079984784   -0.0010161269757041746
-0.005494140849977516   0.0026165212176117924   0.0042156809091672244
-0.005494140849977516   0.0026165212176117924   0.0042156809091672244
-0.005494140849977516   0.0026165212176117924   0.0042156809091672244
-0.005494140849977516   0.0026165212176117924   0.0042156809091672244
-0.10037102469087024   -0.02972258295568691   -0.0018934038945721547
-0.10037102469087024   -0.02972258295568691   -0.0018934038945721547
-0.10037102469087024   -0.02972258295568691   -0.0018934038945721547
-0.10037102469087024   -0.02972258295568691   -0.0018934038945721547
-0.09366894177937868   -0.013623069073863726   -0.0021534199058704734
-0.09366894177937868   -0.013623069073863726   -0.0021534199058704734
-0.09366894177937868   -0.013623069073863726   -0.0021534199058704734
-0.09366894177937868   -0.013623069073863726   -0.0021534199058704734
-0.0052249233331227805   -0.008485855989004733   0.0020010316795247107
-0.0052249233331227805   -0.008485855989004733   0.0020010316795247107
-0.0052249233331227805   -0.008485855989004733   0.0020010316795247107
-0.0052249233331227805   -0.008485855989004733   0.0020010316795247107
-0.051387553007356326   -0.011637769741414622   -0.0036861816857055476
-0.051387553007356326   -0.011637769741414622   -0.0036861816857055476
-0.051387553007356326   -0.011637769741414622   -0.0036861816857055476
-0.051387553007356326   -0.011637769741414622   -0.0036861816857055476
-0.0020731347512043634   0.00581800002747304   0.003456118572639025
-0.0020731347512043634   0.00581800002747304   0.003456118572639025
-0.0020731347512043634   0.00581800002747304   0.003456118572639025
-0.0020731347512043634   0.00581800002747304   0.003456118572639025
-0.096583482504551   -0.02768967723359666   -0.002659515371999035
-0.096583482504551   -0.02768967723359666   -0.002659515371999035
-0.096583482504551   -0.02768967723359666   -0.002659515371999035
-0.096583482504551   -0.02768967723359666   -0.002659515371999035
-0.08984234825264921   -0.009964602336851246   -0.0028816389716097702
-0.08984234825264921   -0.009964602336851246   -0.0028816389716097702
-0.08984234825264921   -0.009964602336851246   -0.0028816389716097702
-0.08984234825264921   -0.009964602336851246   -0.0028816389716097702
-0.002377903571130518   -0.006071581977968063   0.0009558519529428806
-0.002377903571130518   -0.006071581977968063   0.0009558519529428806
-0.002377903571130518   -0.006071581977968063   0.0009558519529428806
-0.002377903571130518   -0.006071581977968063   0.0009558519529428806
-0.04767252290659099   -0.008982046374842484   -0.0019849848500942263
-0.04767252290659099   -0.008982046374842484   -0.0019849848500942263
-0.04767252290659099   -0.008982046374842484   -0.0019849848500942263
-0.04767252290659099   -0.008982046374842484   -0.0019849848500942263
0.0010513640017364807   0.009330491230174839   0.0027001166091349714
0.0010513640017364807   0.009330491230174839   0.0027001166091349714
0.0010513640017364807   0.009330491230174839   0.0027001166091349714
0.0010513640017364807   0.009330491230174839   0.0027001166091349714
-0.09323472573487203   -0.025329785454351123   -0.004478343265223243
-0.09323472573487203   -0.025329785454351123   -0.004478343265223243
-0.09323472573487203   -0.025329785454351123   -0.004478343265223243
-0.09323472573487203   -0.025329785454351123   -0.004478343265223243
-0.08712941409115289   -0.006451620490438332   -0.0036827110783649946
-0.08712941409115289   -0.006451620490438332   -0.0036827110783649946
-0.08712941409115289   -0.006451620490438332   -0.0036827110783649946
-0.08712941409115289   -0.006451620490438332   -0.0036827110783649946
-0.0005313122376478305   -0.004078082405749484   -0.000781842196207211
-0.0005313122376478305   -0.004078082405749484   -0.000781842196207211
-0.0005313122376478305   -0.004078082405749484   -0.000781842196207211
-0.0005313122376478305   -0.004078082405749484   -0.000781842196207211
-0.044957389366629644   -0.006471785266451535   -0.000873503757263179
-0.044957389366629644   -0.006471785266451535   -0.000873503757263179
-0.044957389366629644   -0.006471785266451535   -0.000873503757263179
-0.044957389366629644   -0.006471785266451535   -0.000873503757263179
-0.09445641059316164   -0.002047180423218744   4.26406150193237e-06
-0.09445641059316164   -0.002047180423218744   4.26406150193237e-06
-0.09445641059316164   -0.002047180423218744   4.26406150193237e-06
-0.09445641059316164   -0.002047180423218744   4.26406150193237e-06
-0.1893628177823998   -0.03195515002130214   -0.0014183749959571675
-0.1893628177823998   -0.03195515002130214   -0.0014183749959571675
-0.1893628177823998   -0.03195515002130214   -0.0014183749959571675
-0.1893628177823998   -0.03195515002130214   -0.0014183749959571675
-0.18237884897285342   -0.017541194122366374   -0.006164290020571694
-0.18237884897285342   -0.017541194122366374   -0.006164290020571694
-0.18237884897285342   -0.017541194122366374   -0.006164290020571694
-0.18237884897285342   -0.017541194122366374   -0.006164290020571694
-0.09147925954459563   -0.008881286276366385   0.004053208470546778
-0.09147925954459563   -0.008881286276366385   0.004053208470546778
-0.09147925954459563   -0.008881286276366385   0.004053208470546778
-0.09147925954459563   -0.008881286276366385   0.004053208470546778
-0.13825475216768957   -0.014200373788203142   -0.0025706697517409983
-0.13825475216768957   -0.014200373788203142   -0.0025706697517409983
-0.13825475216768957   -0.014200373788203142   -0.0025706697517409983
-0.13825475216768957   -0.014200373788203142   -0.0025706697517409983
-0.09022427530864384   0.0020099560744814525   -0.0005631127005421574
-0.09022427530864384   0.0020099560744814525   -0.0005631127005421574
-0.09022427530864384   0.0020099560744814525   -0.0005631127005421574
-0.09022427530864384   0.0020099560744814525   -0.0005631127005421574
-0.18364478357762307   -0.028443386842030547   -0.001591770324754241
-0.18364478357762307   -0.028443386842030547   -0.001591770324754241
-0.18364478357762307   -0.028443386842030547   -0.001591770324754241
-0.18364478357762307   -0.028443386842030547   -0.001591770324754241
-0.1768494252099368   -0.013769750730035824   -0.007100797052819124
-0.1768494252099368   -0.013769750730035824   -0.007100797052819124
-0.1768494252099368   -0.013769750730035824   -0.007100797052819124
-0.1768494252099368   -0.013769750730035824   -0.007100797052819124
-0.08780731509521958   -0.006087274231582299   0.0034161987102701167
-0.08780731509521958   -0.006087274231582299   0.0034161987102701167
-0.08780731509521958   -0.006087274231582299   0.0034161987102701167
-0.08780731509521958   -0.006087274231582299   0.0034161987102701167
-0.13247447547131191   -0.010577768068232695   -0.000709803932343705
-0.13247447547131191   -0.010577768068232695   -0.000709803932343705
-0.13247447547131191   -0.010577768068232695   -0.000709803932343705
-0.13247447547131191   -0.010577768068232695   -0.000709803932343705
-0.08639961400093304   0.005511547426960521   -0.0011441174768411578
-0.08639961400093304   0.005511547426960521   -0.0011441174768411578
-0.08639961400093304   0.005511547426960521   -0.0011441174768411578
-0.08639961400093304   0.005511547426960521   -0.0011441174768411578
-0.17847022449908745   -0.025581670583442687   -0.003392873645163985
-0.17847022449908745   -0.025581670583442687   -0.003392873645163985
-0.17847022449908745   -0.025581670583442687   -0.003392873645163985
-0.17847022449908745   -0.025581670583442687   -0.003392873645163985
-0.17246593080509484   -0.009838977170543575   -0.0073523323687546245
-0.17246593080509484   -0.009838977170543575   -0.0073523323687546245
-0.17246593080509484   -0.009838977170543575   -0.0073523323687546245
-0.17246593080509484   -0.009838977170543575   -0.0073523323687546245
-0.085718922171342   -0.004310538756750941   0.0012286667870027982
-0.085718922171342   -0.004310538756750941   0.0012286667870027982
-0.085718922171342   -0.004310538756750941   0.0012286667870027982
-0.085718922171342   -0.004310538756750941   0.0012286667870027982
-0.12955774130618394   -0.008389546222339152   -7.238948089469642e-05
-0.12955774130618394   -0.008389546222339152   -7.238948089469642e-05
-0.12955774130618394   -0.008389546222339152   -7.238948089469642e-05
-0.12955774130618394   -0.008389546222339152   -7.238948089469642e-05
-0.1846085902331529   -0.0054169898523895865   -0.00418539741863528
-0.1846085902331529   -0.0054169898523895865   -0.00418539741863528
-0.1846085902331529   -0.0054169898523895865   -0.00418539741863528
-0.1846085902331529   -0.0054169898523895865   -0.00418539741863528
-0.27859728860139016   -0.02253887845555462   0.00950344835632929
-0.27859728860139016   -0.02253887845555462   0.00950344835632929
-0.27859728860139016   -0.02253887845555462   0.00950344835632929
-0.27859728860139016   -0.02253887845555462   0.00950344835632929
-0.2702450914645229   -0.01844993994265314   -0.005846219127131336
-0.2702450914645229   -0.01844993994265314   -0.005846219127131336
-0.2702450914645229   -0.01844993994265314   -0.005846219127131336
-0.2702450914645229   -0.01844993994265314   -0.005846219127131336
-0.1747578956851884   0.005421369056366851   0.008977913239018821
-0.1747578956851884   0.005421369056366851   0.008977913239018821
-0.1747578956851884   0.005421369056366851   0.008977913239018821
-0.1747578956851884   0.005421369056366851   0.008977913239018821
-0.21678367429575135   -0.006795509492466614   0.001605946322801137
-0.21678367429575135   -0.006795509492466614   0.001605946322801137
-0.21678367429575135   -0.006795509492466614   0.001605946322801137
-0.21678367429575135   -0.006795509492466614   0.001605946322801137
-0.1785443467406142   0.00012738185933757612   -0.00466035484107887
-0.1785443467406142   0.00012738185933757612   -0.00466035484107887
-0.1785443467406142   0.00012738185933757612   -0.00466035484107887
-0.1785443467406142   0.00012738185933757612   -0.00466035484107887
-0.2658521178893836   -0.012549430225911255   0.010218139031823515
-0.2658521178893836   -0.012549430225911255   0.010218139031823515
-0.2658521178893836   -0.012549430225911255   0.010218139031823515
-0.2658521178893836   -0.012549430225911255   0.010218139031823515
-0.26121472314134536   -0.01567315384781732   -0.006962520177449751
-0.26121472314134536   -0.01567315384781732   -0.006962520177449751
-0.26121472314134536   -0.01567315384781732   -0.006962520177449751
-0.26121472314134536   -0.01567315384781732   -0.006962520177449751
-0.16933659343125634   0.008112555031351755   0.008581056079195565
-0.16933659343125634   0.008112555031351755   0.008581056079195565
-0.16933659343125634   0.008112555031351755   0.008581056079195565
-0.16933659343125634   0.008112555031351755   0.008581056079195565
-0.21195886179700515   -0.0027338029034943354   0.004474990675830215
-0.21195886179700515   -0.0027338029034943354   0.004474990675830215
-0.21195886179700515   -0.0027338029034943354   0.004474990675830215
-0.21195886179700515   -0.0027338029034943354   0.004474990675830215
-0.1732306440475409   0.0023006980102168798   -0.005077339981090881
-0.1732306440475409   0.0023006980102168798   -0.005077339981090881
-0.1732306440475409   0.0023006980102168798   -0.005077339981090881
-0.1732306440475409   0.0023006980102168798   -0.005077339981090881
-0.2571638946234307   -0.009704518925052467   0.007322987489356515
-0.2571638946234307   -0.009704518925052467   0.007322987489356515
-0.2571638946234307   -0.009704518925052467   0.007322987489356515
-0.2571638946234307   -0.009704518925052467   0.007322987489356515
-0.2518219331505513   -0.013222454816520679   -0.008449228654221645
-0.2518219331505513   -0.013222454816520679   -0.008449228654221645
-0.2518219331505513   -0.013222454816520679   -0.008449228654221645
-0.2518219331505513   -0.013222454816520679   -0.008449228654221645
-0.16551088393714325   0.011057163513788569   0.006526761286671005
-0.16551088393714325   0.011057163513788569   0.006526761286671005
-0.16551088393714325   0.011057163513788569   0.006526761286671005
-0.16551088393714325   0.011057163513788569   0.006526761286671005
-0.20157467751344646   0.0006750325778299912   0.0075157948517403615
-0.20157467751344646   0.0006750325778299912   0.0075157948517403615
-0.20157467751344646   0.0006750325778299912   0.0075157948517403615
-0.20157467751344646   0.0006750325778299912   0.0075157948517403615
0.23638395930245448   0.014582160999980547   0.008011310132734137
0.23638395930245448   0.014582160999980547   0.008011310132734137
0.23638395930245448   0.014582160999980547   0.008011310132734137
0.23638395930245448   0.014582160999980547   0.008011310132734137
0.11159946531957074   -0.020245181594048728   0.0012240531288306346
0.11159946531957074   -0.020245181594048728   0.0012240531288306346
0.11159946531957074   -0.020245181594048728   0.0012240531288306346
0.11159946531957074   -0.020245181594048728   0.0012240531288306346
0.11725353520432005   -0.008932616603521754   0.005988402330554357
0.11725353520432005   -0.008932616603521754   0.005988402330554357
0.11725353520432005   -0.008932616603521754   0.005988402330554357
0.11725353520432005   -0.008932616603521754   0.005988402330554357
0.23732220808967608   0.003127365834741852   -0.0022618111044016773
0.23732220808967608   0.003127365834741852   -0.0022618111044016773
0.23732220808967608   0.003127365834741852   -0.0022618111044016773
0.23732220808967608   0.003127365834741852   -0.0022618111044016773
0.16556004193883408   -0.004026802403314586   -0.010624443328936809
0.16556004193883408   -0.004026802403314586   -0.010624443328936809
0.16556004193883408   -0.004026802403314586   -0.010624443328936809
0.16556004193883408   -0.004026802403314586   -0.010624443328936809
0.2416110669128703   0.016002649201116353   0.006307199645194663
0.2416110669128703   0.016002649201116353   0.006307199645194663
0.2416110669128703   0.016002649201116353   0.006307199645194663
0.2416110669128703   0.016002649201116353   0.006307199645194663
0.11395590339162448   -0.020816672959397653   0.0013842996229524382
0.11395590339162448   -0.020816672959397653   0.0013842996229524382
0.11395590339162448   -0.020816672959397653   0.0013842996229524382
0.11395590339162448   -0.020816672959397653   0.0013842996229524382
0.11927185218831463   -0.007629191405352932   0.0045148239193753305
0.11927185218831463   -0.007629191405352932   0.0045148239193753305
0.11927185218831463   -0.007629191405352932   0.0045148239193753305
0.11927185218831463   -0.007629191405352932   0.0045148239193753305
0.24108911472978853   0.0045757315678746704   -0.0011464395146687113
0.24108911472978853   0.0045757315678746704   -0.0011464395146687113
0.24108911472978853   0.0045757315678746704   -0.0011464395146687113
0.24108911472978853   0.0045757315678746704   -0.0011464395146687113
0.17199504403473453   -0.0031031840107551764   -0.007368510612347348
0.17199504403473453   -0.0031031840107551764   -0.007368510612347348
0.17199504403473453   -0.0031031840107551764   -0.007368510612347348
0.17199504403473453   -0.0031031840107551764   -0.007368510612347348
0.24475580642569947   0.017430987304000903   0.00433176322875967
0.24475580642569947   0.017430987304000903   0.00433176322875967
0.24475580642569947   0.017430987304000903   0.00433176322875967
0.24475580642569947   0.017430987304000903   0.00433176322875967
0.11629357149205165   -0.01979603614183121   0.0017902651745387837
0.11629357149205165   -0.01979603614183121   0.0017902651745387837
0.11629357149205165   -0.01979603614183121   0.0017902651745387837
0.11629357149205165   -0.01979603614183121   0.0017902651745387837
0.12229976941567762   -0.0025455386205568177   0.0041295969597163525
0.12229976941567762   -0.0025455386205568177   0.0041295969597163525
0.12229976941567762   -0.0025455386205568177   0.0041295969597163525
0.12229976941567762   -0.0025455386205568177   0.0041295969597163525
0.24509521402865847   0.008100449921035764   -0.0006846316311185045
0.24509521402865847   0.008100449921035764   -0.0006846316311185045
0.24509521402865847   0.008100449921035764   -0.0006846316311185045
0.24509521402865847   0.008100449921035764   -0.0006846316311185045
0.17243906265416867   -0.0011983374484391754   -0.0056595977766309945
0.17243906265416867   -0.0011983374484391754   -0.0056595977766309945
0.17243906265416867   -0.0011983374484391754   -0.0056595977766309945
0.17243906265416867   -0.0011983374484391754   -0.0056595977766309945
0.11801916819301914   0.004291111377521119   0.00878627452450275
0.11801916819301914   0.004291111377521119   0.00878627452450275
0.11801916819301914   0.004291111377521119   0.00878627452450275
0.11801916819301914   0.004291111377521119   0.00878627452450275
0.0035588318469881083   -0.0387706291252611   0.0034487547899491964
0.0035588318469881083   -0.0387706291252611   0.0034487547899491964
0.0035588318469881083   -0.0387706291252611   0.0034487547899491964
0.0035588318469881083   -0.0387706291252611   0.0034487547899491964
0.010710918217235983   -0.01706357368613362   0.0034726564501707828
0.010710918217235983   -0.01706357368613362   0.0034726564501707828
0.010710918217235983   -0.01706357368613362   0.0034726564501707828
0.010710918217235983   -0.01706357368613362   0.0034726564501707828
0.11514001171490353   -0.016244192038964503   0.002732360318914037
0.11514001171490353   -0.016244192038964503   0.002732360318914037
0.11514001171490353   -0.016244192038964503   0.002732360318914037
0.11514001171490353   -0.016244192038964503   0.002732360318914037
0.05991222429130426   -0.01656101824492528   -0.00640331934575018
0.05991222429130426   -0.01656101824492528   -0.00640331934575018
0.05991222429130426   -0.01656101824492528   -0.00640331934575018
0.05991222429130426   -0.01656101824492528   -0.00640331934575018
0.12045986538300636   0.005674309817567377   0.007413126802897739
0.12045986538300636   0.005674309817567377   0.007413126802897739
0.12045986538300636   0.005674309817567377   0.007413126802897739
0.12045986538300636   0.005674309817567377   0.007413126802897739
0.006801190622030381   -0.03757194946976676   0.004432394257775913
0.006801190622030381   -0.03757194946976676   0.004432394257775913
0.006801190622030381   -0.03757194946976676   0.004432394257775913
0.006801190622030381   -0.03757194946976676   0.004432394257775913
0.01350951472847473   -0.014655518946010495   0.0024165482192554447
0.01350951472847473   -0.014655518946010495   0.0024165482192554447
0.01350951472847473   -0.014655518946010495   0.0024165482192554447
0.01350951472847473   -0.014655518946010495   0.0024165482192554447
0.11756937960542123   -0.01491421654836323   0.0032874861479186713
0.11756937960542123   -0.01491421654836323   0.0032874861479186713
0.11756937960542123   -0.01491421654836323   0.0032874861479186713
0.11756937960542123   -0.01491421654836323   0.0032874861479186713
0.06221200812848061   -0.015585410972791492   -0.003210014192673284
0.06221200812848061   -0.015585410972791492   -0.003210014192673284
0.06221200812848061   -0.015585410972791492   -0.003210014192673284
0.06221200812848061   -0.015585410972791492   -0.003210014192673284
0.12275470055754852   0.007975152873325023   0.0063247214868668985
0.12275470055754852   0.007975152873325023   0.0063247214868668985
0.12275470055754852   0.007975152873325023   0.0063247214868668985
0.12275470055754852   0.007975152873325023   0.0063247214868668985
0.009673994443101916   -0.03619508770094546   0.0047785155473268285
0.009673994443101916   -0.03619508770094546   0.0047785155473268285
0.009673994443101916   -0.03619508770094546   0.0047785155473268285
0.009673994443101916   -0.03619508770094546   0.0047785155473268285
0.017856692101946153   -0.011028805648915374   0.0015056140230784078
0.017856692101946153   -0.011028805648915374   0.0015056140230784078
0.017856692101946153   -0.011028805648915374   0.0015056140230784078
0.017856692101946153   -0.011028805648915374   0.0015056140230784078
0.12018690235447357   -0.012923679618541371   0.0039434026516811365
0.12018690235447357   -0.012923679618541371   0.0039434026516811365
0.12018690235447357   -0.012923679618541371   0.0039434026516811365
0.12018690235447357   -0.012923679618541371   0.0039434026516811365
0.06653278988154468   -0.01331315388476834   0.0005382347757031886
0.06653278988154468   -0.01331315388476834   0.0005382347757031886
0.06653278988154468   -0.01331315388476834   0.0005382347757031886
0.06653278988154468   -0.01331315388476834   0.0005382347757031886
0.010546199211542706   -0.006031220748998061   0.005646183236459143
0.010546199211542706   -0.006031220748998061   0.005646183236459143
0.010546199211542706   -0.006031220748998061   0.005646183236459143
0.010546199211542706   -0.006031220748998061   0.005646183236459143
-0.10495488969561902   -0.06543348501875386   0.005388387330705603
-0.10495488969561902   -0.06543348501875386   0.005388387330705603
-0.10495488969561902   -0.06543348501875386   0.005388387330705603
-0.10495488969561902   -0.06543348501875386   0.005388387330705603
-0.0938563295707948   -0.026605763779508372   3.2898964678543165e-05
-0.0938563295707948   -0.026605763779508372   3.2898964678543165e-05
-0.0938563295707948   -0.026605763779508372   3.2898964678543165e-05
-0.0938563295707948   -0.026605763779508372   3.2898964678543165e-05
0.004974050679506068   -0.044800982755097835   0.002525727830485441
0.004974050679506068   -0.044800982755097835   0.002525727830485441
0.004974050679506068   -0.044800982755097835   0.002525727830485441
0.004974050679506068   -0.044800982755097835   0.002525727830485441
-0.04701589246311903   -0.035947354773912935   -0.007661383677687554
-0.04701589246311903   -0.035947354773912935   -0.007661383677687554
-0.04701589246311903   -0.035947354773912935   -0.007661383677687554
-0.04701589246311903   -0.035947354773912935   -0.007661383677687554
0.013478077239497689   -0.004247072196097036   0.0044919500714427265
0.013478077239497689   -0.004247072196097036   0.0044919500714427265
0.013478077239497689   -0.004247072196097036   0.0044919500714427265
0.013478077239497689   -0.004247072196097036   0.0044919500714427265
-0.10025558830744813   -0.06505490651517076   0.006485748017075023
-0.10025558830744813   -0.06505490651517076   0.006485748017075023
-0.10025558830744813   -0.06505490651517076   0.006485748017075023
-0.10025558830744813   -0.06505490651517076   0.006485748017075023
-0.08956260234079064   -0.023794971771870566   -0.0004763982469018432
-0.08956260234079064   -0.023794971771870566   -0.0004763982469018432
-0.08956260234079064   -0.023794971771870566   -0.0004763982469018432
-0.08956260234079064   -0.023794971771870566   -0.0004763982469018432
0.007945562074287331   -0.04352866036656018   0.0034699263688686196
0.007945562074287331   -0.04352866036656018   0.0034699263688686196
0.007945562074287331   -0.04352866036656018   0.0034699263688686196
0.007945562074287331   -0.04352866036656018   0.0034699263688686196
-0.042611332685232   -0.03444299885433071   -0.0026910184561845865
-0.042611332685232   -0.03444299885433071   -0.0026910184561845865
-0.042611332685232   -0.03444299885433071   -0.0026910184561845865
-0.042611332685232   -0.03444299885433071   -0.0026910184561845865
0.016161694603734126   -0.001958705836397302   0.002980634485939713
0.016161694603734126   -0.001958705836397302   0.002980634485939713
0.016161694603734126   -0.001958705836397302   0.002980634485939713
0.016161694603734126   -0.001958705836397302   0.002980634485939713
-0.09593735451828753   -0.06352354595008329   0.007378415043827908
-0.09593735451828753   -0.06352354595008329   0.007378415043827908
-0.09593735451828753   -0.06352354595008329   0.007378415043827908
-0.09593735451828753   -0.06352354595008329   0.007378415043827908
-0.08246166216463409   -0.020582644420798313   -0.0013743023444650947
-0.08246166216463409   -0.020582644420798313   -0.0013743023444650947
-0.08246166216463409   -0.020582644420798313   -0.0013743023444650947
-0.08246166216463409   -0.020582644420798313   -0.0013743023444650947
0.012567214162789643   -0.04047229862756081   0.004501717305941302
0.012567214162789643   -0.04047229862756081   0.004501717305941302
0.012567214162789643   -0.04047229862756081   0.004501717305941302
0.012567214162789643   -0.04047229862756081   0.004501717305941302
-0.03695850717748794   -0.03149347296157571   0.002343936457425544
-0.03695850717748794   -0.03149347296157571   0.002343936457425544
-0.03695850717748794   -0.03149347296157571   0.002343936457425544
-0.03695850717748794   -0.03149347296157571   0.002343936457425544
-0.09484918735081342   -0.012226721773831384   0.002710135809810218
-0.09484918735081342   -0.012226721773831384   0.002710135809810218
-0.09484918735081342   -0.012226721773831384   0.002710135809810218
-0.09484918735081342   -0.012226721773831384   0.002710135809810218
-0.228051425806008   -0.10019569356197824   -0.0035045290115394093
-0.228051425806008   -0.10019569356197824   -0.0035045290115394093
-0.228051425806008   -0.10019569356197824   -0.0035045290115394093
-0.228051425806008   -0.10019569356197824   -0.0035045290115394093
-0.20995872870447674   -0.034601174205910815   -0.006066762017294287
-0.20995872870447674   -0.034601174205910815   -0.006066762017294287
-0.20995872870447674   -0.034601174205910815   -0.006066762017294287
-0.20995872870447674   -0.034601174205910815   -0.006066762017294287
-0.10445583093421276   -0.08178772309888094   0.0022173514669613405
-0.10445583093421276   -0.08178772309888094   0.0022173514669613405
-0.10445583093421276   -0.08178772309888094   0.0022173514669613405
-0.10445583093421276   -0.08178772309888094   0.0022173514669613405
-0.15919499412853486   -0.059374633205053505   -0.008174483000454147
-0.15919499412853486   -0.059374633205053505   -0.008174483000454147
-0.15919499412853486   -0.059374633205053505   -0.008174483000454147
-0.15919499412853486   -0.059374633205053505   -0.008174483000454147
-0.08982444053256708   -0.008869706744006894   0.0024562871203156994
-0.08982444053256708   -0.008869706744006894   0.0024562871203156994
-0.08982444053256708   -0.008869706744006894   0.0024562871203156994
-0.08982444053256708   -0.008869706744006894   0.0024562871203156994
-0.2238279169435574   -0.10675698839821983   -0.003256889020388516
-0.2238279169435574   -0.10675698839821983   -0.003256889020388516
-0.2238279169435574   -0.10675698839821983   -0.003256889020388516
-0.2238279169435574   -0.10675698839821983   -0.003256889020388516
-0.20409681587462217   -0.03127824376319262   -0.006249148168386565
-0.20409681587462217   -0.03127824376319262   -0.006249148168386565
-0.20409681587462217   -0.03127824376319262   -0.006249148168386565
-0.20409681587462217   -0.03127824376319262   -0.006249148168386565
-0.10019218137018833   -0.08077389656110094   0.0033546313953407535
-0.10019218137018833   -0.08077389656110094   0.0033546313953407535
-0.10019218137018833   -0.08077389656110094   0.0033546313953407535
-0.10019218137018833   -0.08077389656110094   0.0033546313953407535
-0.15281684075886331   -0.057326526452633725   -0.005117267083418773
-0.15281684075886331   -0.057326526452633725   -0.005117267083418773
-0.15281684075886331   -0.057326526452633725   -0.005117267083418773
-0.15281684075886331   -0.057326526452633725   -0.005117267083418773
-0.0857799459250318   -0.006197214772993988   0.000839126833016228
-0.0857799459250318   -0.006197214772993988   0.000839126833016228
-0.0857799459250318   -0.006197214772993988   0.000839126833016228
-0.0857799459250318   -0.006197214772993988   0.000839126833016228
-0.21827718039469193   -0.10562305462621253   -0.002806159905713635
-0.21827718039469193   -0.10562305462621253   -0.002806159905713635
-0.21827718039469193   -0.10562305462621253   -0.002806159905713635
-0.21827718039469193   -0.10562305462621253   -0.002806159905713635
-0.19481815534193664   -0.027797233216332817   -0.0071055723403119445
-0.19481815534193664   -0.027797233216332817   -0.0071055723403119445
-0.19481815534193664   -0.027797233216332817   -0.0071055723403119445
-0.19481815534193664   -0.027797233216332817   -0.0071055723403119445
-0.09094610461926819   -0.07121711104340073   0.0068379520049682875
-0.09094610461926819   -0.07121711104340073   0.0068379520049682875
-0.09094610461926819   -0.07121711104340073   0.0068379520049682875
-0.09094610461926819   -0.07121711104340073   0.0068379520049682875
-0.14589666129998013   -0.05115485799503479   -0.0020815298349655294
-0.14589666129998013   -0.05115485799503479   -0.0020815298349655294
-0.14589666129998013   -0.05115485799503479   -0.0020815298349655294
-0.14589666129998013   -0.05115485799503479   -0.0020815298349655294
-0.2097556713908266   -0.010929612320190255   -0.001291838177420148
-0.2097556713908266   -0.010929612320190255   -0.001291838177420148
-0.2097556713908266   -0.010929612320190255   -0.001291838177420148
-0.2097556713908266   -0.010929612320190255   -0.001291838177420148
-0.364213071806173   -0.07208139847972926   0.0038060794075267385
-0.364213071806173   -0.07208139847972926   0.0038060794075267385
-0.364213071806173   -0.07208139847972926   0.0038060794075267385
-0.364213071806173   -0.07208139847972926   0.0038060794075267385
-0.35073443798744236   -0.032971628351918476   -0.007010531500153823
-0.35073443798744236   -0.032971628351918476   -0.007010531500153823
-0.35073443798744236   -0.032971628351918476   -0.007010531500153823
-0.35073443798744236   -0.032971628351918476   -0.007010531500153823
-0.20698768638257875   -0.03880006849938264   0.012987343885665567
-0.20698768638257875   -0.03880006849938264   0.012987343885665567
-0.20698768638257875   -0.03880006849938264   0.012987343885665567
-0.20698768638257875   -0.03880006849938264   0.012987343885665567
-0.2715981375003602   -0.04131815891655593   0.0031098611801478764
-0.2715981375003602   -0.04131815891655593   0.0031098611801478764
-0.2715981375003602   -0.04131815891655593   0.0031098611801478764
-0.2715981375003602   -0.04131815891655593   0.0031098611801478764
-0.2021937045929347   -0.0018582820884044463   1.546642290865645e-05
-0.2021937045929347   -0.0018582820884044463   1.546642290865645e-05
-0.2021937045929347   -0.0018582820884044463   1.546642290865645e-05
-0.2021937045929347   -0.0018582820884044463   1.546642290865645e-05
-0.356639613030574   -0.0710246080163846   0.001516572948650971
-0.356639613030574   -0.0710246080163846   0.001516572948650971
-0.356639613030574   -0.0710246080163846   0.001516572948650971
-0.356639613030574   -0.0710246080163846   0.001516572948650971
-0.34383235958292174   -0.03028793131995914   -0.008925609525693578
-0.34383235958292174   -0.03028793131995914   -0.008925609525693578
-0.34383235958292174   -0.03028793131995914   -0.008925609525693578
-0.34383235958292174   -0.03028793131995914   -0.008925609525693578
-0.2009736827514611   -0.03714756817787218   0.015235841862100183
-0.2009736827514611   -0.03714756817787218   0.015235841862100183
-0.2009736827514611   -0.03714756817787218   0.015235841862100183
-0.2009736827514611   -0.03714756817787218   0.015235841862100183
-0.2683942063803864   -0.03422135212625954   0.003169860905923403
-0.2683942063803864   -0.03422135212625954   0.003169860905923403
-0.2683942063803864   -0.03422135212625954   0.003169860905923403
-0.2683942063803864   -0.03422135212625954   0.003169860905923403
-0.196856717244478   0.000522449413914168   -0.0018493481947707262
-0.196856717244478   0.000522449413914168   -0.0018493481947707262
-0.196856717244478   0.000522449413914168   -0.0018493481947707262
-0.196856717244478   0.000522449413914168   -0.0018493481947707262
-0.3482040521520396   -0.06821267597388082   0.007140672282635513
-0.3482040521520396   -0.06821267597388082   0.007140672282635513
-0.3482040521520396   -0.06821267597388082   0.007140672282635513
-0.3482040521520396   -0.06821267597388082   0.007140672282635513
-0.32944650368293454   -0.025076915416886045   -0.01020801362091081
-0.32944650368293454   -0.025076915416886045   -0.01020801362091081
-0.32944650368293454   -0.025076915416886045   -0.01020801362091081
-0.32944650368293454   -0.025076915416886045   -0.01020801362091081
-0.19149346939554576   -0.03496214087003907   0.016682765045350427
-0.19149346939554576   -0.03496214087003907   0.016682765045350427
-0.19149346939554576   -0.03496214087003907   0.016682765045350427
-0.19149346939554576   -0.03496214087003907   0.016682765045350427
-0.2536572377101384   -0.026300828818237396   0.007242850589733628
-0.2536572377101384   -0.026300828818237396   0.007242850589733628
-0.2536572377101384   -0.026300828818237396   0.007242850589733628
-0.2536572377101384   -0.026300828818237396   0.007242850589733628
0.2590388798651661   0.009676146568806047   0.00339127939750916
0.2590388798651661   0.009676146568806047   0.00339127939750916
0.2590388798651661   0.009676146568806047   0.00339127939750916
0.2590388798651661   0.009676146568806047   0.00339127939750916
0.1304682975414367   -0.0076145009705537205   0.0020110722907659417
0.1304682975414367   -0.0076145009705537205   0.0020110722907659417
0.1304682975414367   -0.0076145009705537205   0.0020110722907659417
0.1304682975414367   -0.0076145009705537205   0.0020110722907659417
0.1259356870346584   -0.017780738955468507   0.004584185999564214
0.1259356870346584   -0.017780738955468507   0.004584185999564214
0.1259356870346584   -0.017780738955468507   0.004584185999564214
0.1259356870346584   -0.017780738955468507   0.004584185999564214
0.257231091963276   0.014408648685011967   0.0012787830601594646
0.257231091963276   0.014408648685011967   0.0012787830601594646
0.257231091963276   0.014408648685011967   0.0012787830601594646
0.257231091963276   0.014408648685011967   0.0012787830601594646
0.18288493634934058   -0.0022866985902201334   -0.006859085443298553
0.18288493634934058   -0.0022866985902201334   -0.006859085443298553
0.18288493634934058   -0.0022866985902201334   -0.006859085443298553
0.18288493634934058   -0.0022866985902201334   -0.006859085443298553
0.2561695278112368   0.007854261830774506   0.002525349154200905
0.2561695278112368   0.007854261830774506   0.002525349154200905
0.2561695278112368   0.007854261830774506   0.002525349154200905
0.2561695278112368   0.007854261830774506   0.002525349154200905
0.12665820978701134   -0.011565393500917336   0.001981454306777595
0.12665820978701134   -0.011565393500917336   0.001981454306777595
0.12665820978701134   -0.011565393500917336   0.001981454306777595
0.12665820978701134   -0.011565393500917336   0.001981454306777595
0.12295178025548899   -0.018076130735969302   0.003731583440411008
0.12295178025548899   -0.018076130735969302   0.003731583440411008
0.12295178025548899   -0.018076130735969302   0.003731583440411008
0.12295178025548899   -0.018076130735969302   0.003731583440411008
0.2545796183819112   0.013920206101647084   0.0025277045679688737
0.2545796183819112   0.013920206101647084   0.0025277045679688737
0.2545796183819112   0.013920206101647084   0.0025277045679688737
0.2545796183819112   0.013920206101647084   0.0025277045679688737
0.18276485743475285   -0.0031318699769642896   -0.007662410023000265
0.18276485743475285   -0.0031318699769642896   -0.007662410023000265
0.18276485743475285   -0.0031318699769642896   -0.007662410023000265
0.18276485743475285   -0.0031318699769642896   -0.007662410023000265
0.2528954380821521   0.007309738312870552   0.0007172708579471759
0.2528954380821521   0.007309738312870552   0.0007172708579471759
0.2528954380821521   0.007309738312870552   0.0007172708579471759
0.2528954380821521   0.007309738312870552   0.0007172708579471759
0.12398705226338858   -0.01211457123905273   0.002946383982992436
0.12398705226338858   -0.01211457123905273   0.002946383982992436
0.12398705226338858   -0.01211457123905273   0.002946383982992436
0.12398705226338858   -0.01211457123905273   0.002946383982992436
0.11985847278416671   -0.016164043197263826   0.0032296440218752744
0.11985847278416671   -0.016164043197263826   0.0032296440218752744
0.11985847278416671   -0.016164043197263826   0.0032296440218752744
0.11985847278416671   -0.016164043197263826   0.0032296440218752744
0.2505565859346249   0.014458772701694163   0.0038865178699266575
0.2505565859346249   0.014458772701694163   0.0038865178699266575
0.2505565859346249   0.014458772701694163   0.0038865178699266575
0.2505565859346249   0.014458772701694163   0.0038865178699266575
0.17630413477362677   -0.003006575975181433   -0.01009753068021704
0.17630413477362677   -0.003006575975181433   -0.01009753068021704
0.17630413477362677   -0.003006575975181433   -0.01009753068021704
0.17630413477362677   -0.003006575975181433   -0.01009753068021704
0.1303158286224041   -0.012818446152631592   0.006452672877680735
0.1303158286224041   -0.012818446152631592   0.006452672877680735
0.1303158286224041   -0.012818446152631592   0.006452672877680735
0.1303158286224041   -0.012818446152631592   0.006452672877680735
0.02100257165886064   -0.015434231386439127   0.0008497923832868582
0.02100257165886064   -0.015434231386439127   0.0008497923832868582
0.02100257165886064   -0.015434231386439127   0.0008497923832868582
0.02100257165886064   -0.015434231386439127   0.0008497923832868582
0.013137921610137961   -0.0360076483439314   0.005917168898845106
0.013137921610137961   -0.0360076483439314   0.005917168898845106
0.013137921610137961   -0.0360076483439314   0.005917168898845106
0.013137921610137961   -0.0360076483439314   0.005917168898845106
0.13078453840054147   0.0062087360140110695   0.004838967859499847
0.13078453840054147   0.0062087360140110695   0.004838967859499847
0.13078453840054147   0.0062087360140110695   0.004838967859499847
0.13078453840054147   0.0062087360140110695   0.004838967859499847
0.0726553620798521   -0.01458062140208945   -0.0003665672548105077
0.0726553620798521   -0.01458062140208945   -0.0003665672548105077
0.0726553620798521   -0.01458062140208945   -0.0003665672548105077
0.0726553620798521   -0.01458062140208945   -0.0003665672548105077
0.12701049377614904   -0.013317559616823786   0.005495040368372124
0.12701049377614904   -0.013317559616823786   0.005495040368372124
0.12701049377614904   -0.013317559616823786   0.005495040368372124
0.12701049377614904   -0.013317559616823786   0.005495040368372124
0.01594866341285428   -0.01744465553477273   0.001407885103268042
0.01594866341285428   -0.01744465553477273   0.001407885103268042
0.01594866341285428   -0.01744465553477273   0.001407885103268042
0.01594866341285428   -0.01744465553477273   0.001407885103268042
0.009543468553154093   -0.03612275837584332   0.005270688062785344
0.009543468553154093   -0.03612275837584332   0.005270688062785344
0.009543468553154093   -0.03612275837584332   0.005270688062785344
0.009543468553154093   -0.03612275837584332   0.005270688062785344
0.12804134111284393   0.005443414765907442   0.0056598422253090735
0.12804134111284393   0.005443414765907442   0.0056598422253090735
0.12804134111284393   0.005443414765907442   0.0056598422253090735
0.12804134111284393   0.005443414765907442   0.0056598422253090735
0.06770610534017174   -0.01546944327902397   -0.003268128057150651
0.06770610534017174   -0.01546944327902397   -0.003268128057150651
0.06770610534017174   -0.01546944327902397   -0.003268128057150651
0.06770610534017174   -0.01546944327902397   -0.003268128057150651
0.12407997979551853   -0.013341919715841477   0.004638370120430108
0.12407997979551853   -0.013341919715841477   0.004638370120430108
0.12407997979551853   -0.013341919715841477   0.004638370120430108
0.12407997979551853   -0.013341919715841477   0.004638370120430108
0.01244935321980697   -0.018392900544767075   0.0020702535649734684
0.01244935321980697   -0.018392900544767075   0.0020702535649734684
0.01244935321980697   -0.018392900544767075   0.0020702535649734684
0.01244935321980697   -0.018392900544767075   0.0020702535649734684
0.0055408236703838615   -0.035836870936563604   0.004023524745659682
0.0055408236703838615   -0.035836870936563604   0.004023524745659682
0.0055408236703838615   -0.035836870936563604   0.004023524745659682
0.0055408236703838615   -0.035836870936563604   0.004023524745659682
0.12492732408128536   0.005710420596518929   0.006699436713686125
0.12492732408128536   0.005710420596518929   0.006699436713686125
0.12492732408128536   0.005710420596518929   0.006699436713686125
0.12492732408128536   0.005710420596518929   0.006699436713686125
0.06481858707628137   -0.015128435094817986   -0.005677288044298522
0.06481858707628137   -0.015128435094817986   -0.005677288044298522
0.06481858707628137   -0.015128435094817986   -0.005677288044298522
0.06481858707628137   -0.015128435094817986   -0.005677288044298522
0.016846879871610276   -0.04101949013277495   0.0056565921933708595
0.016846879871610276   -0.04101949013277495   0.0056565921933708595
0.016846879871610276   -0.04101949013277495   0.0056565921933708595
0.016846879871610276   -0.04101949013277495   0.0056565921933708595
-0.0845432233101477   -0.023324101065066695   -0.0003670250643270695
-0.0845432233101477   -0.023324101065066695   -0.0003670250643270695
-0.0845432233101477   -0.023324101065066695   -0.0003670250643270695
-0.0845432233101477   -0.023324101065066695   -0.0003670250643270695
-0.09876644959335026   -0.0646996603174835   0.006772840291413425
-0.09876644959335026   -0.0646996603174835   0.006772840291413425
-0.09876644959335026   -0.0646996603174835   0.006772840291413425
-0.09876644959335026   -0.0646996603174835   0.006772840291413425
0.019368451986054705   -0.0021230352429304636   0.003185207677427404
0.019368451986054705   -0.0021230352429304636   0.003185207677427404
0.019368451986054705   -0.0021230352429304636   0.003185207677427404
0.019368451986054705   -0.0021230352429304636   0.003185207677427404
-0.03636659373381674   -0.03231417483145748   0.0013140741140293816
-0.03636659373381674   -0.03231417483145748   0.0013140741140293816
-0.03636659373381674   -0.03231417483145748   0.0013140741140293816
-0.03636659373381674   -0.03231417483145748   0.0013140741140293816
0.011363799324124424   -0.04318366397275171   0.0042225730975977305
0.011363799324124424   -0.04318366397275171   0.0042225730975977305
0.011363799324124424   -0.04318366397275171   0.0042225730975977305
0.011363799324124424   -0.04318366397275171   0.0042225730975977305
-0.09215079793524254   -0.025028032591484856   0.0001794708559526997
-0.09215079793524254   -0.025028032591484856   0.0001794708559526997
-0.09215079793524254   -0.025028032591484856   0.0001794708559526997
-0.09215079793524254   -0.025028032591484856   0.0001794708559526997
-0.10370053397701245   -0.06540658001391104   0.005726424183414102
-0.10370053397701245   -0.06540658001391104   0.005726424183414102
-0.10370053397701245   -0.06540658001391104   0.005726424183414102
-0.10370053397701245   -0.06540658001391104   0.005726424183414102
0.0159836028601216   -0.00296266906491375   0.004311270286693301
0.0159836028601216   -0.00296266906491375   0.004311270286693301
0.0159836028601216   -0.00296266906491375   0.004311270286693301
0.0159836028601216   -0.00296266906491375   0.004311270286693301
-0.04257047732517244   -0.03408798093416701   -0.0027816656316643467
-0.04257047732517244   -0.03408798093416701   -0.0027816656316643467
-0.04257047732517244   -0.03408798093416701   -0.0027816656316643467
-0.04257047732517244   -0.03408798093416701   -0.0027816656316643467
0.007535140724102376   -0.04373622650169389   0.0028425170433773288
0.007535140724102376   -0.04373622650169389   0.0028425170433773288
0.007535140724102376   -0.04373622650169389   0.0028425170433773288
0.007535140724102376   -0.04373622650169389   0.0028425170433773288
-0.09696550020001844   -0.02634645093615499   0.0003414639906271315
-0.09696550020001844   -0.02634645093615499   0.0003414639906271315
-0.09696550020001844   -0.02634645093615499   0.0003414639906271315
-0.09696550020001844   -0.02634645093615499   0.0003414639906271315
-0.10913315931707956   -0.06481658763531842   0.0044806457470224735
-0.10913315931707956   -0.06481658763531842   0.0044806457470224735
-0.10913315931707956   -0.06481658763531842   0.0044806457470224735
-0.10913315931707956   -0.06481658763531842   0.0044806457470224735
0.01223754942792155   -0.0033634919323043237   0.005033774529088839
0.01223754942792155   -0.0033634919323043237   0.005033774529088839
0.01223754942792155   -0.0033634919323043237   0.005033774529088839
0.01223754942792155   -0.0033634919323043237   0.005033774529088839
-0.04766858233057067   -0.03468277061923125   -0.007004415616003236
-0.04766858233057067   -0.03468277061923125   -0.007004415616003236
-0.04766858233057067   -0.03468277061923125   -0.007004415616003236
-0.04766858233057067   -0.03468277061923125   -0.007004415616003236
-0.09267734240610134   -0.07107692950126777   0.006715207892106256
-0.09267734240610134   -0.07107692950126777   0.006715207892106256
-0.09267734240610134   -0.07107692950126777   0.006715207892106256
-0.09267734240610134   -0.07107692950126777   0.006715207892106256
-0.20233210847495517   -0.028844469735864978   -0.004363754911124385
-0.20233210847495517   -0.028844469735864978   -0.004363754911124385
-0.20233210847495517   -0.028844469735864978   -0.004363754911124385
-0.20233210847495517   -0.028844469735864978   -0.004363754911124385
-0.2273695953407024   -0.10779140741123715   -0.004887305688330061
-0.2273695953407024   -0.10779140741123715   -0.004887305688330061
-0.2273695953407024   -0.10779140741123715   -0.004887305688330061
-0.2273695953407024   -0.10779140741123715   -0.004887305688330061
-0.08757045612675557   -0.0046993343987183425   0.0027524817056210236
-0.08757045612675557   -0.0046993343987183425   0.0027524817056210236
-0.08757045612675557   -0.0046993343987183425   0.0027524817056210236
-0.08757045612675557   -0.0046993343987183425   0.0027524817056210236
-0.15091262279829837   -0.05067451421492364   -0.0034984630745890167
-0.15091262279829837   -0.05067451421492364   -0.0034984630745890167
-0.15091262279829837   -0.05067451421492364   -0.0034984630745890167
-0.15091262279829837   -0.05067451421492364   -0.0034984630745890167
-0.10292125627121579   -0.08138704095229446   0.002686187536896749
-0.10292125627121579   -0.08138704095229446   0.002686187536896749
-0.10292125627121579   -0.08138704095229446   0.002686187536896749
-0.10292125627121579   -0.08138704095229446   0.002686187536896749
-0.21178501324818813   -0.03086991890960815   -0.0038858837273877647
-0.21178501324818813   -0.03086991890960815   -0.0038858837273877647
-0.21178501324818813   -0.03086991890960815   -0.0038858837273877647
-0.21178501324818813   -0.03086991890960815   -0.0038858837273877647
-0.23331973626410532   -0.10919906756242012   -0.005643668717338162
-0.23331973626410532   -0.10919906756242012   -0.005643668717338162
-0.23331973626410532   -0.10919906756242012   -0.005643668717338162
-0.23331973626410532   -0.10919906756242012   -0.005643668717338162
-0.09221139966275242   -0.00617286773995448   0.003938383480756801
-0.09221139966275242   -0.00617286773995448   0.003938383480756801
-0.09221139966275242   -0.00617286773995448   0.003938383480756801
-0.09221139966275242   -0.00617286773995448   0.003938383480756801
-0.15827613932021595   -0.056523181928984804   -0.005720092415286544
-0.15827613932021595   -0.056523181928984804   -0.005720092415286544
-0.15827613932021595   -0.056523181928984804   -0.005720092415286544
-0.15827613932021595   -0.056523181928984804   -0.005720092415286544
-0.10810938963118907   -0.08281095942720457   0.001086525325823342
-0.10810938963118907   -0.08281095942720457   0.001086525325823342
-0.10810938963118907   -0.08281095942720457   0.001086525325823342
-0.10810938963118907   -0.08281095942720457   0.001086525325823342
-0.21771017097435438   -0.032849400553856115   -0.003945509277149388
-0.21771017097435438   -0.032849400553856115   -0.003945509277149388
-0.21771017097435438   -0.032849400553856115   -0.003945509277149388
-0.21771017097435438   -0.032849400553856115   -0.003945509277149388
-0.23829500438961765   -0.10332448349412034   -0.006350010478280335
-0.23829500438961765   -0.10332448349412034   -0.006350010478280335
-0.23829500438961765   -0.10332448349412034   -0.006350010478280335
-0.23829500438961765   -0.10332448349412034   -0.006350010478280335
-0.09797520785741373   -0.008295831030289509   0.0037496464403212674
-0.09797520785741373   -0.008295831030289509   0.0037496464403212674
-0.09797520785741373   -0.008295831030289509   0.0037496464403212674
-0.09797520785741373   -0.008295831030289509   0.0037496464403212674
-0.1652571619760974   -0.05837547580240077   -0.008005920142781144
-0.1652571619760974   -0.05837547580240077   -0.008005920142781144
-0.1652571619760974   -0.05837547580240077   -0.008005920142781144
-0.1652571619760974   -0.05837547580240077   -0.008005920142781144
-0.20017137758893577   -0.03709599130097191   0.014691421084076214
-0.20017137758893577   -0.03709599130097191   0.014691421084076214
-0.20017137758893577   -0.03709599130097191   0.014691421084076214
-0.20017137758893577   -0.03709599130097191   0.014691421084076214
-0.3440140153099312   -0.024756702607124044   -0.005188245476520163
-0.3440140153099312   -0.024756702607124044   -0.005188245476520163
-0.3440140153099312   -0.024756702607124044   -0.005188245476520163
-0.3440140153099312   -0.024756702607124044   -0.005188245476520163
-0.36371188098632345   -0.07195610077476687   0.003931377112489129
-0.36371188098632345   -0.07195610077476687   0.003931377112489129
-0.36371188098632345   -0.07195610077476687   0.003931377112489129
-0.36371188098632345   -0.07195610077476687   0.003931377112489129
-0.20370010363769572   0.003781004509970008   0.0018877409054943086
-0.20370010363769572   0.003781004509970008   0.0018877409054943086
-0.20370010363769572   0.003781004509970008   0.0018877409054943086
-0.20370010363769572   0.003781004509970008   0.0018877409054943086
-0.264682337447633   -0.025210915158544723   0.005117243555415141
-0.264682337447633   -0.025210915158544723   0.005117243555415141
-0.264682337447633   -0.025210915158544723   0.005117243555415141
-0.264682337447633   -0.025210915158544723   0.005117243555415141
-0.21013203300977412   -0.03943715574245046   0.012946254297521824
-0.21013203300977412   -0.03943715574245046   0.012946254297521824
-0.21013203300977412   -0.03943715574245046   0.012946254297521824
-0.21013203300977412   -0.03943715574245046   0.012946254297521824
-0.3565815755969176   -0.02803956450501851   -0.004333632210226439
-0.3565815755969176   -0.02803956450501851   -0.004333632210226439
-0.3565815755969176   -0.02803956450501851   -0.004333632210226439
-0.3565815755969176   -0.02803956450501851   -0.004333632210226439
-0.37151616045937985   -0.07474374487358607   -0.0022025639085504894
-0.37151616045937985   -0.07474374487358607   -0.0022025639085504894
-0.37151616045937985   -0.07474374487358607   -0.0022025639085504894
-0.37151616045937985   -0.07474374487358607   -0.0022025639085504894
-0.20930947980604936   0.0020211160562983582   0.0031874299542212943
-0.20930947980604936   0.0020211160562983582   0.0031874299542212943
-0.20930947980604936   0.0020211160562983582   0.0031874299542212943
-0.20930947980604936   0.0020211160562983582   0.0031874299542212943
-0.2792154408340251   -0.032990855361289526   0.0019117116687780936
-0.2792154408340251   -0.032990855361289526   0.0019117116687780936
-0.2792154408340251   -0.032990855361289526   0.0019117116687780936
-0.2792154408340251   -0.032990855361289526   0.0019117116687780936
-0.21650857470392942   -0.04121591719713501   0.010428988718254373
-0.21650857470392942   -0.04121591719713501   0.010428988718254373
-0.21650857470392942   -0.04121591719713501   0.010428988718254373
-0.21650857470392942   -0.04121591719713501   0.010428988718254373
-0.36273760905439495   -0.02992725511304807   -0.0031262966441576376
-0.36273760905439495   -0.02992725511304807   -0.0031262966441576376
-0.36273760905439495   -0.02992725511304807   -0.0031262966441576376
-0.36273760905439495   -0.02992725511304807   -0.0031262966441576376
-0.37775117444852513   -0.07559945654800221   -0.000246108291485872
-0.37775117444852513   -0.07559945654800221   -0.000246108291485872
-0.37775117444852513   -0.07559945654800221   -0.000246108291485872
-0.37775117444852513   -0.07559945654800221   -0.000246108291485872
-0.2172990145678249   -0.006167622481970954   0.0014730776185337274
-0.2172990145678249   -0.006167622481970954   0.0014730776185337274
-0.2172990145678249   -0.006167622481970954   0.0014730776185337274
-0.2172990145678249   -0.006167622481970954   0.0014730776185337274
-0.28171271937180964   -0.039519852643478695   0.0029494782175753416
-0.28171271937180964   -0.039519852643478695   0.0029494782175753416
-0.28171271937180964   -0.039519852643478695   0.0029494782175753416
-0.28171271937180964   -0.039519852643478695   0.0029494782175753416
0.2318250298567357   0.011372707515336103   -0.004409617595083907
0.2318250298567357   0.011372707515336103   -0.004409617595083907
0.2318250298567357   0.011372707515336103   -0.004409617595083907
0.2318250298567357   0.011372707515336103   -0.004409617595083907
0.11526284658783775   -0.003212411278751222   0.0019118652267886291
0.11526284658783775   -0.003212411278751222   0.0019118652267886291
0.11526284658783775   -0.003212411278751222   0.0019118652267886291
0.11526284658783775   -0.003212411278751222   0.0019118652267886291
0.10866293883979684   -0.016381415002922926   -0.004103382256035874
0.10866293883979684   -0.016381415002922926   -0.004103382256035874
0.10866293883979684   -0.016381415002922926   -0.004103382256035874
0.10866293883979684   -0.016381415002922926   -0.004103382256035874
0.22934390579743477   0.016360997701089786   0.0022367085265942235
0.22934390579743477   0.016360997701089786   0.0022367085265942235
0.22934390579743477   0.016360997701089786   0.0022367085265942235
0.22934390579743477   0.016360997701089786   0.0022367085265942235
0.16230275833044674   0.000415731285619593   -0.006246708595202806
0.16230275833044674   0.000415731285619593   -0.006246708595202806
0.16230275833044674   0.000415731285619593   -0.006246708595202806
0.16230275833044674   0.000415731285619593   -0.006246708595202806
0.22611996432199236   0.007021888595681772   -0.004543889745207872
0.22611996432199236   0.007021888595681772   -0.004543889745207872
0.22611996432199236   0.007021888595681772   -0.004543889745207872
0.22611996432199236   0.007021888595681772   -0.004543889745207872
0.11172894077749981   -0.007200245435254202   0.0020454578648092386
0.11172894077749981   -0.007200245435254202   0.0020454578648092386
0.11172894077749981   -0.007200245435254202   0.0020454578648092386
0.11172894077749981   -0.007200245435254202   0.0020454578648092386
0.1050783474884282   -0.017176955084577505   -0.003456830469671065
0.1050783474884282   -0.017176955084577505   -0.003456830469671065
0.1050783474884282   -0.017176955084577505   -0.003456830469671065
0.1050783474884282   -0.017176955084577505   -0.003456830469671065
0.224426773754878   0.015184583685401251   0.0034332317967742283
0.224426773754878   0.015184583685401251   0.0034332317967742283
0.224426773754878   0.015184583685401251   0.0034332317967742283
0.224426773754878   0.015184583685401251   0.0034332317967742283
0.16068518794242115   -0.0013883796309425017   -0.0072153360240508925
0.16068518794242115   -0.0013883796309425017   -0.0072153360240508925
0.16068518794242115   -0.0013883796309425017   -0.0072153360240508925
0.16068518794242115   -0.0013883796309425017   -0.0072153360240508925
0.2211652861911404   0.005994895235497198   -0.0036845175720097278
0.2211652861911404   0.005994895235497198   -0.0036845175720097278
0.2211652861911404   0.005994895235497198   -0.0036845175720097278
0.2211652861911404   0.005994895235497198   -0.0036845175720097278
0.10809586290678613   -0.008231238780053107   0.002685030317594265
0.10809586290678613   -0.008231238780053107   0.002685030317594265
0.10809586290678613   -0.008231238780053107   0.002685030317594265
0.10809586290678613   -0.008231238780053107   0.002685030317594265
0.1016548525216159   -0.016581568644171662   -0.0024134554463857913
0.1016548525216159   -0.016581568644171662   -0.0024134554463857913
0.1016548525216159   -0.016581568644171662   -0.0024134554463857913
0.1016548525216159   -0.016581568644171662   -0.0024134554463857913
0.2183833709955898   0.014669710279557907   0.004622126873659205
0.2183833709955898   0.014669710279557907   0.004622126873659205
0.2183833709955898   0.014669710279557907   0.004622126873659205
0.2183833709955898   0.014669710279557907   0.004622126873659205
0.15331370639338046   -0.0023560570378750173   -0.00932231767692894
0.15331370639338046   -0.0023560570378750173   -0.00932231767692894
0.15331370639338046   -0.0023560570378750173   -0.00932231767692894
0.15331370639338046   -0.0023560570378750173   -0.00932231767692894
0.1165909533262891   0.00381790333203862   0.0015220843082547932
0.1165909533262891   0.00381790333203862   0.0015220843082547932
0.1165909533262891   0.00381790333203862   0.0015220843082547932
0.1165909533262891   0.00381790333203862   0.0015220843082547932
0.008590014891439556   -0.0074739583719965665   -0.0005548297383577761
0.008590014891439556   -0.0074739583719965665   -0.0005548297383577761
0.008590014891439556   -0.0074739583719965665   -0.0005548297383577761
0.008590014891439556   -0.0074739583719965665   -0.0005548297383577761
0.0023633806662743057   -0.021251592721177968   -0.004041518082178177
0.0023633806662743057   -0.021251592721177968   -0.004041518082178177
0.0023633806662743057   -0.021251592721177968   -0.004041518082178177
0.0023633806662743057   -0.021251592721177968   -0.004041518082178177
0.11659464421919906   0.01362751885770009   0.005546210780351152
0.11659464421919906   0.01362751885770009   0.005546210780351152
0.11659464421919906   0.01362751885770009   0.005546210780351152
0.11659464421919906   0.01362751885770009   0.005546210780351152
0.05991990200652284   -0.0025783208521845923   -0.0021724220209747864
0.05991990200652284   -0.0025783208521845923   -0.0021724220209747864
0.05991990200652284   -0.0025783208521845923   -0.0021724220209747864
0.05991990200652284   -0.0025783208521845923   -0.0021724220209747864
0.11363514416053234   0.0022385912192107622   0.0021376381255074186
0.11363514416053234   0.0022385912192107622   0.0021376381255074186
0.11363514416053234   0.0022385912192107622   0.0021376381255074186
0.11363514416053234   0.0022385912192107622   0.0021376381255074186
0.005453323607928316   -0.009732222199701258   -0.00011117389538484092
0.005453323607928316   -0.009732222199701258   -0.00011117389538484092
0.005453323607928316   -0.009732222199701258   -0.00011117389538484092
0.005453323607928316   -0.009732222199701258   -0.00011117389538484092
-0.0010944961958462207   -0.022102171128329053   -0.002932249937183228
-0.0010944961958462207   -0.022102171128329053   -0.002932249937183228
-0.0010944961958462207   -0.022102171128329053   -0.002932249937183228
-0.0010944961958462207   -0.022102171128329053   -0.002932249937183228
0.11280873351750373   0.011930565909390158   0.006087578681738891
0.11280873351750373   0.011930565909390158   0.006087578681738891
0.11280873351750373   0.011930565909390158   0.006087578681738891
0.11280873351750373   0.011930565909390158   0.006087578681738891
0.055850890690144685   -0.0041806911663303005   -0.003071901157702276
0.055850890690144685   -0.0041806911663303005   -0.003071901157702276
0.055850890690144685   -0.0041806911663303005   -0.003071901157702276
0.055850890690144685   -0.0041806911663303005   -0.003071901157702276
0.1100265234093096   0.0012749179918101344   0.0028321760583492114
0.1100265234093096   0.0012749179918101344   0.0028321760583492114
0.1100265234093096   0.0012749179918101344   0.0028321760583492114
0.1100265234093096   0.0012749179918101344   0.0028321760583492114
0.001682277789109724   -0.011451959333985778   0.00030140819325322026
0.001682277789109724   -0.011451959333985778   0.00030140819325322026
0.001682277789109724   -0.011451959333985778   0.00030140819325322026
0.001682277789109724   -0.011451959333985778   0.00030140819325322026
-0.0047778748966776155   -0.02198940513717177   -0.002094492976804387
-0.0047778748966776155   -0.02198940513717177   -0.002094492976804387
-0.0047778748966776155   -0.02198940513717177   -0.002094492976804387
-0.0047778748966776155   -0.02198940513717177   -0.002094492976804387
0.1089849453077426   0.010955287738566825   0.006700152101509545
0.1089849453077426   0.010955287738566825   0.006700152101509545
0.1089849453077426   0.010955287738566825   0.006700152101509545
0.1089849453077426   0.010955287738566825   0.006700152101509545
0.05282993612536107   -0.004675978550382782   -0.003784934569298618
0.05282993612536107   -0.004675978550382782   -0.003784934569298618
0.05282993612536107   -0.004675978550382782   -0.003784934569298618
0.05282993612536107   -0.004675978550382782   -0.003784934569298618
0.009493656386853903   -0.004287863532879958   0.0007772828995973443
0.009493656386853903   -0.004287863532879958   0.0007772828995973443
0.009493656386853903   -0.004287863532879958   0.0007772828995973443
0.009493656386853903   -0.004287863532879958   0.0007772828995973443
-0.09482491319566089   -0.010783519486029888   -0.0029332429129316547
-0.09482491319566089   -0.010783519486029888   -0.0029332429129316547
-0.09482491319566089   -0.010783519486029888   -0.0029332429129316547
-0.09482491319566089   -0.010783519486029888   -0.0029332429129316547
-0.1017505184803552   -0.02792979546746766   -0.004729622978848667
-0.1017505184803552   -0.02792979546746766   -0.004729622978848667
-0.1017505184803552   -0.02792979546746766   -0.004729622978848667
-0.1017505184803552   -0.02792979546746766   -0.004729622978848667
0.010129680934001078   0.010242079492269893   0.0032963110430078196
0.010129680934001078   0.010242079492269893   0.0032963110430078196
0.010129680934001078   0.010242079492269893   0.0032963110430078196
0.010129680934001078   0.010242079492269893   0.0032963110430078196
-0.04433375891628921   -0.007807431615517328   -0.002093790783104131
-0.04433375891628921   -0.007807431615517328   -0.002093790783104131
-0.04433375891628921   -0.007807431615517328   -0.002093790783104131
-0.04433375891628921   -0.007807431615517328   -0.002093790783104131
0.006878146572168633   -0.004834995096641717   0.0021157138227572096
0.006878146572168633   -0.004834995096641717   0.0021157138227572096
0.006878146572168633   -0.004834995096641717   0.0021157138227572096
0.006878146572168633   -0.004834995096641717   0.0021157138227572096
-0.09823360900523447   -0.012587345765267755   -0.0024875253054448838
-0.09823360900523447   -0.012587345765267755   -0.0024875253054448838
-0.09823360900523447   -0.012587345765267755   -0.0024875253054448838
-0.09823360900523447   -0.012587345765267755   -0.0024875253054448838
-0.10578388066045936   -0.02884034131304933   -0.0033096074334036567
-0.10578388066045936   -0.02884034131304933   -0.0033096074334036567
-0.10578388066045936   -0.02884034131304933   -0.0033096074334036567
-0.10578388066045936   -0.02884034131304933   -0.0033096074334036567
0.006340104786350774   0.008438297554360659   0.0037002862911120343
0.006340104786350774   0.008438297554360659   0.0037002862911120343
0.006340104786350774   0.008438297554360659   0.0037002862911120343
0.006340104786350774   0.008438297554360659   0.0037002862911120343
-0.047692490476052174   -0.008826353310470002   -0.0024916462301282343
-0.047692490476052174   -0.008826353310470002   -0.0024916462301282343
-0.047692490476052174   -0.008826353310470002   -0.0024916462301282343
-0.047692490476052174   -0.008826353310470002   -0.0024916462301282343
0.0033019087235315837   -0.0058097843694125545   0.0027573879007892965
0.0033019087235315837   -0.0058097843694125545   0.0027573879007892965
0.0033019087235315837   -0.0058097843694125545   0.0027573879007892965
0.0033019087235315837   -0.0058097843694125545   0.0027573879007892965
-0.10267813991697411   -0.014524714708610125   -0.0020965303204170025
-0.10267813991697411   -0.014524714708610125   -0.0020965303204170025
-0.10267813991697411   -0.014524714708610125   -0.0020965303204170025
-0.10267813991697411   -0.014524714708610125   -0.0020965303204170025
-0.1102348853164509   -0.029451414954250733   -0.002933405836278411
-0.1102348853164509   -0.029451414954250733   -0.002933405836278411
-0.1102348853164509   -0.029451414954250733   -0.002933405836278411
-0.1102348853164509   -0.029451414954250733   -0.002933405836278411
0.0022377002980512152   0.006909244414857767   0.004084733444810227
0.0022377002980512152   0.006909244414857767   0.004084733444810227
0.0022377002980512152   0.006909244414857767   0.004084733444810227
0.0022377002980512152   0.006909244414857767   0.004084733444810227
-0.0520282032467565   -0.010043370851946962   -0.0034806118673658365
-0.0520282032467565   -0.010043370851946962   -0.0034806118673658365
-0.0520282032467565   -0.010043370851946962   -0.0034806118673658365
-0.0520282032467565   -0.010043370851946962   -0.0034806118673658365
-0.09295141669761292   -0.005804530316596907   0.0014552504078737434
-0.09295141669761292   -0.005804530316596907   0.0014552504078737434
-0.09295141669761292   -0.005804530316596907   0.0014552504078737434
-0.09295141669761292   -0.005804530316596907   0.0014552504078737434
-0.19662404301955066   -0.012668404481340635   -0.004987520346043486
-0.19662404301955066   -0.012668404481340635   -0.004987520346043486
-0.19662404301955066   -0.012668404481340635   -0.004987520346043486
-0.19662404301955066   -0.012668404481340635   -0.004987520346043486
-0.20442010758758947   -0.029606513738860946   -0.00493376353425044
-0.20442010758758947   -0.029606513738860946   -0.00493376353425044
-0.20442010758758947   -0.029606513738860946   -0.00493376353425044
-0.20442010758758947   -0.029606513738860946   -0.00493376353425044
-0.0933855805128684   0.00804495322523575   0.0011203181658799724
-0.0933855805128684   0.00804495322523575   0.0011203181658799724
-0.0933855805128684   0.00804495322523575   0.0011203181658799724
-0.0933855805128684   0.00804495322523575   0.0011203181658799724
-0.14567653911323378   -0.009554606146326597   -0.001632793430008649
-0.14567653911323378   -0.009554606146326597   -0.001632793430008649
-0.14567653911323378   -0.009554606146326597   -0.001632793430008649
-0.14567653911323378   -0.009554606146326597   -0.001632793430008649
-0.09583195603265607   -0.0062628766354904195   0.0031962704276687864
-0.09583195603265607   -0.0062628766354904195   0.0031962704276687864
-0.09583195603265607   -0.0062628766354904195   0.0031962704276687864
-0.09583195603265607   -0.0062628766354904195   0.0031962704276687864
-0.20148244197994244   -0.014807393790275476   -0.0050445554446021485
-0.20148244197994244   -0.014807393790275476   -0.0050445554446021485
-0.20148244197994244   -0.014807393790275476   -0.0050445554446021485
-0.20148244197994244   -0.014807393790275476   -0.0050445554446021485
-0.20994166405931275   -0.031224211809329293   -0.003588072469556913
-0.20994166405931275   -0.031224211809329293   -0.003588072469556913
-0.20994166405931275   -0.031224211809329293   -0.003588072469556913
-0.20994166405931275   -0.031224211809329293   -0.003588072469556913
-0.0978787689634158   0.006062248235659998   0.0013133615031043992
-0.0978787689634158   0.006062248235659998   0.0013133615031043992
-0.0978787689634158   0.006062248235659998   0.0013133615031043992
-0.0978787689634158   0.006062248235659998   0.0013133615031043992
-0.14901347292087852   -0.010355241155119786   -0.0015759850351494548
-0.14901347292087852   -0.010355241155119786   -0.0015759850351494548
-0.14901347292087852   -0.010355241155119786   -0.0015759850351494548
-0.14901347292087852   -0.010355241155119786   -0.0015759850351494548
-0.10025832609176871   -0.007895304085424442   0.0033731281824232865
-0.10025832609176871   -0.007895304085424442   0.0033731281824232865
-0.10025832609176871   -0.007895304085424442   0.0033731281824232865
-0.10025832609176871   -0.007895304085424442   0.0033731281824232865
-0.20722710122718313   -0.016931653784469588   -0.0043078163337685405
-0.20722710122718313   -0.016931653784469588   -0.0043078163337685405
-0.20722710122718313   -0.016931653784469588   -0.0043078163337685405
-0.20722710122718313   -0.016931653784469588   -0.0043078163337685405
-0.21614130959666863   -0.03342849171288844   -0.0037475552334185103
-0.21614130959666863   -0.03342849171288844   -0.0037475552334185103
-0.21614130959666863   -0.03342849171288844   -0.0037475552334185103
-0.21614130959666863   -0.03342849171288844   -0.0037475552334185103
-0.10274520627476776   0.0035571458901153263   0.0015064285277694035
-0.10274520627476776   0.0035571458901153263   0.0015064285277694035
-0.10274520627476776   0.0035571458901153263   0.0015064285277694035
-0.10274520627476776   0.0035571458901153263   0.0015064285277694035
-0.15539248503114617   -0.01272767027794916   -0.002723263014970523
-0.15539248503114617   -0.01272767027794916   -0.002723263014970523
-0.15539248503114617   -0.01272767027794916   -0.002723263014970523
-0.15539248503114617   -0.01272767027794916   -0.002723263014970523
-0.19039336720419156   0.00808713913267517   0.005410315116736267
-0.19039336720419156   0.00808713913267517   0.005410315116736267
-0.19039336720419156   0.00808713913267517   0.005410315116736267
-0.19039336720419156   0.00808713913267517   0.005410315116736267
-0.2944430654011848   -0.014597979571144747   -0.003430469990101879
-0.2944430654011848   -0.014597979571144747   -0.003430469990101879
-0.2944430654011848   -0.014597979571144747   -0.003430469990101879
-0.2944430654011848   -0.014597979571144747   -0.003430469990101879
-0.3007545254283512   -0.014921280651058126   0.005430736891009034
-0.3007545254283512   -0.014921280651058126   0.005430736891009034
-0.3007545254283512   -0.014921280651058126   0.005430736891009034
-0.3007545254283512   -0.014921280651058126   0.005430736891009034
-0.19640740562367542   0.006611453764214674   -0.0010882212177573784
-0.19640740562367542   0.006611453764214674   -0.0010882212177573784
-0.19640740562367542   0.006611453764214674   -0.0010882212177573784
-0.19640740562367542   0.006611453764214674   -0.0010882212177573784
-0.23400660405979762   -4.481935127009784e-05   0.006055805478378275
-0.23400660405979762   -4.481935127009784e-05   0.006055805478378275
-0.23400660405979762   -4.481935127009784e-05   0.006055805478378275
-0.23400660405979762   -4.481935127009784e-05   0.006055805478378275
-0.19479434132535653   0.006585266332458921   0.007003287705591972
-0.19479434132535653   0.006585266332458921   0.007003287705591972
-0.19479434132535653   0.006585266332458921   0.007003287705591972
-0.19479434132535653   0.006585266332458921   0.007003287705591972
-0.30223371333999693   -0.014761216832628168   -0.002125266485650045
-0.30223371333999693   -0.014761216832628168   -0.002125266485650045
-0.30223371333999693   -0.014761216832628168   -0.002125266485650045
-0.30223371333999693   -0.014761216832628168   -0.002125266485650045
-0.30861684591014643   -0.016983747739311494   0.0074704770802691035
-0.30861684591014643   -0.016983747739311494   0.0074704770802691035
-0.30861684591014643   -0.016983747739311494   0.0074704770802691035
-0.30861684591014643   -0.016983747739311494   0.0074704770802691035
-0.2021766858096502   0.005195443684928108   -0.001182836715502988
-0.2021766858096502   0.005195443684928108   -0.001182836715502988
-0.2021766858096502   0.005195443684928108   -0.001182836715502988
-0.2021766858096502   0.005195443684928108   -0.001182836715502988
-0.244624840433423   -0.0024066205301752908   0.0037007754638824237
-0.244624840433423   -0.0024066205301752908   0.0037007754638824237
-0.244624840433423   -0.0024066205301752908   0.0037007754638824237
-0.244624840433423   -0.0024066205301752908   0.0037007754638824237
-0.20069580493305114   0.00449147275878152   0.0069255385936388865
-0.20069580493305114   0.00449147275878152   0.0069255385936388865
-0.20069580493305114   0.00449147275878152   0.0069255385936388865
-0.20069580493305114   0.00449147275878152   0.0069255385936388865
-0.31037765531253875   -0.016559705338958154   -0.0017576123320457559
-0.31037765531253875   -0.016559705338958154   -0.0017576123320457559
-0.31037765531253875   -0.016559705338958154   -0.0017576123320457559
-0.31037765531253875   -0.016559705338958154   -0.0017576123320457559
-0.31991754218032264   -0.025730531226587486   0.006277061507948753
-0.31991754218032264   -0.025730531226587486   0.006277061507948753
-0.31991754218032264   -0.025730531226587486   0.006277061507948753
-0.31991754218032264   -0.025730531226587486   0.006277061507948753
-0.20883489944197411   0.0004992075391626674   -0.0011432037120004835
-0.20883489944197411   0.0004992075391626674   -0.0011432037120004835
-0.20883489944197411   0.0004992075391626674   -0.0011432037120004835
-0.20883489944197411   0.0004992075391626674   -0.0011432037120004835
-0.24839614805035098   -0.005511547219677171   0.0018216572561685351
-0.24839614805035098   -0.005511547219677171   0.0018216572561685351
-0.24839614805035098   -0.005511547219677171   0.0018216572561685351
-0.24839614805035098   -0.005511547219677171   0.0018216572561685351
0.19319989844127616   0.01077059119750794   -0.006110174245353968
0.19319989844127616   0.01077059119750794   -0.006110174245353968
0.19319989844127616   0.01077059119750794   -0.006110174245353968
0.19319989844127616   0.01077059119750794   -0.006110174245353968
0.09457059138509367   -0.000937801933338412   0.0019952309376294634
0.09457059138509367   -0.000937801933338412   0.0019952309376294634
0.09457059138509367   -0.000937801933338412   0.0019952309376294634
0.09457059138509367   -0.000937801933338412   0.0019952309376294634
0.0872749532122662   -0.013654979958101932   -0.0057742271841957765
0.0872749532122662   -0.013654979958101932   -0.0057742271841957765
0.0872749532122662   -0.013654979958101932   -0.0057742271841957765
0.0872749532122662   -0.013654979958101932   -0.0057742271841957765
0.18997681875328717   0.015226295630456438   0.0025302846241248757
0.18997681875328717   0.015226295630456438   0.0025302846241248757
0.18997681875328717   0.015226295630456438   0.0025302846241248757
0.18997681875328717   0.015226295630456438   0.0025302846241248757
0.13395239023314162   0.0011444728548286112   -0.004430514004543928
0.13395239023314162   0.0011444728548286112   -0.004430514004543928
0.13395239023314162   0.0011444728548286112   -0.004430514004543928
0.13395239023314162   0.0011444728548286112   -0.004430514004543928
0.18646051276513467   0.006143322876729168   -0.005968272562908751
0.18646051276513467   0.006143322876729168   -0.005968272562908751
0.18646051276513467   0.006143322876729168   -0.005968272562908751
0.18646051276513467   0.006143322876729168   -0.005968272562908751
0.09065684684976065   -0.0047064195550326725   0.002186680600205824
0.09065684684976065   -0.0047064195550326725   0.002186680600205824
0.09065684684976065   -0.0047064195550326725   0.002186680600205824
0.09065684684976065   -0.0047064195550326725   0.002186680600205824
0.08363419913921025   -0.014674235283591922   -0.005068288432516221
0.08363419913921025   -0.014674235283591922   -0.005068288432516221
0.08363419913921025   -0.014674235283591922   -0.005068288432516221
0.08363419913921025   -0.014674235283591922   -0.005068288432516221
0.1845573140737267   0.013784854130346563   0.0035783058800900906
0.1845573140737267   0.013784854130346563   0.0035783058800900906
0.1845573140737267   0.013784854130346563   0.0035783058800900906
0.1845573140737267   0.013784854130346563   0.0035783058800900906
0.13140880265617216   -0.0007819315425652423   -0.005566454630601025
0.13140880265617216   -0.0007819315425652423   -0.005566454630601025
0.13140880265617216   -0.0007819315425652423   -0.005566454630601025
0.13140880265617216   -0.0007819315425652423   -0.005566454630601025
0.18110078374451496   0.0048740341640404194   -0.004793525799659255
0.18110078374451496   0.0048740341640404194   -0.004793525799659255
0.18110078374451496   0.0048740341640404194   -0.004793525799659255
0.18110078374451496   0.0048740341640404194   -0.004793525799659255
0.08695565536874222   -0.005898489416965157   0.0027632468485159828
0.08695565536874222   -0.005898489416965157   0.0027632468485159828
0.08695565536874222   -0.005898489416965157   0.0027632468485159828
0.08695565536874222   -0.005898489416965157   0.0027632468485159828
0.08034879595341457   -0.014692976215648815   -0.00415673056019919
0.08034879595341457   -0.014692976215648815   -0.00415673056019919
0.08034879595341457   -0.014692976215648815   -0.00415673056019919
0.08034879595341457   -0.014692976215648815   -0.00415673056019919
0.17844870806563795   0.012737135112124959   0.004565314766724641
0.17844870806563795   0.012737135112124959   0.004565314766724641
0.17844870806563795   0.012737135112124959   0.004565314766724641
0.17844870806563795   0.012737135112124959   0.004565314766724641
0.12449480467573656   -0.0020168000378521407   -0.007439361305168231
0.12449480467573656   -0.0020168000378521407   -0.007439361305168231
0.12449480467573656   -0.0020168000378521407   -0.007439361305168231
0.12449480467573656   -0.0020168000378521407   -0.007439361305168231
0.09662700141647229   0.010426917260765304   0.0009125619004188416
0.09662700141647229   0.010426917260765304   0.0009125619004188416
0.09662700141647229   0.010426917260765304   0.0009125619004188416
0.09662700141647229   0.010426917260765304   0.0009125619004188416
0.0015376083688951215   -0.003770971594803314   -0.0006192100013384194
0.0015376083688951215   -0.003770971594803314   -0.0006192100013384194
0.0015376083688951215   -0.003770971594803314   -0.0006192100013384194
0.0015376083688951215   -0.003770971594803314   -0.0006192100013384194
-0.003972037950381368   -0.012405780686198704   -0.004053604769562388
-0.003972037950381368   -0.012405780686198704   -0.004053604769562388
-0.003972037950381368   -0.012405780686198704   -0.004053604769562388
-0.003972037950381368   -0.012405780686198704   -0.004053604769562388
0.09496235186417773   0.013955535580953811   0.005052250536304718
0.09496235186417773   0.013955535580953811   0.005052250536304718
0.09496235186417773   0.013955535580953811   0.005052250536304718
0.09496235186417773   0.013955535580953811   0.005052250536304718
0.046543661446760566   0.0019997161950299942   -0.0004398466667684289
0.046543661446760566   0.0019997161950299942   -0.0004398466667684289
0.046543661446760566   0.0019997161950299942   -0.0004398466667684289
0.046543661446760566   0.0019997161950299942   -0.0004398466667684289
0.0930506236714039   0.00808275135229063   0.0013663938010990218
0.0930506236714039   0.00808275135229063   0.0013663938010990218
0.0930506236714039   0.00808275135229063   0.0013663938010990218
0.0930506236714039   0.00808275135229063   0.0013663938010990218
-0.002020143813032091   -0.006492830512960031   -0.0002070842560546798
-0.002020143813032091   -0.006492830512960031   -0.0002070842560546798
-0.002020143813032091   -0.006492830512960031   -0.0002070842560546798
-0.002020143813032091   -0.006492830512960031   -0.0002070842560546798
-0.007417741795302676   -0.01404170145493284   -0.003547282827077355
-0.007417741795302676   -0.01404170145493284   -0.003547282827077355
-0.007417741795302676   -0.01404170145493284   -0.003547282827077355
-0.007417741795302676   -0.01404170145493284   -0.003547282827077355
0.09105296720130793   0.011786773344047916   0.005564543250331395
0.09105296720130793   0.011786773344047916   0.005564543250331395
0.09105296720130793   0.011786773344047916   0.005564543250331395
0.09105296720130793   0.011786773344047916   0.005564543250331395
0.042252521477547114   -0.00016922906386998733   -0.0016595650121551567
0.042252521477547114   -0.00016922906386998733   -0.0016595650121551567
0.042252521477547114   -0.00016922906386998733   -0.0016595650121551567
0.042252521477547114   -0.00016922906386998733   -0.0016595650121551567
0.08922061791431064   0.006361117570236732   0.0018284525891571817
0.08922061791431064   0.006361117570236732   0.0018284525891571817
0.08922061791431064   0.006361117570236732   0.0018284525891571817
0.08922061791431064   0.006361117570236732   0.0018284525891571817
-0.005584303876459319   -0.00861495704927541   0.00019316236148200164
-0.005584303876459319   -0.00861495704927541   0.00019316236148200164
-0.005584303876459319   -0.00861495704927541   0.00019316236148200164
-0.005584303876459319   -0.00861495704927541   0.00019316236148200164
-0.010815868407591113   -0.01492340756318728   -0.0028925106919272473
-0.010815868407591113   -0.01492340756318728   -0.0028925106919272473
-0.010815868407591113   -0.01492340756318728   -0.0028925106919272473
-0.010815868407591113   -0.01492340756318728   -0.0028925106919272473
0.0873315609073106   0.010038326795007038   0.006025791198624099
0.0873315609073106   0.010038326795007038   0.006025791198624099
0.0873315609073106   0.010038326795007038   0.006025791198624099
0.0873315609073106   0.010038326795007038   0.006025791198624099
0.039211049823459104   -0.0014439375487628574   -0.0025208415026280657
0.039211049823459104   -0.0014439375487628574   -0.0025208415026280657
0.039211049823459104   -0.0014439375487628574   -0.0025208415026280657
0.039211049823459104   -0.0014439375487628574   -0.0025208415026280657
0.004903513734981802   0.01019723627461815   0.00224210895967352
0.004903513734981802   0.01019723627461815   0.00224210895967352
0.004903513734981802   0.01019723627461815   0.00224210895967352
0.004903513734981802   0.01019723627461815   0.00224210895967352
-0.0888534760717329   -0.006169357450173496   -0.0030016520655901753
-0.0888534760717329   -0.006169357450173496   -0.0030016520655901753
-0.0888534760717329   -0.006169357450173496   -0.0030016520655901753
-0.0888534760717329   -0.006169357450173496   -0.0030016520655901753
-0.0931472710474669   -0.011625807531086087   -0.002766172092304094
-0.0931472710474669   -0.011625807531086087   -0.002766172092304094
-0.0931472710474669   -0.011625807531086087   -0.002766172092304094
-0.0931472710474669   -0.011625807531086087   -0.002766172092304094
0.0021228752196910837   0.011469285589016399   0.0025458948055847638
0.0021228752196910837   0.011469285589016399   0.0025458948055847638
0.0021228752196910837   0.011469285589016399   0.0025458948055847638
0.0021228752196910837   0.011469285589016399   0.0025458948055847638
-0.043682722277537424   0.0011162588170898057   0.00022188334240399272
-0.043682722277537424   0.0011162588170898057   0.00022188334240399272
-0.043682722277537424   0.0011162588170898057   0.00022188334240399272
-0.043682722277537424   0.0011162588170898057   0.00022188334240399272
0.0015502343008114625   0.008414435930892514   0.002737539869310543
0.0015502343008114625   0.008414435930892514   0.002737539869310543
0.0015502343008114625   0.008414435930892514   0.002737539869310543
0.0015502343008114625   0.008414435930892514   0.002737539869310543
-0.09247667350106614   -0.008473001245442344   -0.0025659906459440497
-0.09247667350106614   -0.008473001245442344   -0.0025659906459440497
-0.09247667350106614   -0.008473001245442344   -0.0025659906459440497
-0.09247667350106614   -0.008473001245442344   -0.0025659906459440497
-0.09683744268329662   -0.013411910182699978   -0.002373204924543759
-0.09683744268329662   -0.013411910182699978   -0.002373204924543759
-0.09683744268329662   -0.013411910182699978   -0.002373204924543759
-0.09683744268329662   -0.013411910182699978   -0.002373204924543759
-0.0014397638314106688   0.009244456412156498   0.0030564491252928626
-0.0014397638314106688   0.009244456412156498   0.0030564491252928626
-0.0014397638314106688   0.009244456412156498   0.0030564491252928626
-0.0014397638314106688   0.009244456412156498   0.0030564491252928626
-0.04722597533866793   -0.0006799103182266713   -0.0006696791673465687
-0.04722597533866793   -0.0006799103182266713   -0.0006696791673465687
-0.04722597533866793   -0.0006799103182266713   -0.0006696791673465687
-0.04722597533866793   -0.0006799103182266713   -0.0006696791673465687
-0.0019206155318072281   0.006687854699666717   0.0032087923358003288
-0.0019206155318072281   0.006687854699666717   0.0032087923358003288
-0.0019206155318072281   0.006687854699666717   0.0032087923358003288
-0.0019206155318072281   0.006687854699666717   0.0032087923358003288
-0.09627857373965484   -0.010777291226964737   -0.002213479162069136
-0.09627857373965484   -0.010777291226964737   -0.002213479162069136
-0.09627857373965484   -0.010777291226964737   -0.002213479162069136
-0.09627857373965484   -0.010777291226964737   -0.002213479162069136
-0.10049141476669675   -0.01479622266331274   -0.001713486881302008
-0.10049141476669675   -0.01479622266331274   -0.001713486881302008
-0.10049141476669675   -0.01479622266331274   -0.001713486881302008
-0.10049141476669675   -0.01479622266331274   -0.001713486881302008
-0.005135803543119382   0.00714879352436624   0.0034356125428783666
-0.005135803543119382   0.00714879352436624   0.0034356125428783666
-0.005135803543119382   0.00714879352436624   0.0034356125428783666
-0.005135803543119382   0.00714879352436624   0.0034356125428783666
-0.051042717908181476   -0.0025032186813470653   -0.0016572583160314267
-0.051042717908181476   -0.0025032186813470653   -0.0016572583160314267
-0.051042717908181476   -0.0025032186813470653   -0.0016572583160314267
-0.051042717908181476   -0.0025032186813470653   -0.0016572583160314267
-0.08395409579420476   0.011606889506094113   0.0037190023657843723
-0.08395409579420476   0.011606889506094113   0.0037190023657843723
-0.08395409579420476   0.011606889506094113   0.0037190023657843723
-0.08395409579420476   0.011606889506094113   0.0037190023657843723
-0.17704024488357556   -0.008350170187351576   -0.00482018353477952
-0.17704024488357556   -0.008350170187351576   -0.00482018353477952
-0.17704024488357556   -0.008350170187351576   -0.00482018353477952
-0.17704024488357556   -0.008350170187351576   -0.00482018353477952
-0.1803629766894382   -0.009807203000004972   -0.0011630667837538603
-0.1803629766894382   -0.009807203000004972   -0.0011630667837538603
-0.1803629766894382   -0.009807203000004972   -0.0011630667837538603
-0.1803629766894382   -0.009807203000004972   -0.0011630667837538603
-0.08849295859586272   0.008812716429177126   6.686620545408133e-05
-0.08849295859586272   0.008812716429177126   6.686620545408133e-05
-0.08849295859586272   0.008812716429177126   6.686620545408133e-05
-0.08849295859586272   0.008812716429177126   6.686620545408133e-05
-0.13149560749247338   0.0009064631263363543   0.0010025555413819814
-0.13149560749247338   0.0009064631263363543   0.0010025555413819814
-0.13149560749247338   0.0009064631263363543   0.0010025555413819814
-0.13149560749247338   0.0009064631263363543   0.0010025555413819814
-0.08747245254107412   0.009833281473444543   0.004148831435129644
-0.08747245254107412   0.009833281473444543   0.004148831435129644
-0.08747245254107412   0.009833281473444543   0.004148831435129644
-0.08747245254107412   0.009833281473444543   0.004148831435129644
-0.18126810212967   -0.010712387429715836   -0.00478350955520346
-0.18126810212967   -0.010712387429715836   -0.00478350955520346
-0.18126810212967   -0.010712387429715836   -0.00478350955520346
-0.18126810212967   -0.010712387429715836   -0.00478350955520346
-0.1848943226348983   -0.01182981808621517   -0.0011314164347812636
-0.1848943226348983   -0.01182981808621517   -0.0011314164347812636
-0.1848943226348983   -0.01182981808621517   -0.0011314164347812636
-0.1848943226348983   -0.01182981808621517   -0.0011314164347812636
-0.09223956083914825   0.00669021831497588   0.0005140757985231713
-0.09223956083914825   0.00669021831497588   0.0005140757985231713
-0.09223956083914825   0.00669021831497588   0.0005140757985231713
-0.09223956083914825   0.00669021831497588   0.0005140757985231713
-0.13455773644410063   -0.0006721220958254594   0.00028209781282581125
-0.13455773644410063   -0.0006721220958254594   0.00028209781282581125
-0.13455773644410063   -0.0006721220958254594   0.00028209781282581125
-0.13455773644410063   -0.0006721220958254594   0.00028209781282581125
-0.09111175230971424   0.008101372181593014   0.004741964579075597
-0.09111175230971424   0.008101372181593014   0.004741964579075597
-0.09111175230971424   0.008101372181593014   0.004741964579075597
-0.09111175230971424   0.008101372181593014   0.004741964579075597
-0.18576308351835402   -0.012981924306854489   -0.004323114631422916
-0.18576308351835402   -0.012981924306854489   -0.004323114631422916
-0.18576308351835402   -0.012981924306854489   -0.004323114631422916
-0.18576308351835402   -0.012981924306854489   -0.004323114631422916
-0.18904082127185887   -0.014020946595852853   -8.84189049803908e-05
-0.18904082127185887   -0.014020946595852853   -8.84189049803908e-05
-0.18904082127185887   -0.014020946595852853   -8.84189049803908e-05
-0.18904082127185887   -0.014020946595852853   -8.84189049803908e-05
-0.09621206232334355   0.004109809421305566   0.0007772432508471854
-0.09621206232334355   0.004109809421305566   0.0007772432508471854
-0.09621206232334355   0.004109809421305566   0.0007772432508471854
-0.09621206232334355   0.004109809421305566   0.0007772432508471854
-0.13963872989293652   -0.003035973523088601   -0.0007405853996341714
-0.13963872989293652   -0.003035973523088601   -0.0007405853996341714
-0.13963872989293652   -0.003035973523088601   -0.0007405853996341714
-0.13963872989293652   -0.003035973523088601   -0.0007405853996341714
-0.171049166637597   0.011769918067621107   0.005015119440139592
-0.171049166637597   0.011769918067621107   0.005015119440139592
-0.171049166637597   0.011769918067621107   0.005015119440139592
-0.171049166637597   0.011769918067621107   0.005015119440139592
-0.26207159494273274   -0.012235360004188844   -0.004117584051969405
-0.26207159494273274   -0.012235360004188844   -0.004117584051969405
-0.26207159494273274   -0.012235360004188844   -0.004117584051969405
-0.26207159494273274   -0.012235360004188844   -0.004117584051969405
-0.2651338420972872   -0.006089578302057183   0.004133054924495064
-0.2651338420972872   -0.006089578302057183   0.004133054924495064
-0.2651338420972872   -0.006089578302057183   0.004133054924495064
-0.2651338420972872   -0.006089578302057183   0.004133054924495064
-0.17743573964272186   0.005745969915801057   -0.002080054465978252
-0.17743573964272186   0.005745969915801057   -0.002080054465978252
-0.17743573964272186   0.005745969915801057   -0.002080054465978252
-0.17743573964272186   0.005745969915801057   -0.002080054465978252
-0.20915853332031603   0.0022302035947977736   0.005019346077272108
-0.20915853332031603   0.0022302035947977736   0.005019346077272108
-0.20915853332031603   0.0022302035947977736   0.005019346077272108
-0.20915853332031603   0.0022302035947977736   0.005019346077272108
-0.17454213891355597   0.012357445974100066   0.005776473121550146
-0.17454213891355597   0.012357445974100066   0.005776473121550146
-0.17454213891355597   0.012357445974100066   0.005776473121550146
-0.17454213891355597   0.012357445974100066   0.005776473121550146
-0.26785911865179846   -0.012532730185701134   -0.0030501759644126197
-0.26785911865179846   -0.012532730185701134   -0.0030501759644126197
-0.26785911865179846   -0.012532730185701134   -0.0030501759644126197
-0.26785911865179846   -0.012532730185701134   -0.0030501759644126197
-0.2707817350016102   -0.007151587813179906   0.005687054985916958
-0.2707817350016102   -0.007151587813179906   0.005687054985916958
-0.2707817350016102   -0.007151587813179906   0.005687054985916958
-0.2707817350016102   -0.007151587813179906   0.005687054985916958
-0.18176267193840326   0.004530804160404793   -0.0018337851989258889
-0.18176267193840326   0.004530804160404793   -0.0018337851989258889
-0.18176267193840326   0.004530804160404793   -0.0018337851989258889
-0.18176267193840326   0.004530804160404793   -0.0018337851989258889
-0.21737339834686434   0.0011444731012796305   0.0034622104876382113
-0.21737339834686434   0.0011444731012796305   0.0034622104876382113
-0.21737339834686434   0.0011444731012796305   0.0034622104876382113
-0.21737339834686434   0.0011444731012796305   0.0034622104876382113
-0.1785602833511876   0.011580903249360536   0.0071280586481965395
-0.1785602833511876   0.011580903249360536   0.0071280586481965395
-0.1785602833511876   0.011580903249360536   0.0071280586481965395
-0.1785602833511876   0.011580903249360536   0.0071280586481965395
-0.273811365464158   -0.014028928777467066   -0.002583756362530361
-0.273811365464158   -0.014028928777467066   -0.002583756362530361
-0.273811365464158   -0.014028928777467066   -0.002583756362530361
-0.273811365464158   -0.014028928777467066   -0.002583756362530361
-0.2784588582454194   -0.012093047759679544   0.005519478597233734
-0.2784588582454194   -0.012093047759679544   0.005519478597233734
-0.2784588582454194   -0.012093047759679544   0.005519478597233734
-0.2784588582454194   -0.012093047759679544   0.005519478597233734
-0.1864526831593927   0.0005799789664643687   -0.0017486539049667797
-0.1864526831593927   0.0005799789664643687   -0.0017486539049667797
-0.1864526831593927   0.0005799789664643687   -0.0017486539049667797
-0.1864526831593927   0.0005799789664643687   -0.0017486539049667797
-0.21916722165178976   -0.0005549611723280681   0.0030745235963354385
-0.21916722165178976   -0.0005549611723280681   0.0030745235963354385
-0.21916722165178976   -0.0005549611723280681   0.0030745235963354385
-0.21916722165178976   -0.0005549611723280681   0.0030745235963354385
0.15153611283825533   0.008766284409139045   -0.006449858803144915
0.15153611283825533   0.008766284409139045   -0.006449858803144915
0.15153611283825533   0.008766284409139045   -0.006449858803144915
0.15153611283825533   0.008766284409139045   -0.006449858803144915
0.07125876649940845   0.0006943257192230604   0.0022838153559668595
0.07125876649940845   0.0006943257192230604   0.0022838153559668595
0.07125876649940845   0.0006943257192230604   0.0022838153559668595
0.07125876649940845   0.0006943257192230604   0.0022838153559668595
0.06417966672207175   -0.011685698356532836   -0.00623253327961376
0.06417966672207175   -0.011685698356532836   -0.00623253327961376
0.06417966672207175   -0.011685698356532836   -0.00623253327961376
0.06417966672207175   -0.011685698356532836   -0.00623253327961376
0.14870316964225902   0.01353193421155063   0.0028499651955036986
0.14870316964225902   0.01353193421155063   0.0028499651955036986
0.14870316964225902   0.01353193421155063   0.0028499651955036986
0.14870316964225902   0.01353193421155063   0.0028499651955036986
0.10329392250090319   0.0013672201527193464   -0.0030744311630064095
0.10329392250090319   0.0013672201527193464   -0.0030744311630064095
0.10329392250090319   0.0013672201527193464   -0.0030744311630064095
0.10329392250090319   0.0013672201527193464   -0.0030744311630064095
0.14509497395490104   0.004510044950007199   -0.006169123979742868
0.14509497395490104   0.004510044950007199   -0.006169123979742868
0.14509497395490104   0.004510044950007199   -0.006169123979742868
0.14509497395490104   0.004510044950007199   -0.006169123979742868
0.06772256047309189   -0.0027291110313273637   0.002525348150280893
0.06772256047309189   -0.0027291110313273637   0.002525348150280893
0.06772256047309189   -0.0027291110313273637   0.002525348150280893
0.06772256047309189   -0.0027291110313273637   0.002525348150280893
0.06090744808341785   -0.012734545095983821   -0.005368824261252966
0.06090744808341785   -0.012734545095983821   -0.005368824261252966
0.06090744808341785   -0.012734545095983821   -0.005368824261252966
0.06090744808341785   -0.012734545095983821   -0.005368824261252966
0.14360567461847418   0.012007604346008848   0.0038465274589478153
0.14360567461847418   0.012007604346008848   0.0038465274589478153
0.14360567461847418   0.012007604346008848   0.0038465274589478153
0.14360567461847418   0.012007604346008848   0.0038465274589478153
0.10060863022922302   -0.0005169655691566639   -0.00410587024712591
0.10060863022922302   -0.0005169655691566639   -0.00410587024712591
0.10060863022922302   -0.0005169655691566639   -0.00410587024712591
0.10060863022922302   -0.0005169655691566639   -0.00410587024712591
0.1400625748057456   0.0031649763741615003   -0.005026343632846465
0.1400625748057456   0.0031649763741615003   -0.005026343632846465
0.1400625748057456   0.0031649763741615003   -0.005026343632846465
0.1400625748057456   0.0031649763741615003   -0.005026343632846465
0.06435353579201063   -0.00398892922827342   0.0031159984140000244
0.06435353579201063   -0.00398892922827342   0.0031159984140000244
0.06435353579201063   -0.00398892922827342   0.0031159984140000244
0.06435353579201063   -0.00398892922827342   0.0031159984140000244
0.05799215950548497   -0.013163737959790669   -0.004482502032700522
0.05799215950548497   -0.013163737959790669   -0.004482502032700522
0.05799215950548497   -0.013163737959790669   -0.004482502032700522
0.05799215950548497   -0.013163737959790669   -0.004482502032700522
0.13782686233447508   0.010514577242216477   0.004652795511747544
0.13782686233447508   0.010514577242216477   0.004652795511747544
0.13782686233447508   0.010514577242216477   0.004652795511747544
0.13782686233447508   0.010514577242216477   0.004652795511747544
0.09455361288130983   -0.0018644603314576444   -0.005760994456612142
0.09455361288130983   -0.0018644603314576444   -0.005760994456612142
0.09455361288130983   -0.0018644603314576444   -0.005760994456612142
0.09455361288130983   -0.0018644603314576444   -0.005760994456612142
0.07276849303234531   0.010587001738439978   -6.0227998564484075e-05
0.07276849303234531   0.010587001738439978   -6.0227998564484075e-05
0.07276849303234531   0.010587001738439978   -6.0227998564484075e-05
0.07276849303234531   0.010587001738439978   -6.0227998564484075e-05
-0.005547922067413573   -0.0015627493597076803   -0.00024699565036136
-0.005547922067413573   -0.0015627493597076803   -0.00024699565036136
-0.005547922067413573   -0.0015627493597076803   -0.00024699565036136
-0.005547922067413573   -0.0015627493597076803   -0.00024699565036136
-0.010540535172878278   -0.00897043834569251   -0.0040747320598708905
-0.010540535172878278   -0.00897043834569251   -0.0040747320598708905
-0.010540535172878278   -0.00897043834569251   -0.0040747320598708905
-0.010540535172878278   -0.00897043834569251   -0.0040747320598708905
0.07116621238428586   0.01240671440485475   0.0046077822700686805
0.07116621238428586   0.01240671440485475   0.0046077822700686805
0.07116621238428586   0.01240671440485475   0.0046077822700686805
0.07116621238428586   0.01240671440485475   0.0046077822700686805
0.03145806085078988   0.0029641653203128842   0.000279706568706715
0.03145806085078988   0.0029641653203128842   0.000279706568706715
0.03145806085078988   0.0029641653203128842   0.000279706568706715
0.03145806085078988   0.0029641653203128842   0.000279706568706715
0.06944512845536713   0.007936213498330704   0.00047286353199979276
0.06944512845536713   0.007936213498330704   0.00047286353199979276
0.06944512845536713   0.007936213498330704   0.00047286353199979276
0.06944512845536713   0.007936213498330704   0.00047286353199979276
-0.008793922077871462   -0.00447440827308154   0.00016230334255222393
-0.008793922077871462   -0.00447440827308154   0.00016230334255222393
-0.008793922077871462   -0.00447440827308154   0.00016230334255222393
-0.008793922077871462   -0.00447440827308154   0.00016230334255222393
-0.013615149993663068   -0.010942981898885764   -0.0034161157693660222
-0.013615149993663068   -0.010942981898885764   -0.0034161157693660222
-0.013615149993663068   -0.010942981898885764   -0.0034161157693660222
-0.013615149993663068   -0.010942981898885764   -0.0034161157693660222
0.06752800463409961   0.00997262850618632   0.005026784889985174
0.06752800463409961   0.00997262850618632   0.005026784889985174
0.06752800463409961   0.00997262850618632   0.005026784889985174
0.06752800463409961   0.00997262850618632   0.005026784889985174
0.027597033536214243   0.000532955634506691   -0.0009327883324100356
0.027597033536214243   0.000532955634506691   -0.0009327883324100356
0.027597033536214243   0.000532955634506691   -0.0009327883324100356
0.027597033536214243   0.000532955634506691   -0.0009327883324100356
0.06586877020315084   0.005814727952197828   0.0008885132892303524
0.06586877020315084   0.005814727952197828   0.0008885132892303524
0.06586877020315084   0.005814727952197828   0.0008885132892303524
0.06586877020315084   0.005814727952197828   0.0008885132892303524
-0.011988302428481548   -0.006817468210663151   0.0005926083683189694
-0.011988302428481548   -0.006817468210663151   0.0005926083683189694
-0.011988302428481548   -0.006817468210663151   0.0005926083683189694
-0.011988302428481548   -0.006817468210663151   0.0005926083683189694
-0.01663919556989492   -0.012520778805863431   -0.002798980328522723
-0.01663919556989492   -0.012520778805863431   -0.002798980328522723
-0.01663919556989492   -0.012520778805863431   -0.002798980328522723
-0.01663919556989492   -0.012520778805863431   -0.002798980328522723
0.06416771360790739   0.007795758913988639   0.0054357716056317885
0.06416771360790739   0.007795758913988639   0.0054357716056317885
0.06416771360790739   0.007795758913988639   0.0054357716056317885
0.06416771360790739   0.007795758913988639   0.0054357716056317885
0.02474654083398752   -0.001212303538350121   -0.001910235065808322
0.02474654083398752   -0.001212303538350121   -0.001910235065808322
0.02474654083398752   -0.001212303538350121   -0.001910235065808322
0.02474654083398752   -0.001212303538350121   -0.001910235065808322
-0.002420767066795862   0.012068933968779954   0.0017570960242400376
-0.002420767066795862   0.012068933968779954   0.0017570960242400376
-0.002420767066795862   0.012068933968779954   0.0017570960242400376
-0.002420767066795862   0.012068933968779954   0.0017570960242400376
-0.08077051220562914   -0.004000236546074348   -0.0026726834253012655
-0.08077051220562914   -0.004000236546074348   -0.0026726834253012655
-0.08077051220562914   -0.004000236546074348   -0.0026726834253012655
-0.08077051220562914   -0.004000236546074348   -0.0026726834253012655
-0.08397895226976825   -0.006686285451069213   -0.002130132905376292
-0.08397895226976825   -0.006686285451069213   -0.002130132905376292
-0.08397895226976825   -0.006686285451069213   -0.002130132905376292
-0.08397895226976825   -0.006686285451069213   -0.002130132905376292
-0.005516057205853136   0.01000441019639166   0.0020728092331706435
-0.005516057205853136   0.01000441019639166   0.0020728092331706435
-0.005516057205853136   0.01000441019639166   0.0020728092331706435
-0.005516057205853136   0.01000441019639166   0.0020728092331706435
-0.04306587765518266   0.0028432933495182167   0.0008345885119231166
-0.04306587765518266   0.0028432933495182167   0.0008345885119231166
-0.04306587765518266   0.0028432933495182167   0.0008345885119231166
-0.04306587765518266   0.0028432933495182167   0.0008345885119231166
-0.005470822826099709   0.009918371070338034   0.00238502025799141
-0.005470822826099709   0.009918371070338034   0.00238502025799141
-0.005470822826099709   0.009918371070338034   0.00238502025799141
-0.005470822826099709   0.009918371070338034   0.00238502025799141
-0.08396906100186868   -0.006545120677362596   -0.002221841339585097
-0.08396906100186868   -0.006545120677362596   -0.002221841339585097
-0.08396906100186868   -0.006545120677362596   -0.002221841339585097
-0.08396906100186868   -0.006545120677362596   -0.002221841339585097
-0.08713110061129636   -0.008818287429853685   -0.0015659333048723646
-0.08713110061129636   -0.008818287429853685   -0.0015659333048723646
-0.08713110061129636   -0.008818287429853685   -0.0015659333048723646
-0.08713110061129636   -0.008818287429853685   -0.0015659333048723646
-0.008729153072800398   0.007500623448232353   0.002570263487829215
-0.008729153072800398   0.007500623448232353   0.002570263487829215
-0.008729153072800398   0.007500623448232353   0.002570263487829215
-0.008729153072800398   0.007500623448232353   0.002570263487829215
-0.04625091486437479   0.0006999233800035094   -0.00013186675804289236
-0.04625091486437479   0.0006999233800035094   -0.00013186675804289236
-0.04625091486437479   0.0006999233800035094   -0.00013186675804289236
-0.04625091486437479   0.0006999233800035094   -0.00013186675804289236
-0.008616441094456053   0.00777060041670459   0.002863846411078702
-0.008616441094456053   0.00777060041670459   0.002863846411078702
-0.008616441094456053   0.00777060041670459   0.002863846411078702
-0.008616441094456053   0.00777060041670459   0.002863846411078702
-0.08723503232377679   -0.009079484132462005   -0.0018243951646661838
-0.08723503232377679   -0.009079484132462005   -0.0018243951646661838
-0.08723503232377679   -0.009079484132462005   -0.0018243951646661838
-0.08723503232377679   -0.009079484132462005   -0.0018243951646661838
-0.0902338015543582   -0.010758064460811506   -0.0010006793717792111
-0.0902338015543582   -0.010758064460811506   -0.0010006793717792111
-0.0902338015543582   -0.010758064460811506   -0.0010006793717792111
-0.0902338015543582   -0.010758064460811506   -0.0010006793717792111
-0.011963979161084012   0.005079463538113998   0.0029768593715539062
-0.011963979161084012   0.005079463538113998   0.0029768593715539062
-0.011963979161084012   0.005079463538113998   0.0029768593715539062
-0.011963979161084012   0.005079463538113998   0.0029768593715539062
-0.04959103789755213   -0.001456090257096681   -0.0012152896135433485
-0.04959103789755213   -0.001456090257096681   -0.0012152896135433485
-0.04959103789755213   -0.001456090257096681   -0.0012152896135433485
-0.04959103789755213   -0.001456090257096681   -0.0012152896135433485
-0.07603302297508462   0.013515180114643095   0.0034993460667028953
-0.07603302297508462   0.013515180114643095   0.0034993460667028953
-0.07603302297508462   0.013515180114643095   0.0034993460667028953
-0.07603302297508462   0.013515180114643095   0.0034993460667028953
-0.15484319425886486   -0.0065303034763849015   -0.004704741149024988
-0.15484319425886486   -0.0065303034763849015   -0.004704741149024988
-0.15484319425886486   -0.0065303034763849015   -0.004704741149024988
-0.15484319425886486   -0.0065303034763849015   -0.004704741149024988
-0.15657193705012734   -0.004820573009260969   -2.0602532471750493e-05
-0.15657193705012734   -0.004820573009260969   -2.0602532471750493e-05
-0.15657193705012734   -0.004820573009260969   -2.0602532471750493e-05
-0.15657193705012734   -0.004820573009260969   -2.0602532471750493e-05
-0.08084915737212865   0.007267434400949749   -0.0004348782691963489
-0.08084915737212865   0.007267434400949749   -0.0004348782691963489
-0.08084915737212865   0.007267434400949749   -0.0004348782691963489
-0.08084915737212865   0.007267434400949749   -0.0004348782691963489
-0.11628416840635925   0.002474468494073862   0.0014031978322056925
-0.11628416840635925   0.002474468494073862   0.0014031978322056925
-0.11628416840635925   0.002474468494073862   0.0014031978322056925
-0.11628416840635925   0.002474468494073862   0.0014031978322056925
-0.07909466532869448   0.011500004259420521   0.004105012089502808
-0.07909466532869448   0.011500004259420521   0.004105012089502808
-0.07909466532869448   0.011500004259420521   0.004105012089502808
-0.07909466532869448   0.011500004259420521   0.004105012089502808
-0.15832457958023   -0.009051293354400386   -0.004553094837845651
-0.15832457958023   -0.009051293354400386   -0.004553094837845651
-0.15832457958023   -0.009051293354400386   -0.004553094837845651
-0.15832457958023   -0.009051293354400386   -0.004553094837845651
-0.16025126690437172   -0.006981740690222473   0.00016598683775486626
-0.16025126690437172   -0.006981740690222473   0.00016598683775486626
-0.16025126690437172   -0.006981740690222473   0.00016598683775486626
-0.16025126690437172   -0.006981740690222473   0.00016598683775486626
-0.08405346411099264   0.004944716327275802   5.924543951779139e-05
-0.08405346411099264   0.004944716327275802   5.924543951779139e-05
-0.08405346411099264   0.004944716327275802   5.924543951779139e-05
-0.08405346411099264   0.004944716327275802   5.924543951779139e-05
-0.11888033513062234   0.0006172401803447754   0.0005158479486036469
-0.11888033513062234   0.0006172401803447754   0.0005158479486036469
-0.11888033513062234   0.0006172401803447754   0.0005158479486036469
-0.11888033513062234   0.0006172401803447754   0.0005158479486036469
-0.08221778241751372   0.009523527405363073   0.0046588428288246
-0.08221778241751372   0.009523527405363073   0.0046588428288246
-0.08221778241751372   0.009523527405363073   0.0046588428288246
-0.08221778241751372   0.009523527405363073   0.0046588428288246
-0.16199834501267976   -0.011471948183138951   -0.004079196210868859
-0.16199834501267976   -0.011471948183138951   -0.004079196210868859
-0.16199834501267976   -0.011471948183138951   -0.004079196210868859
-0.16199834501267976   -0.011471948183138951   -0.004079196210868859
-0.16356033932282985   -0.009346386265573492   0.0008445418159382153
-0.16356033932282985   -0.009346386265573492   0.0008445418159382153
-0.16356033932282985   -0.009346386265573492   0.0008445418159382153
-0.16356033932282985   -0.009346386265573492   0.0008445418159382153
-0.08735215632685434   0.0022345045364318937   0.0004149777684971838
-0.08735215632685434   0.0022345045364318937   0.0004149777684971838
-0.08735215632685434   0.0022345045364318937   0.0004149777684971838
-0.08735215632685434   0.0022345045364318937   0.0004149777684971838
-0.12309108032590582   -0.0018261272020024914   -0.0006554881136151738
-0.12309108032590582   -0.0018261272020024914   -0.0006554881136151738
-0.12309108032590582   -0.0018261272020024914   -0.0006554881136151738
-0.12309108032590582   -0.0018261272020024914   -0.0006554881136151738
-0.14920121279471502   0.012131004812397025   0.004843857882942209
-0.14920121279471502   0.012131004812397025   0.004843857882942209
-0.14920121279471502   0.012131004812397025   0.004843857882942209
-0.14920121279471502   0.012131004812397025   0.004843857882942209
-0.2264282475788912   -0.010596575448701372   -0.004867038360308785
-0.2264282475788912   -0.010596575448701372   -0.004867038360308785
-0.2264282475788912   -0.010596575448701372   -0.004867038360308785
-0.2264282475788912   -0.010596575448701372   -0.004867038360308785
-0.22856078029816415   -0.0031840595276393935   0.004394838972254112
-0.22856078029816415   -0.0031840595276393935   0.004394838972254112
-0.22856078029816415   -0.0031840595276393935   0.004394838972254112
-0.22856078029816415   -0.0031840595276393935   0.004394838972254112
-0.1553219430720376   0.004086020470915455   -0.002677226122199417
-0.1553219430720376   0.004086020470915455   -0.002677226122199417
-0.1553219430720376   0.004086020470915455   -0.002677226122199417
-0.1553219430720376   0.004086020470915455   -0.002677226122199417
-0.18140154973696174   0.002497831919709155   0.004609617310839835
-0.18140154973696174   0.002497831919709155   0.004609617310839835
-0.18140154973696174   0.002497831919709155   0.004609617310839835
-0.18140154973696174   0.002497831919709155   0.004609617310839835
-0.15198696963136285   0.012390389268073197   0.005693272284015779
-0.15198696963136285   0.012390389268073197   0.005693272284015779
-0.15198696963136285   0.012390389268073197   0.005693272284015779
-0.15198696963136285   0.012390389268073197   0.005693272284015779
-0.23185384648520876   -0.0114465210711681   -0.00380803041943833
-0.23185384648520876   -0.0114465210711681   -0.00380803041943833
-0.23185384648520876   -0.0114465210711681   -0.00380803041943833
-0.23185384648520876   -0.0114465210711681   -0.00380803041943833
-0.2334118048170858   -0.004336561257931339   0.005478520588083681
-0.2334118048170858   -0.004336561257931339   0.005478520588083681
-0.2334118048170858   -0.004336561257931339   0.005478520588083681
-0.2334118048170858   -0.004336561257931339   0.005478520588083681
-0.15877907859928223   0.0028157697031298695   -0.002270582030150046
-0.15877907859928223   0.0028157697031298695   -0.002270582030150046
-0.15877907859928223   0.0028157697031298695   -0.002270582030150046
-0.15877907859928223   0.0028157697031298695   -0.002270582030150046
-0.1885455396663176   0.0012395872292891158   0.0030046034434200643
-0.1885455396663176   0.0012395872292891158   0.0030046034434200643
-0.1885455396663176   0.0012395872292891158   0.0030046034434200643
-0.1885455396663176   0.0012395872292891158   0.0030046034434200643
-0.155243467226118   0.011538375875338056   0.006684868663462894
-0.155243467226118   0.011538375875338056   0.006684868663462894
-0.155243467226118   0.011538375875338056   0.006684868663462894
-0.155243467226118   0.011538375875338056   0.006684868663462894
-0.23686269726675058   -0.012974448506641062   -0.0031380544115287203
-0.23686269726675058   -0.012974448506641062   -0.0031380544115287203
-0.23686269726675058   -0.012974448506641062   -0.0031380544115287203
-0.23686269726675058   -0.012974448506641062   -0.0031380544115287203
-0.2398241558866078   -0.008688219308636148   0.005281827446745732
-0.2398241558866078   -0.008688219308636148   0.005281827446745732
-0.2398241558866078   -0.008688219308636148   0.005281827446745732
-0.2398241558866078   -0.008688219308636148   0.005281827446745732
-0.16246457014263527   -0.0009541224570251694   -0.0020688760916372055
-0.16246457014263527   -0.0009541224570251694   -0.0020688760916372055
-0.16246457014263527   -0.0009541224570251694   -0.0020688760916372055
-0.16246457014263527   -0.0009541224570251694   -0.0020688760916372055
-0.1899050921132477   -0.0004158473775940849   0.002554100094957842
-0.1899050921132477   -0.0004158473775940849   0.002554100094957842
-0.1899050921132477   -0.0004158473775940849   0.002554100094957842
-0.1899050921132477   -0.0004158473775940849   0.002554100094957842
0.10892758372953755   0.0064677274251915   -0.006517993344312356
0.10892758372953755   0.0064677274251915   -0.006517993344312356
0.10892758372953755   0.0064677274251915   -0.006517993344312356
0.10892758372953755   0.0064677274251915   -0.006517993344312356
0.046485449357149745   0.0022418746468540057   0.0026498411285015323
0.046485449357149745   0.0022418746468540057   0.0026498411285015323
0.046485449357149745   0.0022418746468540057   0.0026498411285015323
0.046485449357149745   0.0022418746468540057   0.0026498411285015323
0.039879801063596884   -0.010030105331552663   -0.006136863941350598
0.039879801063596884   -0.010030105331552663   -0.006136863941350598
0.039879801063596884   -0.010030105331552663   -0.006136863941350598
0.039879801063596884   -0.010030105331552663   -0.006136863941350598
0.10678393173109162   0.011869649391291601   0.003237139650479074
0.10678393173109162   0.011869649391291601   0.003237139650479074
0.10678393173109162   0.011869649391291601   0.003237139650479074
0.10678393173109162   0.011869649391291601   0.003237139650479074
0.07153676480600316   0.0015454097668087183   -0.0019406687173978746
0.07153676480600316   0.0015454097668087183   -0.0019406687173978746
0.07153676480600316   0.0015454097668087183   -0.0019406687173978746
0.07153676480600316   0.0015454097668087183   -0.0019406687173978746
0.10305429850027777   0.002603242934661444   -0.00614462004696095
0.10305429850027777   0.002603242934661444   -0.00614462004696095
0.10305429850027777   0.002603242934661444   -0.00614462004696095
0.10305429850027777   0.002603242934661444   -0.00614462004696095
0.04353813926066658   -0.0008349939086666949   0.0029597156211126348
0.04353813926066658   -0.0008349939086666949   0.0029597156211126348
0.04353813926066658   -0.0008349939086666949   0.0029597156211126348
0.04353813926066658   -0.0008349939086666949   0.0029597156211126348
0.0371069546012454   -0.011116495117490684   -0.0052752498413210685
0.0371069546012454   -0.011116495117490684   -0.0052752498413210685
0.0371069546012454   -0.011116495117490684   -0.0052752498413210685
0.0371069546012454   -0.011116495117490684   -0.0052752498413210685
0.10219545241883982   0.010319572370398098   0.004257936917818122
0.10219545241883982   0.010319572370398098   0.004257936917818122
0.10219545241883982   0.010319572370398098   0.004257936917818122
0.10219545241883982   0.010319572370398098   0.004257936917818122
0.06885472680175636   -0.00029346178639303583   -0.002973181689627142
0.06885472680175636   -0.00029346178639303583   -0.002973181689627142
0.06885472680175636   -0.00029346178639303583   -0.002973181689627142
0.06885472680175636   -0.00029346178639303583   -0.002973181689627142
0.09850596493658906   0.0012036427443621565   -0.005073570867400523
0.09850596493658906   0.0012036427443621565   -0.005073570867400523
0.09850596493658906   0.0012036427443621565   -0.005073570867400523
0.09850596493658906   0.0012036427443621565   -0.005073570867400523
0.04068217645571201   -0.00211483111923896   0.003599195432760643
0.04068217645571201   -0.00211483111923896   0.003599195432760643
0.04068217645571201   -0.00211483111923896   0.003599195432760643
0.04068217645571201   -0.00211483111923896   0.003599195432760643
0.034654323578471216   -0.01193302213327546   -0.004412662609708265
0.034654323578471216   -0.01193302213327546   -0.004412662609708265
0.034654323578471216   -0.01193302213327546   -0.004412662609708265
0.034654323578471216   -0.01193302213327546   -0.004412662609708265
0.09679294390413379   0.008399336486828871   0.00492838704690513
0.09679294390413379   0.008399336486828871   0.00492838704690513
0.09679294390413379   0.008399336486828871   0.00492838704690513
0.09679294390413379   0.008399336486828871   0.00492838704690513
0.06377593127459338   -0.0017355746901271934   -0.004483041505818214
0.06377593127459338   -0.0017355746901271934   -0.004483041505818214
0.06377593127459338   -0.0017355746901271934   -0.004483041505818214
0.06377593127459338   -0.0017355746901271934   -0.004483041505818214
0.04708829330677864   0.00882923329158572   -0.0009232977680865708
0.04708829330677864   0.00882923329158572   -0.0009232977680865708
0.04708829330677864   0.00882923329158572   -0.0009232977680865708
0.04708829330677864   0.00882923329158572   -0.0009232977680865708
-0.013549720349747838   0.00030419814273365247   0.00020590822104422717
-0.013549720349747838   0.00030419814273365247   0.00020590822104422717
-0.013549720349747838   0.00030419814273365247   0.00020590822104422717
-0.013549720349747838   0.00030419814273365247   0.00020590822104422717
-0.018068629588849007   -0.0071349248961759025   -0.003865572261942043
-0.018068629588849007   -0.0071349248961759025   -0.003865572261942043
-0.018068629588849007   -0.0071349248961759025   -0.003865572261942043
-0.018068629588849007   -0.0071349248961759025   -0.003865572261942043
0.04606165937405408   0.010521345064059868   0.004220977215323571
0.04606165937405408   0.010521345064059868   0.004220977215323571
0.04606165937405408   0.010521345064059868   0.004220977215323571
0.04606165937405408   0.010521345064059868   0.004220977215323571
0.015053874593345519   0.0029694996881636185   0.0006003507612539702
0.015053874593345519   0.0029694996881636185   0.0006003507612539702
0.015053874593345519   0.0029694996881636185   0.0006003507612539702
0.015053874593345519   0.0029694996881636185   0.0006003507612539702
0.04423093150239498   0.006013198632233587   -0.0004245157111462496
0.04423093150239498   0.006013198632233587   -0.0004245157111462496
0.04423093150239498   0.006013198632233587   -0.0004245157111462496
0.04423093150239498   0.006013198632233587   -0.0004245157111462496
-0.016272700203860343   -0.002661576951018165   0.0006407267178439994
-0.016272700203860343   -0.002661576951018165   0.0006407267178439994
-0.016272700203860343   -0.002661576951018165   0.0006407267178439994
-0.016272700203860343   -0.002661576951018165   0.0006407267178439994
-0.020638266279016722   -0.00930033273233967   -0.003171750389528454
-0.020638266279016722   -0.00930033273233967   -0.003171750389528454
-0.020638266279016722   -0.00930033273233967   -0.003171750389528454
-0.020638266279016722   -0.00930033273233967   -0.003171750389528454
0.042896483394683896   0.007964596482276395   0.004591302526104716
0.042896483394683896   0.007964596482276395   0.004591302526104716
0.042896483394683896   0.007964596482276395   0.004591302526104716
0.042896483394683896   0.007964596482276395   0.004591302526104716
0.011829137440964766   0.0004416747563544378   -0.0006127989315920075
0.011829137440964766   0.0004416747563544378   -0.0006127989315920075
0.011829137440964766   0.0004416747563544378   -0.0006127989315920075
0.011829137440964766   0.0004416747563544378   -0.0006127989315920075
0.041123878354070324   0.003687517527704946   5.356277607588373e-06
0.041123878354070324   0.003687517527704946   5.356277607588373e-06
0.041123878354070324   0.003687517527704946   5.356277607588373e-06
0.041123878354070324   0.003687517527704946   5.356277607588373e-06
-0.018944643534915137   -0.005102236074280247   0.0010982666729205338
-0.018944643534915137   -0.005102236074280247   0.0010982666729205338
-0.018944643534915137   -0.005102236074280247   0.0010982666729205338
-0.018944643534915137   -0.005102236074280247   0.0010982666729205338
-0.023166166526392785   -0.011264651662316546   -0.002532401141593957
-0.023166166526392785   -0.011264651662316546   -0.002532401141593957
-0.023166166526392785   -0.011264651662316546   -0.002532401141593957
-0.023166166526392785   -0.011264651662316546   -0.002532401141593957
0.04004086097708301   0.005577586407661178   0.00500941584241487
0.04004086097708301   0.005577586407661178   0.00500941584241487
0.04004086097708301   0.005577586407661178   0.00500941584241487
0.04004086097708301   0.005577586407661178   0.00500941584241487
0.009325745547782474   -0.0015697592487738667   -0.0016579322449757831
0.009325745547782474   -0.0015697592487738667   -0.0016579322449757831
0.009325745547782474   -0.0015697592487738667   -0.0016579322449757831
0.009325745547782474   -0.0015697592487738667   -0.0016579322449757831
-0.011317618131900143   0.010632502036944533   0.0010381154160718168
-0.011317618131900143   0.010632502036944533   0.0010381154160718168
-0.011317618131900143   0.010632502036944533   0.0010381154160718168
-0.011317618131900143   0.010632502036944533   0.0010381154160718168
-0.07261054626999143   -0.002301378882565876   -0.0022582850127969155
-0.07261054626999143   -0.002301378882565876   -0.0022582850127969155
-0.07261054626999143   -0.002301378882565876   -0.0022582850127969155
-0.07261054626999143   -0.002301378882565876   -0.0022582850127969155
-0.07517916651694681   -0.004680882195969979   -0.0016905434175438759
-0.07517916651694681   -0.004680882195969979   -0.0016905434175438759
-0.07517916651694681   -0.004680882195969979   -0.0016905434175438759
-0.07517916651694681   -0.004680882195969979   -0.0016905434175438759
-0.013934745199391876   0.008000717638832519   0.0016682071503351932
-0.013934745199391876   0.008000717638832519   0.0016682071503351932
-0.013934745199391876   0.008000717638832519   0.0016682071503351932
-0.013934745199391876   0.008000717638832519   0.0016682071503351932
-0.0431481333695868   0.002846434459309679   0.0008931531141808287
-0.0431481333695868   0.002846434459309679   0.0008931531141808287
-0.0431481333695868   0.002846434459309679   0.0008931531141808287
-0.0431481333695868   0.002846434459309679   0.0008931531141808287
-0.01387919206256408   0.008255466227563901   0.0016912242457427884
-0.01387919206256408   0.008255466227563901   0.0016912242457427884
-0.01387919206256408   0.008255466227563901   0.0016912242457427884
-0.01387919206256408   0.008255466227563901   0.0016912242457427884
-0.07525127983268903   -0.004952190963616427   -0.0017798012286085372
-0.07525127983268903   -0.004952190963616427   -0.0017798012286085372
-0.07525127983268903   -0.004952190963616427   -0.0017798012286085372
-0.07525127983268903   -0.004952190963616427   -0.0017798012286085372
-0.07778120257033595   -0.007040508596251882   -0.0010833472370564085
-0.07778120257033595   -0.007040508596251882   -0.0010833472370564085
-0.07778120257033595   -0.007040508596251882   -0.0010833472370564085
-0.07778120257033595   -0.007040508596251882   -0.0010833472370564085
-0.01663466233351239   0.005371072436280258   0.002174864169373275
-0.01663466233351239   0.005371072436280258   0.002174864169373275
-0.01663466233351239   0.005371072436280258   0.002174864169373275
-0.01663466233351239   0.005371072436280258   0.002174864169373275
-0.04582031565971405   0.0005219478825298843   -0.00013598898124613998
-0.04582031565971405   0.0005219478825298843   -0.00013598898124613998
-0.04582031565971405   0.0005219478825298843   -0.00013598898124613998
-0.04582031565971405   0.0005219478825298843   -0.00013598898124613998
-0.016524787432555074   0.0058720884173364095   0.002223222693104176
-0.016524787432555074   0.0058720884173364095   0.002223222693104176
-0.016524787432555074   0.0058720884173364095   0.002223222693104176
-0.016524787432555074   0.0058720884173364095   0.002223222693104176
-0.077945820220419   -0.007596267326433691   -0.0013506767572898618
-0.077945820220419   -0.007596267326433691   -0.0013506767572898618
-0.077945820220419   -0.007596267326433691   -0.0013506767572898618
-0.077945820220419   -0.007596267326433691   -0.0013506767572898618
-0.08032794921296972   -0.009285540301850408   -0.00048418977638240226
-0.08032794921296972   -0.009285540301850408   -0.00048418977638240226
-0.08032794921296972   -0.009285540301850408   -0.00048418977638240226
-0.08032794921296972   -0.009285540301850408   -0.00048418977638240226
-0.01932136924769179   0.0028196373703110317   0.0026072962192834593
-0.01932136924769179   0.0028196373703110317   0.0026072962192834593
-0.01932136924769179   0.0028196373703110317   0.0026072962192834593
-0.01932136924769179   0.0028196373703110317   0.0026072962192834593
-0.04861265310570902   -0.00180099275379513   -0.0012575815461362979
-0.04861265310570902   -0.00180099275379513   -0.0012575815461362979
-0.04861265310570902   -0.00180099275379513   -0.0012575815461362979
-0.04861265310570902   -0.00180099275379513   -0.0012575815461362979
-0.06864825112040084   0.01224999645969244   0.0030018153928977062
-0.06864825112040084   0.01224999645969244   0.0030018153928977062
-0.06864825112040084   0.01224999645969244   0.0030018153928977062
-0.06864825112040084   0.01224999645969244   0.0030018153928977062
-0.1310550088656613   -0.004947323294469987   -0.004456872625020184
-0.1310550088656613   -0.004947323294469987   -0.004456872625020184
-0.1310550088656613   -0.004947323294469987   -0.004456872625020184
-0.1310550088656613   -0.004947323294469987   -0.004456872625020184
-0.1319889948789707   -0.0027490891272221006   0.0006223415967864521
-0.1319889948789707   -0.0027490891272221006   0.0006223415967864521
-0.1319889948789707   -0.0027490891272221006   0.0006223415967864521
-0.1319889948789707   -0.0027490891272221006   0.0006223415967864521
-0.07301804571474245   0.005261406268950785   -0.0008272278714437893
-0.07301804571474245   0.005261406268950785   -0.0008272278714437893
-0.07301804571474245   0.005261406268950785   -0.0008272278714437893
-0.07301804571474245   0.005261406268950785   -0.0008272278714437893
-0.1005382820727323   0.002465454061442194   0.0012676562618226138
-0.1005382820727323   0.002465454061442194   0.0012676562618226138
-0.1005382820727323   0.002465454061442194   0.0012676562618226138
-0.1005382820727323   0.002465454061442194   0.0012676562618226138
-0.07117063584763854   0.010020299921911738   0.0036509278111158004
-0.07117063584763854   0.010020299921911738   0.0036509278111158004
-0.07117063584763854   0.010020299921911738   0.0036509278111158004
-0.07117063584763854   0.010020299921911738   0.0036509278111158004
-0.13393157074519607   -0.007603148779302616   -0.004236478082260994
-0.13393157074519607   -0.007603148779302616   -0.004236478082260994
-0.13393157074519607   -0.007603148779302616   -0.004236478082260994
-0.13393157074519607   -0.007603148779302616   -0.004236478082260994
-0.1350725972784804   -0.005093174307758793   0.0008889254318325875
-0.1350725972784804   -0.005093174307758793   0.0008889254318325875
-0.1350725972784804   -0.005093174307758793   0.0008889254318325875
-0.1350725972784804   -0.005093174307758793   0.0008889254318325875
-0.07565150273263235   0.002828375809235558   -0.00030373245402680587
-0.07565150273263235   0.002828375809235558   -0.00030373245402680587
-0.07565150273263235   0.002828375809235558   -0.00030373245402680587
-0.07565150273263235   0.002828375809235558   -0.00030373245402680587
-0.10271733368086784   0.0003977627306267148   0.00024700887561256244
-0.10271733368086784   0.0003977627306267148   0.00024700887561256244
-0.10271733368086784   0.0003977627306267148   0.00024700887561256244
-0.10271733368086784   0.0003977627306267148   0.00024700887561256244
-0.07373434928515131   0.007848976935886237   0.004261433656728658
-0.07373434928515131   0.007848976935886237   0.004261433656728658
-0.07373434928515131   0.007848976935886237   0.004261433656728658
-0.07373434928515131   0.007848976935886237   0.004261433656728658
-0.13700574170585486   -0.010129766414302889   -0.003740204598496533
-0.13700574170585486   -0.010129766414302889   -0.003740204598496533
-0.13700574170585486   -0.010129766414302889   -0.003740204598496533
-0.13700574170585486   -0.010129766414302889   -0.003740204598496533
-0.1377901110725552   -0.007629910337136406   0.0015308581463565627
-0.1377901110725552   -0.007629910337136406   0.0015308581463565627
-0.1377901110725552   -0.007629910337136406   0.0015308581463565627
-0.1377901110725552   -0.007629910337136406   0.0015308581463565627
-0.07833651928831789   8.081887550615008e-05   0.00010660066951828119
-0.07833651928831789   8.081887550615008e-05   0.00010660066951828119
-0.07833651928831789   8.081887550615008e-05   0.00010660066951828119
-0.07833651928831789   8.081887550615008e-05   0.00010660066951828119
-0.10618659451598805   -0.002093832394831161   -0.0009739460803111985
-0.10618659451598805   -0.002093832394831161   -0.0009739460803111985
-0.10618659451598805   -0.002093832394831161   -0.0009739460803111985
-0.10618659451598805   -0.002093832394831161   -0.0009739460803111985
-0.12596228849719152   0.011401587686893394   0.00465781823596534
-0.12596228849719152   0.011401587686893394   0.00465781823596534
-0.12596228849719152   0.011401587686893394   0.00465781823596534
-0.12596228849719152   0.011401587686893394   0.00465781823596534
-0.1871219574296402   -0.008798547566561121   -0.005475135592449795
-0.1871219574296402   -0.008798547566561121   -0.005475135592449795
-0.1871219574296402   -0.008798547566561121   -0.005475135592449795
-0.1871219574296402   -0.008798547566561121   -0.005475135592449795
-0.18866019188186017   -0.0011302150967116564   0.004579844849495312
-0.18866019188186017   -0.0011302150967116564   0.004579844849495312
-0.18866019188186017   -0.0011302150967116564   0.004579844849495312
-0.18866019188186017   -0.0011302150967116564   0.004579844849495312
-0.1317656595302263   0.00216622276026978   -0.003176293546985228
-0.1317656595302263   0.00216622276026978   -0.003176293546985228
-0.1317656595302263   0.00216622276026978   -0.003176293546985228
-0.1317656595302263   0.00216622276026978   -0.003176293546985228
-0.1513359629662652   0.002417411596512452   0.003980623375796107
-0.1513359629662652   0.002417411596512452   0.003980623375796107
-0.1513359629662652   0.002417411596512452   0.003980623375796107
-0.1513359629662652   0.002417411596512452   0.003980623375796107
-0.12823517984241437   0.011139403226456204   0.005502924425888794
-0.12823517984241437   0.011139403226456204   0.005502924425888794
-0.12823517984241437   0.011139403226456204   0.005502924425888794
-0.12823517984241437   0.011139403226456204   0.005502924425888794
-0.1922766060388422   -0.010189330032067873   -0.004443111000057575
-0.1922766060388422   -0.010189330032067873   -0.004443111000057575
-0.1922766060388422   -0.010189330032067873   -0.004443111000057575
-0.1922766060388422   -0.010189330032067873   -0.004443111000057575
-0.19306402686792903   -0.0024367250009575403   0.005751892718059679
-0.19306402686792903   -0.0024367250009575403   0.005751892718059679
-0.19306402686792903   -0.0024367250009575403   0.005751892718059679
-0.19306402686792903   -0.0024367250009575403   0.005751892718059679
-0.13460125496339198   0.0008352065579615361   -0.002682743858447384
-0.13460125496339198   0.0008352065579615361   -0.002682743858447384
-0.13460125496339198   0.0008352065579615361   -0.002682743858447384
-0.13460125496339198   0.0008352065579615361   -0.002682743858447384
-0.15754817195580254   0.0009417880578102139   0.002288374825642637
-0.15754817195580254   0.0009417880578102139   0.002288374825642637
-0.15754817195580254   0.0009417880578102139   0.002288374825642637
-0.15754817195580254   0.0009417880578102139   0.002288374825642637
-0.13091289604329706   0.010134978400295844   0.0064592788996946406
-0.13091289604329706   0.010134978400295844   0.0064592788996946406
-0.13091289604329706   0.010134978400295844   0.0064592788996946406
-0.13091289604329706   0.010134978400295844   0.0064592788996946406
-0.19681231795275522   -0.01179642900802283   -0.003629858699005964
-0.19681231795275522   -0.01179642900802283   -0.003629858699005964
-0.19681231795275522   -0.01179642900802283   -0.003629858699005964
-0.19681231795275522   -0.01179642900802283   -0.003629858699005964
-0.19895378368637853   -0.006698402444032928   0.0056989375170672756
-0.19895378368637853   -0.006698402444032928   0.0056989375170672756
-0.19895378368637853   -0.006698402444032928   0.0056989375170672756
-0.19895378368637853   -0.006698402444032928   0.0056989375170672756
-0.13759163376414252   -0.0027293632678548584   -0.0023773023808644576
-0.13759163376414252   -0.0027293632678548584   -0.0023773023808644576
-0.13759163376414252   -0.0027293632678548584   -0.0023773023808644576
-0.13759163376414252   -0.0027293632678548584   -0.0023773023808644576
-0.1589270783395844   -0.0008119656120625166   0.0015539649183960638
-0.1589270783395844   -0.0008119656120625166   0.0015539649183960638
-0.1589270783395844   -0.0008119656120625166   0.0015539649183960638
-0.1589270783395844   -0.0008119656120625166   0.0015539649183960638
0.06521480378254538   0.004132973065349089   -0.006624021204418677
0.06521480378254538   0.004132973065349089   -0.006624021204418677
0.06521480378254538   0.004132973065349089   -0.006624021204418677
0.06521480378254538   0.004132973065349089   -0.006624021204418677
0.020560812453475942   0.0037273847532228637   0.003037515269560996
0.020560812453475942   0.0037273847532228637   0.003037515269560996
0.020560812453475942   0.0037273847532228637   0.003037515269560996
0.020560812453475942   0.0037273847532228637   0.003037515269560996
0.014473500723387621   -0.008416718172780575   -0.005884267162177808
0.014473500723387621   -0.008416718172780575   -0.005884267162177808
0.014473500723387621   -0.008416718172780575   -0.005884267162177808
0.014473500723387621   -0.008416718172780575   -0.005884267162177808
0.06378224643776316   0.010159126224511573   0.0036486214519228545
0.06378224643776316   0.010159126224511573   0.0036486214519228545
0.06378224643776316   0.010159126224511573   0.0036486214519228545
0.06378224643776316   0.010159126224511573   0.0036486214519228545
0.03868113477936998   0.0017283372505995254   -0.0008443240241603075
0.03868113477936998   0.0017283372505995254   -0.0008443240241603075
0.03868113477936998   0.0017283372505995254   -0.0008443240241603075
0.03868113477936998   0.0017283372505995254   -0.0008443240241603075
0.059917542968014846   0.0006214914784324222   -0.006137261150740054
0.059917542968014846   0.0006214914784324222   -0.006137261150740054
0.059917542968014846   0.0006214914784324222   -0.006137261150740054
0.059917542968014846   0.0006214914784324222   -0.006137261150740054
0.018218514074901396   0.0010012264550639917   0.0034228549675467176
0.018218514074901396   0.0010012264550639917   0.0034228549675467176
0.018218514074901396   0.0010012264550639917   0.0034228549675467176
0.018218514074901396   0.0010012264550639917   0.0034228549675467176
0.012194051523266008   -0.00954241231375742   -0.0050505856073856485
0.012194051523266008   -0.00954241231375742   -0.0050505856073856485
0.012194051523266008   -0.00954241231375742   -0.0050505856073856485
0.012194051523266008   -0.00954241231375742   -0.0050505856073856485
0.0596802305771173   0.008613059332861148   0.004761806103807545
0.0596802305771173   0.008613059332861148   0.004761806103807545
0.0596802305771173   0.008613059332861148   0.004761806103807545
0.0596802305771173   0.008613059332861148   0.004761806103807545
0.03597418415529389   -6.086601908911714e-05   -0.0019589970157354673
0.03597418415529389   -6.086601908911714e-05   -0.0019589970157354673
0.03597418415529389   -6.086601908911714e-05   -0.0019589970157354673
0.03597418415529389   -6.086601908911714e-05   -0.0019589970157354673
0.055816626508587146   -0.0008303426470104795   -0.00511281225897209
0.055816626508587146   -0.0008303426470104795   -0.00511281225897209
0.055816626508587146   -0.0008303426470104795   -0.00511281225897209
0.055816626508587146   -0.0008303426470104795   -0.00511281225897209
0.01589121012573934   -0.0002654557999426507   0.004158250891166506
0.01589121012573934   -0.0002654557999426507   0.004158250891166506
0.01589121012573934   -0.0002654557999426507   0.004158250891166506
0.01589121012573934   -0.0002654557999426507   0.004158250891166506
0.010171420783182216   -0.010756920252418724   -0.004231373528381268
0.010171420783182216   -0.010756920252418724   -0.004231373528381268
0.010171420783182216   -0.010756920252418724   -0.004231373528381268
0.010171420783182216   -0.010756920252418724   -0.004231373528381268
0.054559152484968364   0.006236868314444646   0.005347959092990153
0.054559152484968364   0.006236868314444646   0.005347959092990153
0.054559152484968364   0.006236868314444646   0.005347959092990153
0.054559152484968364   0.006236868314444646   0.005347959092990153
0.031854069830707724   -0.001592967080386599   -0.003389041931814498
0.031854069830707724   -0.001592967080386599   -0.003389041931814498
0.031854069830707724   -0.001592967080386599   -0.003389041931814498
0.031854069830707724   -0.001592967080386599   -0.003389041931814498
0.02019685185884779   0.006667791958477089   -0.0017226949088342187
0.02019685185884779   0.006667791958477089   -0.0017226949088342187
0.02019685185884779   0.006667791958477089   -0.0017226949088342187
0.02019685185884779   0.006667791958477089   -0.0017226949088342187
-0.022346132994778594   0.0017346490028598742   0.0006305011787496543
-0.022346132994778594   0.0017346490028598742   0.0006305011787496543
-0.022346132994778594   0.0017346490028598742   0.0006305011787496543
-0.022346132994778594   0.0017346490028598742   0.0006305011787496543
-0.02628418013374803   -0.005492065576484385   -0.003500236479599419
-0.02628418013374803   -0.005492065576484385   -0.003500236479599419
-0.02628418013374803   -0.005492065576484385   -0.003500236479599419
-0.02628418013374803   -0.005492065576484385   -0.003500236479599419
0.019731058190563446   0.008217262112155774   0.003769539888765199
0.019731058190563446   0.008217262112155774   0.003769539888765199
0.019731058190563446   0.008217262112155774   0.003769539888765199
0.019731058190563446   0.008217262112155774   0.003769539888765199
-0.0023432512904034606   0.0026560947523678047   0.0007764777015200721
-0.0023432512904034606   0.0026560947523678047   0.0007764777015200721
-0.0023432512904034606   0.0026560947523678047   0.0007764777015200721
-0.0023432512904034606   0.0026560947523678047   0.0007764777015200721
0.01783852651622613   0.0037811264793970165   -0.0012569828501627358
0.01783852651622613   0.0037811264793970165   -0.0012569828501627358
0.01783852651622613   0.0037811264793970165   -0.0012569828501627358
0.01783852651622613   0.0037811264793970165   -0.0012569828501627358
-0.02450040750637124   -0.00116468899068681   0.0010912500714869674
-0.02450040750637124   -0.00116468899068681   0.0010912500714869674
-0.02450040750637124   -0.00116468899068681   0.0010912500714869674
-0.02450040750637124   -0.00116468899068681   0.0010912500714869674
-0.028317510368398628   -0.007753798708887803   -0.0027866796666375852
-0.028317510368398628   -0.007753798708887803   -0.0027866796666375852
-0.028317510368398628   -0.007753798708887803   -0.0027866796666375852
-0.028317510368398628   -0.007753798708887803   -0.0027866796666375852
0.017065017638601222   0.005641601888549383   0.004120230766983882
0.017065017638601222   0.005641601888549383   0.004120230766983882
0.017065017638601222   0.005641601888549383   0.004120230766983882
0.017065017638601222   0.005641601888549383   0.004120230766983882
-0.004887091914933297   0.00015685879200135746   -0.00042790389998778854
-0.004887091914933297   0.00015685879200135746   -0.00042790389998778854
-0.004887091914933297   0.00015685879200135746   -0.00042790389998778854
-0.004887091914933297   0.00015685879200135746   -0.00042790389998778854
0.015223158359323107   0.0013518151848431516   -0.0007992789257007147
0.015223158359323107   0.0013518151848431516   -0.0007992789257007147
0.015223158359323107   0.0013518151848431516   -0.0007992789257007147
0.015223158359323107   0.0013518151848431516   -0.0007992789257007147
-0.02661738506841157   -0.0036057459844732256   0.0015658941088836282
-0.02661738506841157   -0.0036057459844732256   0.0015658941088836282
-0.02661738506841157   -0.0036057459844732256   0.0015658941088836282
-0.02661738506841157   -0.0036057459844732256   0.0015658941088836282
-0.030331418966486712   -0.00992758436379509   -0.00214415807129675
-0.030331418966486712   -0.00992758436379509   -0.00214415807129675
-0.030331418966486712   -0.00992758436379509   -0.00214415807129675
-0.030331418966486712   -0.00992758436379509   -0.00214415807129675
0.014729296968662518   0.0031851064390515413   0.0046159807075501
0.014729296968662518   0.0031851064390515413   0.0046159807075501
0.014729296968662518   0.0031851064390515413   0.0046159807075501
0.014729296968662518   0.0031851064390515413   0.0046159807075501
-0.007028942290734055   -0.00199857348255331   -0.0015424815927823304
-0.007028942290734055   -0.00199857348255331   -0.0015424815927823304
-0.007028942290734055   -0.00199857348255331   -0.0015424815927823304
-0.007028942290734055   -0.00199857348255331   -0.0015424815927823304
-0.021041458913323097   0.00853483309092048   0.00035368749796654093
-0.021041458913323097   0.00853483309092048   0.00035368749796654093
-0.021041458913323097   0.00853483309092048   0.00035368749796654093
-0.021041458913323097   0.00853483309092048   0.00035368749796654093
-0.06451095179060211   -0.0011463379485220308   -0.0018660862045616657
-0.06451095179060211   -0.0011463379485220308   -0.0018660862045616657
-0.06451095179060211   -0.0011463379485220308   -0.0018660862045616657
-0.06451095179060211   -0.0011463379485220308   -0.0018660862045616657
-0.06636776509862578   -0.0030514774702952233   -0.0011597484960696107
-0.06636776509862578   -0.0030514774702952233   -0.0011597484960696107
-0.06636776509862578   -0.0030514774702952233   -0.0011597484960696107
-0.06636776509862578   -0.0030514774702952233   -0.0011597484960696107
-0.023156377855791287   0.005437655773103572   0.0012090535605958552
-0.023156377855791287   0.005437655773103572   0.0012090535605958552
-0.023156377855791287   0.005437655773103572   0.0012090535605958552
-0.023156377855791287   0.005437655773103572   0.0012090535605958552
-0.04365495195994858   0.0023723209113221885   0.0007770219311317465
-0.04365495195994858   0.0023723209113221885   0.0007770219311317465
-0.04365495195994858   0.0023723209113221885   0.0007770219311317465
-0.04365495195994858   0.0023723209113221885   0.0007770219311317465
-0.0230725754146282   0.006043878728017737   0.0010218428114976085
-0.0230725754146282   0.006043878728017737   0.0010218428114976085
-0.0230725754146282   0.006043878728017737   0.0010218428114976085
-0.0230725754146282   0.006043878728017737   0.0010218428114976085
-0.066549333255555   -0.003755466140975501   -0.0013636006100358018
-0.066549333255555   -0.003755466140975501   -0.0013636006100358018
-0.066549333255555   -0.003755466140975501   -0.0013636006100358018
-0.066549333255555   -0.003755466140975501   -0.0013636006100358018
-0.06839738821823482   -0.005521002622018498   -0.0005227852373980648
-0.06839738821823482   -0.005521002622018498   -0.0005227852373980648
-0.06839738821823482   -0.005521002622018498   -0.0005227852373980648
-0.06839738821823482   -0.005521002622018498   -0.0005227852373980648
-0.025298527550881682   0.002824893209447614   0.0017295425026117393
-0.025298527550881682   0.002824893209447614   0.0017295425026117393
-0.025298527550881682   0.002824893209447614   0.0017295425026117393
-0.025298527550881682   0.002824893209447614   0.0017295425026117393
-0.045766548265483695   1.2153310868994599e-05   -0.00029330913844488604
-0.045766548265483695   1.2153310868994599e-05   -0.00029330913844488604
-0.045766548265483695   1.2153310868994599e-05   -0.00029330913844488604
-0.045766548265483695   1.2153310868994599e-05   -0.00029330913844488604
-0.025185273363696362   0.003541765604971746   0.0015789410430146872
-0.025185273363696362   0.003541765604971746   0.0015789410430146872
-0.025185273363696362   0.003541765604971746   0.0015789410430146872
-0.025185273363696362   0.003541765604971746   0.0015789410430146872
-0.06864858410811672   -0.006375816720238733   -0.0009239505885887817
-0.06864858410811672   -0.006375816720238733   -0.0009239505885887817
-0.06864858410811672   -0.006375816720238733   -0.0009239505885887817
-0.06864858410811672   -0.006375816720238733   -0.0009239505885887817
-0.07037885946187845   -0.007892631400460412   0.00010344257961290544
-0.07037885946187845   -0.007892631400460412   0.00010344257961290544
-0.07037885946187845   -0.007892631400460412   0.00010344257961290544
-0.07037885946187845   -0.007892631400460412   0.00010344257961290544
-0.027415265844387905   0.0003179633540160154   0.0021910598213861843
-0.027415265844387905   0.0003179633540160154   0.0021910598213861843
-0.027415265844387905   0.0003179633540160154   0.0021910598213861843
-0.027415265844387905   0.0003179633540160154   0.0021910598213861843
-0.04799621896007959   -0.002348593344248376   -0.0014596876732421442
-0.04799621896007959   -0.002348593344248376   -0.0014596876732421442
-0.04799621896007959   -0.002348593344248376   -0.0014596876732421442
-0.04799621896007959   -0.002348593344248376   -0.0014596876732421442
-0.06132075411626685   0.01039884585344289   0.0025397183651497523
-0.06132075411626685   0.01039884585344289   0.0025397183651497523
-0.06132075411626685   0.01039884585344289   0.0025397183651497523
-0.06132075411626685   0.01039884585344289   0.0025397183651497523
-0.1061153658760761   -0.0036229540822416487   -0.004111145685210742
-0.1061153658760761   -0.0036229540822416487   -0.004111145685210742
-0.1061153658760761   -0.0036229540822416487   -0.004111145685210742
-0.1061153658760761   -0.0036229540822416487   -0.004111145685210742
-0.1062860619039154   -0.0009682032389067112   0.0012927407784416997
-0.1062860619039154   -0.0009682032389067112   0.0012927407784416997
-0.1062860619039154   -0.0009682032389067112   0.0012927407784416997
-0.1062860619039154   -0.0009682032389067112   0.0012927407784416997
-0.06519692452145567   0.002847491733760631   -0.001204514814275845
-0.06519692452145567   0.002847491733760631   -0.001204514814275845
-0.06519692452145567   0.002847491733760631   -0.001204514814275845
-0.06519692452145567   0.002847491733760631   -0.001204514814275845
-0.08425231597385008   0.0021417444887168666   0.0009721595684599686
-0.08425231597385008   0.0021417444887168666   0.0009721595684599686
-0.08425231597385008   0.0021417444887168666   0.0009721595684599686
-0.08425231597385008   0.0021417444887168666   0.0009721595684599686
-0.06328075714015852   0.008015893602792184   0.003207920223179286
-0.06328075714015852   0.008015893602792184   0.003207920223179286
-0.06328075714015852   0.008015893602792184   0.003207920223179286
-0.06328075714015852   0.008015893602792184   0.003207920223179286
-0.10838527582611926   -0.006319651648845619   -0.0038518804226396718
-0.10838527582611926   -0.006319651648845619   -0.0038518804226396718
-0.10838527582611926   -0.006319651648845619   -0.0038518804226396718
-0.10838527582611926   -0.006319651648845619   -0.0038518804226396718
-0.10879507866354601   -0.0034138571543290523   0.001628678659063785
-0.10879507866354601   -0.0034138571543290523   0.001628678659063785
-0.10879507866354601   -0.0034138571543290523   0.001628678659063785
-0.10879507866354601   -0.0034138571543290523   0.001628678659063785
-0.06723719812422282   0.0004227024718465259   -0.0006655398612049617
-0.06723719812422282   0.0004227024718465259   -0.0006655398612049617
-0.06723719812422282   0.0004227024718465259   -0.0006655398612049617
-0.06723719812422282   0.0004227024718465259   -0.0006655398612049617
-0.086003175037387   -3.322918959555721e-05   -0.0001424907535416244
-0.086003175037387   -3.322918959555721e-05   -0.0001424907535416244
-0.086003175037387   -3.322918959555721e-05   -0.0001424907535416244
-0.086003175037387   -3.322918959555721e-05   -0.0001424907535416244
-0.06527148860743266   0.005735222636666341   0.003850487557927413
-0.06527148860743266   0.005735222636666341   0.003850487557927413
-0.06527148860743266   0.005735222636666341   0.003850487557927413
-0.06527148860743266   0.005735222636666341   0.003850487557927413
-0.11087635755141614   -0.008841946690229087   -0.003349626244389715
-0.11087635755141614   -0.008841946690229087   -0.003349626244389715
-0.11087635755141614   -0.008841946690229087   -0.003349626244389715
-0.11087635755141614   -0.008841946690229087   -0.003349626244389715
-0.11093948056431785   -0.006001347219857497   0.002298731468699999
-0.11093948056431785   -0.006001347219857497   0.002298731468699999
-0.11093948056431785   -0.006001347219857497   0.002298731468699999
-0.11093948056431785   -0.006001347219857497   0.002298731468699999
-0.0693085779920206   -0.0022141628751974167   -0.00022361859636131284
-0.0693085779920206   -0.0022141628751974167   -0.00022361859636131284
-0.0693085779920206   -0.0022141628751974167   -0.00022361859636131284
-0.0693085779920206   -0.0022141628751974167   -0.00022361859636131284
-0.088736443958382   -0.0024765905998312375   -0.0013858416877322779
-0.088736443958382   -0.0024765905998312375   -0.0013858416877322779
-0.088736443958382   -0.0024765905998312375   -0.0013858416877322779
-0.088736443958382   -0.0024765905998312375   -0.0013858416877322779
-0.10161381079041139   0.010294036676624346   0.004479638984248713
-0.10161381079041139   0.010294036676624346   0.004479638984248713
-0.10161381079041139   0.010294036676624346   0.004479638984248713
-0.10161381079041139   0.010294036676624346   0.004479638984248713
-0.14503009010876325   -0.006896100594819234   -0.005926303868728655
-0.14503009010876325   -0.006896100594819234   -0.005926303868728655
-0.14503009010876325   -0.006896100594819234   -0.005926303868728655
-0.14503009010876325   -0.006896100594819234   -0.005926303868728655
-0.14596935280488155   0.0008997518582277084   0.004695045217459701
-0.14596935280488155   0.0008997518582277084   0.004695045217459701
-0.14596935280488155   0.0008997518582277084   0.004695045217459701
-0.14596935280488155   0.0008997518582277084   0.004695045217459701
-0.10705137965963252   5.9755322017671086e-05   -0.0035618065610701624
-0.10705137965963252   5.9755322017671086e-05   -0.0035618065610701624
-0.10705137965963252   5.9755322017671086e-05   -0.0035618065610701624
-0.10705137965963252   5.9755322017671086e-05   -0.0035618065610701624
-0.119467253726342   0.0022423870322987594   0.0030641740693349295
-0.119467253726342   0.0022423870322987594   0.0030641740693349295
-0.119467253726342   0.0022423870322987594   0.0030641740693349295
-0.119467253726342   0.0022423870322987594   0.0030641740693349295
-0.10338299956914945   0.009538319420462463   0.0053015297929013515
-0.10338299956914945   0.009538319420462463   0.0053015297929013515
-0.10338299956914945   0.009538319420462463   0.0053015297929013515
-0.10338299956914945   0.009538319420462463   0.0053015297929013515
-0.149836418814386   -0.008777498159238301   -0.004963034812596522
-0.149836418814386   -0.008777498159238301   -0.004963034812596522
-0.149836418814386   -0.008777498159238301   -0.004963034812596522
-0.149836418814386   -0.008777498159238301   -0.004963034812596522
-0.14992053675999978   -0.0004988617262975739   0.005966196516864877
-0.14992053675999978   -0.0004988617262975739   0.005966196516864877
-0.14992053675999978   -0.0004988617262975739   0.005966196516864877
-0.14992053675999978   -0.0004988617262975739   0.005966196516864877
-0.10930248544184056   -0.0012923503089383795   -0.003029862077802507
-0.10930248544184056   -0.0012923503089383795   -0.003029862077802507
-0.10930248544184056   -0.0012923503089383795   -0.003029862077802507
-0.10930248544184056   -0.0012923503089383795   -0.003029862077802507
-0.12469579220397486   0.0006145640125329831   0.0013352671156170682
-0.12469579220397486   0.0006145640125329831   0.0013352671156170682
-0.12469579220397486   0.0006145640125329831   0.0013352671156170682
-0.12469579220397486   0.0006145640125329831   0.0013352671156170682
-0.10549257458614052   0.008449133152877805   0.006278208738882525
-0.10549257458614052   0.008449133152877805   0.006278208738882525
-0.10549257458614052   0.008449133152877805   0.006278208738882525
-0.10549257458614052   0.008449133152877805   0.006278208738882525
-0.1539109533689464   -0.010420850941360159   -0.004063897312805575
-0.1539109533689464   -0.010420850941360159   -0.004063897312805575
-0.1539109533689464   -0.010420850941360159   -0.004063897312805575
-0.1539109533689464   -0.010420850941360159   -0.004063897312805575
-0.15534772018490223   -0.004584011192291737   0.006105544417710851
-0.15534772018490223   -0.004584011192291737   0.006105544417710851
-0.15534772018490223   -0.004584011192291737   0.006105544417710851
-0.15534772018490223   -0.004584011192291737   0.006105544417710851
-0.11163830891763019   -0.00455260861511203   -0.0026441489026091114
-0.11163830891763019   -0.00455260861511203   -0.0026441489026091114
-0.11163830891763019   -0.00455260861511203   -0.0026441489026091114
-0.11163830891763019   -0.00455260861511203   -0.0026441489026091114
-0.12613331751996595   -0.0011728030148478036   0.0003653782910992328
-0.12613331751996595   -0.0011728030148478036   0.0003653782910992328
-0.12613331751996595   -0.0011728030148478036   0.0003653782910992328
-0.12613331751996595   -0.0011728030148478036   0.0003653782910992328
0.01986256699875428   0.0016112548668855036   -0.0068448887074041365
0.01986256699875428   0.0016112548668855036   -0.0068448887074041365
0.01986256699875428   0.0016112548668855036   -0.0068448887074041365
0.01986256699875428   0.0016112548668855036   -0.0068448887074041365
-0.006355740041819673   0.00493605955914357   0.003382028573512803
-0.006355740041819673   0.00493605955914357   0.003382028573512803
-0.006355740041819673   0.00493605955914357   0.003382028573512803
-0.006355740041819673   0.00493605955914357   0.003382028573512803
-0.011946517919510373   -0.006831496342149044   -0.005575727024110529
-0.011946517919510373   -0.006831496342149044   -0.005575727024110529
-0.011946517919510373   -0.006831496342149044   -0.005575727024110529
-0.011946517919510373   -0.006831496342149044   -0.005575727024110529
0.01901695171318055   0.007965383878315881   0.00408656927560385
0.01901695171318055   0.007965383878315881   0.00408656927560385
0.01901695171318055   0.007965383878315881   0.00408656927560385
0.01901695171318055   0.007965383878315881   0.00408656927560385
0.004573834355379758   0.001760334007070832   0.0005479491764073931
0.004573834355379758   0.001760334007070832   0.0005479491764073931
0.004573834355379758   0.001760334007070832   0.0005479491764073931
0.004573834355379758   0.001760334007070832   0.0005479491764073931
0.015056206971659275   -0.0015551333915252825   -0.006196637162161368
0.015056206971659275   -0.0015551333915252825   -0.006196637162161368
0.015056206971659275   -0.0015551333915252825   -0.006196637162161368
0.015056206971659275   -0.0015551333915252825   -0.006196637162161368
-0.008203204358577012   0.002471589747104202   0.0038377546913030192
-0.008203204358577012   0.002471589747104202   0.0038377546913030192
-0.008203204358577012   0.002471589747104202   0.0038377546913030192
-0.008203204358577012   0.002471589747104202   0.0038377546913030192
-0.01382774150494353   -0.007998150616875295   -0.004786271562810005
-0.01382774150494353   -0.007998150616875295   -0.004786271562810005
-0.01382774150494353   -0.007998150616875295   -0.004786271562810005
-0.01382774150494353   -0.007998150616875295   -0.004786271562810005
0.0152382742128565   0.00640758595200268   0.00567894802846095
0.0152382742128565   0.00640758595200268   0.00567894802846095
0.0152382742128565   0.00640758595200268   0.00567894802846095
0.0152382742128565   0.00640758595200268   0.00567894802846095
0.0017240656428719942   2.600052137127686e-06   -0.0007649274821391525
0.0017240656428719942   2.600052137127686e-06   -0.0007649274821391525
0.0017240656428719942   2.600052137127686e-06   -0.0007649274821391525
0.0017240656428719942   2.600052137127686e-06   -0.0007649274821391525
0.011165910165788613   -0.0030810193509510893   -0.005194266903924958
0.011165910165788613   -0.0030810193509510893   -0.005194266903924958
0.011165910165788613   -0.0030810193509510893   -0.005194266903924958
0.011165910165788613   -0.0030810193509510893   -0.005194266903924958
-0.010064791456280068   0.001181040687674651   0.00484928737595737
-0.010064791456280068   0.001181040687674651   0.00484928737595737
-0.010064791456280068   0.001181040687674651   0.00484928737595737
-0.010064791456280068   0.001181040687674651   0.00484928737595737
-0.015546139453040342   -0.009655216109036753   -0.004007171086408131
-0.015546139453040342   -0.009655216109036753   -0.004007171086408131
-0.015546139453040342   -0.009655216109036753   -0.004007171086408131
-0.015546139453040342   -0.009655216109036753   -0.004007171086408131
0.009986169602438755   0.003233659800943504   0.006543480115965271
0.009986169602438755   0.003233659800943504   0.006543480115965271
0.009986169602438755   0.003233659800943504   0.006543480115965271
0.009986169602438755   0.003233659800943504   0.006543480115965271
-0.0016322924259110378   -0.0017094368511950658   -0.00233555167369063
-0.0016322924259110378   -0.0017094368511950658   -0.00233555167369063
-0.0016322924259110378   -0.0017094368511950658   -0.00233555167369063
-0.0016322924259110378   -0.0017094368511950658   -0.00233555167369063
-0.00772771652197688   0.00401989434003696   -0.0025616886081666294
-0.00772771652197688   0.00401989434003696   -0.0025616886081666294
-0.00772771652197688   0.00401989434003696   -0.0025616886081666294
-0.00772771652197688   0.00401989434003696   -0.0025616886081666294
-0.031633584968238586   0.0013595638639066487   0.0008177667647124055
-0.031633584968238586   0.0013595638639066487   0.0008177667647124055
-0.031633584968238586   0.0013595638639066487   0.0008177667647124055
-0.031633584968238586   0.0013595638639066487   0.0008177667647124055
-0.03459284194888299   -0.003994354141682495   -0.0029646412409796994
-0.03459284194888299   -0.003994354141682495   -0.0029646412409796994
-0.03459284194888299   -0.003994354141682495   -0.0029646412409796994
-0.03459284194888299   -0.003994354141682495   -0.0029646412409796994
-0.008074510150572952   0.004084794032078412   0.0028680214463491158
-0.008074510150572952   0.004084794032078412   0.0028680214463491158
-0.008074510150572952   0.004084794032078412   0.0028680214463491158
-0.008074510150572952   0.004084794032078412   0.0028680214463491158
-0.02049332885169497   0.001284393691379452   0.0007351292060013997
-0.02049332885169497   0.001284393691379452   0.0007351292060013997
-0.02049332885169497   0.001284393691379452   0.0007351292060013997
-0.02049332885169497   0.001284393691379452   0.0007351292060013997
-0.009656734340886146   0.0011617787779042935   -0.00212008425104261
-0.009656734340886146   0.0011617787779042935   -0.00212008425104261
-0.009656734340886146   0.0011617787779042935   -0.00212008425104261
-0.009656734340886146   0.0011617787779042935   -0.00212008425104261
-0.03320072306631092   -0.0012614441952495522   0.0012630432254472645
-0.03320072306631092   -0.0012614441952495522   0.0012630432254472645
-0.03320072306631092   -0.0012614441952495522   0.0012630432254472645
-0.03320072306631092   -0.0012614441952495522   0.0012630432254472645
-0.0360748927214104   -0.006258925178673352   -0.002242494209118173
-0.0360748927214104   -0.006258925178673352   -0.002242494209118173
-0.0360748927214104   -0.006258925178673352   -0.002242494209118173
-0.0360748927214104   -0.006258925178673352   -0.002242494209118173
-0.010308615799944425   0.0015740432430846097   0.0032371631022256185
-0.010308615799944425   0.0015740432430846097   0.0032371631022256185
-0.010308615799944425   0.0015740432430846097   0.0032371631022256185
-0.010308615799944425   0.0015740432430846097   0.0032371631022256185
-0.02236144086625809   -0.0010322455731705147   -0.00044401060375536916
-0.02236144086625809   -0.0010322455731705147   -0.00044401060375536916
-0.02236144086625809   -0.0010322455731705147   -0.00044401060375536916
-0.02236144086625809   -0.0010322455731705147   -0.00044401060375536916
-0.011846048900718399   -0.0012832078370193704   -0.001592751321540266
-0.011846048900718399   -0.0012832078370193704   -0.001592751321540266
-0.011846048900718399   -0.0012832078370193704   -0.001592751321540266
-0.011846048900718399   -0.0012832078370193704   -0.001592751321540266
-0.03474405603525895   -0.003608270513191897   0.0017610345561576077
-0.03474405603525895   -0.003608270513191897   0.0017610345561576077
-0.03474405603525895   -0.003608270513191897   0.0017610345561576077
-0.03474405603525895   -0.003608270513191897   0.0017610345561576077
-0.037566609830203525   -0.008518574366195531   -0.0016065165198192238
-0.037566609830203525   -0.008518574366195531   -0.0016065165198192238
-0.037566609830203525   -0.008518574366195531   -0.0016065165198192238
-0.037566609830203525   -0.008518574366195531   -0.0016065165198192238
-0.012188084876749813   -0.0008837790569340425   0.004011664742941683
-0.012188084876749813   -0.0008837790569340425   0.004011664742941683
-0.012188084876749813   -0.0008837790569340425   0.004011664742941683
-0.012188084876749813   -0.0008837790569340425   0.004011664742941683
-0.0241783145263637   -0.003237352138234774   -0.0016202801951098833
-0.0241783145263637   -0.003237352138234774   -0.0016202801951098833
-0.0241783145263637   -0.003237352138234774   -0.0016202801951098833
-0.0241783145263637   -0.003237352138234774   -0.0016202801951098833
-0.030942871318945964   0.005888895968114973   -0.0002579970930328005
-0.030942871318945964   0.005888895968114973   -0.0002579970930328005
-0.030942871318945964   0.005888895968114973   -0.0002579970930328005
-0.030942871318945964   0.005888895968114973   -0.0002579970930328005
-0.05637915993405872   -0.0021008871304793904   -0.001695768969824091
-0.05637915993405872   -0.0021008871304793904   -0.001695768969824091
-0.05637915993405872   -0.0021008871304793904   -0.001695768969824091
-0.05637915993405872   -0.0021008871304793904   -0.001695768969824091
-0.05703588313269099   -0.0016754343448443145   -0.00047689175224387235
-0.05703588313269099   -0.0016754343448443145   -0.00047689175224387235
-0.05703588313269099   -0.0016754343448443145   -0.00047689175224387235
-0.05703588313269099   -0.0016754343448443145   -0.00047689175224387235
-0.03293871111756269   0.0008556916765604817   0.0004559670973783509
-0.03293871111756269   0.0008556916765604817   0.0004559670973783509
-0.03293871111756269   0.0008556916765604817   0.0004559670973783509
-0.03293871111756269   0.0008556916765604817   0.0004559670973783509
-0.044220265661116795   0.0006811638192326993   0.00034231632917793324
-0.044220265661116795   0.0006811638192326993   0.00034231632917793324
-0.044220265661116795   0.0006811638192326993   0.00034231632917793324
-0.044220265661116795   0.0006811638192326993   0.00034231632917793324
-0.03243132819065573   0.003425474729755207   0.00042309867871847314
-0.03243132819065573   0.003425474729755207   0.00042309867871847314
-0.03243132819065573   0.003425474729755207   0.00042309867871847314
-0.03243132819065573   0.003425474729755207   0.00042309867871847314
-0.05773024520178863   -0.004432196540229701   -0.0011919399023466414
-0.05773024520178863   -0.004432196540229701   -0.0011919399023466414
-0.05773024520178863   -0.004432196540229701   -0.0011919399023466414
-0.05773024520178863   -0.004432196540229701   -0.0011919399023466414
-0.05843540126413432   -0.004110764823370635   0.0001881260517693044
-0.05843540126413432   -0.004110764823370635   0.0001881260517693044
-0.05843540126413432   -0.004110764823370635   0.0001881260517693044
-0.05843540126413432   -0.004110764823370635   0.0001881260517693044
-0.03449493101183718   -0.0015484177627644565   0.0009468069228390321
-0.03449493101183718   -0.0015484177627644565   0.0009468069228390321
-0.03449493101183718   -0.0015484177627644565   0.0009468069228390321
-0.03449493101183718   -0.0015484177627644565   0.0009468069228390321
-0.045723325319737475   -0.0015345798480943633   -0.0007380067919547932
-0.045723325319737475   -0.0015345798480943633   -0.0007380067919547932
-0.045723325319737475   -0.0015345798480943633   -0.0007380067919547932
-0.045723325319737475   -0.0015345798480943633   -0.0007380067919547932
-0.033985895788012616   0.0009418534311161041   0.0010017118480812846
-0.033985895788012616   0.0009418534311161041   0.0010017118480812846
-0.033985895788012616   0.0009418534311161041   0.0010017118480812846
-0.033985895788012616   0.0009418534311161041   0.0010017118480812846
-0.059171301649420464   -0.0068279011787127685   -0.0007742395193192453
-0.059171301649420464   -0.0068279011787127685   -0.0007742395193192453
-0.059171301649420464   -0.0068279011787127685   -0.0007742395193192453
-0.059171301649420464   -0.0068279011787127685   -0.0007742395193192453
-0.05979385528319175   -0.0064286820770137415   0.0008364221050412392
-0.05979385528319175   -0.0064286820770137415   0.0008364221050412392
-0.05979385528319175   -0.0064286820770137415   0.0008364221050412392
-0.05979385528319175   -0.0064286820770137415   0.0008364221050412392
-0.036005910521002556   -0.003793260084714748   0.0014716657447043163
-0.036005910521002556   -0.003793260084714748   0.0014716657447043163
-0.036005910521002556   -0.003793260084714748   0.0014716657447043163
-0.036005910521002556   -0.003793260084714748   0.0014716657447043163
-0.047340372800372565   -0.0037545125773228334   -0.001913760124558351
-0.047340372800372565   -0.0037545125773228334   -0.001913760124558351
-0.047340372800372565   -0.0037545125773228334   -0.001913760124558351
-0.047340372800372565   -0.0037545125773228334   -0.001913760124558351
-0.053553220800753865   0.008148593319257743   0.002184446246963987
-0.053553220800753865   0.008148593319257743   0.002184446246963987
-0.053553220800753865   0.008148593319257743   0.002184446246963987
-0.053553220800753865   0.008148593319257743   0.002184446246963987
-0.08045859157657234   -0.003657335128334117   -0.0037366619058221005
-0.08045859157657234   -0.003657335128334117   -0.0037366619058221005
-0.08045859157657234   -0.003657335128334117   -0.0037366619058221005
-0.08045859157657234   -0.003657335128334117   -0.0037366619058221005
-0.07953451744611498   0.0006320823699261929   0.0020560312912151213
-0.07953451744611498   0.0006320823699261929   0.0020560312912151213
-0.07953451744611498   0.0006320823699261929   0.0020560312912151213
-0.07953451744611498   0.0006320823699261929   0.0020560312912151213
-0.05708527252957937   -0.0008187158489147955   -0.001580557232615304
-0.05708527252957937   -0.0008187158489147955   -0.001580557232615304
-0.05708527252957937   -0.0008187158489147955   -0.001580557232615304
-0.05708527252957937   -0.0008187158489147955   -0.001580557232615304
-0.06737406639440047   0.0010664265461482313   0.0004334830692834541
-0.06737406639440047   0.0010664265461482313   0.0004334830692834541
-0.06737406639440047   0.0010664265461482313   0.0004334830692834541
-0.06737406639440047   0.0010664265461482313   0.0004334830692834541
-0.05488792577303248   0.005723072155450447   0.002864388545753889
-0.05488792577303248   0.005723072155450447   0.002864388545753889
-0.05488792577303248   0.005723072155450447   0.002864388545753889
-0.05488792577303248   0.005723072155450447   0.002864388545753889
-0.0820063597279273   -0.006184201159705275   -0.003486896588215931
-0.0820063597279273   -0.006184201159705275   -0.003486896588215931
-0.0820063597279273   -0.006184201159705275   -0.003486896588215931
-0.0820063597279273   -0.006184201159705275   -0.003486896588215931
-0.08139130402173488   -0.0017842102935558563   0.002454002209295185
-0.08139130402173488   -0.0017842102935558563   0.002454002209295185
-0.08139130402173488   -0.0017842102935558563   0.002454002209295185
-0.08139130402173488   -0.0017842102935558563   0.002454002209295185
-0.05847089612119366   -0.003038735232263558   -0.0010613778246344459
-0.05847089612119366   -0.003038735232263558   -0.0010613778246344459
-0.05847089612119366   -0.003038735232263558   -0.0010613778246344459
-0.05847089612119366   -0.003038735232263558   -0.0010613778246344459
-0.0686231652272916   -0.0010618802422512168   -0.0007360900004523656
-0.0686231652272916   -0.0010618802422512168   -0.0007360900004523656
-0.0686231652272916   -0.0010618802422512168   -0.0007360900004523656
-0.0686231652272916   -0.0010618802422512168   -0.0007360900004523656
-0.056255365109234054   0.003456404539720419   0.0035211374631795834
-0.056255365109234054   0.003456404539720419   0.0035211374631795834
-0.056255365109234054   0.003456404539720419   0.0035211374631795834
-0.056255365109234054   0.003456404539720419   0.0035211374631795834
-0.08382365475572175   -0.008496169787568541   -0.0029957919666274264
-0.08382365475572175   -0.008496169787568541   -0.0029957919666274264
-0.08382365475572175   -0.008496169787568541   -0.0029957919666274264
-0.08382365475572175   -0.008496169787568541   -0.0029957919666274264
-0.08289498172414103   -0.004253866927632292   0.0031642648735847392
-0.08289498172414103   -0.004253866927632292   0.0031642648735847392
-0.08289498172414103   -0.004253866927632292   0.0031642648735847392
-0.08289498172414103   -0.004253866927632292   0.0031642648735847392
-0.059868064961165805   -0.005346080346597558   -0.0006172280152452597
-0.059868064961165805   -0.005346080346597558   -0.0006172280152452597
-0.059868064961165805   -0.005346080346597558   -0.0006172280152452597
-0.059868064961165805   -0.005346080346597558   -0.0006172280152452597
-0.07054764010330877   -0.0032894609858186274   -0.001956776624017964
-0.07054764010330877   -0.0032894609858186274   -0.001956776624017964
-0.07054764010330877   -0.0032894609858186274   -0.001956776624017964
-0.07054764010330877   -0.0032894609858186274   -0.001956776624017964
-0.07632985338106434   0.008899288594286504   0.004350405349097266
-0.07632985338106434   0.008899288594286504   0.004350405349097266
-0.07632985338106434   0.008899288594286504   0.004350405349097266
-0.07632985338106434   0.008899288594286504   0.004350405349097266
-0.1010345010324224   -0.005272828056817159   -0.005972112918857614
-0.1010345010324224   -0.005272828056817159   -0.005972112918857614
-0.1010345010324224   -0.005272828056817159   -0.005972112918857614
-0.1010345010324224   -0.005272828056817159   -0.005972112918857614
-0.10120195736450087   0.0029017808886203714   0.004798898976811694
-0.10120195736450087   0.0029017808886203714   0.004798898976811694
-0.10120195736450087   0.0029017808886203714   0.004798898976811694
-0.10120195736450087   0.0029017808886203714   0.004798898976811694
-0.08127052461295663   -0.0023536172380289877   -0.0036383049350379344
-0.08127052461295663   -0.0023536172380289877   -0.0036383049350379344
-0.08127052461295663   -0.0023536172380289877   -0.0036383049350379344
-0.08127052461295663   -0.0023536172380289877   -0.0036383049350379344
-0.08622682275480403   0.0018920759528343635   0.001879907205120413
-0.08622682275480403   0.0018920759528343635   0.001879907205120413
-0.08622682275480403   0.0018920759528343635   0.001879907205120413
-0.08622682275480403   0.0018920759528343635   0.001879907205120413
-0.07750473974301687   0.007707370877400848   0.005129631299230075
-0.07750473974301687   0.007707370877400848   0.005129631299230075
-0.07750473974301687   0.007707370877400848   0.005129631299230075
-0.07750473974301687   0.007707370877400848   0.005129631299230075
-0.10526111419345169   -0.007452579185820048   -0.005142525093502002
-0.10526111419345169   -0.007452579185820048   -0.005142525093502002
-0.10526111419345169   -0.007452579185820048   -0.005142525093502002
-0.10526111419345169   -0.007452579185820048   -0.005142525093502002
-0.10456984885354809   0.0014888595693378671   0.006143550725286247
-0.10456984885354809   0.0014888595693378671   0.006143550725286247
-0.10456984885354809   0.0014888595693378671   0.006143550725286247
-0.10456984885354809   0.0014888595693378671   0.006143550725286247
-0.08288315397554943   -0.0036367022062792787   -0.003152755647055159
-0.08288315397554943   -0.0036367022062792787   -0.003152755647055159
-0.08288315397554943   -0.0036367022062792787   -0.003152755647055159
-0.08288315397554943   -0.0036367022062792787   -0.003152755647055159
-0.09032803378679556   0.0002006105815603662   0.00019330239824661734
-0.09032803378679556   0.0002006105815603662   0.00019330239824661734
-0.09032803378679556   0.0002006105815603662   0.00019330239824661734
-0.09032803378679556   0.0002006105815603662   0.00019330239824661734
-0.07898135995016682   0.0066014580497271574   0.006118054223851447
-0.07898135995016682   0.0066014580497271574   0.006118054223851447
-0.07898135995016682   0.0066014580497271574   0.006118054223851447
-0.07898135995016682   0.0066014580497271574   0.006118054223851447
-0.10875984990445606   -0.009037507712193934   -0.004280087247721807
-0.10875984990445606   -0.009037507712193934   -0.004280087247721807
-0.10875984990445606   -0.009037507712193934   -0.004280087247721807
-0.10875984990445606   -0.009037507712193934   -0.004280087247721807
-0.10944063678875374   -0.0022931012192845407   0.006455715947648049
-0.10944063678875374   -0.0022931012192845407   0.006455715947648049
-0.10944063678875374   -0.0022931012192845407   0.006455715947648049
-0.10944063678875374   -0.0022931012192845407   0.006455715947648049
-0.08450909986792779   -0.006438788117855343   -0.0027214046551260087
-0.08450909986792779   -0.006438788117855343   -0.0027214046551260087
-0.08450909986792779   -0.006438788117855343   -0.0027214046551260087
-0.08450909986792779   -0.006438788117855343   -0.0027214046551260087
-0.09176002710302997   -0.0015211075783634793   -0.0009562125429306715
-0.09176002710302997   -0.0015211075783634793   -0.0009562125429306715
-0.09176002710302997   -0.0015211075783634793   -0.0009562125429306715
-0.09176002710302997   -0.0015211075783634793   -0.0009562125429306715
-0.029064547870060846   -0.0017777804214049444   -0.007478363500988594
-0.029064547870060846   -0.0017777804214049444   -0.007478363500988594
-0.029064547870060846   -0.0017777804214049444   -0.007478363500988594
-0.029064547870060846   -0.0017777804214049444   -0.007478363500988594
-0.03379809019959135   0.005394210798833806   0.003282424392562455
-0.03379809019959135   0.005394210798833806   0.003282424392562455
-0.03379809019959135   0.005394210798833806   0.003282424392562455
-0.03379809019959135   0.005394210798833806   0.003282424392562455
-0.038872153213352696   -0.005470254329829212   -0.005202516838588358
-0.038872153213352696   -0.005470254329829212   -0.005202516838588358
-0.038872153213352696   -0.005470254329829212   -0.005202516838588358
-0.038872153213352696   -0.005470254329829212   -0.005202516838588358
-0.030025773271783435   0.003709870129672225   0.004710358338513908
-0.030025773271783435   0.003709870129672225   0.004710358338513908
-0.030025773271783435   0.003709870129672225   0.004710358338513908
-0.030025773271783435   0.003709870129672225   0.004710358338513908
-0.031261877086078374   0.00112083489880019   0.003354194775629816
-0.031261877086078374   0.00112083489880019   0.003354194775629816
-0.031261877086078374   0.00112083489880019   0.003354194775629816
-0.031261877086078374   0.00112083489880019   0.003354194775629816
-0.03392911671823192   -0.004717034513248789   -0.006379454250807028
-0.03392911671823192   -0.004717034513248789   -0.006379454250807028
-0.03392911671823192   -0.004717034513248789   -0.006379454250807028
-0.03392911671823192   -0.004717034513248789   -0.006379454250807028
-0.03539922479810496   0.002526235281891137   0.004165635625929997
-0.03539922479810496   0.002526235281891137   0.004165635625929997
-0.03539922479810496   0.002526235281891137   0.004165635625929997
-0.03539922479810496   0.002526235281891137   0.004165635625929997
-0.0405414391807959   -0.006780196225971955   -0.004480249467755989
-0.0405414391807959   -0.006780196225971955   -0.004480249467755989
-0.0405414391807959   -0.006780196225971955   -0.004480249467755989
-0.0405414391807959   -0.006780196225971955   -0.004480249467755989
-0.03395332675917273   0.0019820536766014278   0.009001935692696562
-0.03395332675917273   0.0019820536766014278   0.009001935692696562
-0.03395332675917273   0.0019820536766014278   0.009001935692696562
-0.03395332675917273   0.0019820536766014278   0.009001935692696562
-0.03473454261553671   -0.0011070486757678308   0.0014393378986634077
-0.03473454261553671   -0.0011070486757678308   0.0014393378986634077
-0.03473454261553671   -0.0011070486757678308   0.0014393378986634077
-0.03473454261553671   -0.0011070486757678308   0.0014393378986634077
-0.03846578966475067   -0.006487234550774974   -0.005091090607816302
-0.03846578966475067   -0.006487234550774974   -0.005091090607816302
-0.03846578966475067   -0.006487234550774974   -0.005091090607816302
-0.03846578966475067   -0.006487234550774974   -0.005091090607816302
-0.037126335985883385   0.0005917322907390971   0.0052233379900955565
-0.037126335985883385   0.0005917322907390971   0.0052233379900955565
-0.037126335985883385   0.0005917322907390971   0.0052233379900955565
-0.037126335985883385   0.0005917322907390971   0.0052233379900955565
-0.04193763842864734   -0.009179266520496047   -0.0035973434601502237
-0.04193763842864734   -0.009179266520496047   -0.0035973434601502237
-0.04193763842864734   -0.009179266520496047   -0.0035973434601502237
-0.04193763842864734   -0.009179266520496047   -0.0035973434601502237
-0.03999000338180814   -0.0037320675054350757   0.008383094523612026
-0.03999000338180814   -0.0037320675054350757   0.008383094523612026
-0.03999000338180814   -0.0037320675054350757   0.008383094523612026
-0.03999000338180814   -0.0037320675054350757   0.008383094523612026
-0.038055863777040864   -0.003711055969875785   -0.0017209752716566109
-0.038055863777040864   -0.003711055969875785   -0.0017209752716566109
-0.038055863777040864   -0.003711055969875785   -0.0017209752716566109
-0.038055863777040864   -0.003711055969875785   -0.0017209752716566109
-0.036373604660228584   -0.0004934840414938923   -0.0037074530702964716
-0.036373604660228584   -0.0004934840414938923   -0.0037074530702964716
-0.036373604660228584   -0.0004934840414938923   -0.0037074530702964716
-0.036373604660228584   -0.0004934840414938923   -0.0037074530702964716
-0.04062685200906415   -0.005143858488706061   -0.00023980834092866062
-0.04062685200906415   -0.005143858488706061   -0.00023980834092866062
-0.04062685200906415   -0.005143858488706061   -0.00023980834092866062
-0.04062685200906415   -0.005143858488706061   -0.00023980834092866062
-0.04119854835208535   -0.0035281725358966443   -0.002072773192017605
-0.04119854835208535   -0.0035281725358966443   -0.002072773192017605
-0.04119854835208535   -0.0035281725358966443   -0.002072773192017605
-0.04119854835208535   -0.0035281725358966443   -0.002072773192017605
-0.037970698152282774   -0.0062787970877711125   0.00011330122470318933
-0.037970698152282774   -0.0062787970877711125   0.00011330122470318933
-0.037970698152282774   -0.0062787970877711125   0.00011330122470318933
-0.037970698152282774   -0.0062787970877711125   0.00011330122470318933
-0.038724059461638385   -0.004036456190874851   9.64562989193658e-05
-0.038724059461638385   -0.004036456190874851   9.64562989193658e-05
-0.038724059461638385   -0.004036456190874851   9.64562989193658e-05
-0.038724059461638385   -0.004036456190874851   9.64562989193658e-05
-0.03801117403670994   -0.003124765076216343   -0.003243110208987675
-0.03801117403670994   -0.003124765076216343   -0.003243110208987675
-0.03801117403670994   -0.003124765076216343   -0.003243110208987675
-0.03801117403670994   -0.003124765076216343   -0.003243110208987675
-0.04142004243188684   -0.006944174511680832   0.00023575838475865937
-0.04142004243188684   -0.006944174511680832   0.00023575838475865937
-0.04142004243188684   -0.006944174511680832   0.00023575838475865937
-0.04142004243188684   -0.006944174511680832   0.00023575838475865937
-0.04212944670753854   -0.005720456345446082   -0.0014145039328375551
-0.04212944670753854   -0.005720456345446082   -0.0014145039328375551
-0.04212944670753854   -0.005720456345446082   -0.0014145039328375551
-0.04212944670753854   -0.005720456345446082   -0.0014145039328375551
-0.039720365449141905   -0.008292697895668638   0.001137620860210652
-0.039720365449141905   -0.008292697895668638   0.001137620860210652
-0.039720365449141905   -0.008292697895668638   0.001137620860210652
-0.039720365449141905   -0.008292697895668638   0.001137620860210652
-0.03991545445971504   -0.005849885433827664   -0.0009760544848980357
-0.03991545445971504   -0.005849885433827664   -0.0009760544848980357
-0.03991545445971504   -0.005849885433827664   -0.0009760544848980357
-0.03991545445971504   -0.005849885433827664   -0.0009760544848980357
-0.03987306357108157   -0.005474993717182028   -0.0024435739279742587
-0.03987306357108157   -0.005474993717182028   -0.0024435739279742587
-0.03987306357108157   -0.005474993717182028   -0.0024435739279742587
-0.03987306357108157   -0.005474993717182028   -0.0024435739279742587
-0.04230820973397537   -0.008869621672309263   0.0008408462618409862
-0.04230820973397537   -0.008869621672309263   0.0008408462618409862
-0.04230820973397537   -0.008869621672309263   0.0008408462618409862
-0.04230820973397537   -0.008869621672309263   0.0008408462618409862
-0.04299918849454973   -0.008002083641349545   -0.0007687545613320776
-0.04299918849454973   -0.008002083641349545   -0.0007687545613320776
-0.04299918849454973   -0.008002083641349545   -0.0007687545613320776
-0.04299918849454973   -0.008002083641349545   -0.0007687545613320776
-0.041094910931756164   -0.010728540865803172   0.002165568369612546
-0.041094910931756164   -0.010728540865803172   0.002165568369612546
-0.041094910931756164   -0.010728540865803172   0.002165568369612546
-0.041094910931756164   -0.010728540865803172   0.002165568369612546
-0.041422738113238086   -0.007925279980125802   -0.0022892201919401246
-0.041422738113238086   -0.007925279980125802   -0.0022892201919401246
-0.041422738113238086   -0.007925279980125802   -0.0022892201919401246
-0.041422738113238086   -0.007925279980125802   -0.0022892201919401246
-0.03939272359352056   0.001494124151007534   -0.000707148902923799
-0.03939272359352056   0.001494124151007534   -0.000707148902923799
-0.03939272359352056   0.001494124151007534   -0.000707148902923799
-0.03939272359352056   0.001494124151007534   -0.000707148902923799
-0.04773693171577567   -0.009102706562935072   -0.0023721420951685075
-0.04773693171577567   -0.009102706562935072   -0.0023721420951685075
-0.04773693171577567   -0.009102706562935072   -0.0023721420951685075
-0.04773693171577567   -0.009102706562935072   -0.0023721420951685075
-0.046039914284676894   -0.0017680113115712479   0.00043865532383390027
-0.046039914284676894   -0.0017680113115712479   0.00043865532383390027
-0.046039914284676894   -0.0017680113115712479   0.00043865532383390027
-0.046039914284676894   -0.0017680113115712479   0.00043865532383390027
-0.042182564072673616   -0.009165704395788916   -0.0013553199350671181
-0.042182564072673616   -0.009165704395788916   -0.0013553199350671181
-0.042182564072673616   -0.009165704395788916   -0.0013553199350671181
-0.042182564072673616   -0.009165704395788916   -0.0013553199350671181
-0.043805229382789475   -0.004792001003333699   -0.0008511120968236802
-0.043805229382789475   -0.004792001003333699   -0.0008511120968236802
-0.043805229382789475   -0.004792001003333699   -0.0008511120968236802
-0.043805229382789475   -0.004792001003333699   -0.0008511120968236802
-0.04022381101879258   -0.0006983112795426981   -2.8947781907671943e-05
-0.04022381101879258   -0.0006983112795426981   -2.8947781907671943e-05
-0.04022381101879258   -0.0006983112795426981   -2.8947781907671943e-05
-0.04022381101879258   -0.0006983112795426981   -2.8947781907671943e-05
-0.048241827442451146   -0.010478564531710591   -0.0018603572448979682
-0.048241827442451146   -0.010478564531710591   -0.0018603572448979682
-0.048241827442451146   -0.010478564531710591   -0.0018603572448979682
-0.048241827442451146   -0.010478564531710591   -0.0018603572448979682
-0.046776647312695256   -0.003976123552916961   0.00108999427293459
-0.046776647312695256   -0.003976123552916961   0.00108999427293459
-0.046776647312695256   -0.003976123552916961   0.00108999427293459
-0.046776647312695256   -0.003976123552916961   0.00108999427293459
-0.043056043249048326   -0.010887780091245901   -0.0008801628945866646
-0.043056043249048326   -0.010887780091245901   -0.0008801628945866646
-0.043056043249048326   -0.010887780091245901   -0.0008801628945866646
-0.043056043249048326   -0.010887780091245901   -0.0008801628945866646
-0.04456287079492237   -0.006453334070994306   -0.0017725951797899716
-0.04456287079492237   -0.006453334070994306   -0.0017725951797899716
-0.04456287079492237   -0.006453334070994306   -0.0017725951797899716
-0.04456287079492237   -0.006453334070994306   -0.0017725951797899716
-0.041171419912956746   -0.002951701823859257   0.0006068755184846003
-0.041171419912956746   -0.002951701823859257   0.0006068755184846003
-0.041171419912956746   -0.002951701823859257   0.0006068755184846003
-0.041171419912956746   -0.002951701823859257   0.0006068755184846003
-0.048933215119556984   -0.012184146291073913   -0.0014848220232180657
-0.048933215119556984   -0.012184146291073913   -0.0014848220232180657
-0.048933215119556984   -0.012184146291073913   -0.0014848220232180657
-0.048933215119556984   -0.012184146291073913   -0.0014848220232180657
-0.04741770318530928   -0.0060224371715282   0.001737572974939941
-0.04741770318530928   -0.0060224371715282   0.001737572974939941
-0.04741770318530928   -0.0060224371715282   0.001737572974939941
-0.04741770318530928   -0.0060224371715282   0.001737572974939941
-0.04377696932842011   -0.012483967541206592   -0.00017577483082741583
-0.04377696932842011   -0.012483967541206592   -0.00017577483082741583
-0.04377696932842011   -0.012483967541206592   -0.00017577483082741583
-0.04377696932842011   -0.012483967541206592   -0.00017577483082741583
-0.045434399751755165   -0.008179894722335896   -0.0027817131488114964
-0.045434399751755165   -0.008179894722335896   -0.0027817131488114964
-0.045434399751755165   -0.008179894722335896   -0.0027817131488114964
-0.045434399751755165   -0.008179894722335896   -0.0027817131488114964
-0.04405163664594209   0.004801427980974349   0.002150198710089982
-0.04405163664594209   0.004801427980974349   0.002150198710089982
-0.04405163664594209   0.004801427980974349   0.002150198710089982
-0.04405163664594209   0.004801427980974349   0.002150198710089982
-0.05482460114030089   -0.007168017772046579   -0.003428965646445804
-0.05482460114030089   -0.007168017772046579   -0.003428965646445804
-0.05482460114030089   -0.007168017772046579   -0.003428965646445804
-0.05482460114030089   -0.007168017772046579   -0.003428965646445804
-0.05224825137406195   0.0010335150633136551   0.0028435761730095303
-0.05224825137406195   0.0010335150633136551   0.0028435761730095303
-0.05224825137406195   0.0010335150633136551   0.0028435761730095303
-0.05224825137406195   0.0010335150633136551   0.0028435761730095303
-0.04762856791654051   -0.007285580103600745   -0.0019870440434546326
-0.04762856791654051   -0.007285580103600745   -0.0019870440434546326
-0.04762856791654051   -0.007285580103600745   -0.0019870440434546326
-0.04762856791654051   -0.007285580103600745   -0.0019870440434546326
-0.049638302154404436   -0.002115401354692112   -0.0005048140237287097
-0.049638302154404436   -0.002115401354692112   -0.0005048140237287097
-0.049638302154404436   -0.002115401354692112   -0.0005048140237287097
-0.049638302154404436   -0.002115401354692112   -0.0005048140237287097
-0.044705881610815935   0.0025345293813947376   0.0028062780001727595
-0.044705881610815935   0.0025345293813947376   0.0028062780001727595
-0.044705881610815935   0.0025345293813947376   0.0028062780001727595
-0.044705881610815935   0.0025345293813947376   0.0028062780001727595
-0.05550081020232175   -0.00911646694421769   -0.0032692359607581142
-0.05550081020232175   -0.00911646694421769   -0.0032692359607581142
-0.05550081020232175   -0.00911646694421769   -0.0032692359607581142
-0.05550081020232175   -0.00911646694421769   -0.0032692359607581142
-0.05336891878834445   -0.0011568519108742202   0.0032460614494668753
-0.05336891878834445   -0.0011568519108742202   0.0032460614494668753
-0.05336891878834445   -0.0011568519108742202   0.0032460614494668753
-0.05336891878834445   -0.0011568519108742202   0.0032460614494668753
-0.04829821338967301   -0.008931698447392418   -0.001562261217478701
-0.04829821338967301   -0.008931698447392418   -0.001562261217478701
-0.04829821338967301   -0.008931698447392418   -0.001562261217478701
-0.04829821338967301   -0.008931698447392418   -0.001562261217478701
-0.05028835169033727   -0.003936594266503979   -0.0015928330538406731
-0.05028835169033727   -0.003936594266503979   -0.0015928330538406731
-0.05028835169033727   -0.003936594266503979   -0.0015928330538406731
-0.05028835169033727   -0.003936594266503979   -0.0015928330538406731
-0.04541787922877379   0.00047140494922611083   0.003436306190397877
-0.04541787922877379   0.00047140494922611083   0.003436306190397877
-0.04541787922877379   0.00047140494922611083   0.003436306190397877
-0.04541787922877379   0.00047140494922611083   0.003436306190397877
-0.0565336447820336   -0.01084434714028317   -0.0028900732895699405
-0.0565336447820336   -0.01084434714028317   -0.0028900732895699405
-0.0565336447820336   -0.01084434714028317   -0.0028900732895699405
-0.0565336447820336   -0.01084434714028317   -0.0028900732895699405
-0.054167021539770134   -0.0032869503463062956   0.003977378564815381
-0.054167021539770134   -0.0032869503463062956   0.003977378564815381
-0.054167021539770134   -0.0032869503463062956   0.003977378564815381
-0.054167021539770134   -0.0032869503463062956   0.003977378564815381
-0.048912543075404866   -0.010596004409078586   -0.0011630592379885758
-0.048912543075404866   -0.010596004409078586   -0.0011630592379885758
-0.048912543075404866   -0.010596004409078586   -0.0011630592379885758
-0.048912543075404866   -0.010596004409078586   -0.0011630592379885758
-0.051322451311340854   -0.005696997383339528   -0.002663638900430548
-0.051322451311340854   -0.005696997383339528   -0.002663638900430548
-0.051322451311340854   -0.005696997383339528   -0.002663638900430548
-0.051322451311340854   -0.005696997383339528   -0.002663638900430548
-0.050446055460503236   0.006915360531197817   0.004380384449298106
-0.050446055460503236   0.006915360531197817   0.004380384449298106
-0.050446055460503236   0.006915360531197817   0.004380384449298106
-0.050446055460503236   0.006915360531197817   0.004380384449298106
-0.05723068416282749   -0.0046418712383458835   -0.004861917068489815
-0.05723068416282749   -0.0046418712383458835   -0.004861917068489815
-0.05723068416282749   -0.0046418712383458835   -0.004861917068489815
-0.05723068416282749   -0.0046418712383458835   -0.004861917068489815
-0.056346607110760956   0.004336284942485537   0.0048872884653351914
-0.056346607110760956   0.004336284942485537   0.0048872884653351914
-0.056346607110760956   0.004336284942485537   0.0048872884653351914
-0.056346607110760956   0.004336284942485537   0.0048872884653351914
-0.05463985074844251   -0.0051020780182631335   -0.002978827617317452
-0.05463985074844251   -0.0051020780182631335   -0.002978827617317452
-0.05463985074844251   -0.0051020780182631335   -0.002978827617317452
-0.05463985074844251   -0.0051020780182631335   -0.002978827617317452
-0.052698749269147166   0.0010432350922935842   0.0004662985771876106
-0.052698749269147166   0.0010432350922935842   0.0004662985771876106
-0.052698749269147166   0.0010432350922935842   0.0004662985771876106
-0.052698749269147166   0.0010432350922935842   0.0004662985771876106
-0.05092092061789543   0.0054555946261853165   0.005058150390968561
-0.05092092061789543   0.0054555946261853165   0.005058150390968561
-0.05092092061789543   0.0054555946261853165   0.005058150390968561
-0.05092092061789543   0.0054555946261853165   0.005058150390968561
-0.06035050025996166   -0.006506350720616382   -0.0042895416175645525
-0.06035050025996166   -0.006506350720616382   -0.0042895416175645525
-0.06035050025996166   -0.006506350720616382   -0.0042895416175645525
-0.06035050025996166   -0.006506350720616382   -0.0042895416175645525
-0.05881807621677343   0.0030564418152984173   0.006247886702057316
-0.05881807621677343   0.0030564418152984173   0.006247886702057316
-0.05881807621677343   0.0030564418152984173   0.006247886702057316
-0.05881807621677343   0.0030564418152984173   0.006247886702057316
-0.055540218045497046   -0.006094552172183906   -0.0026727345749864295
-0.055540218045497046   -0.006094552172183906   -0.0026727345749864295
-0.055540218045497046   -0.006094552172183906   -0.0026727345749864295
-0.055540218045497046   -0.006094552172183906   -0.0026727345749864295
-0.05539950107745166   -0.0004832097826762208   -0.0008920741930434125
-0.05539950107745166   -0.0004832097826762208   -0.0008920741930434125
-0.05539950107745166   -0.0004832097826762208   -0.0008920741930434125
-0.05539950107745166   -0.0004832097826762208   -0.0008920741930434125
-0.05169677503443857   0.004434258644148446   0.006015669663972604
-0.05169677503443857   0.004434258644148446   0.006015669663972604
-0.05169677503443857   0.004434258644148446   0.006015669663972604
-0.05169677503443857   0.004434258644148446   0.006015669663972604
-0.0630131720986262   -0.007824021871827742   -0.003847129020076471
-0.0630131720986262   -0.007824021871827742   -0.003847129020076471
-0.0630131720986262   -0.007824021871827742   -0.003847129020076471
-0.0630131720986262   -0.007824021871827742   -0.003847129020076471
-0.0628993747849047   -0.0002423544859375855   0.0066510384214397075
-0.0628993747849047   -0.0002423544859375855   0.0066510384214397075
-0.0628993747849047   -0.0002423544859375855   0.0066510384214397075
-0.0628993747849047   -0.0002423544859375855   0.0066510384214397075
-0.056385400789362675   -0.008091594138729553   -0.0023098738907250324
-0.056385400789362675   -0.008091594138729553   -0.0023098738907250324
-0.056385400789362675   -0.008091594138729553   -0.0023098738907250324
-0.056385400789362675   -0.008091594138729553   -0.0023098738907250324
-0.056661726675732875   -0.0019323044629649174   -0.0020673134161859736
-0.056661726675732875   -0.0019323044629649174   -0.0020673134161859736
-0.056661726675732875   -0.0019323044629649174   -0.0020673134161859736
-0.056661726675732875   -0.0019323044629649174   -0.0020673134161859736
-0.08992473038820464   -0.008426962020356562   -0.009696799514776094
-0.08992473038820464   -0.008426962020356562   -0.009696799514776094
-0.08992473038820464   -0.008426962020356562   -0.009696799514776094
-0.08992473038820464   -0.008426962020356562   -0.009696799514776094
-0.05967849361172097   0.0040966862006791074   0.0022030973234946575
-0.05967849361172097   0.0040966862006791074   0.0022030973234946575
-0.05967849361172097   0.0040966862006791074   0.0022030973234946575
-0.05967849361172097   0.0040966862006791074   0.0022030973234946575
-0.06295699312062002   -0.004733422060499877   -0.004574882763510012
-0.06295699312062002   -0.004733422060499877   -0.004574882763510012
-0.06295699312062002   -0.004733422060499877   -0.004574882763510012
-0.06295699312062002   -0.004733422060499877   -0.004574882763510012
-0.09697193980203922   -0.012354083616514983   0.010269222818495865
-0.09697193980203922   -0.012354083616514983   0.010269222818495865
-0.09697193980203922   -0.012354083616514983   0.010269222818495865
-0.09697193980203922   -0.012354083616514983   0.010269222818495865
-0.07081508490872775   -0.0031787515379220373   0.010267927183368011
-0.07081508490872775   -0.0031787515379220373   0.010267927183368011
-0.07081508490872775   -0.0031787515379220373   0.010267927183368011
-0.07081508490872775   -0.0031787515379220373   0.010267927183368011
-0.10056964642894592   -0.012796379129977834   -0.0072770148025739076
-0.10056964642894592   -0.012796379129977834   -0.0072770148025739076
-0.10056964642894592   -0.012796379129977834   -0.0072770148025739076
-0.10056964642894592   -0.012796379129977834   -0.0072770148025739076
-0.06192807912024407   -0.0068599191735676185   0.002696184351437517
-0.06192807912024407   -0.0068599191735676185   0.002696184351437517
-0.06192807912024407   -0.0068599191735676185   0.002696184351437517
-0.06192807912024407   -0.0068599191735676185   0.002696184351437517
-0.06441416982991852   -0.006603148086926278   -0.003463230054196179
-0.06441416982991852   -0.006603148086926278   -0.003463230054196179
-0.06441416982991852   -0.006603148086926278   -0.003463230054196179
-0.06441416982991852   -0.006603148086926278   -0.003463230054196179
-0.1007629572161457   -0.01707212087565729   -0.00012812550198347615
-0.1007629572161457   -0.01707212087565729   -0.00012812550198347615
-0.1007629572161457   -0.01707212087565729   -0.00012812550198347615
-0.1007629572161457   -0.01707212087565729   -0.00012812550198347615
-0.07939093400798869   -0.01028666925344979   0.0025073470926552533
-0.07939093400798869   -0.01028666925344979   0.0025073470926552533
-0.07939093400798869   -0.01028666925344979   0.0025073470926552533
-0.07939093400798869   -0.01028666925344979   0.0025073470926552533
-0.10144216421430935   -0.01452946435554734   -0.006066817012910658
-0.10144216421430935   -0.01452946435554734   -0.006066817012910658
-0.10144216421430935   -0.01452946435554734   -0.006066817012910658
-0.10144216421430935   -0.01452946435554734   -0.006066817012910658
-0.06446449473382428   -0.009875336509105548   -0.0004426661515461804
-0.06446449473382428   -0.009875336509105548   -0.0004426661515461804
-0.06446449473382428   -0.009875336509105548   -0.0004426661515461804
-0.06446449473382428   -0.009875336509105548   -0.0004426661515461804
-0.06491116141058541   -0.01092011742344944   -0.002635997037682532
-0.06491116141058541   -0.01092011742344944   -0.002635997037682532
-0.06491116141058541   -0.01092011742344944   -0.002635997037682532
-0.06491116141058541   -0.01092011742344944   -0.002635997037682532
-0.10403754172019856   -0.025749817919813872   0.0011352858889913165
-0.10403754172019856   -0.025749817919813872   0.0011352858889913165
-0.10403754172019856   -0.025749817919813872   0.0011352858889913165
-0.10403754172019856   -0.025749817919813872   0.0011352858889913165
-0.0798603437235131   -0.014024044559751522   0.00035283266456528363
-0.0798603437235131   -0.014024044559751522   0.00035283266456528363
-0.0798603437235131   -0.014024044559751522   0.00035283266456528363
-0.0798603437235131   -0.014024044559751522   0.00035283266456528363
-0.06437809094783799   -0.011071487699631061   -0.0061267154567798245
-0.06437809094783799   -0.011071487699631061   -0.0061267154567798245
-0.06437809094783799   -0.011071487699631061   -0.0061267154567798245
-0.06437809094783799   -0.011071487699631061   -0.0061267154567798245
-0.04633513341215086   -0.03233993747856348   -0.005948511965076823
-0.04633513341215086   -0.03233993747856348   -0.005948511965076823
-0.04633513341215086   -0.03233993747856348   -0.005948511965076823
-0.04633513341215086   -0.03233993747856348   -0.005948511965076823
-0.04056247031770186   -0.0069369206528943385   -0.0005855444354938518
-0.04056247031770186   -0.0069369206528943385   -0.0005855444354938518
-0.04056247031770186   -0.0069369206528943385   -0.0005855444354938518
-0.04056247031770186   -0.0069369206528943385   -0.0005855444354938518
-0.06927874789525677   -0.033650656603204473   -0.007266422093989218
-0.06927874789525677   -0.033650656603204473   -0.007266422093989218
-0.06927874789525677   -0.033650656603204473   -0.007266422093989218
-0.06927874789525677   -0.033650656603204473   -0.007266422093989218
-0.054550776662227095   -0.022148559422287835   -0.0016532514881774834
-0.054550776662227095   -0.022148559422287835   -0.0016532514881774834
-0.054550776662227095   -0.022148559422287835   -0.0016532514881774834
-0.054550776662227095   -0.022148559422287835   -0.0016532514881774834
-0.0645412257767652   -0.012551213732129468   -0.004678254372606154
-0.0645412257767652   -0.012551213732129468   -0.004678254372606154
-0.0645412257767652   -0.012551213732129468   -0.004678254372606154
-0.0645412257767652   -0.012551213732129468   -0.004678254372606154
-0.0455502613112061   -0.028286632398982055   -0.004174787656927814
-0.0455502613112061   -0.028286632398982055   -0.004174787656927814
-0.0455502613112061   -0.028286632398982055   -0.004174787656927814
-0.0455502613112061   -0.028286632398982055   -0.004174787656927814
-0.041454231906235026   -0.008899421125712872   -0.0001621288329173987
-0.041454231906235026   -0.008899421125712872   -0.0001621288329173987
-0.041454231906235026   -0.008899421125712872   -0.0001621288329173987
-0.041454231906235026   -0.008899421125712872   -0.0001621288329173987
-0.06993485363947258   -0.03344717539266542   -0.0042226217962277445
-0.06993485363947258   -0.03344717539266542   -0.0042226217962277445
-0.06993485363947258   -0.03344717539266542   -0.0042226217962277445
-0.06993485363947258   -0.03344717539266542   -0.0042226217962277445
-0.05423746402862341   -0.020750637214007873   -0.0017614884948236667
-0.05423746402862341   -0.020750637214007873   -0.0017614884948236667
-0.05423746402862341   -0.020750637214007873   -0.0017614884948236667
-0.05423746402862341   -0.020750637214007873   -0.0017614884948236667
-0.06601374084875947   -0.014493119828916426   -0.0035711134064107405
-0.06601374084875947   -0.014493119828916426   -0.0035711134064107405
-0.06601374084875947   -0.014493119828916426   -0.0035711134064107405
-0.06601374084875947   -0.014493119828916426   -0.0035711134064107405
-0.045933714475755505   -0.028411846468269154   -0.0030471163379634913
-0.045933714475755505   -0.028411846468269154   -0.0030471163379634913
-0.045933714475755505   -0.028411846468269154   -0.0030471163379634913
-0.045933714475755505   -0.028411846468269154   -0.0030471163379634913
-0.04193114882918115   -0.011240484962248273   0.0004420857848120393
-0.04193114882918115   -0.011240484962248273   0.0004420857848120393
-0.04193114882918115   -0.011240484962248273   0.0004420857848120393
-0.04193114882918115   -0.011240484962248273   0.0004420857848120393
-0.0702117663414022   -0.03370173828664676   -0.006357400828570006
-0.0702117663414022   -0.03370173828664676   -0.006357400828570006
-0.0702117663414022   -0.03370173828664676   -0.006357400828570006
-0.0702117663414022   -0.03370173828664676   -0.006357400828570006
-0.055532151282150354   -0.022222684695480485   -0.003319901043676666
-0.055532151282150354   -0.022222684695480485   -0.003319901043676666
-0.055532151282150354   -0.022222684695480485   -0.003319901043676666
-0.055532151282150354   -0.022222684695480485   -0.003319901043676666
-0.040243425593281125   -0.007246299157717319   -0.0005836111915742839
-0.040243425593281125   -0.007246299157717319   -0.0005836111915742839
-0.040243425593281125   -0.007246299157717319   -0.0005836111915742839
-0.040243425593281125   -0.007246299157717319   -0.0005836111915742839
-0.03589541256810078   -0.02518916931215708   -0.004342813485334066
-0.03589541256810078   -0.02518916931215708   -0.004342813485334066
-0.03589541256810078   -0.02518916931215708   -0.004342813485334066
-0.03589541256810078   -0.02518916931215708   -0.004342813485334066
-0.031034891163297378   -0.006361817043038974   0.0015164439193063577
-0.031034891163297378   -0.006361817043038974   0.0015164439193063577
-0.031034891163297378   -0.006361817043038974   0.0015164439193063577
-0.031034891163297378   -0.006361817043038974   0.0015164439193063577
-0.04535620762960398   -0.026838676945870433   -0.004652474702028868
-0.04535620762960398   -0.026838676945870433   -0.004652474702028868
-0.04535620762960398   -0.026838676945870433   -0.004652474702028868
-0.04535620762960398   -0.026838676945870433   -0.004652474702028868
-0.037993548906653116   -0.01656299114102766   -0.0019643724001572166
-0.037993548906653116   -0.01656299114102766   -0.0019643724001572166
-0.037993548906653116   -0.01656299114102766   -0.0019643724001572166
-0.037993548906653116   -0.01656299114102766   -0.0019643724001572166
-0.04077262083912919   -0.00860607941764306   3.2861722117737564e-05
-0.04077262083912919   -0.00860607941764306   3.2861722117737564e-05
-0.04077262083912919   -0.00860607941764306   3.2861722117737564e-05
-0.04077262083912919   -0.00860607941764306   3.2861722117737564e-05
-0.03585639946533459   -0.024832336082828917   -0.00412057855108973
-0.03585639946533459   -0.024832336082828917   -0.00412057855108973
-0.03585639946533459   -0.024832336082828917   -0.00412057855108973
-0.03585639946533459   -0.024832336082828917   -0.00412057855108973
-0.03144675565655426   -0.007990641656359421   0.0019962416873516653
-0.03144675565655426   -0.007990641656359421   0.0019962416873516653
-0.03144675565655426   -0.007990641656359421   0.0019962416873516653
-0.03144675565655426   -0.007990641656359421   0.0019962416873516653
-0.04590117355726055   -0.02725717882284631   -0.0040390793909115645
-0.04590117355726055   -0.02725717882284631   -0.0040390793909115645
-0.04590117355726055   -0.02725717882284631   -0.0040390793909115645
-0.04590117355726055   -0.02725717882284631   -0.0040390793909115645
-0.03826843393595905   -0.017121122498273644   -0.0025592343982798523
-0.03826843393595905   -0.017121122498273644   -0.0025592343982798523
-0.03826843393595905   -0.017121122498273644   -0.0025592343982798523
-0.03826843393595905   -0.017121122498273644   -0.0025592343982798523
-0.04155328166040469   -0.010268795783746296   0.0007119970542677255
-0.04155328166040469   -0.010268795783746296   0.0007119970542677255
-0.04155328166040469   -0.010268795783746296   0.0007119970542677255
-0.04155328166040469   -0.010268795783746296   0.0007119970542677255
-0.0359315627470951   -0.025115939889144408   -0.0033024955325665706
-0.0359315627470951   -0.025115939889144408   -0.0033024955325665706
-0.0359315627470951   -0.025115939889144408   -0.0033024955325665706
-0.0359315627470951   -0.025115939889144408   -0.0033024955325665706
-0.03153053215236187   -0.009492725389731976   0.0025339987504893443
-0.03153053215236187   -0.009492725389731976   0.0025339987504893443
-0.03153053215236187   -0.009492725389731976   0.0025339987504893443
-0.03153053215236187   -0.009492725389731976   0.0025339987504893443
-0.04583648670172803   -0.027483155875555363   -0.00284193266461525
-0.04583648670172803   -0.027483155875555363   -0.00284193266461525
-0.04583648670172803   -0.027483155875555363   -0.00284193266461525
-0.04583648670172803   -0.027483155875555363   -0.00284193266461525
-0.038601588711127136   -0.01792399866245034   -0.0030328879347812916
-0.038601588711127136   -0.01792399866245034   -0.0030328879347812916
-0.038601588711127136   -0.01792399866245034   -0.0030328879347812916
-0.038601588711127136   -0.01792399866245034   -0.0030328879347812916
-0.02957710635792606   -0.0008506800296716301   0.0029102282830541035
-0.02957710635792606   -0.0008506800296716301   0.0029102282830541035
-0.02957710635792606   -0.0008506800296716301   0.0029102282830541035
-0.02957710635792606   -0.0008506800296716301   0.0029102282830541035
-0.03012136195585843   -0.013772379442167835   -0.002797717047171151
-0.03012136195585843   -0.013772379442167835   -0.002797717047171151
-0.03012136195585843   -0.013772379442167835   -0.002797717047171151
-0.03012136195585843   -0.013772379442167835   -0.002797717047171151
-0.026362929139890225   -0.0019746344562194098   0.0033020454168017632
-0.026362929139890225   -0.0019746344562194098   0.0033020454168017632
-0.026362929139890225   -0.0019746344562194098   0.0033020454168017632
-0.026362929139890225   -0.0019746344562194098   0.0033020454168017632
-0.033516429372905276   -0.015353234323257107   -0.0018998298485149944
-0.033516429372905276   -0.015353234323257107   -0.0018998298485149944
-0.033516429372905276   -0.015353234323257107   -0.0018998298485149944
-0.033516429372905276   -0.015353234323257107   -0.0018998298485149944
-0.02997688299921323   -0.007878445917118341   -0.0010892241931529359
-0.02997688299921323   -0.007878445917118341   -0.0010892241931529359
-0.02997688299921323   -0.007878445917118341   -0.0010892241931529359
-0.02997688299921323   -0.007878445917118341   -0.0010892241931529359
-0.029928334087741877   -0.002675535065284263   0.0033629473193291497
-0.029928334087741877   -0.002675535065284263   0.0033629473193291497
-0.029928334087741877   -0.002675535065284263   0.0033629473193291497
-0.029928334087741877   -0.002675535065284263   0.0033629473193291497
-0.03022722163511383   -0.014928530924252462   -0.003065520591283214
-0.03022722163511383   -0.014928530924252462   -0.003065520591283214
-0.03022722163511383   -0.014928530924252462   -0.003065520591283214
-0.03022722163511383   -0.014928530924252462   -0.003065520591283214
-0.026782709289473294   -0.0036006352726309534   0.0035775505561289112
-0.026782709289473294   -0.0036006352726309534   0.0035775505561289112
-0.026782709289473294   -0.0036006352726309534   0.0035775505561289112
-0.026782709289473294   -0.0036006352726309534   0.0035775505561289112
-0.0339170943565187   -0.016316535963390985   -0.0020295575054389793
-0.0339170943565187   -0.016316535963390985   -0.0020295575054389793
-0.0339170943565187   -0.016316535963390985   -0.0020295575054389793
-0.0339170943565187   -0.016316535963390985   -0.0020295575054389793
-0.030199581866155813   -0.009148586601220667   -0.0018849470814702937
-0.030199581866155813   -0.009148586601220667   -0.0018849470814702937
-0.030199581866155813   -0.009148586601220667   -0.0018849470814702937
-0.030199581866155813   -0.009148586601220667   -0.0018849470814702937
-0.030336793310573557   -0.0042632331965813605   0.0038186449574771314
-0.030336793310573557   -0.0042632331965813605   0.0038186449574771314
-0.030336793310573557   -0.0042632331965813605   0.0038186449574771314
-0.030336793310573557   -0.0042632331965813605   0.0038186449574771314
-0.03053209370344163   -0.015823021407463608   -0.0029469853788801187
-0.03053209370344163   -0.015823021407463608   -0.0029469853788801187
-0.03053209370344163   -0.015823021407463608   -0.0029469853788801187
-0.03053209370344163   -0.015823021407463608   -0.0029469853788801187
-0.02696918412830678   -0.0051420657481404605   0.004163275119603965
-0.02696918412830678   -0.0051420657481404605   0.004163275119603965
-0.02696918412830678   -0.0051420657481404605   0.004163275119603965
-0.02696918412830678   -0.0051420657481404605   0.004163275119603965
-0.03385090127554395   -0.017247830828937955   -0.0013127414262150824
-0.03385090127554395   -0.017247830828937955   -0.0013127414262150824
-0.03385090127554395   -0.017247830828937955   -0.0013127414262150824
-0.03385090127554395   -0.017247830828937955   -0.0013127414262150824
-0.030547712134621492   -0.01031100663714013   -0.002491407204789181
-0.030547712134621492   -0.01031100663714013   -0.002491407204789181
-0.030547712134621492   -0.01031100663714013   -0.002491407204789181
-0.030547712134621492   -0.01031100663714013   -0.002491407204789181
-0.025134212080006015   0.003685780974917176   0.004679871915005923
-0.025134212080006015   0.003685780974917176   0.004679871915005923
-0.025134212080006015   0.003685780974917176   0.004679871915005923
-0.025134212080006015   0.003685780974917176   0.004679871915005923
-0.01963984914384431   -0.004854578274213818   -0.0018653213439438921
-0.01963984914384431   -0.004854578274213818   -0.0018653213439438921
-0.01963984914384431   -0.004854578274213818   -0.0018653213439438921
-0.01963984914384431   -0.004854578274213818   -0.0018653213439438921
-0.01795899349733478   0.003764602101955714   0.004673715732669049
-0.01795899349733478   0.003764602101955714   0.004673715732669049
-0.01795899349733478   0.003764602101955714   0.004673715732669049
-0.01795899349733478   0.003764602101955714   0.004673715732669049
-0.02816928631899251   -0.0067096240863038885   -0.0009947508486251905
-0.02816928631899251   -0.0067096240863038885   -0.0009947508486251905
-0.02816928631899251   -0.0067096240863038885   -0.0009947508486251905
-0.02816928631899251   -0.0067096240863038885   -0.0009947508486251905
-0.02229292934493423   -0.0005337125297003725   -0.0006766451810937787
-0.02229292934493423   -0.0005337125297003725   -0.0006766451810937787
-0.02229292934493423   -0.0005337125297003725   -0.0006766451810937787
-0.02229292934493423   -0.0005337125297003725   -0.0006766451810937787
-0.02512160227905248   0.002420121876693976   0.00511392338807806
-0.02512160227905248   0.002420121876693976   0.00511392338807806
-0.02512160227905248   0.002420121876693976   0.00511392338807806
-0.02512160227905248   0.002420121876693976   0.00511392338807806
-0.021063660936429866   -0.005422127260197047   -0.0016628921006536291
-0.021063660936429866   -0.005422127260197047   -0.0016628921006536291
-0.021063660936429866   -0.005422127260197047   -0.0016628921006536291
-0.021063660936429866   -0.005422127260197047   -0.0016628921006536291
-0.019054632738313905   0.0029075960525288156   0.0058524212413940385
-0.019054632738313905   0.0029075960525288156   0.0058524212413940385
-0.019054632738313905   0.0029075960525288156   0.0058524212413940385
-0.019054632738313905   0.0029075960525288156   0.0058524212413940385
-0.028451747463143447   -0.007202963344011774   -0.0011653122408410168
-0.028451747463143447   -0.007202963344011774   -0.0011653122408410168
-0.028451747463143447   -0.007202963344011774   -0.0011653122408410168
-0.028451747463143447   -0.007202963344011774   -0.0011653122408410168
-0.02338095244963909   -0.0014583756835763444   -0.0011817525512886507
-0.02338095244963909   -0.0014583756835763444   -0.0011817525512886507
-0.02338095244963909   -0.0014583756835763444   -0.0011817525512886507
-0.02338095244963909   -0.0014583756835763444   -0.0011817525512886507
-0.025271890538301485   0.0016665517101032458   0.005864457329253766
-0.025271890538301485   0.0016665517101032458   0.005864457329253766
-0.025271890538301485   0.0016665517101032458   0.005864457329253766
-0.025271890538301485   0.0016665517101032458   0.005864457329253766
-0.022452661333848642   -0.00618009067227914   -0.0020500350114736055
-0.022452661333848642   -0.00618009067227914   -0.0020500350114736055
-0.022452661333848642   -0.00618009067227914   -0.0020500350114736055
-0.022452661333848642   -0.00618009067227914   -0.0020500350114736055
-0.021654265728774214   0.0005359364345677497   0.006096643915173022
-0.021654265728774214   0.0005359364345677497   0.006096643915173022
-0.021654265728774214   0.0005359364345677497   0.006096643915173022
-0.021654265728774214   0.0005359364345677497   0.006096643915173022
-0.028515640645751666   -0.007776652274926238   -0.0009344209408346822
-0.028515640645751666   -0.007776652274926238   -0.0009344209408346822
-0.028515640645751666   -0.007776652274926238   -0.0009344209408346822
-0.028515640645751666   -0.007776652274926238   -0.0009344209408346822
-0.02406163811590767   -0.0022026574350029614   -0.0018594550420755582
-0.02406163811590767   -0.0022026574350029614   -0.0018594550420755582
-0.02406163811590767   -0.0022026574350029614   -0.0018594550420755582
-0.02406163811590767   -0.0022026574350029614   -0.0018594550420755582
-0.22792988680163215   -0.03404637695169353   -0.020260825248458323
-0.22792988680163215   -0.03404637695169353   -0.020260825248458323
-0.22792988680163215   -0.03404637695169353   -0.020260825248458323
-0.22792988680163215   -0.03404637695169353   -0.020260825248458323
-0.0814963812419157   -0.14690758805691764   -0.015493846318404541
-0.0814963812419157   -0.14690758805691764   -0.015493846318404541
-0.0814963812419157   -0.14690758805691764   -0.015493846318404541
-0.0814963812419157   -0.14690758805691764   -0.015493846318404541
-0.060371174644548845   -0.007123677472247317   -0.0001795116176561936
-0.060371174644548845   -0.007123677472247317   -0.0001795116176561936
-0.060371174644548845   -0.007123677472247317   -0.0001795116176561936
-0.060371174644548845   -0.007123677472247317   -0.0001795116176561936
-0.2484144629687881   -0.1687127580331874   -0.0834254442003951
-0.2484144629687881   -0.1687127580331874   -0.0834254442003951
-0.2484144629687881   -0.1687127580331874   -0.0834254442003951
-0.2484144629687881   -0.1687127580331874   -0.0834254442003951
-0.1505940097777237   -0.08337136130700173   -0.012220174319586557
-0.1505940097777237   -0.08337136130700173   -0.012220174319586557
-0.1505940097777237   -0.08337136130700173   -0.012220174319586557
-0.1505940097777237   -0.08337136130700173   -0.012220174319586557
-0.2120894278310317   -0.04294502591247759   -0.02756800063232469
-0.2120894278310317   -0.04294502591247759   -0.02756800063232469
-0.2120894278310317   -0.04294502591247759   -0.02756800063232469
-0.2120894278310317   -0.04294502591247759   -0.02756800063232469
-0.08877407721405113   -0.12496927702470322   -0.024348424912711247
-0.08877407721405113   -0.12496927702470322   -0.024348424912711247
-0.08877407721405113   -0.12496927702470322   -0.024348424912711247
-0.08877407721405113   -0.12496927702470322   -0.024348424912711247
-0.06226835549959339   -0.008903700885306341   0.0022193727332199243
-0.06226835549959339   -0.008903700885306341   0.0022193727332199243
-0.06226835549959339   -0.008903700885306341   0.0022193727332199243
-0.06226835549959339   -0.008903700885306341   0.0022193727332199243
-0.23291182894821913   -0.15265603030892683   -0.0771135718514292
-0.23291182894821913   -0.15265603030892683   -0.0771135718514292
-0.23291182894821913   -0.15265603030892683   -0.0771135718514292
-0.23291182894821913   -0.15265603030892683   -0.0771135718514292
-0.14221856952190237   -0.07588028634097413   0.0052129673476401
-0.14221856952190237   -0.07588028634097413   0.0052129673476401
-0.14221856952190237   -0.07588028634097413   0.0052129673476401
-0.14221856952190237   -0.07588028634097413   0.0052129673476401
-0.1993424390498967   -0.04095576889646675   -0.020966883772278844
-0.1993424390498967   -0.04095576889646675   -0.020966883772278844
-0.1993424390498967   -0.04095576889646675   -0.020966883772278844
-0.1993424390498967   -0.04095576889646675   -0.020966883772278844
-0.0869638019209327   -0.11173001882078348   -0.018431541437998945
-0.0869638019209327   -0.11173001882078348   -0.018431541437998945
-0.0869638019209327   -0.11173001882078348   -0.018431541437998945
-0.0869638019209327   -0.11173001882078348   -0.018431541437998945
-0.07315043736430601   -0.02066709552249782   -0.004338206480320976
-0.07315043736430601   -0.02066709552249782   -0.004338206480320976
-0.07315043736430601   -0.02066709552249782   -0.004338206480320976
-0.07315043736430601   -0.02066709552249782   -0.004338206480320976
-0.2125569111810389   -0.1311023588677241   -0.0687318540097526
-0.2125569111810389   -0.1311023588677241   -0.0687318540097526
-0.2125569111810389   -0.1311023588677241   -0.0687318540097526
-0.2125569111810389   -0.1311023588677241   -0.0687318540097526
-0.132162650366926   -0.06631388492270524   0.025110529720858275
-0.132162650366926   -0.06631388492270524   0.025110529720858275
-0.132162650366926   -0.06631388492270524   0.025110529720858275
-0.132162650366926   -0.06631388492270524   0.025110529720858275
-0.05684114640689439   -0.03423040810378332   -0.004894852096432503
-0.05684114640689439   -0.03423040810378332   -0.004894852096432503
-0.05684114640689439   -0.03423040810378332   -0.004894852096432503
-0.05684114640689439   -0.03423040810378332   -0.004894852096432503
-0.028421672244421887   -0.052559051070754044   -0.007124095292716814
-0.028421672244421887   -0.052559051070754044   -0.007124095292716814
-0.028421672244421887   -0.052559051070754044   -0.007124095292716814
-0.028421672244421887   -0.052559051070754044   -0.007124095292716814
-0.023738323339748055   -0.023001583087793532   0.00043852092755770726
-0.023738323339748055   -0.023001583087793532   0.00043852092755770726
-0.023738323339748055   -0.023001583087793532   0.00043852092755770726
-0.023738323339748055   -0.023001583087793532   0.00043852092755770726
-0.07312196981658238   -0.07218309877343031   0.0011259338233595914
-0.07312196981658238   -0.07218309877343031   0.0011259338233595914
-0.07312196981658238   -0.07218309877343031   0.0011259338233595914
-0.07312196981658238   -0.07218309877343031   0.0011259338233595914
-0.03830564373219318   -0.03443531357916998   0.013031741307152156
-0.03830564373219318   -0.03443531357916998   0.013031741307152156
-0.03830564373219318   -0.03443531357916998   0.013031741307152156
-0.03830564373219318   -0.03443531357916998   0.013031741307152156
-0.06598055163928554   -0.03217312312160835   -0.0031769509419789068
-0.06598055163928554   -0.03217312312160835   -0.0031769509419789068
-0.06598055163928554   -0.03217312312160835   -0.0031769509419789068
-0.06598055163928554   -0.03217312312160835   -0.0031769509419789068
-0.03317998482721021   -0.06531180204978093   -0.004459567547765702
-0.03317998482721021   -0.06531180204978093   -0.004459567547765702
-0.03317998482721021   -0.06531180204978093   -0.004459567547765702
-0.03317998482721021   -0.06531180204978093   -0.004459567547765702
-0.026268634346753535   -0.023751702428879216   0.0005885237299832645
-0.026268634346753535   -0.023751702428879216   0.0005885237299832645
-0.026268634346753535   -0.023751702428879216   0.0005885237299832645
-0.026268634346753535   -0.023751702428879216   0.0005885237299832645
-0.07765144529859758   -0.07205811168535584   -0.011541665461751031
-0.07765144529859758   -0.07205811168535584   -0.011541665461751031
-0.07765144529859758   -0.07205811168535584   -0.011541665461751031
-0.07765144529859758   -0.07205811168535584   -0.011541665461751031
-0.046893436141583644   -0.04344469502240196   0.005371868578329822
-0.046893436141583644   -0.04344469502240196   0.005371868578329822
-0.046893436141583644   -0.04344469502240196   0.005371868578329822
-0.046893436141583644   -0.04344469502240196   0.005371868578329822
-0.06886564991255273   -0.033602475276176935   -0.006068324940706141
-0.06886564991255273   -0.033602475276176935   -0.006068324940706141
-0.06886564991255273   -0.033602475276176935   -0.006068324940706141
-0.06886564991255273   -0.033602475276176935   -0.006068324940706141
-0.03487240049268833   -0.062025309597948136   -0.004156699830621799
-0.03487240049268833   -0.062025309597948136   -0.004156699830621799
-0.03487240049268833   -0.062025309597948136   -0.004156699830621799
-0.03487240049268833   -0.062025309597948136   -0.004156699830621799
-0.03037084279764857   -0.02428386245199967   0.0008910548009118148
-0.03037084279764857   -0.02428386245199967   0.0008910548009118148
-0.03037084279764857   -0.02428386245199967   0.0008910548009118148
-0.03037084279764857   -0.02428386245199967   0.0008910548009118148
-0.08419888379214227   -0.07059581674492954   -0.009651717397070025
-0.08419888379214227   -0.07059581674492954   -0.009651717397070025
-0.08419888379214227   -0.07059581674492954   -0.009651717397070025
-0.08419888379214227   -0.07059581674492954   -0.009651717397070025
-0.04991811145831724   -0.04108427917692111   0.0055666693162772
-0.04991811145831724   -0.04108427917692111   0.0055666693162772
-0.04991811145831724   -0.04108427917692111   0.0055666693162772
-0.04991811145831724   -0.04108427917692111   0.0055666693162772
-0.020359776048698593   -0.020906843656817255   0.0015331782719628755
-0.020359776048698593   -0.020906843656817255   0.0015331782719628755
-0.020359776048698593   -0.020906843656817255   0.0015331782719628755
-0.020359776048698593   -0.020906843656817255   0.0015331782719628755
-0.01421366876173065   -0.019617733076744973   -0.0036405547361841478
-0.01421366876173065   -0.019617733076744973   -0.0036405547361841478
-0.01421366876173065   -0.019617733076744973   -0.0036405547361841478
-0.01421366876173065   -0.019617733076744973   -0.0036405547361841478
-0.01316946536496592   -0.019190407905200393   0.001402128236684238
-0.01316946536496592   -0.019190407905200393   0.001402128236684238
-0.01316946536496592   -0.019190407905200393   0.001402128236684238
-0.01316946536496592   -0.019190407905200393   0.001402128236684238
-0.02437101744598015   -0.02493698214376556   -0.0007895505476307532
-0.02437101744598015   -0.02493698214376556   -0.0007895505476307532
-0.02437101744598015   -0.02493698214376556   -0.0007895505476307532
-0.02437101744598015   -0.02493698214376556   -0.0007895505476307532
-0.015012653388362829   -0.017675123044595824   0.006676884830771988
-0.015012653388362829   -0.017675123044595824   0.006676884830771988
-0.015012653388362829   -0.017675123044595824   0.006676884830771988
-0.015012653388362829   -0.017675123044595824   0.006676884830771988
-0.023096442507010453   -0.02110580048354626   0.0017521424869984554
-0.023096442507010453   -0.02110580048354626   0.0017521424869984554
-0.023096442507010453   -0.02110580048354626   0.0017521424869984554
-0.023096442507010453   -0.02110580048354626   0.0017521424869984554
-0.014782778321481057   -0.02336032758296496   -0.002494516868126862
-0.014782778321481057   -0.02336032758296496   -0.002494516868126862
-0.014782778321481057   -0.02336032758296496   -0.002494516868126862
-0.014782778321481057   -0.02336032758296496   -0.002494516868126862
-0.013747969730134178   -0.019755424225766337   0.0013164897673628743
-0.013747969730134178   -0.019755424225766337   0.0013164897673628743
-0.013747969730134178   -0.019755424225766337   0.0013164897673628743
-0.013747969730134178   -0.019755424225766337   0.0013164897673628743
-0.02653886360035267   -0.028704451728711368   0.0041901267618197485
-0.02653886360035267   -0.028704451728711368   0.0041901267618197485
-0.02653886360035267   -0.028704451728711368   0.0041901267618197485
-0.02653886360035267   -0.028704451728711368   0.0041901267618197485
-0.01704374086579746   -0.01983955568802628   0.005228052375017119
-0.01704374086579746   -0.01983955568802628   0.005228052375017119
-0.01704374086579746   -0.01983955568802628   0.005228052375017119
-0.01704374086579746   -0.01983955568802628   0.005228052375017119
-0.025553090780630002   -0.021914032135828113   0.0023285712675498206
-0.025553090780630002   -0.021914032135828113   0.0023285712675498206
-0.025553090780630002   -0.021914032135828113   0.0023285712675498206
-0.025553090780630002   -0.021914032135828113   0.0023285712675498206
-0.016021688703840575   -0.027833789972633326   -0.0019737393543021228
-0.016021688703840575   -0.027833789972633326   -0.0019737393543021228
-0.016021688703840575   -0.027833789972633326   -0.0019737393543021228
-0.016021688703840575   -0.027833789972633326   -0.0019737393543021228
-0.014670489608085497   -0.020298946363844952   0.001913117800295237
-0.014670489608085497   -0.020298946363844952   0.001913117800295237
-0.014670489608085497   -0.020298946363844952   0.001913117800295237
-0.014670489608085497   -0.020298946363844952   0.001913117800295237
-0.03217521570291127   -0.034335392686937194   0.0019207205095358327
-0.03217521570291127   -0.034335392686937194   0.0019207205095358327
-0.03217521570291127   -0.034335392686937194   0.0019207205095358327
-0.03217521570291127   -0.034335392686937194   0.0019207205095358327
-0.01979486031838886   -0.022271447136429368   0.001873147117647524
-0.01979486031838886   -0.022271447136429368   0.001873147117647524
-0.01979486031838886   -0.022271447136429368   0.001873147117647524
-0.01979486031838886   -0.022271447136429368   0.001873147117647524
-0.010434029318728812   -0.008456156354076389   0.004096065756156455
-0.010434029318728812   -0.008456156354076389   0.004096065756156455
-0.010434029318728812   -0.008456156354076389   0.004096065756156455
-0.010434029318728812   -0.008456156354076389   0.004096065756156455
-0.00870007447779492   -0.002984038185968244   -0.0009060227493042066
-0.00870007447779492   -0.002984038185968244   -0.0009060227493042066
-0.00870007447779492   -0.002984038185968244   -0.0009060227493042066
-0.00870007447779492   -0.002984038185968244   -0.0009060227493042066
-0.008157684591164076   -0.009407938056630847   0.0024679067028751116
-0.008157684591164076   -0.009407938056630847   0.0024679067028751116
-0.008157684591164076   -0.009407938056630847   0.0024679067028751116
-0.008157684591164076   -0.009407938056630847   0.0024679067028751116
-0.010573631961644004   -0.004850093242573954   4.098059066738754e-05
-0.010573631961644004   -0.004850093242573954   4.098059066738754e-05
-0.010573631961644004   -0.004850093242573954   4.098059066738754e-05
-0.010573631961644004   -0.004850093242573954   4.098059066738754e-05
-0.008680414302479416   -0.005863334361669272   0.002024333542607718
-0.008680414302479416   -0.005863334361669272   0.002024333542607718
-0.008680414302479416   -0.005863334361669272   0.002024333542607718
-0.008680414302479416   -0.005863334361669272   0.002024333542607718
-0.010750014345966903   -0.00963182521905887   0.003940800645537815
-0.010750014345966903   -0.00963182521905887   0.003940800645537815
-0.010750014345966903   -0.00963182521905887   0.003940800645537815
-0.010750014345966903   -0.00963182521905887   0.003940800645537815
-0.007863848446017972   -0.004508752319322723   -0.0009620983087024898
-0.007863848446017972   -0.004508752319322723   -0.0009620983087024898
-0.007863848446017972   -0.004508752319322723   -0.0009620983087024898
-0.007863848446017972   -0.004508752319322723   -0.0009620983087024898
-0.007868988805384438   -0.010231913458514078   0.0023454494678103364
-0.007868988805384438   -0.010231913458514078   0.0023454494678103364
-0.007868988805384438   -0.010231913458514078   0.0023454494678103364
-0.007868988805384438   -0.010231913458514078   0.0023454494678103364
-0.011157393124089782   -0.0069905642634382256   0.0015045128352567435
-0.011157393124089782   -0.0069905642634382256   0.0015045128352567435
-0.011157393124089782   -0.0069905642634382256   0.0015045128352567435
-0.011157393124089782   -0.0069905642634382256   0.0015045128352567435
-0.008454400640030788   -0.006827667799675428   0.002088086356977991
-0.008454400640030788   -0.006827667799675428   0.002088086356977991
-0.008454400640030788   -0.006827667799675428   0.002088086356977991
-0.008454400640030788   -0.006827667799675428   0.002088086356977991
-0.011239147763925523   -0.010461666724380333   0.004566842097020145
-0.011239147763925523   -0.010461666724380333   0.004566842097020145
-0.011239147763925523   -0.010461666724380333   0.004566842097020145
-0.011239147763925523   -0.010461666724380333   0.004566842097020145
-0.00795371412447922   -0.0069272909565024935   -0.0013827996296751585
-0.00795371412447922   -0.0069272909565024935   -0.0013827996296751585
-0.00795371412447922   -0.0069272909565024935   -0.0013827996296751585
-0.00795371412447922   -0.0069272909565024935   -0.0013827996296751585
-0.007281735855148611   -0.011143657672043367   0.0026389589378625162
-0.007281735855148611   -0.011143657672043367   0.0026389589378625162
-0.007281735855148611   -0.011143657672043367   0.0026389589378625162
-0.007281735855148611   -0.011143657672043367   0.0026389589378625162
-0.01293273724037081   -0.011589896381578984   0.0018928296566027036
-0.01293273724037081   -0.011589896381578984   0.0018928296566027036
-0.01293273724037081   -0.011589896381578984   0.0018928296566027036
-0.01293273724037081   -0.011589896381578984   0.0018928296566027036
-0.008750793733557007   -0.008418541473783802   0.0014109690773761387
-0.008750793733557007   -0.008418541473783802   0.0014109690773761387
-0.008750793733557007   -0.008418541473783802   0.0014109690773761387
-0.008750793733557007   -0.008418541473783802   0.0014109690773761387
-0.007294656140884387   -0.001154224379147511   0.004291255128427723
-0.007294656140884387   -0.001154224379147511   0.004291255128427723
-0.007294656140884387   -0.001154224379147511   0.004291255128427723
-0.007294656140884387   -0.001154224379147511   0.004291255128427723
-0.0022976061752256246   0.00030820375903064764   -8.757781424006755e-05
-0.0022976061752256246   0.00030820375903064764   -8.757781424006755e-05
-0.0022976061752256246   0.00030820375903064764   -8.757781424006755e-05
-0.0022976061752256246   0.00030820375903064764   -8.757781424006755e-05
-0.0007810072035466391   -0.000476609951768745   0.0027820407086046567
-0.0007810072035466391   -0.000476609951768745   0.0027820407086046567
-0.0007810072035466391   -0.000476609951768745   0.0027820407086046567
-0.0007810072035466391   -0.000476609951768745   0.0027820407086046567
-0.006785379981624073   -0.00012686007764944624   4.835177159372519e-05
-0.006785379981624073   -0.00012686007764944624   4.835177159372519e-05
-0.006785379981624073   -0.00012686007764944624   4.835177159372519e-05
-0.006785379981624073   -0.00012686007764944624   4.835177159372519e-05
-0.004302378133882285   -0.000436896097708285   -0.00022101782423962927
-0.004302378133882285   -0.000436896097708285   -0.00022101782423962927
-0.004302378133882285   -0.000436896097708285   -0.00022101782423962927
-0.004302378133882285   -0.000436896097708285   -0.00022101782423962927
-0.0061083055594007745   -0.0011975875030401306   0.004504451308101863
-0.0061083055594007745   -0.0011975875030401306   0.004504451308101863
-0.0061083055594007745   -0.0011975875030401306   0.004504451308101863
-0.0061083055594007745   -0.0011975875030401306   0.004504451308101863
-0.0012652051520969626   0.0007869939472950748   -0.0009025529332107808
-0.0012652051520969626   0.0007869939472950748   -0.0009025529332107808
-0.0012652051520969626   0.0007869939472950748   -0.0009025529332107808
-0.0012652051520969626   0.0007869939472950748   -0.0009025529332107808
-0.0002655827309463258   -0.0006421230738621346   0.0034527243777100615
-0.0002655827309463258   -0.0006421230738621346   0.0034527243777100615
-0.0002655827309463258   -0.0006421230738621346   0.0034527243777100615
-0.0002655827309463258   -0.0006421230738621346   0.0034527243777100615
-0.006386300707149435   -0.0005901543353870768   0.00011713083585834975
-0.006386300707149435   -0.0005901543353870768   0.00011713083585834975
-0.006386300707149435   -0.0005901543353870768   0.00011713083585834975
-0.006386300707149435   -0.0005901543353870768   0.00011713083585834975
-0.0034468181971384036   -0.0003521068778184266   0.0003142296596988542
-0.0034468181971384036   -0.0003521068778184266   0.0003142296596988542
-0.0034468181971384036   -0.0003521068778184266   0.0003142296596988542
-0.0034468181971384036   -0.0003521068778184266   0.0003142296596988542
-0.005589527163580201   -0.0014127399935561944   0.0049235842118736375
-0.005589527163580201   -0.0014127399935561944   0.0049235842118736375
-0.005589527163580201   -0.0014127399935561944   0.0049235842118736375
-0.005589527163580201   -0.0014127399935561944   0.0049235842118736375
-0.0009341510114096129   0.00030866784741324937   -0.0008409079458798409
-0.0009341510114096129   0.00030866784741324937   -0.0008409079458798409
-0.0009341510114096129   0.00030866784741324937   -0.0008409079458798409
-0.0009341510114096129   0.00030866784741324937   -0.0008409079458798409
3.2080342837033805e-05   -0.0011912891639350972   0.0034446736255323257
3.2080342837033805e-05   -0.0011912891639350972   0.0034446736255323257
3.2080342837033805e-05   -0.0011912891639350972   0.0034446736255323257
3.2080342837033805e-05   -0.0011912891639350972   0.0034446736255323257
-0.00580284934884289   -0.001285914766170714   0.00017564856351846633
-0.00580284934884289   -0.001285914766170714   0.00017564856351846633
-0.00580284934884289   -0.001285914766170714   0.00017564856351846633
-0.00580284934884289   -0.001285914766170714   0.00017564856351846633
-0.0027737731525891893   -0.00045603440473342176   0.000658822636817168
-0.0027737731525891893   -0.00045603440473342176   0.000658822636817168
-0.0027737731525891893   -0.00045603440473342176   0.000658822636817168
-0.0027737731525891893   -0.00045603440473342176   0.000658822636817168
              </DataArray>   
             <DataArray type="Float64" NumberOfComponents="3" Name="Displacements" format="ascii">   
0.0   0.0   0.0
-0.0006505784405860386   -0.00043827003165216536   -0.00021864750125260573
0.0   0.0   0.0
0.0   0.0   0.0
-0.0006505784405860386   -0.00043827003165216536   -0.00021864750125260573
-0.0004128584478370032   -0.00039592624070942386   -0.00016077444055079496
0.0   0.0   0.0
-0.00040392170274220195   -0.00041512793925759374   -0.00013494004195113837
0.0   0.0   0.0
0.0   0.0   0.0
-0.00040392170274220195   -0.00041512793925759374   -0.00013494004195113837
0.0   0.0   0.0
0.0   0.0   0.0
-0.00040392170274220195   -0.00041512793925759374   -0.00013494004195113837
-0.0006799067892529366   -0.00046637165786517644   -0.00017591281543436962
-0.0006505784405860386   -0.00043827003165216536   -0.00021864750125260573
0.0   0.0   0.0
-0.00040392170274220195   -0.00041512793925759374   -0.00013494004195113837
-0.0006505784405860386   -0.00043827003165216536   -0.00021864750125260573
0.0   0.0   0.0
0.0   0.0   0.0
-0.0006799067892529366   -0.00046637165786517644   -0.00017591281543436962
0.0   0.0   0.0
0.0   0.0   0.0
-0.0006799067892529366   -0.00046637165786517644   -0.00017591281543436962
-0.00040392170274220195   -0.00041512793925759374   -0.00013494004195113837
0.0   0.0   0.0
-0.0004042263280602324   -0.00042506419584289193   -0.00010923799932531038
0.0   0.0   0.0
0.0   0.0   0.0
-0.0004042263280602324   -0.00042506419584289193   -0.00010923799932531038
0.0   0.0   0.0
0.0   0.0   0.0
-0.0004042263280602324   -0.00042506419584289193   -0.00010923799932531038
-0.0007001206963250574   -0.000480080970459626   -0.0001351469198272946
-0.0006799067892529366   -0.00046637165786517644   -0.00017591281543436962
0.0   0.0   0.0
-0.0004042263280602324   -0.00042506419584289193   -0.00010923799932531038
-0.0006799067892529366   -0.00046637165786517644   -0.00017591281543436962
0.0   0.0   0.0
0.0   0.0   0.0
-0.0007001206963250574   -0.000480080970459626   -0.0001351469198272946
0.0   0.0   0.0
0.0   0.0   0.0
-0.0007001206963250574   -0.000480080970459626   -0.0001351469198272946
-0.0004042263280602324   -0.00042506419584289193   -0.00010923799932531038
0.0   0.0   0.0
-0.0004030731371588107   -0.0004277490102452386   -8.278038419797812e-05
0.0   0.0   0.0
0.0   0.0   0.0
-0.0004030731371588107   -0.0004277490102452386   -8.278038419797812e-05
0.0   0.0   0.0
0.0   0.0   0.0
-0.0004030731371588107   -0.0004277490102452386   -8.278038419797812e-05
-0.0007444951763411207   -0.0004907892909847969   -8.797017033371247e-05
-0.0007001206963250574   -0.000480080970459626   -0.0001351469198272946
0.0   0.0   0.0
-0.0004030731371588107   -0.0004277490102452386   -8.278038419797812e-05
-0.0007001206963250574   -0.000480080970459626   -0.0001351469198272946
0.0   0.0   0.0
0.0   0.0   0.0
-0.0004128584478370032   -0.00039592624070942386   -0.00016077444055079496
0.0   0.0   0.0
0.0   0.0   0.0
-0.0004128584478370032   -0.00039592624070942386   -0.00016077444055079496
-0.00018898301432331536   -0.00038056969351823983   -0.00012264629479307858
0.0   0.0   0.0
-0.0001809478486656795   -0.0003929687598278925   -0.00011034963190172222
0.0   0.0   0.0
0.0   0.0   0.0
-0.0001809478486656795   -0.0003929687598278925   -0.00011034963190172222
0.0   0.0   0.0
0.0   0.0   0.0
-0.0001809478486656795   -0.0003929687598278925   -0.00011034963190172222
-0.00040392170274220195   -0.00041512793925759374   -0.00013494004195113837
-0.0004128584478370032   -0.00039592624070942386   -0.00016077444055079496
0.0   0.0   0.0
-0.0001809478486656795   -0.0003929687598278925   -0.00011034963190172222
-0.0004128584478370032   -0.00039592624070942386   -0.00016077444055079496
0.0   0.0   0.0
0.0   0.0   0.0
-0.00040392170274220195   -0.00041512793925759374   -0.00013494004195113837
0.0   0.0   0.0
0.0   0.0   0.0
-0.00040392170274220195   -0.00041512793925759374   -0.00013494004195113837
-0.0001809478486656795   -0.0003929687598278925   -0.00011034963190172222
0.0   0.0   0.0
-0.00017609392742931994   -0.0003977290009323368   -9.846781357172425e-05
0.0   0.0   0.0
0.0   0.0   0.0
-0.00017609392742931994   -0.0003977290009323368   -9.846781357172425e-05
0.0   0.0   0.0
0.0   0.0   0.0
-0.00017609392742931994   -0.0003977290009323368   -9.846781357172425e-05
-0.0004042263280602324   -0.00042506419584289193   -0.00010923799932531038
-0.00040392170274220195   -0.00041512793925759374   -0.00013494004195113837
0.0   0.0   0.0
-0.00017609392742931994   -0.0003977290009323368   -9.846781357172425e-05
-0.00040392170274220195   -0.00041512793925759374   -0.00013494004195113837
0.0   0.0   0.0
0.0   0.0   0.0
-0.0004042263280602324   -0.00042506419584289193   -0.00010923799932531038
0.0   0.0   0.0
0.0   0.0   0.0
-0.0004042263280602324   -0.00042506419584289193   -0.00010923799932531038
-0.00017609392742931994   -0.0003977290009323368   -9.846781357172425e-05
0.0   0.0   0.0
-0.0001715361963521391   -0.0003958225544698251   -8.628192250431803e-05
0.0   0.0   0.0
0.0   0.0   0.0
-0.0001715361963521391   -0.0003958225544698251   -8.628192250431803e-05
0.0   0.0   0.0
0.0   0.0   0.0
-0.0001715361963521391   -0.0003958225544698251   -8.628192250431803e-05
-0.0004030731371588107   -0.0004277490102452386   -8.278038419797812e-05
-0.0004042263280602324   -0.00042506419584289193   -0.00010923799932531038
0.0   0.0   0.0
-0.0001715361963521391   -0.0003958225544698251   -8.628192250431803e-05
-0.0004042263280602324   -0.00042506419584289193   -0.00010923799932531038
0.0   0.0   0.0
0.0   0.0   0.0
-0.00018898301432331536   -0.00038056969351823983   -0.00012264629479307858
0.0   0.0   0.0
0.0   0.0   0.0
-0.00018898301432331536   -0.00038056969351823983   -0.00012264629479307858
2.182401807313724e-05   -0.0003826676703242672   -9.85920162355504e-05
0.0   0.0   0.0
2.7339690966299148e-05   -0.00038898293712803095   -0.00010005276819627205
0.0   0.0   0.0
0.0   0.0   0.0
2.7339690966299148e-05   -0.00038898293712803095   -0.00010005276819627205
0.0   0.0   0.0
0.0   0.0   0.0
2.7339690966299148e-05   -0.00038898293712803095   -0.00010005276819627205
-0.0001809478486656795   -0.0003929687598278925   -0.00011034963190172222
-0.00018898301432331536   -0.00038056969351823983   -0.00012264629479307858
0.0   0.0   0.0
2.7339690966299148e-05   -0.00038898293712803095   -0.00010005276819627205
-0.00018898301432331536   -0.00038056969351823983   -0.00012264629479307858
0.0   0.0   0.0
0.0   0.0   0.0
-0.0001809478486656795   -0.0003929687598278925   -0.00011034963190172222
0.0   0.0   0.0
0.0   0.0   0.0
-0.0001809478486656795   -0.0003929687598278925   -0.00011034963190172222
2.7339690966299148e-05   -0.00038898293712803095   -0.00010005276819627205
0.0   0.0   0.0
3.180330985010643e-05   -0.0003883623539369092   -0.00010145307376438065
0.0   0.0   0.0
0.0   0.0   0.0
3.180330985010643e-05   -0.0003883623539369092   -0.00010145307376438065
0.0   0.0   0.0
0.0   0.0   0.0
3.180330985010643e-05   -0.0003883623539369092   -0.00010145307376438065
-0.00017609392742931994   -0.0003977290009323368   -9.846781357172425e-05
-0.0001809478486656795   -0.0003929687598278925   -0.00011034963190172222
0.0   0.0   0.0
3.180330985010643e-05   -0.0003883623539369092   -0.00010145307376438065
-0.0001809478486656795   -0.0003929687598278925   -0.00011034963190172222
0.0   0.0   0.0
0.0   0.0   0.0
-0.00017609392742931994   -0.0003977290009323368   -9.846781357172425e-05
0.0   0.0   0.0
0.0   0.0   0.0
-0.00017609392742931994   -0.0003977290009323368   -9.846781357172425e-05
3.180330985010643e-05   -0.0003883623539369092   -0.00010145307376438065
0.0   0.0   0.0
3.7532111234968243e-05   -0.00038025331160286053   -0.00010298998801014269
0.0   0.0   0.0
0.0   0.0   0.0
3.7532111234968243e-05   -0.00038025331160286053   -0.00010298998801014269
0.0   0.0   0.0
0.0   0.0   0.0
3.7532111234968243e-05   -0.00038025331160286053   -0.00010298998801014269
-0.0001715361963521391   -0.0003958225544698251   -8.628192250431803e-05
-0.00017609392742931994   -0.0003977290009323368   -9.846781357172425e-05
0.0   0.0   0.0
3.7532111234968243e-05   -0.00038025331160286053   -0.00010298998801014269
-0.00017609392742931994   -0.0003977290009323368   -9.846781357172425e-05
0.0   0.0   0.0
0.0   0.0   0.0
2.182401807313724e-05   -0.0003826676703242672   -9.85920162355504e-05
0.0   0.0   0.0
0.0   0.0   0.0
2.182401807313724e-05   -0.0003826676703242672   -9.85920162355504e-05
0.000251361838555417   -0.00040035961426582324   -8.701329867907914e-05
0.0   0.0   0.0
0.00025285325875960916   -0.0004021791879376272   -0.00010295752805499331
0.0   0.0   0.0
0.0   0.0   0.0
0.00025285325875960916   -0.0004021791879376272   -0.00010295752805499331
0.0   0.0   0.0
0.0   0.0   0.0
0.00025285325875960916   -0.0004021791879376272   -0.00010295752805499331
2.7339690966299148e-05   -0.00038898293712803095   -0.00010005276819627205
2.182401807313724e-05   -0.0003826676703242672   -9.85920162355504e-05
0.0   0.0   0.0
0.00025285325875960916   -0.0004021791879376272   -0.00010295752805499331
2.182401807313724e-05   -0.0003826676703242672   -9.85920162355504e-05
0.0   0.0   0.0
0.0   0.0   0.0
2.7339690966299148e-05   -0.00038898293712803095   -0.00010005276819627205
0.0   0.0   0.0
0.0   0.0   0.0
2.7339690966299148e-05   -0.00038898293712803095   -0.00010005276819627205
0.00025285325875960916   -0.0004021791879376272   -0.00010295752805499331
0.0   0.0   0.0
0.00025267041774819924   -0.00039644370361397667   -0.00011836948292473566
0.0   0.0   0.0
0.0   0.0   0.0
0.00025267041774819924   -0.00039644370361397667   -0.00011836948292473566
0.0   0.0   0.0
0.0   0.0   0.0
0.00025267041774819924   -0.00039644370361397667   -0.00011836948292473566
3.180330985010643e-05   -0.0003883623539369092   -0.00010145307376438065
2.7339690966299148e-05   -0.00038898293712803095   -0.00010005276819627205
0.0   0.0   0.0
0.00025267041774819924   -0.00039644370361397667   -0.00011836948292473566
2.7339690966299148e-05   -0.00038898293712803095   -0.00010005276819627205
0.0   0.0   0.0
0.0   0.0   0.0
3.180330985010643e-05   -0.0003883623539369092   -0.00010145307376438065
0.0   0.0   0.0
0.0   0.0   0.0
3.180330985010643e-05   -0.0003883623539369092   -0.00010145307376438065
0.00025267041774819924   -0.00039644370361397667   -0.00011836948292473566
0.0   0.0   0.0
0.0002584287531294386   -0.000381494286359703   -0.00013358010704082087
0.0   0.0   0.0
0.0   0.0   0.0
0.0002584287531294386   -0.000381494286359703   -0.00013358010704082087
0.0   0.0   0.0
0.0   0.0   0.0
0.0002584287531294386   -0.000381494286359703   -0.00013358010704082087
3.7532111234968243e-05   -0.00038025331160286053   -0.00010298998801014269
3.180330985010643e-05   -0.0003883623539369092   -0.00010145307376438065
0.0   0.0   0.0
0.0002584287531294386   -0.000381494286359703   -0.00013358010704082087
3.180330985010643e-05   -0.0003883623539369092   -0.00010145307376438065
0.0   0.0   0.0
0.0   0.0   0.0
0.000251361838555417   -0.00040035961426582324   -8.701329867907914e-05
0.0   0.0   0.0
0.0   0.0   0.0
0.000251361838555417   -0.00040035961426582324   -8.701329867907914e-05
0.0005730076917639357   -0.00044563019809003485   -8.290178415810843e-05
0.0   0.0   0.0
0.0005395033669335444   -0.00044036625814539816   -0.000119379472745495
0.0   0.0   0.0
0.0   0.0   0.0
0.0005395033669335444   -0.00044036625814539816   -0.000119379472745495
0.0   0.0   0.0
0.0   0.0   0.0
0.0005395033669335444   -0.00044036625814539816   -0.000119379472745495
0.00025285325875960916   -0.0004021791879376272   -0.00010295752805499331
0.000251361838555417   -0.00040035961426582324   -8.701329867907914e-05
0.0   0.0   0.0
0.0005395033669335444   -0.00044036625814539816   -0.000119379472745495
0.000251361838555417   -0.00040035961426582324   -8.701329867907914e-05
0.0   0.0   0.0
0.0   0.0   0.0
0.00025285325875960916   -0.0004021791879376272   -0.00010295752805499331
0.0   0.0   0.0
0.0   0.0   0.0
0.00025285325875960916   -0.0004021791879376272   -0.00010295752805499331
0.0005395033669335444   -0.00044036625814539816   -0.000119379472745495
0.0   0.0   0.0
0.0005244597459310518   -0.0004312206694654447   -0.00015031811641734455
0.0   0.0   0.0
0.0   0.0   0.0
0.0005244597459310518   -0.0004312206694654447   -0.00015031811641734455
0.0   0.0   0.0
0.0   0.0   0.0
0.0005244597459310518   -0.0004312206694654447   -0.00015031811641734455
0.00025267041774819924   -0.00039644370361397667   -0.00011836948292473566
0.00025285325875960916   -0.0004021791879376272   -0.00010295752805499331
0.0   0.0   0.0
0.0005244597459310518   -0.0004312206694654447   -0.00015031811641734455
0.00025285325875960916   -0.0004021791879376272   -0.00010295752805499331
0.0   0.0   0.0
0.0   0.0   0.0
0.00025267041774819924   -0.00039644370361397667   -0.00011836948292473566
0.0   0.0   0.0
0.0   0.0   0.0
0.00025267041774819924   -0.00039644370361397667   -0.00011836948292473566
0.0005244597459310518   -0.0004312206694654447   -0.00015031811641734455
0.0   0.0   0.0
0.0005014349116758418   -0.00040813473355004584   -0.00018326135714774337
0.0   0.0   0.0
0.0   0.0   0.0
0.0005014349116758418   -0.00040813473355004584   -0.00018326135714774337
0.0   0.0   0.0
0.0   0.0   0.0
0.0005014349116758418   -0.00040813473355004584   -0.00018326135714774337
0.0002584287531294386   -0.000381494286359703   -0.00013358010704082087
0.00025267041774819924   -0.00039644370361397667   -0.00011836948292473566
0.0   0.0   0.0
0.0005014349116758418   -0.00040813473355004584   -0.00018326135714774337
0.00025267041774819924   -0.00039644370361397667   -0.00011836948292473566
0.0   0.0   0.0
-0.0006505784405860386   -0.00043827003165216536   -0.00021864750125260573
-0.001206686502928508   -0.0012068599124682464   -0.00029498769609362884
-0.0004128584478370032   -0.00039592624070942386   -0.00016077444055079496
-0.0006799067892529366   -0.00046637165786517644   -0.00017591281543436962
-0.001206686502928508   -0.0012068599124682464   -0.00029498769609362884
-0.0007697929521459977   -0.0011690846021330478   -0.00024367769490060912
-0.0004128584478370032   -0.00039592624070942386   -0.00016077444055079496
-0.0007693872005737599   -0.0011885636530048   -0.00022000776158078984
-0.0006799067892529366   -0.00046637165786517644   -0.00017591281543436962
-0.00040392170274220195   -0.00041512793925759374   -0.00013494004195113837
-0.0007693872005737599   -0.0011885636530048   -0.00022000776158078984
-0.0004128584478370032   -0.00039592624070942386   -0.00016077444055079496
-0.0006799067892529366   -0.00046637165786517644   -0.00017591281543436962
-0.0007693872005737599   -0.0011885636530048   -0.00022000776158078984
-0.0012410931240957911   -0.001234178991879372   -0.0002567493655134966
-0.001206686502928508   -0.0012068599124682464   -0.00029498769609362884
-0.0006799067892529366   -0.00046637165786517644   -0.00017591281543436962
-0.0007693872005737599   -0.0011885636530048   -0.00022000776158078984
-0.001206686502928508   -0.0012068599124682464   -0.00029498769609362884
-0.0004128584478370032   -0.00039592624070942386   -0.00016077444055079496
-0.0006799067892529366   -0.00046637165786517644   -0.00017591281543436962
-0.0012410931240957911   -0.001234178991879372   -0.0002567493655134966
-0.00040392170274220195   -0.00041512793925759374   -0.00013494004195113837
-0.0007001206963250574   -0.000480080970459626   -0.0001351469198272946
-0.0012410931240957911   -0.001234178991879372   -0.0002567493655134966
-0.0007693872005737599   -0.0011885636530048   -0.00022000776158078984
-0.00040392170274220195   -0.00041512793925759374   -0.00013494004195113837
-0.0007710039291110391   -0.0012005589429056056   -0.0001973475788758688
-0.0007001206963250574   -0.000480080970459626   -0.0001351469198272946
-0.0004042263280602324   -0.00042506419584289193   -0.00010923799932531038
-0.0007710039291110391   -0.0012005589429056056   -0.0001973475788758688
-0.00040392170274220195   -0.00041512793925759374   -0.00013494004195113837
-0.0007001206963250574   -0.000480080970459626   -0.0001351469198272946
-0.0007710039291110391   -0.0012005589429056056   -0.0001973475788758688
-0.001264443605952121   -0.0012497233934084383   -0.0002194258148501021
-0.0012410931240957911   -0.001234178991879372   -0.0002567493655134966
-0.0007001206963250574   -0.000480080970459626   -0.0001351469198272946
-0.0007710039291110391   -0.0012005589429056056   -0.0001973475788758688
-0.0012410931240957911   -0.001234178991879372   -0.0002567493655134966
-0.00040392170274220195   -0.00041512793925759374   -0.00013494004195113837
-0.0007001206963250574   -0.000480080970459626   -0.0001351469198272946
-0.001264443605952121   -0.0012497233934084383   -0.0002194258148501021
-0.0004042263280602324   -0.00042506419584289193   -0.00010923799932531038
-0.0007444951763411207   -0.0004907892909847969   -8.797017033371247e-05
-0.001264443605952121   -0.0012497233934084383   -0.0002194258148501021
-0.0007710039291110391   -0.0012005589429056056   -0.0001973475788758688
-0.0004042263280602324   -0.00042506419584289193   -0.00010923799932531038
-0.0007672406963524962   -0.0012069842381974693   -0.00017622241641226884
-0.0007444951763411207   -0.0004907892909847969   -8.797017033371247e-05
-0.0004030731371588107   -0.0004277490102452386   -8.278038419797812e-05
-0.0007672406963524962   -0.0012069842381974693   -0.00017622241641226884
-0.0004042263280602324   -0.00042506419584289193   -0.00010923799932531038
-0.0007444951763411207   -0.0004907892909847969   -8.797017033371247e-05
-0.0007672406963524962   -0.0012069842381974693   -0.00017622241641226884
-0.0012919826839464835   -0.001259119159096948   -0.00018565829386996575
-0.001264443605952121   -0.0012497233934084383   -0.0002194258148501021
-0.0007444951763411207   -0.0004907892909847969   -8.797017033371247e-05
-0.0007672406963524962   -0.0012069842381974693   -0.00017622241641226884
-0.001264443605952121   -0.0012497233934084383   -0.0002194258148501021
-0.0004042263280602324   -0.00042506419584289193   -0.00010923799932531038
-0.0004128584478370032   -0.00039592624070942386   -0.00016077444055079496
-0.0007697929521459977   -0.0011690846021330478   -0.00024367769490060912
-0.00018898301432331536   -0.00038056969351823983   -0.00012264629479307858
-0.00040392170274220195   -0.00041512793925759374   -0.00013494004195113837
-0.0007697929521459977   -0.0011690846021330478   -0.00024367769490060912
-0.00035946051743299004   -0.0011514976366023418   -0.00020877640713814688
-0.00018898301432331536   -0.00038056969351823983   -0.00012264629479307858
-0.0003550194328707145   -0.0011637737736921818   -0.00019652320540896454
-0.00040392170274220195   -0.00041512793925759374   -0.00013494004195113837
-0.0001809478486656795   -0.0003929687598278925   -0.00011034963190172222
-0.0003550194328707145   -0.0011637737736921818   -0.00019652320540896454
-0.00018898301432331536   -0.00038056969351823983   -0.00012264629479307858
-0.00040392170274220195   -0.00041512793925759374   -0.00013494004195113837
-0.0003550194328707145   -0.0011637737736921818   -0.00019652320540896454
-0.0007693872005737599   -0.0011885636530048   -0.00022000776158078984
-0.0007697929521459977   -0.0011690846021330478   -0.00024367769490060912
-0.00040392170274220195   -0.00041512793925759374   -0.00013494004195113837
-0.0003550194328707145   -0.0011637737736921818   -0.00019652320540896454
-0.0007697929521459977   -0.0011690846021330478   -0.00024367769490060912
-0.00018898301432331536   -0.00038056969351823983   -0.00012264629479307858
-0.00040392170274220195   -0.00041512793925759374   -0.00013494004195113837
-0.0007693872005737599   -0.0011885636530048   -0.00022000776158078984
-0.0001809478486656795   -0.0003929687598278925   -0.00011034963190172222
-0.0004042263280602324   -0.00042506419584289193   -0.00010923799932531038
-0.0007693872005737599   -0.0011885636530048   -0.00022000776158078984
-0.0003550194328707145   -0.0011637737736921818   -0.00019652320540896454
-0.0001809478486656795   -0.0003929687598278925   -0.00011034963190172222
-0.0003509329891984938   -0.0011697732136111254   -0.00018547273339884548
-0.0004042263280602324   -0.00042506419584289193   -0.00010923799932531038
-0.00017609392742931994   -0.0003977290009323368   -9.846781357172425e-05
-0.0003509329891984938   -0.0011697732136111254   -0.00018547273339884548
-0.0001809478486656795   -0.0003929687598278925   -0.00011034963190172222
-0.0004042263280602324   -0.00042506419584289193   -0.00010923799932531038
-0.0003509329891984938   -0.0011697732136111254   -0.00018547273339884548
-0.0007710039291110391   -0.0012005589429056056   -0.0001973475788758688
-0.0007693872005737599   -0.0011885636530048   -0.00022000776158078984
-0.0004042263280602324   -0.00042506419584289193   -0.00010923799932531038
-0.0003509329891984938   -0.0011697732136111254   -0.00018547273339884548
-0.0007693872005737599   -0.0011885636530048   -0.00022000776158078984
-0.0001809478486656795   -0.0003929687598278925   -0.00011034963190172222
-0.0004042263280602324   -0.00042506419584289193   -0.00010923799932531038
-0.0007710039291110391   -0.0012005589429056056   -0.0001973475788758688
-0.00017609392742931994   -0.0003977290009323368   -9.846781357172425e-05
-0.0004030731371588107   -0.0004277490102452386   -8.278038419797812e-05
-0.0007710039291110391   -0.0012005589429056056   -0.0001973475788758688
-0.0003509329891984938   -0.0011697732136111254   -0.00018547273339884548
-0.00017609392742931994   -0.0003977290009323368   -9.846781357172425e-05
-0.0003454598781166039   -0.001169718703278141   -0.00017591990065289297
-0.0004030731371588107   -0.0004277490102452386   -8.278038419797812e-05
-0.0001715361963521391   -0.0003958225544698251   -8.628192250431803e-05
-0.0003454598781166039   -0.001169718703278141   -0.00017591990065289297
-0.00017609392742931994   -0.0003977290009323368   -9.846781357172425e-05
-0.0004030731371588107   -0.0004277490102452386   -8.278038419797812e-05
-0.0003454598781166039   -0.001169718703278141   -0.00017591990065289297
-0.0007672406963524962   -0.0012069842381974693   -0.00017622241641226884
-0.0007710039291110391   -0.0012005589429056056   -0.0001973475788758688
-0.0004030731371588107   -0.0004277490102452386   -8.278038419797812e-05
-0.0003454598781166039   -0.001169718703278141   -0.00017591990065289297
-0.0007710039291110391   -0.0012005589429056056   -0.0001973475788758688
-0.00017609392742931994   -0.0003977290009323368   -9.846781357172425e-05
-0.00018898301432331536   -0.00038056969351823983   -0.00012264629479307858
-0.00035946051743299004   -0.0011514976366023418   -0.00020877640713814688
2.182401807313724e-05   -0.0003826676703242672   -9.85920162355504e-05
-0.0001809478486656795   -0.0003929687598278925   -0.00011034963190172222
-0.00035946051743299004   -0.0011514976366023418   -0.00020877640713814688
3.5369437390950925e-05   -0.0011521016480994092   -0.0001870092559859205
2.182401807313724e-05   -0.0003826676703242672   -9.85920162355504e-05
4.0595129844871055e-05   -0.0011577258834684382   -0.00018595005959506003
-0.0001809478486656795   -0.0003929687598278925   -0.00011034963190172222
2.7339690966299148e-05   -0.00038898293712803095   -0.00010005276819627205
4.0595129844871055e-05   -0.0011577258834684382   -0.00018595005959506003
2.182401807313724e-05   -0.0003826676703242672   -9.85920162355504e-05
-0.0001809478486656795   -0.0003929687598278925   -0.00011034963190172222
4.0595129844871055e-05   -0.0011577258834684382   -0.00018595005959506003
-0.0003550194328707145   -0.0011637737736921818   -0.00019652320540896454
-0.00035946051743299004   -0.0011514976366023418   -0.00020877640713814688
-0.0001809478486656795   -0.0003929687598278925   -0.00011034963190172222
4.0595129844871055e-05   -0.0011577258834684382   -0.00018595005959506003
-0.00035946051743299004   -0.0011514976366023418   -0.00020877640713814688
2.182401807313724e-05   -0.0003826676703242672   -9.85920162355504e-05
-0.0001809478486656795   -0.0003929687598278925   -0.00011034963190172222
-0.0003550194328707145   -0.0011637737736921818   -0.00019652320540896454
2.7339690966299148e-05   -0.00038898293712803095   -0.00010005276819627205
-0.00017609392742931994   -0.0003977290009323368   -9.846781357172425e-05
-0.0003550194328707145   -0.0011637737736921818   -0.00019652320540896454
4.0595129844871055e-05   -0.0011577258834684382   -0.00018595005959506003
2.7339690966299148e-05   -0.00038898293712803095   -0.00010005276819627205
4.4536695625761185e-05   -0.0011572159031368989   -0.0001862508397049535
-0.00017609392742931994   -0.0003977290009323368   -9.846781357172425e-05
3.180330985010643e-05   -0.0003883623539369092   -0.00010145307376438065
4.4536695625761185e-05   -0.0011572159031368989   -0.0001862508397049535
2.7339690966299148e-05   -0.00038898293712803095   -0.00010005276819627205
-0.00017609392742931994   -0.0003977290009323368   -9.846781357172425e-05
4.4536695625761185e-05   -0.0011572159031368989   -0.0001862508397049535
-0.0003509329891984938   -0.0011697732136111254   -0.00018547273339884548
-0.0003550194328707145   -0.0011637737736921818   -0.00019652320540896454
-0.00017609392742931994   -0.0003977290009323368   -9.846781357172425e-05
4.4536695625761185e-05   -0.0011572159031368989   -0.0001862508397049535
-0.0003550194328707145   -0.0011637737736921818   -0.00019652320540896454
2.7339690966299148e-05   -0.00038898293712803095   -0.00010005276819627205
-0.00017609392742931994   -0.0003977290009323368   -9.846781357172425e-05
-0.0003509329891984938   -0.0011697732136111254   -0.00018547273339884548
3.180330985010643e-05   -0.0003883623539369092   -0.00010145307376438065
-0.0001715361963521391   -0.0003958225544698251   -8.628192250431803e-05
-0.0003509329891984938   -0.0011697732136111254   -0.00018547273339884548
4.4536695625761185e-05   -0.0011572159031368989   -0.0001862508397049535
3.180330985010643e-05   -0.0003883623539369092   -0.00010145307376438065
4.866555940459279e-05   -0.0011503910577841782   -0.00018793141195089336
-0.0001715361963521391   -0.0003958225544698251   -8.628192250431803e-05
3.7532111234968243e-05   -0.00038025331160286053   -0.00010298998801014269
4.866555940459279e-05   -0.0011503910577841782   -0.00018793141195089336
3.180330985010643e-05   -0.0003883623539369092   -0.00010145307376438065
-0.0001715361963521391   -0.0003958225544698251   -8.628192250431803e-05
4.866555940459279e-05   -0.0011503910577841782   -0.00018793141195089336
-0.0003454598781166039   -0.001169718703278141   -0.00017591990065289297
-0.0003509329891984938   -0.0011697732136111254   -0.00018547273339884548
-0.0001715361963521391   -0.0003958225544698251   -8.628192250431803e-05
4.866555940459279e-05   -0.0011503910577841782   -0.00018793141195089336
-0.0003509329891984938   -0.0011697732136111254   -0.00018547273339884548
3.180330985010643e-05   -0.0003883623539369092   -0.00010145307376438065
2.182401807313724e-05   -0.0003826676703242672   -9.85920162355504e-05
3.5369437390950925e-05   -0.0011521016480994092   -0.0001870092559859205
0.000251361838555417   -0.00040035961426582324   -8.701329867907914e-05
2.7339690966299148e-05   -0.00038898293712803095   -0.00010005276819627205
3.5369437390950925e-05   -0.0011521016480994092   -0.0001870092559859205
0.0004545227873184838   -0.001170266186649232   -0.00017732907854821326
0.000251361838555417   -0.00040035961426582324   -8.701329867907914e-05
0.00045824400556968915   -0.0011697907165724992   -0.00018781756616814327
2.7339690966299148e-05   -0.00038898293712803095   -0.00010005276819627205
0.00025285325875960916   -0.0004021791879376272   -0.00010295752805499331
0.00045824400556968915   -0.0011697907165724992   -0.00018781756616814327
0.000251361838555417   -0.00040035961426582324   -8.701329867907914e-05
2.7339690966299148e-05   -0.00038898293712803095   -0.00010005276819627205
0.00045824400556968915   -0.0011697907165724992   -0.00018781756616814327
4.0595129844871055e-05   -0.0011577258834684382   -0.00018595005959506003
3.5369437390950925e-05   -0.0011521016480994092   -0.0001870092559859205
2.7339690966299148e-05   -0.00038898293712803095   -0.00010005276819627205
0.00045824400556968915   -0.0011697907165724992   -0.00018781756616814327
3.5369437390950925e-05   -0.0011521016480994092   -0.0001870092559859205
0.000251361838555417   -0.00040035961426582324   -8.701329867907914e-05
2.7339690966299148e-05   -0.00038898293712803095   -0.00010005276819627205
4.0595129844871055e-05   -0.0011577258834684382   -0.00018595005959506003
0.00025285325875960916   -0.0004021791879376272   -0.00010295752805499331
3.180330985010643e-05   -0.0003883623539369092   -0.00010145307376438065
4.0595129844871055e-05   -0.0011577258834684382   -0.00018595005959506003
0.00045824400556968915   -0.0011697907165724992   -0.00018781756616814327
0.00025285325875960916   -0.0004021791879376272   -0.00010295752805499331
0.00045763854722220387   -0.0011633406560237999   -0.00019984358475791774
3.180330985010643e-05   -0.0003883623539369092   -0.00010145307376438065
0.00025267041774819924   -0.00039644370361397667   -0.00011836948292473566
0.00045763854722220387   -0.0011633406560237999   -0.00019984358475791774
0.00025285325875960916   -0.0004021791879376272   -0.00010295752805499331
3.180330985010643e-05   -0.0003883623539369092   -0.00010145307376438065
0.00045763854722220387   -0.0011633406560237999   -0.00019984358475791774
4.4536695625761185e-05   -0.0011572159031368989   -0.0001862508397049535
4.0595129844871055e-05   -0.0011577258834684382   -0.00018595005959506003
3.180330985010643e-05   -0.0003883623539369092   -0.00010145307376438065
0.00045763854722220387   -0.0011633406560237999   -0.00019984358475791774
4.0595129844871055e-05   -0.0011577258834684382   -0.00018595005959506003
0.00025285325875960916   -0.0004021791879376272   -0.00010295752805499331
3.180330985010643e-05   -0.0003883623539369092   -0.00010145307376438065
4.4536695625761185e-05   -0.0011572159031368989   -0.0001862508397049535
0.00025267041774819924   -0.00039644370361397667   -0.00011836948292473566
3.7532111234968243e-05   -0.00038025331160286053   -0.00010298998801014269
4.4536695625761185e-05   -0.0011572159031368989   -0.0001862508397049535
0.00045763854722220387   -0.0011633406560237999   -0.00019984358475791774
0.00025267041774819924   -0.00039644370361397667   -0.00011836948292473566
0.0004578400371334009   -0.001149212219884722   -0.00021295701741508413
3.7532111234968243e-05   -0.00038025331160286053   -0.00010298998801014269
0.0002584287531294386   -0.000381494286359703   -0.00013358010704082087
0.0004578400371334009   -0.001149212219884722   -0.00021295701741508413
0.00025267041774819924   -0.00039644370361397667   -0.00011836948292473566
3.7532111234968243e-05   -0.00038025331160286053   -0.00010298998801014269
0.0004578400371334009   -0.001149212219884722   -0.00021295701741508413
4.866555940459279e-05   -0.0011503910577841782   -0.00018793141195089336
4.4536695625761185e-05   -0.0011572159031368989   -0.0001862508397049535
3.7532111234968243e-05   -0.00038025331160286053   -0.00010298998801014269
0.0004578400371334009   -0.001149212219884722   -0.00021295701741508413
4.4536695625761185e-05   -0.0011572159031368989   -0.0001862508397049535
0.00025267041774819924   -0.00039644370361397667   -0.00011836948292473566
0.000251361838555417   -0.00040035961426582324   -8.701329867907914e-05
0.0004545227873184838   -0.001170266186649232   -0.00017732907854821326
0.0005730076917639357   -0.00044563019809003485   -8.290178415810843e-05
0.00025285325875960916   -0.0004021791879376272   -0.00010295752805499331
0.0004545227873184838   -0.001170266186649232   -0.00017732907854821326
0.000962283199338863   -0.0012037620523180927   -0.00017567298124598755
0.0005730076917639357   -0.00044563019809003485   -8.290178415810843e-05
0.0009449391664144156   -0.00119991377871222   -0.0001994730798261226
0.00025285325875960916   -0.0004021791879376272   -0.00010295752805499331
0.0005395033669335444   -0.00044036625814539816   -0.000119379472745495
0.0009449391664144156   -0.00119991377871222   -0.0001994730798261226
0.0005730076917639357   -0.00044563019809003485   -8.290178415810843e-05
0.00025285325875960916   -0.0004021791879376272   -0.00010295752805499331
0.0009449391664144156   -0.00119991377871222   -0.0001994730798261226
0.00045824400556968915   -0.0011697907165724992   -0.00018781756616814327
0.0004545227873184838   -0.001170266186649232   -0.00017732907854821326
0.00025285325875960916   -0.0004021791879376272   -0.00010295752805499331
0.0009449391664144156   -0.00119991377871222   -0.0001994730798261226
0.0004545227873184838   -0.001170266186649232   -0.00017732907854821326
0.0005730076917639357   -0.00044563019809003485   -8.290178415810843e-05
0.00025285325875960916   -0.0004021791879376272   -0.00010295752805499331
0.00045824400556968915   -0.0011697907165724992   -0.00018781756616814327
0.0005395033669335444   -0.00044036625814539816   -0.000119379472745495
0.00025267041774819924   -0.00039644370361397667   -0.00011836948292473566
0.00045824400556968915   -0.0011697907165724992   -0.00018781756616814327
0.0009449391664144156   -0.00119991377871222   -0.0001994730798261226
0.0005395033669335444   -0.00044036625814539816   -0.000119379472745495
0.0009292485300165691   -0.0011900526022229996   -0.00022649029992346633
0.00025267041774819924   -0.00039644370361397667   -0.00011836948292473566
0.0005244597459310518   -0.0004312206694654447   -0.00015031811641734455
0.0009292485300165691   -0.0011900526022229996   -0.00022649029992346633
0.0005395033669335444   -0.00044036625814539816   -0.000119379472745495
0.00025267041774819924   -0.00039644370361397667   -0.00011836948292473566
0.0009292485300165691   -0.0011900526022229996   -0.00022649029992346633
0.00045763854722220387   -0.0011633406560237999   -0.00019984358475791774
0.00045824400556968915   -0.0011697907165724992   -0.00018781756616814327
0.00025267041774819924   -0.00039644370361397667   -0.00011836948292473566
0.0009292485300165691   -0.0011900526022229996   -0.00022649029992346633
0.00045824400556968915   -0.0011697907165724992   -0.00018781756616814327
0.0005395033669335444   -0.00044036625814539816   -0.000119379472745495
0.00025267041774819924   -0.00039644370361397667   -0.00011836948292473566
0.00045763854722220387   -0.0011633406560237999   -0.00019984358475791774
0.0005244597459310518   -0.0004312206694654447   -0.00015031811641734455
0.0002584287531294386   -0.000381494286359703   -0.00013358010704082087
0.00045763854722220387   -0.0011633406560237999   -0.00019984358475791774
0.0009292485300165691   -0.0011900526022229996   -0.00022649029992346633
0.0005244597459310518   -0.0004312206694654447   -0.00015031811641734455
0.0009047866013431326   -0.0011686076388861578   -0.00025476185293974373
0.0002584287531294386   -0.000381494286359703   -0.00013358010704082087
0.0005014349116758418   -0.00040813473355004584   -0.00018326135714774337
0.0009047866013431326   -0.0011686076388861578   -0.00025476185293974373
0.0005244597459310518   -0.0004312206694654447   -0.00015031811641734455
0.0002584287531294386   -0.000381494286359703   -0.00013358010704082087
0.0009047866013431326   -0.0011686076388861578   -0.00025476185293974373
0.0004578400371334009   -0.001149212219884722   -0.00021295701741508413
0.00045763854722220387   -0.0011633406560237999   -0.00019984358475791774
0.0002584287531294386   -0.000381494286359703   -0.00013358010704082087
0.0009047866013431326   -0.0011686076388861578   -0.00025476185293974373
0.00045763854722220387   -0.0011633406560237999   -0.00019984358475791774
0.0005244597459310518   -0.0004312206694654447   -0.00015031811641734455
-0.001206686502928508   -0.0012068599124682464   -0.00029498769609362884
-0.0016427991971861258   -0.002241184924617181   -0.00033723075186313403
-0.0007697929521459977   -0.0011690846021330478   -0.00024367769490060912
-0.0012410931240957911   -0.001234178991879372   -0.0002567493655134966
-0.0016427991971861258   -0.002241184924617181   -0.00033723075186313403
-0.001057365663054234   -0.002212678747984106   -0.00029626565773130164
-0.0007697929521459977   -0.0011690846021330478   -0.00024367769490060912
-0.0010580810590284076   -0.0022292615496093287   -0.0002781186486536072
-0.0012410931240957911   -0.001234178991879372   -0.0002567493655134966
-0.0007693872005737599   -0.0011885636530048   -0.00022000776158078984
-0.0010580810590284076   -0.0022292615496093287   -0.0002781186486536072
-0.0007697929521459977   -0.0011690846021330478   -0.00024367769490060912
-0.0012410931240957911   -0.001234178991879372   -0.0002567493655134966
-0.0010580810590284076   -0.0022292615496093287   -0.0002781186486536072
-0.0016698099623518195   -0.002263939726110803   -0.0003092064158827231
-0.0016427991971861258   -0.002241184924617181   -0.00033723075186313403
-0.0012410931240957911   -0.001234178991879372   -0.0002567493655134966
-0.0010580810590284076   -0.0022292615496093287   -0.0002781186486536072
-0.0016427991971861258   -0.002241184924617181   -0.00033723075186313403
-0.0007697929521459977   -0.0011690846021330478   -0.00024367769490060912
-0.0012410931240957911   -0.001234178991879372   -0.0002567493655134966
-0.0016698099623518195   -0.002263939726110803   -0.0003092064158827231
-0.0007693872005737599   -0.0011885636530048   -0.00022000776158078984
-0.001264443605952121   -0.0012497233934084383   -0.0002194258148501021
-0.0016698099623518195   -0.002263939726110803   -0.0003092064158827231
-0.0010580810590284076   -0.0022292615496093287   -0.0002781186486536072
-0.0007693872005737599   -0.0011885636530048   -0.00022000776158078984
-0.0010591189906561213   -0.0022409317676879707   -0.0002613431252705592
-0.001264443605952121   -0.0012497233934084383   -0.0002194258148501021
-0.0007710039291110391   -0.0012005589429056056   -0.0001973475788758688
-0.0010591189906561213   -0.0022409317676879707   -0.0002613431252705592
-0.0007693872005737599   -0.0011885636530048   -0.00022000776158078984
-0.001264443605952121   -0.0012497233934084383   -0.0002194258148501021
-0.0010591189906561213   -0.0022409317676879707   -0.0002613431252705592
-0.0016861024146990176   -0.0022783554389758614   -0.0002831868244236151
-0.0016698099623518195   -0.002263939726110803   -0.0003092064158827231
-0.001264443605952121   -0.0012497233934084383   -0.0002194258148501021
-0.0010591189906561213   -0.0022409317676879707   -0.0002613431252705592
-0.0016698099623518195   -0.002263939726110803   -0.0003092064158827231
-0.0007693872005737599   -0.0011885636530048   -0.00022000776158078984
-0.001264443605952121   -0.0012497233934084383   -0.0002194258148501021
-0.0016861024146990176   -0.0022783554389758614   -0.0002831868244236151
-0.0007710039291110391   -0.0012005589429056056   -0.0001973475788758688
-0.0012919826839464835   -0.001259119159096948   -0.00018565829386996575
-0.0016861024146990176   -0.0022783554389758614   -0.0002831868244236151
-0.0010591189906561213   -0.0022409317676879707   -0.0002613431252705592
-0.0007710039291110391   -0.0012005589429056056   -0.0001973475788758688
-0.0010554380958990954   -0.002248809010898609   -0.00024564295016088315
-0.0012919826839464835   -0.001259119159096948   -0.00018565829386996575
-0.0007672406963524962   -0.0012069842381974693   -0.00017622241641226884
-0.0010554380958990954   -0.002248809010898609   -0.00024564295016088315
-0.0007710039291110391   -0.0012005589429056056   -0.0001973475788758688
-0.0012919826839464835   -0.001259119159096948   -0.00018565829386996575
-0.0010554380958990954   -0.002248809010898609   -0.00024564295016088315
-0.0017046386485467062   -0.002289046093228806   -0.0002593608963833498
-0.0016861024146990176   -0.0022783554389758614   -0.0002831868244236151
-0.0012919826839464835   -0.001259119159096948   -0.00018565829386996575
-0.0010554380958990954   -0.002248809010898609   -0.00024564295016088315
-0.0016861024146990176   -0.0022783554389758614   -0.0002831868244236151
-0.0007710039291110391   -0.0012005589429056056   -0.0001973475788758688
-0.0007697929521459977   -0.0011690846021330478   -0.00024367769490060912
-0.001057365663054234   -0.002212678747984106   -0.00029626565773130164
-0.00035946051743299004   -0.0011514976366023418   -0.00020877640713814688
-0.0007693872005737599   -0.0011885636530048   -0.00022000776158078984
-0.001057365663054234   -0.002212678747984106   -0.00029626565773130164
-0.0005076300092328496   -0.0021983293596678334   -0.00026787530065725755
-0.00035946051743299004   -0.0011514976366023418   -0.00020877640713814688
-0.0005047668163480185   -0.0022088132145274605   -0.00025746431875269774
-0.0007693872005737599   -0.0011885636530048   -0.00022000776158078984
-0.0003550194328707145   -0.0011637737736921818   -0.00019652320540896454
-0.0005047668163480185   -0.0022088132145274605   -0.00025746431875269774
-0.00035946051743299004   -0.0011514976366023418   -0.00020877640713814688
-0.0007693872005737599   -0.0011885636530048   -0.00022000776158078984
-0.0005047668163480185   -0.0022088132145274605   -0.00025746431875269774
-0.0010580810590284076   -0.0022292615496093287   -0.0002781186486536072
-0.001057365663054234   -0.002212678747984106   -0.00029626565773130164
-0.0007693872005737599   -0.0011885636530048   -0.00022000776158078984
-0.0005047668163480185   -0.0022088132145274605   -0.00025746431875269774
-0.001057365663054234   -0.002212678747984106   -0.00029626565773130164
-0.00035946051743299004   -0.0011514976366023418   -0.00020877640713814688
-0.0007693872005737599   -0.0011885636530048   -0.00022000776158078984
-0.0010580810590284076   -0.0022292615496093287   -0.0002781186486536072
-0.0003550194328707145   -0.0011637737736921818   -0.00019652320540896454
-0.0007710039291110391   -0.0012005589429056056   -0.0001973475788758688
-0.0010580810590284076   -0.0022292615496093287   -0.0002781186486536072
-0.0005047668163480185   -0.0022088132145274605   -0.00025746431875269774
-0.0003550194328707145   -0.0011637737736921818   -0.00019652320540896454
-0.0005016271318942831   -0.0022150222335286574   -0.0002483494070860352
-0.0007710039291110391   -0.0012005589429056056   -0.0001973475788758688
-0.0003509329891984938   -0.0011697732136111254   -0.00018547273339884548
-0.0005016271318942831   -0.0022150222335286574   -0.0002483494070860352
-0.0003550194328707145   -0.0011637737736921818   -0.00019652320540896454
-0.0007710039291110391   -0.0012005589429056056   -0.0001973475788758688
-0.0005016271318942831   -0.0022150222335286574   -0.0002483494070860352
-0.0010591189906561213   -0.0022409317676879707   -0.0002613431252705592
-0.0010580810590284076   -0.0022292615496093287   -0.0002781186486536072
-0.0007710039291110391   -0.0012005589429056056   -0.0001973475788758688
-0.0005016271318942831   -0.0022150222335286574   -0.0002483494070860352
-0.0010580810590284076   -0.0022292615496093287   -0.0002781186486536072
-0.0003550194328707145   -0.0011637737736921818   -0.00019652320540896454
-0.0007710039291110391   -0.0012005589429056056   -0.0001973475788758688
-0.0010591189906561213   -0.0022409317676879707   -0.0002613431252705592
-0.0003509329891984938   -0.0011697732136111254   -0.00018547273339884548
-0.0007672406963524962   -0.0012069842381974693   -0.00017622241641226884
-0.0010591189906561213   -0.0022409317676879707   -0.0002613431252705592
-0.0005016271318942831   -0.0022150222335286574   -0.0002483494070860352
-0.0003509329891984938   -0.0011697732136111254   -0.00018547273339884548
-0.0004974613787798746   -0.0022170448396090577   -0.0002405313158206515
-0.0007672406963524962   -0.0012069842381974693   -0.00017622241641226884
-0.0003454598781166039   -0.001169718703278141   -0.00017591990065289297
-0.0004974613787798746   -0.0022170448396090577   -0.0002405313158206515
-0.0003509329891984938   -0.0011697732136111254   -0.00018547273339884548
-0.0007672406963524962   -0.0012069842381974693   -0.00017622241641226884
-0.0004974613787798746   -0.0022170448396090577   -0.0002405313158206515
-0.0010554380958990954   -0.002248809010898609   -0.00024564295016088315
-0.0010591189906561213   -0.0022409317676879707   -0.0002613431252705592
-0.0007672406963524962   -0.0012069842381974693   -0.00017622241641226884
-0.0004974613787798746   -0.0022170448396090577   -0.0002405313158206515
-0.0010591189906561213   -0.0022409317676879707   -0.0002613431252705592
-0.0003509329891984938   -0.0011697732136111254   -0.00018547273339884548
-0.00035946051743299004   -0.0011514976366023418   -0.00020877640713814688
-0.0005076300092328496   -0.0021983293596678334   -0.00026787530065725755
3.5369437390950925e-05   -0.0011521016480994092   -0.0001870092559859205
-0.0003550194328707145   -0.0011637737736921818   -0.00019652320540896454
-0.0005076300092328496   -0.0021983293596678334   -0.00026787530065725755
2.5281350929679383e-05   -0.0021975388521813474   -0.00025059049263915974
3.5369437390950925e-05   -0.0011521016480994092   -0.0001870092559859205
2.926901771429868e-05   -0.0022019799602139758   -0.00024788433426384585
-0.0003550194328707145   -0.0011637737736921818   -0.00019652320540896454
4.0595129844871055e-05   -0.0011577258834684382   -0.00018595005959506003
2.926901771429868e-05   -0.0022019799602139758   -0.00024788433426384585
3.5369437390950925e-05   -0.0011521016480994092   -0.0001870092559859205
-0.0003550194328707145   -0.0011637737736921818   -0.00019652320540896454
2.926901771429868e-05   -0.0022019799602139758   -0.00024788433426384585
-0.0005047668163480185   -0.0022088132145274605   -0.00025746431875269774
-0.0005076300092328496   -0.0021983293596678334   -0.00026787530065725755
-0.0003550194328707145   -0.0011637737736921818   -0.00019652320540896454
2.926901771429868e-05   -0.0022019799602139758   -0.00024788433426384585
-0.0005076300092328496   -0.0021983293596678334   -0.00026787530065725755
3.5369437390950925e-05   -0.0011521016480994092   -0.0001870092559859205
-0.0003550194328707145   -0.0011637737736921818   -0.00019652320540896454
-0.0005047668163480185   -0.0022088132145274605   -0.00025746431875269774
4.0595129844871055e-05   -0.0011577258834684382   -0.00018595005959506003
-0.0003509329891984938   -0.0011697732136111254   -0.00018547273339884548
-0.0005047668163480185   -0.0022088132145274605   -0.00025746431875269774
2.926901771429868e-05   -0.0022019799602139758   -0.00024788433426384585
4.0595129844871055e-05   -0.0011577258834684382   -0.00018595005959506003
3.239316206840153e-05   -0.002202160220288256   -0.0002464457881873642
-0.0003509329891984938   -0.0011697732136111254   -0.00018547273339884548
4.4536695625761185e-05   -0.0011572159031368989   -0.0001862508397049535
3.239316206840153e-05   -0.002202160220288256   -0.0002464457881873642
4.0595129844871055e-05   -0.0011577258834684382   -0.00018595005959506003
-0.0003509329891984938   -0.0011697732136111254   -0.00018547273339884548
3.239316206840153e-05   -0.002202160220288256   -0.0002464457881873642
-0.0005016271318942831   -0.0022150222335286574   -0.0002483494070860352
-0.0005047668163480185   -0.0022088132145274605   -0.00025746431875269774
-0.0003509329891984938   -0.0011697732136111254   -0.00018547273339884548
3.239316206840153e-05   -0.002202160220288256   -0.0002464457881873642
-0.0005047668163480185   -0.0022088132145274605   -0.00025746431875269774
4.0595129844871055e-05   -0.0011577258834684382   -0.00018595005959506003
-0.0003509329891984938   -0.0011697732136111254   -0.00018547273339884548
-0.0005016271318942831   -0.0022150222335286574   -0.0002483494070860352
4.4536695625761185e-05   -0.0011572159031368989   -0.0001862508397049535
-0.0003454598781166039   -0.001169718703278141   -0.00017591990065289297
-0.0005016271318942831   -0.0022150222335286574   -0.0002483494070860352
3.239316206840153e-05   -0.002202160220288256   -0.0002464457881873642
4.4536695625761185e-05   -0.0011572159031368989   -0.0001862508397049535
3.511131888681107e-05   -0.002198018260674865   -0.0002463458429531212
-0.0003454598781166039   -0.001169718703278141   -0.00017591990065289297
4.866555940459279e-05   -0.0011503910577841782   -0.00018793141195089336
3.511131888681107e-05   -0.002198018260674865   -0.0002463458429531212
4.4536695625761185e-05   -0.0011572159031368989   -0.0001862508397049535
-0.0003454598781166039   -0.001169718703278141   -0.00017591990065289297
3.511131888681107e-05   -0.002198018260674865   -0.0002463458429531212
-0.0004974613787798746   -0.0022170448396090577   -0.0002405313158206515
-0.0005016271318942831   -0.0022150222335286574   -0.0002483494070860352
-0.0003454598781166039   -0.001169718703278141   -0.00017591990065289297
3.511131888681107e-05   -0.002198018260674865   -0.0002463458429531212
-0.0005016271318942831   -0.0022150222335286574   -0.0002483494070860352
4.4536695625761185e-05   -0.0011572159031368989   -0.0001862508397049535
3.5369437390950925e-05   -0.0011521016480994092   -0.0001870092559859205
2.5281350929679383e-05   -0.0021975388521813474   -0.00025059049263915974
0.0004545227873184838   -0.001170266186649232   -0.00017732907854821326
4.0595129844871055e-05   -0.0011577258834684382   -0.00018595005959506003
2.5281350929679383e-05   -0.0021975388521813474   -0.00025059049263915974
0.0005813876489098621   -0.0022094869484811748   -0.0002441624327095507
0.0004545227873184838   -0.001170266186649232   -0.00017732907854821326
0.0005852320421639616   -0.0022083334343529736   -0.00024930821946174907
4.0595129844871055e-05   -0.0011577258834684382   -0.00018595005959506003
0.00045824400556968915   -0.0011697907165724992   -0.00018781756616814327
0.0005852320421639616   -0.0022083334343529736   -0.00024930821946174907
0.0004545227873184838   -0.001170266186649232   -0.00017732907854821326
4.0595129844871055e-05   -0.0011577258834684382   -0.00018595005959506003
0.0005852320421639616   -0.0022083334343529736   -0.00024930821946174907
2.926901771429868e-05   -0.0022019799602139758   -0.00024788433426384585
2.5281350929679383e-05   -0.0021975388521813474   -0.00025059049263915974
4.0595129844871055e-05   -0.0011577258834684382   -0.00018595005959506003
0.0005852320421639616   -0.0022083334343529736   -0.00024930821946174907
2.5281350929679383e-05   -0.0021975388521813474   -0.00025059049263915974
0.0004545227873184838   -0.001170266186649232   -0.00017732907854821326
4.0595129844871055e-05   -0.0011577258834684382   -0.00018595005959506003
2.926901771429868e-05   -0.0022019799602139758   -0.00024788433426384585
0.00045824400556968915   -0.0011697907165724992   -0.00018781756616814327
4.4536695625761185e-05   -0.0011572159031368989   -0.0001862508397049535
2.926901771429868e-05   -0.0022019799602139758   -0.00024788433426384585
0.0005852320421639616   -0.0022083334343529736   -0.00024930821946174907
0.00045824400556968915   -0.0011697907165724992   -0.00018781756616814327
0.000585555903327463   -0.002203063852317948   -0.00025562849830761353
4.4536695625761185e-05   -0.0011572159031368989   -0.0001862508397049535
0.00045763854722220387   -0.0011633406560237999   -0.00019984358475791774
0.000585555903327463   -0.002203063852317948   -0.00025562849830761353
0.00045824400556968915   -0.0011697907165724992   -0.00018781756616814327
4.4536695625761185e-05   -0.0011572159031368989   -0.0001862508397049535
0.000585555903327463   -0.002203063852317948   -0.00025562849830761353
3.239316206840153e-05   -0.002202160220288256   -0.0002464457881873642
2.926901771429868e-05   -0.0022019799602139758   -0.00024788433426384585
4.4536695625761185e-05   -0.0011572159031368989   -0.0001862508397049535
0.000585555903327463   -0.002203063852317948   -0.00025562849830761353
2.926901771429868e-05   -0.0022019799602139758   -0.00024788433426384585
0.00045824400556968915   -0.0011697907165724992   -0.00018781756616814327
4.4536695625761185e-05   -0.0011572159031368989   -0.0001862508397049535
3.239316206840153e-05   -0.002202160220288256   -0.0002464457881873642
0.00045763854722220387   -0.0011633406560237999   -0.00019984358475791774
4.866555940459279e-05   -0.0011503910577841782   -0.00018793141195089336
3.239316206840153e-05   -0.002202160220288256   -0.0002464457881873642
0.000585555903327463   -0.002203063852317948   -0.00025562849830761353
0.00045763854722220387   -0.0011633406560237999   -0.00019984358475791774
0.0005850276001172919   -0.002192599659672906   -0.00026326727841073324
4.866555940459279e-05   -0.0011503910577841782   -0.00018793141195089336
0.0004578400371334009   -0.001149212219884722   -0.00021295701741508413
0.0005850276001172919   -0.002192599659672906   -0.00026326727841073324
0.00045763854722220387   -0.0011633406560237999   -0.00019984358475791774
4.866555940459279e-05   -0.0011503910577841782   -0.00018793141195089336
0.0005850276001172919   -0.002192599659672906   -0.00026326727841073324
3.511131888681107e-05   -0.002198018260674865   -0.0002463458429531212
3.239316206840153e-05   -0.002202160220288256   -0.0002464457881873642
4.866555940459279e-05   -0.0011503910577841782   -0.00018793141195089336
0.0005850276001172919   -0.002192599659672906   -0.00026326727841073324
3.239316206840153e-05   -0.002202160220288256   -0.0002464457881873642
0.00045763854722220387   -0.0011633406560237999   -0.00019984358475791774
0.0004545227873184838   -0.001170266186649232   -0.00017732907854821326
0.0005813876489098621   -0.0022094869484811748   -0.0002441624327095507
0.000962283199338863   -0.0012037620523180927   -0.00017567298124598755
0.00045824400556968915   -0.0011697907165724992   -0.00018781756616814327
0.0005813876489098621   -0.0022094869484811748   -0.0002441624327095507
0.0012156464002790427   -0.00223080185972848   -0.0002455710004052506
0.000962283199338863   -0.0012037620523180927   -0.00017567298124598755
0.0012077090444887909   -0.002226336714031396   -0.0002594052170278637
0.00045824400556968915   -0.0011697907165724992   -0.00018781756616814327
0.0009449391664144156   -0.00119991377871222   -0.0001994730798261226
0.0012077090444887909   -0.002226336714031396   -0.0002594052170278637
0.000962283199338863   -0.0012037620523180927   -0.00017567298124598755
0.00045824400556968915   -0.0011697907165724992   -0.00018781756616814327
0.0012077090444887909   -0.002226336714031396   -0.0002594052170278637
0.0005852320421639616   -0.0022083334343529736   -0.00024930821946174907
0.0005813876489098621   -0.0022094869484811748   -0.0002441624327095507
0.00045824400556968915   -0.0011697907165724992   -0.00018781756616814327
0.0012077090444887909   -0.002226336714031396   -0.0002594052170278637
0.0005813876489098621   -0.0022094869484811748   -0.0002441624327095507
0.000962283199338863   -0.0012037620523180927   -0.00017567298124598755
0.00045824400556968915   -0.0011697907165724992   -0.00018781756616814327
0.0005852320421639616   -0.0022083334343529736   -0.00024930821946174907
0.0009449391664144156   -0.00119991377871222   -0.0001994730798261226
0.00045763854722220387   -0.0011633406560237999   -0.00019984358475791774
0.0005852320421639616   -0.0022083334343529736   -0.00024930821946174907
0.0012077090444887909   -0.002226336714031396   -0.0002594052170278637
0.0009449391664144156   -0.00119991377871222   -0.0001994730798261226
0.0011994150675913294   -0.0022183276501901777   -0.00027535871606671007
0.00045763854722220387   -0.0011633406560237999   -0.00019984358475791774
0.0009292485300165691   -0.0011900526022229996   -0.00022649029992346633
0.0011994150675913294   -0.0022183276501901777   -0.00027535871606671007
0.0009449391664144156   -0.00119991377871222   -0.0001994730798261226
0.00045763854722220387   -0.0011633406560237999   -0.00019984358475791774
0.0011994150675913294   -0.0022183276501901777   -0.00027535871606671007
0.000585555903327463   -0.002203063852317948   -0.00025562849830761353
0.0005852320421639616   -0.0022083334343529736   -0.00024930821946174907
0.00045763854722220387   -0.0011633406560237999   -0.00019984358475791774
0.0011994150675913294   -0.0022183276501901777   -0.00027535871606671007
0.0005852320421639616   -0.0022083334343529736   -0.00024930821946174907
0.0009449391664144156   -0.00119991377871222   -0.0001994730798261226
0.00045763854722220387   -0.0011633406560237999   -0.00019984358475791774
0.000585555903327463   -0.002203063852317948   -0.00025562849830761353
0.0009292485300165691   -0.0011900526022229996   -0.00022649029992346633
0.0004578400371334009   -0.001149212219884722   -0.00021295701741508413
0.000585555903327463   -0.002203063852317948   -0.00025562849830761353
0.0011994150675913294   -0.0022183276501901777   -0.00027535871606671007
0.0009292485300165691   -0.0011900526022229996   -0.00022649029992346633
0.0011829771749186338   -0.0022020928199392464   -0.0002934343894981618
0.0004578400371334009   -0.001149212219884722   -0.00021295701741508413
0.0009047866013431326   -0.0011686076388861578   -0.00025476185293974373
0.0011829771749186338   -0.0022020928199392464   -0.0002934343894981618
0.0009292485300165691   -0.0011900526022229996   -0.00022649029992346633
0.0004578400371334009   -0.001149212219884722   -0.00021295701741508413
0.0011829771749186338   -0.0022020928199392464   -0.0002934343894981618
0.0005850276001172919   -0.002192599659672906   -0.00026326727841073324
0.000585555903327463   -0.002203063852317948   -0.00025562849830761353
0.0004578400371334009   -0.001149212219884722   -0.00021295701741508413
0.0011829771749186338   -0.0022020928199392464   -0.0002934343894981618
0.000585555903327463   -0.002203063852317948   -0.00025562849830761353
0.0009292485300165691   -0.0011900526022229996   -0.00022649029992346633
-0.0016427991971861258   -0.002241184924617181   -0.00033723075186313403
-0.0019503327825907404   -0.0034546845750739992   -0.00036135488427523727
-0.001057365663054234   -0.002212678747984106   -0.00029626565773130164
-0.0016698099623518195   -0.002263939726110803   -0.0003092064158827231
-0.0019503327825907404   -0.0034546845750739992   -0.00036135488427523727
-0.0012690458524409333   -0.0034368871241055514   -0.0003285359877432176
-0.001057365663054234   -0.002212678747984106   -0.00029626565773130164
-0.0012689458048880807   -0.0034509213370704614   -0.00031571757975103665
-0.0016698099623518195   -0.002263939726110803   -0.0003092064158827231
-0.0010580810590284076   -0.0022292615496093287   -0.0002781186486536072
-0.0012689458048880807   -0.0034509213370704614   -0.00031571757975103665
-0.001057365663054234   -0.002212678747984106   -0.00029626565773130164
-0.0016698099623518195   -0.002263939726110803   -0.0003092064158827231
-0.0012689458048880807   -0.0034509213370704614   -0.00031571757975103665
-0.0019676006638386567   -0.0034737512872541746   -0.00034315769616760937
-0.0019503327825907404   -0.0034546845750739992   -0.00036135488427523727
-0.0016698099623518195   -0.002263939726110803   -0.0003092064158827231
-0.0012689458048880807   -0.0034509213370704614   -0.00031571757975103665
-0.0019503327825907404   -0.0034546845750739992   -0.00036135488427523727
-0.001057365663054234   -0.002212678747984106   -0.00029626565773130164
-0.0016698099623518195   -0.002263939726110803   -0.0003092064158827231
-0.0019676006638386567   -0.0034737512872541746   -0.00034315769616760937
-0.0010580810590284076   -0.0022292615496093287   -0.0002781186486536072
-0.0016861024146990176   -0.0022783554389758614   -0.0002831868244236151
-0.0019676006638386567   -0.0034737512872541746   -0.00034315769616760937
-0.0012689458048880807   -0.0034509213370704614   -0.00031571757975103665
-0.0010580810590284076   -0.0022292615496093287   -0.0002781186486536072
-0.0012683542474465198   -0.0034621853580655815   -0.0003042050818849583
-0.0016861024146990176   -0.0022783554389758614   -0.0002831868244236151
-0.0010591189906561213   -0.0022409317676879707   -0.0002613431252705592
-0.0012683542474465198   -0.0034621853580655815   -0.0003042050818849583
-0.0010580810590284076   -0.0022292615496093287   -0.0002781186486536072
-0.0016861024146990176   -0.0022783554389758614   -0.0002831868244236151
-0.0012683542474465198   -0.0034621853580655815   -0.0003042050818849583
-0.0019767060092077777   -0.003487407237477327   -0.00032677605065934584
-0.0019676006638386567   -0.0034737512872541746   -0.00034315769616760937
-0.0016861024146990176   -0.0022783554389758614   -0.0002831868244236151
-0.0012683542474465198   -0.0034621853580655815   -0.0003042050818849583
-0.0019676006638386567   -0.0034737512872541746   -0.00034315769616760937
-0.0010580810590284076   -0.0022292615496093287   -0.0002781186486536072
-0.0016861024146990176   -0.0022783554389758614   -0.0002831868244236151
-0.0019767060092077777   -0.003487407237477327   -0.00032677605065934584
-0.0010591189906561213   -0.0022409317676879707   -0.0002613431252705592
-0.0017046386485467062   -0.002289046093228806   -0.0002593608963833498
-0.0019767060092077777   -0.003487407237477327   -0.00032677605065934584
-0.0012683542474465198   -0.0034621853580655815   -0.0003042050818849583
-0.0010591189906561213   -0.0022409317676879707   -0.0002613431252705592
-0.0012640837285494999   -0.0034716283789299764   -0.00029381464292979625
-0.0017046386485467062   -0.002289046093228806   -0.0002593608963833498
-0.0010554380958990954   -0.002248809010898609   -0.00024564295016088315
-0.0012640837285494999   -0.0034716283789299764   -0.00029381464292979625
-0.0010591189906561213   -0.0022409317676879707   -0.0002613431252705592
-0.0017046386485467062   -0.002289046093228806   -0.0002593608963833498
-0.0012640837285494999   -0.0034716283789299764   -0.00029381464292979625
-0.0019859500521486675   -0.0034999305389420547   -0.00031243517719213294
-0.0019767060092077777   -0.003487407237477327   -0.00032677605065934584
-0.0017046386485467062   -0.002289046093228806   -0.0002593608963833498
-0.0012640837285494999   -0.0034716283789299764   -0.00029381464292979625
-0.0019767060092077777   -0.003487407237477327   -0.00032677605065934584
-0.0010591189906561213   -0.0022409317676879707   -0.0002613431252705592
-0.001057365663054234   -0.002212678747984106   -0.00029626565773130164
-0.0012690458524409333   -0.0034368871241055514   -0.0003285359877432176
-0.0005076300092328496   -0.0021983293596678334   -0.00026787530065725755
-0.0010580810590284076   -0.0022292615496093287   -0.0002781186486536072
-0.0012690458524409333   -0.0034368871241055514   -0.0003285359877432176
-0.0006317182461199773   -0.003427461133944361   -0.000305861819093737
-0.0005076300092328496   -0.0021983293596678334   -0.00026787530065725755
-0.0006289373519733818   -0.0034361500090806644   -0.00029721273991532306
-0.0010580810590284076   -0.0022292615496093287   -0.0002781186486536072
-0.0005047668163480185   -0.0022088132145274605   -0.00025746431875269774
-0.0006289373519733818   -0.0034361500090806644   -0.00029721273991532306
-0.0005076300092328496   -0.0021983293596678334   -0.00026787530065725755
-0.0010580810590284076   -0.0022292615496093287   -0.0002781186486536072
-0.0006289373519733818   -0.0034361500090806644   -0.00029721273991532306
-0.0012689458048880807   -0.0034509213370704614   -0.00031571757975103665
-0.0012690458524409333   -0.0034368871241055514   -0.0003285359877432176
-0.0010580810590284076   -0.0022292615496093287   -0.0002781186486536072
-0.0006289373519733818   -0.0034361500090806644   -0.00029721273991532306
-0.0012690458524409333   -0.0034368871241055514   -0.0003285359877432176
-0.0005076300092328496   -0.0021983293596678334   -0.00026787530065725755
-0.0010580810590284076   -0.0022292615496093287   -0.0002781186486536072
-0.0012689458048880807   -0.0034509213370704614   -0.00031571757975103665
-0.0005047668163480185   -0.0022088132145274605   -0.00025746431875269774
-0.0010591189906561213   -0.0022409317676879707   -0.0002613431252705592
-0.0012689458048880807   -0.0034509213370704614   -0.00031571757975103665
-0.0006289373519733818   -0.0034361500090806644   -0.00029721273991532306
-0.0005047668163480185   -0.0022088132145274605   -0.00025746431875269774
-0.0006257384195018516   -0.0034425030052031382   -0.0002898417523531836
-0.0010591189906561213   -0.0022409317676879707   -0.0002613431252705592
-0.0005016271318942831   -0.0022150222335286574   -0.0002483494070860352
-0.0006257384195018516   -0.0034425030052031382   -0.0002898417523531836
-0.0005047668163480185   -0.0022088132145274605   -0.00025746431875269774
-0.0010591189906561213   -0.0022409317676879707   -0.0002613431252705592
-0.0006257384195018516   -0.0034425030052031382   -0.0002898417523531836
-0.0012683542474465198   -0.0034621853580655815   -0.0003042050818849583
-0.0012689458048880807   -0.0034509213370704614   -0.00031571757975103665
-0.0010591189906561213   -0.0022409317676879707   -0.0002613431252705592
-0.0006257384195018516   -0.0034425030052031382   -0.0002898417523531836
-0.0012689458048880807   -0.0034509213370704614   -0.00031571757975103665
-0.0005047668163480185   -0.0022088132145274605   -0.00025746431875269774
-0.0010591189906561213   -0.0022409317676879707   -0.0002613431252705592
-0.0012683542474465198   -0.0034621853580655815   -0.0003042050818849583
-0.0005016271318942831   -0.0022150222335286574   -0.0002483494070860352
-0.0010554380958990954   -0.002248809010898609   -0.00024564295016088315
-0.0012683542474465198   -0.0034621853580655815   -0.0003042050818849583
-0.0006257384195018516   -0.0034425030052031382   -0.0002898417523531836
-0.0005016271318942831   -0.0022150222335286574   -0.0002483494070860352
-0.0006217201723778073   -0.0034465634855332665   -0.00028377597599812097
-0.0010554380958990954   -0.002248809010898609   -0.00024564295016088315
-0.0004974613787798746   -0.0022170448396090577   -0.0002405313158206515
-0.0006217201723778073   -0.0034465634855332665   -0.00028377597599812097
-0.0005016271318942831   -0.0022150222335286574   -0.0002483494070860352
-0.0010554380958990954   -0.002248809010898609   -0.00024564295016088315
-0.0006217201723778073   -0.0034465634855332665   -0.00028377597599812097
-0.0012640837285494999   -0.0034716283789299764   -0.00029381464292979625
-0.0012683542474465198   -0.0034621853580655815   -0.0003042050818849583
-0.0010554380958990954   -0.002248809010898609   -0.00024564295016088315
-0.0006217201723778073   -0.0034465634855332665   -0.00028377597599812097
-0.0012683542474465198   -0.0034621853580655815   -0.0003042050818849583
-0.0005016271318942831   -0.0022150222335286574   -0.0002483494070860352
-0.0005076300092328496   -0.0021983293596678334   -0.00026787530065725755
-0.0006317182461199773   -0.003427461133944361   -0.000305861819093737
2.5281350929679383e-05   -0.0021975388521813474   -0.00025059049263915974
-0.0005047668163480185   -0.0022088132145274605   -0.00025746431875269774
-0.0006317182461199773   -0.003427461133944361   -0.000305861819093737
-1.2087653511643871e-05   -0.003425698308414196   -0.0002929931373342011
2.5281350929679383e-05   -0.0021975388521813474   -0.00025059049263915974
-8.208105604823948e-06   -0.0034289635687127238   -0.00028856517388806477
-0.0005047668163480185   -0.0022088132145274605   -0.00025746431875269774
2.926901771429868e-05   -0.0022019799602139758   -0.00024788433426384585
-8.208105604823948e-06   -0.0034289635687127238   -0.00028856517388806477
2.5281350929679383e-05   -0.0021975388521813474   -0.00025059049263915974
-0.0005047668163480185   -0.0022088132145274605   -0.00025746431875269774
-8.208105604823948e-06   -0.0034289635687127238   -0.00028856517388806477
-0.0006289373519733818   -0.0034361500090806644   -0.00029721273991532306
-0.0006317182461199773   -0.003427461133944361   -0.000305861819093737
-0.0005047668163480185   -0.0022088132145274605   -0.00025746431875269774
-8.208105604823948e-06   -0.0034289635687127238   -0.00028856517388806477
-0.0006317182461199773   -0.003427461133944361   -0.000305861819093737
2.5281350929679383e-05   -0.0021975388521813474   -0.00025059049263915974
-0.0005047668163480185   -0.0022088132145274605   -0.00025746431875269774
-0.0006289373519733818   -0.0034361500090806644   -0.00029721273991532306
2.926901771429868e-05   -0.0022019799602139758   -0.00024788433426384585
-0.0005016271318942831   -0.0022150222335286574   -0.0002483494070860352
-0.0006289373519733818   -0.0034361500090806644   -0.00029721273991532306
-8.208105604823948e-06   -0.0034289635687127238   -0.00028856517388806477
2.926901771429868e-05   -0.0022019799602139758   -0.00024788433426384585
-4.993599732851717e-06   -0.00342987483568046   -0.00028540480500277625
-0.0005016271318942831   -0.0022150222335286574   -0.0002483494070860352
3.239316206840153e-05   -0.002202160220288256   -0.0002464457881873642
-4.993599732851717e-06   -0.00342987483568046   -0.00028540480500277625
2.926901771429868e-05   -0.0022019799602139758   -0.00024788433426384585
-0.0005016271318942831   -0.0022150222335286574   -0.0002483494070860352
-4.993599732851717e-06   -0.00342987483568046   -0.00028540480500277625
-0.0006257384195018516   -0.0034425030052031382   -0.0002898417523531836
-0.0006289373519733818   -0.0034361500090806644   -0.00029721273991532306
-0.0005016271318942831   -0.0022150222335286574   -0.0002483494070860352
-4.993599732851717e-06   -0.00342987483568046   -0.00028540480500277625
-0.0006289373519733818   -0.0034361500090806644   -0.00029721273991532306
2.926901771429868e-05   -0.0022019799602139758   -0.00024788433426384585
-0.0005016271318942831   -0.0022150222335286574   -0.0002483494070860352
-0.0006257384195018516   -0.0034425030052031382   -0.0002898417523531836
3.239316206840153e-05   -0.002202160220288256   -0.0002464457881873642
-0.0004974613787798746   -0.0022170448396090577   -0.0002405313158206515
-0.0006257384195018516   -0.0034425030052031382   -0.0002898417523531836
-4.993599732851717e-06   -0.00342987483568046   -0.00028540480500277625
3.239316206840153e-05   -0.002202160220288256   -0.0002464457881873642
-2.346947959537092e-06   -0.0034283984716593206   -0.0002835633086840232
-0.0004974613787798746   -0.0022170448396090577   -0.0002405313158206515
3.511131888681107e-05   -0.002198018260674865   -0.0002463458429531212
-2.346947959537092e-06   -0.0034283984716593206   -0.0002835633086840232
3.239316206840153e-05   -0.002202160220288256   -0.0002464457881873642
-0.0004974613787798746   -0.0022170448396090577   -0.0002405313158206515
-2.346947959537092e-06   -0.0034283984716593206   -0.0002835633086840232
-0.0006217201723778073   -0.0034465634855332665   -0.00028377597599812097
-0.0006257384195018516   -0.0034425030052031382   -0.0002898417523531836
-0.0004974613787798746   -0.0022170448396090577   -0.0002405313158206515
-2.346947959537092e-06   -0.0034283984716593206   -0.0002835633086840232
-0.0006257384195018516   -0.0034425030052031382   -0.0002898417523531836
3.239316206840153e-05   -0.002202160220288256   -0.0002464457881873642
2.5281350929679383e-05   -0.0021975388521813474   -0.00025059049263915974
-1.2087653511643871e-05   -0.003425698308414196   -0.0002929931373342011
0.0005813876489098621   -0.0022094869484811748   -0.0002441624327095507
2.926901771429868e-05   -0.0022019799602139758   -0.00024788433426384585
-1.2087653511643871e-05   -0.003425698308414196   -0.0002929931373342011
0.0006289433106862101   -0.0034309045125076026   -0.0002899375069296262
0.0005813876489098621   -0.0022094869484811748   -0.0002441624327095507
0.000633461990487001   -0.00342901146948716   -0.0002898070032914747
2.926901771429868e-05   -0.0022019799602139758   -0.00024788433426384585
0.0005852320421639616   -0.0022083334343529736   -0.00024930821946174907
0.000633461990487001   -0.00342901146948716   -0.0002898070032914747
0.0005813876489098621   -0.0022094869484811748   -0.0002441624327095507
2.926901771429868e-05   -0.0022019799602139758   -0.00024788433426384585
0.000633461990487001   -0.00342901146948716   -0.0002898070032914747
-8.208105604823948e-06   -0.0034289635687127238   -0.00028856517388806477
-1.2087653511643871e-05   -0.003425698308414196   -0.0002929931373342011
2.926901771429868e-05   -0.0022019799602139758   -0.00024788433426384585
0.000633461990487001   -0.00342901146948716   -0.0002898070032914747
-1.2087653511643871e-05   -0.003425698308414196   -0.0002929931373342011
0.0005813876489098621   -0.0022094869484811748   -0.0002441624327095507
2.926901771429868e-05   -0.0022019799602139758   -0.00024788433426384585
-8.208105604823948e-06   -0.0034289635687127238   -0.00028856517388806477
0.0005852320421639616   -0.0022083334343529736   -0.00024930821946174907
3.239316206840153e-05   -0.002202160220288256   -0.0002464457881873642
-8.208105604823948e-06   -0.0034289635687127238   -0.00028856517388806477
0.000633461990487001   -0.00342901146948716   -0.0002898070032914747
0.0005852320421639616   -0.0022083334343529736   -0.00024930821946174907
0.000635508956241589   -0.0034250063531562846   -0.0002908715958426954
3.239316206840153e-05   -0.002202160220288256   -0.0002464457881873642
0.000585555903327463   -0.002203063852317948   -0.00025562849830761353
0.000635508956241589   -0.0034250063531562846   -0.0002908715958426954
0.0005852320421639616   -0.0022083334343529736   -0.00024930821946174907
3.239316206840153e-05   -0.002202160220288256   -0.0002464457881873642
0.000635508956241589   -0.0034250063531562846   -0.0002908715958426954
-4.993599732851717e-06   -0.00342987483568046   -0.00028540480500277625
-8.208105604823948e-06   -0.0034289635687127238   -0.00028856517388806477
3.239316206840153e-05   -0.002202160220288256   -0.0002464457881873642
0.000635508956241589   -0.0034250063531562846   -0.0002908715958426954
-8.208105604823948e-06   -0.0034289635687127238   -0.00028856517388806477
0.0005852320421639616   -0.0022083334343529736   -0.00024930821946174907
3.239316206840153e-05   -0.002202160220288256   -0.0002464457881873642
-4.993599732851717e-06   -0.00342987483568046   -0.00028540480500277625
0.000585555903327463   -0.002203063852317948   -0.00025562849830761353
3.511131888681107e-05   -0.002198018260674865   -0.0002463458429531212
-4.993599732851717e-06   -0.00342987483568046   -0.00028540480500277625
0.000635508956241589   -0.0034250063531562846   -0.0002908715958426954
0.000585555903327463   -0.002203063852317948   -0.00025562849830761353
0.0006358580417995252   -0.0034179466906151747   -0.00029318243152814954
3.511131888681107e-05   -0.002198018260674865   -0.0002463458429531212
0.0005850276001172919   -0.002192599659672906   -0.00026326727841073324
0.0006358580417995252   -0.0034179466906151747   -0.00029318243152814954
0.000585555903327463   -0.002203063852317948   -0.00025562849830761353
3.511131888681107e-05   -0.002198018260674865   -0.0002463458429531212
0.0006358580417995252   -0.0034179466906151747   -0.00029318243152814954
-2.346947959537092e-06   -0.0034283984716593206   -0.0002835633086840232
-4.993599732851717e-06   -0.00342987483568046   -0.00028540480500277625
3.511131888681107e-05   -0.002198018260674865   -0.0002463458429531212
0.0006358580417995252   -0.0034179466906151747   -0.00029318243152814954
-4.993599732851717e-06   -0.00342987483568046   -0.00028540480500277625
0.000585555903327463   -0.002203063852317948   -0.00025562849830761353
0.0005813876489098621   -0.0022094869484811748   -0.0002441624327095507
0.0006289433106862101   -0.0034309045125076026   -0.0002899375069296262
0.0012156464002790427   -0.00223080185972848   -0.0002455710004052506
0.0005852320421639616   -0.0022083334343529736   -0.00024930821946174907
0.0006289433106862101   -0.0034309045125076026   -0.0002899375069296262
0.0013366311742853889   -0.0034401863359654655   -0.00029484230681984
0.0012156464002790427   -0.00223080185972848   -0.0002455710004052506
0.0013381266004980578   -0.0034347350468587226   -0.00029916242114096445
0.0005852320421639616   -0.0022083334343529736   -0.00024930821946174907
0.0012077090444887909   -0.002226336714031396   -0.0002594052170278637
0.0013381266004980578   -0.0034347350468587226   -0.00029916242114096445
0.0012156464002790427   -0.00223080185972848   -0.0002455710004052506
0.0005852320421639616   -0.0022083334343529736   -0.00024930821946174907
0.0013381266004980578   -0.0034347350468587226   -0.00029916242114096445
0.000633461990487001   -0.00342901146948716   -0.0002898070032914747
0.0006289433106862101   -0.0034309045125076026   -0.0002899375069296262
0.0005852320421639616   -0.0022083334343529736   -0.00024930821946174907
0.0013381266004980578   -0.0034347350468587226   -0.00029916242114096445
0.0006289433106862101   -0.0034309045125076026   -0.0002899375069296262
0.0012156464002790427   -0.00223080185972848   -0.0002455710004052506
0.0005852320421639616   -0.0022083334343529736   -0.00024930821946174907
0.000633461990487001   -0.00342901146948716   -0.0002898070032914747
0.0012077090444887909   -0.002226336714031396   -0.0002594052170278637
0.000585555903327463   -0.002203063852317948   -0.00025562849830761353
0.000633461990487001   -0.00342901146948716   -0.0002898070032914747
0.0013381266004980578   -0.0034347350468587226   -0.00029916242114096445
0.0012077090444887909   -0.002226336714031396   -0.0002594052170278637
0.0013371796557651622   -0.003428330839476618   -0.0003054330445808923
0.000585555903327463   -0.002203063852317948   -0.00025562849830761353
0.0011994150675913294   -0.0022183276501901777   -0.00027535871606671007
0.0013371796557651622   -0.003428330839476618   -0.0003054330445808923
0.0012077090444887909   -0.002226336714031396   -0.0002594052170278637
0.000585555903327463   -0.002203063852317948   -0.00025562849830761353
0.0013371796557651622   -0.003428330839476618   -0.0003054330445808923
0.000635508956241589   -0.0034250063531562846   -0.0002908715958426954
0.000633461990487001   -0.00342901146948716   -0.0002898070032914747
0.000585555903327463   -0.002203063852317948   -0.00025562849830761353
0.0013371796557651622   -0.003428330839476618   -0.0003054330445808923
0.000633461990487001   -0.00342901146948716   -0.0002898070032914747
0.0012077090444887909   -0.002226336714031396   -0.0002594052170278637
0.000585555903327463   -0.002203063852317948   -0.00025562849830761353
0.000635508956241589   -0.0034250063531562846   -0.0002908715958426954
0.0011994150675913294   -0.0022183276501901777   -0.00027535871606671007
0.0005850276001172919   -0.002192599659672906   -0.00026326727841073324
0.000635508956241589   -0.0034250063531562846   -0.0002908715958426954
0.0013371796557651622   -0.003428330839476618   -0.0003054330445808923
0.0011994150675913294   -0.0022183276501901777   -0.00027535871606671007
0.0013306280922446739   -0.0034166637059433475   -0.0003136397878625527
0.0005850276001172919   -0.002192599659672906   -0.00026326727841073324
0.0011829771749186338   -0.0022020928199392464   -0.0002934343894981618
0.0013306280922446739   -0.0034166637059433475   -0.0003136397878625527
0.0011994150675913294   -0.0022183276501901777   -0.00027535871606671007
0.0005850276001172919   -0.002192599659672906   -0.00026326727841073324
0.0013306280922446739   -0.0034166637059433475   -0.0003136397878625527
0.0006358580417995252   -0.0034179466906151747   -0.00029318243152814954
0.000635508956241589   -0.0034250063531562846   -0.0002908715958426954
0.0005850276001172919   -0.002192599659672906   -0.00026326727841073324
0.0013306280922446739   -0.0034166637059433475   -0.0003136397878625527
0.000635508956241589   -0.0034250063531562846   -0.0002908715958426954
0.0011994150675913294   -0.0022183276501901777   -0.00027535871606671007
-0.0019503327825907404   -0.0034546845750739992   -0.00036135488427523727
-0.0021313087490208273   -0.004763224332305777   -0.00036984947846814
-0.0012690458524409333   -0.0034368871241055514   -0.0003285359877432176
-0.0019676006638386567   -0.0034737512872541746   -0.00034315769616760937
-0.0021313087490208273   -0.004763224332305777   -0.00036984947846814
-0.0014057159958374425   -0.004756277957115789   -0.00034422147771235353
-0.0012690458524409333   -0.0034368871241055514   -0.0003285359877432176
-0.0014037745596639393   -0.00476803728271116   -0.00033647820625979036
-0.0019676006638386567   -0.0034737512872541746   -0.00034315769616760937
-0.0012689458048880807   -0.0034509213370704614   -0.00031571757975103665
-0.0014037745596639393   -0.00476803728271116   -0.00033647820625979036
-0.0012690458524409333   -0.0034368871241055514   -0.0003285359877432176
-0.0019676006638386567   -0.0034737512872541746   -0.00034315769616760937
-0.0014037745596639393   -0.00476803728271116   -0.00033647820625979036
-0.0021383677135611277   -0.004779105939755798   -0.00036083901528905356
-0.0021313087490208273   -0.004763224332305777   -0.00036984947846814
-0.0019676006638386567   -0.0034737512872541746   -0.00034315769616760937
-0.0014037745596639393   -0.00476803728271116   -0.00033647820625979036
-0.0021313087490208273   -0.004763224332305777   -0.00036984947846814
-0.0012690458524409333   -0.0034368871241055514   -0.0003285359877432176
-0.0019676006638386567   -0.0034737512872541746   -0.00034315769616760937
-0.0021383677135611277   -0.004779105939755798   -0.00036083901528905356
-0.0012689458048880807   -0.0034509213370704614   -0.00031571757975103665
-0.0019767060092077777   -0.003487407237477327   -0.00032677605065934584
-0.0021383677135611277   -0.004779105939755798   -0.00036083901528905356
-0.0014037745596639393   -0.00476803728271116   -0.00033647820625979036
-0.0012689458048880807   -0.0034509213370704614   -0.00031571757975103665
-0.0014005030655547279   -0.004779045395868916   -0.00033002572646679
-0.0019767060092077777   -0.003487407237477327   -0.00032677605065934584
-0.0012683542474465198   -0.0034621853580655815   -0.0003042050818849583
-0.0014005030655547279   -0.004779045395868916   -0.00033002572646679
-0.0012689458048880807   -0.0034509213370704614   -0.00031571757975103665
-0.0019767060092077777   -0.003487407237477327   -0.00032677605065934584
-0.0014005030655547279   -0.004779045395868916   -0.00033002572646679
-0.0021394810534817637   -0.004792253805317154   -0.00035368157690004315
-0.0021383677135611277   -0.004779105939755798   -0.00036083901528905356
-0.0019767060092077777   -0.003487407237477327   -0.00032677605065934584
-0.0014005030655547279   -0.004779045395868916   -0.00033002572646679
-0.0021383677135611277   -0.004779105939755798   -0.00036083901528905356
-0.0012689458048880807   -0.0034509213370704614   -0.00031571757975103665
-0.0019767060092077777   -0.003487407237477327   -0.00032677605065934584
-0.0021394810534817637   -0.004792253805317154   -0.00035368157690004315
-0.0012683542474465198   -0.0034621853580655815   -0.0003042050818849583
-0.0019859500521486675   -0.0034999305389420547   -0.00031243517719213294
-0.0021394810534817637   -0.004792253805317154   -0.00035368157690004315
-0.0014005030655547279   -0.004779045395868916   -0.00033002572646679
-0.0012683542474465198   -0.0034621853580655815   -0.0003042050818849583
-0.0013945426630850224   -0.004790156454540579   -0.00032475990513278723
-0.0019859500521486675   -0.0034999305389420547   -0.00031243517719213294
-0.0012640837285494999   -0.0034716283789299764   -0.00029381464292979625
-0.0013945426630850224   -0.004790156454540579   -0.00032475990513278723
-0.0012683542474465198   -0.0034621853580655815   -0.0003042050818849583
-0.0019859500521486675   -0.0034999305389420547   -0.00031243517719213294
-0.0013945426630850224   -0.004790156454540579   -0.00032475990513278723
-0.0021385853413596386   -0.0048067823468614925   -0.00034855167702790987
-0.0021394810534817637   -0.004792253805317154   -0.00035368157690004315
-0.0019859500521486675   -0.0034999305389420547   -0.00031243517719213294
-0.0013945426630850224   -0.004790156454540579   -0.00032475990513278723
-0.0021394810534817637   -0.004792253805317154   -0.00035368157690004315
-0.0012683542474465198   -0.0034621853580655815   -0.0003042050818849583
-0.0012690458524409333   -0.0034368871241055514   -0.0003285359877432176
-0.0014057159958374425   -0.004756277957115789   -0.00034422147771235353
-0.0006317182461199773   -0.003427461133944361   -0.000305861819093737
-0.0012689458048880807   -0.0034509213370704614   -0.00031571757975103665
-0.0014057159958374425   -0.004756277957115789   -0.00034422147771235353
-0.0007320165109878767   -0.0047519825525564755   -0.00032682198378824947
-0.0006317182461199773   -0.003427461133944361   -0.000305861819093737
-0.0007281461912278733   -0.004758983914915614   -0.00031984810006884597
-0.0012689458048880807   -0.0034509213370704614   -0.00031571757975103665
-0.0006289373519733818   -0.0034361500090806644   -0.00029721273991532306
-0.0007281461912278733   -0.004758983914915614   -0.00031984810006884597
-0.0006317182461199773   -0.003427461133944361   -0.000305861819093737
-0.0012689458048880807   -0.0034509213370704614   -0.00031571757975103665
-0.0007281461912278733   -0.004758983914915614   -0.00031984810006884597
-0.0014037745596639393   -0.00476803728271116   -0.00033647820625979036
-0.0014057159958374425   -0.004756277957115789   -0.00034422147771235353
-0.0012689458048880807   -0.0034509213370704614   -0.00031571757975103665
-0.0007281461912278733   -0.004758983914915614   -0.00031984810006884597
-0.0014057159958374425   -0.004756277957115789   -0.00034422147771235353
-0.0006317182461199773   -0.003427461133944361   -0.000305861819093737
-0.0012689458048880807   -0.0034509213370704614   -0.00031571757975103665
-0.0014037745596639393   -0.00476803728271116   -0.00033647820625979036
-0.0006289373519733818   -0.0034361500090806644   -0.00029721273991532306
-0.0012683542474465198   -0.0034621853580655815   -0.0003042050818849583
-0.0014037745596639393   -0.00476803728271116   -0.00033647820625979036
-0.0007281461912278733   -0.004758983914915614   -0.00031984810006884597
-0.0006289373519733818   -0.0034361500090806644   -0.00029721273991532306
-0.0007237281947898424   -0.004765520024244091   -0.0003141587562078347
-0.0012683542474465198   -0.0034621853580655815   -0.0003042050818849583
-0.0006257384195018516   -0.0034425030052031382   -0.0002898417523531836
-0.0007237281947898424   -0.004765520024244091   -0.0003141587562078347
-0.0006289373519733818   -0.0034361500090806644   -0.00029721273991532306
-0.0012683542474465198   -0.0034621853580655815   -0.0003042050818849583
-0.0007237281947898424   -0.004765520024244091   -0.0003141587562078347
-0.0014005030655547279   -0.004779045395868916   -0.00033002572646679
-0.0014037745596639393   -0.00476803728271116   -0.00033647820625979036
-0.0012683542474465198   -0.0034621853580655815   -0.0003042050818849583
-0.0007237281947898424   -0.004765520024244091   -0.0003141587562078347
-0.0014037745596639393   -0.00476803728271116   -0.00033647820625979036
-0.0006289373519733818   -0.0034361500090806644   -0.00029721273991532306
-0.0012683542474465198   -0.0034621853580655815   -0.0003042050818849583
-0.0014005030655547279   -0.004779045395868916   -0.00033002572646679
-0.0006257384195018516   -0.0034425030052031382   -0.0002898417523531836
-0.0012640837285494999   -0.0034716283789299764   -0.00029381464292979625
-0.0014005030655547279   -0.004779045395868916   -0.00033002572646679
-0.0007237281947898424   -0.004765520024244091   -0.0003141587562078347
-0.0006257384195018516   -0.0034425030052031382   -0.0002898417523531836
-0.0007186711070261128   -0.004771615085209015   -0.0003097918320606745
-0.0012640837285494999   -0.0034716283789299764   -0.00029381464292979625
-0.0006217201723778073   -0.0034465634855332665   -0.00028377597599812097
-0.0007186711070261128   -0.004771615085209015   -0.0003097918320606745
-0.0006257384195018516   -0.0034425030052031382   -0.0002898417523531836
-0.0012640837285494999   -0.0034716283789299764   -0.00029381464292979625
-0.0007186711070261128   -0.004771615085209015   -0.0003097918320606745
-0.0013945426630850224   -0.004790156454540579   -0.00032475990513278723
-0.0014005030655547279   -0.004779045395868916   -0.00033002572646679
-0.0012640837285494999   -0.0034716283789299764   -0.00029381464292979625
-0.0007186711070261128   -0.004771615085209015   -0.0003097918320606745
-0.0014005030655547279   -0.004779045395868916   -0.00033002572646679
-0.0006257384195018516   -0.0034425030052031382   -0.0002898417523531836
-0.0006317182461199773   -0.003427461133944361   -0.000305861819093737
-0.0007320165109878767   -0.0047519825525564755   -0.00032682198378824947
-1.2087653511643871e-05   -0.003425698308414196   -0.0002929931373342011
-0.0006289373519733818   -0.0034361500090806644   -0.00029721273991532306
-0.0007320165109878767   -0.0047519825525564755   -0.00032682198378824947
-7.662615502495736e-05   -0.004749316974332903   -0.0003181901700461079
-1.2087653511643871e-05   -0.003425698308414196   -0.0002929931373342011
-7.17126947644885e-05   -0.0047514185604878075   -0.00031207183955836085
-0.0006289373519733818   -0.0034361500090806644   -0.00029721273991532306
-8.208105604823948e-06   -0.0034289635687127238   -0.00028856517388806477
-7.17126947644885e-05   -0.0047514185604878075   -0.00031207183955836085
-1.2087653511643871e-05   -0.003425698308414196   -0.0002929931373342011
-0.0006289373519733818   -0.0034361500090806644   -0.00029721273991532306
-7.17126947644885e-05   -0.0047514185604878075   -0.00031207183955836085
-0.0007281461912278733   -0.004758983914915614   -0.00031984810006884597
-0.0007320165109878767   -0.0047519825525564755   -0.00032682198378824947
-0.0006289373519733818   -0.0034361500090806644   -0.00029721273991532306
-7.17126947644885e-05   -0.0047514185604878075   -0.00031207183955836085
-0.0007320165109878767   -0.0047519825525564755   -0.00032682198378824947
-1.2087653511643871e-05   -0.003425698308414196   -0.0002929931373342011
-0.0006289373519733818   -0.0034361500090806644   -0.00029721273991532306
-0.0007281461912278733   -0.004758983914915614   -0.00031984810006884597
-8.208105604823948e-06   -0.0034289635687127238   -0.00028856517388806477
-0.0006257384195018516   -0.0034425030052031382   -0.0002898417523531836
-0.0007281461912278733   -0.004758983914915614   -0.00031984810006884597
-7.17126947644885e-05   -0.0047514185604878075   -0.00031207183955836085
-8.208105604823948e-06   -0.0034289635687127238   -0.00028856517388806477
-6.728449322017331e-05   -0.004753014427323998   -0.0003072329700054051
-0.0006257384195018516   -0.0034425030052031382   -0.0002898417523531836
-4.993599732851717e-06   -0.00342987483568046   -0.00028540480500277625
-6.728449322017331e-05   -0.004753014427323998   -0.0003072329700054051
-8.208105604823948e-06   -0.0034289635687127238   -0.00028856517388806477
-0.0006257384195018516   -0.0034425030052031382   -0.0002898417523531836
-6.728449322017331e-05   -0.004753014427323998   -0.0003072329700054051
-0.0007237281947898424   -0.004765520024244091   -0.0003141587562078347
-0.0007281461912278733   -0.004758983914915614   -0.00031984810006884597
-0.0006257384195018516   -0.0034425030052031382   -0.0002898417523531836
-6.728449322017331e-05   -0.004753014427323998   -0.0003072329700054051
-0.0007281461912278733   -0.004758983914915614   -0.00031984810006884597
-8.208105604823948e-06   -0.0034289635687127238   -0.00028856517388806477
-0.0006257384195018516   -0.0034425030052031382   -0.0002898417523531836
-0.0007237281947898424   -0.004765520024244091   -0.0003141587562078347
-4.993599732851717e-06   -0.00342987483568046   -0.00028540480500277625
-0.0006217201723778073   -0.0034465634855332665   -0.00028377597599812097
-0.0007237281947898424   -0.004765520024244091   -0.0003141587562078347
-6.728449322017331e-05   -0.004753014427323998   -0.0003072329700054051
-4.993599732851717e-06   -0.00342987483568046   -0.00028540480500277625
-6.356197461820963e-05   -0.004754091838844044   -0.00030371639712069076
-0.0006217201723778073   -0.0034465634855332665   -0.00028377597599812097
-2.346947959537092e-06   -0.0034283984716593206   -0.0002835633086840232
-6.356197461820963e-05   -0.004754091838844044   -0.00030371639712069076
-4.993599732851717e-06   -0.00342987483568046   -0.00028540480500277625
-0.0006217201723778073   -0.0034465634855332665   -0.00028377597599812097
-6.356197461820963e-05   -0.004754091838844044   -0.00030371639712069076
-0.0007186711070261128   -0.004771615085209015   -0.0003097918320606745
-0.0007237281947898424   -0.004765520024244091   -0.0003141587562078347
-0.0006217201723778073   -0.0034465634855332665   -0.00028377597599812097
-6.356197461820963e-05   -0.004754091838844044   -0.00030371639712069076
-0.0007237281947898424   -0.004765520024244091   -0.0003141587562078347
-4.993599732851717e-06   -0.00342987483568046   -0.00028540480500277625
-1.2087653511643871e-05   -0.003425698308414196   -0.0002929931373342011
-7.662615502495736e-05   -0.004749316974332903   -0.0003181901700461079
0.0006289433106862101   -0.0034309045125076026   -0.0002899375069296262
-8.208105604823948e-06   -0.0034289635687127238   -0.00028856517388806477
-7.662615502495736e-05   -0.004749316974332903   -0.0003181901700461079
0.0005984665273769745   -0.004747811174051568   -0.00031846241788311476
0.0006289433106862101   -0.0034309045125076026   -0.0002899375069296262
0.0006046510366880907   -0.004745125000481695   -0.00031323551895215553
-8.208105604823948e-06   -0.0034289635687127238   -0.00028856517388806477
0.000633461990487001   -0.00342901146948716   -0.0002898070032914747
0.0006046510366880907   -0.004745125000481695   -0.00031323551895215553
0.0006289433106862101   -0.0034309045125076026   -0.0002899375069296262
-8.208105604823948e-06   -0.0034289635687127238   -0.00028856517388806477
0.0006046510366880907   -0.004745125000481695   -0.00031323551895215553
-7.17126947644885e-05   -0.0047514185604878075   -0.00031207183955836085
-7.662615502495736e-05   -0.004749316974332903   -0.0003181901700461079
-8.208105604823948e-06   -0.0034289635687127238   -0.00028856517388806477
0.0006046510366880907   -0.004745125000481695   -0.00031323551895215553
-7.662615502495736e-05   -0.004749316974332903   -0.0003181901700461079
0.0006289433106862101   -0.0034309045125076026   -0.0002899375069296262
-8.208105604823948e-06   -0.0034289635687127238   -0.00028856517388806477
-7.17126947644885e-05   -0.0047514185604878075   -0.00031207183955836085
0.000633461990487001   -0.00342901146948716   -0.0002898070032914747
-4.993599732851717e-06   -0.00342987483568046   -0.00028540480500277625
-7.17126947644885e-05   -0.0047514185604878075   -0.00031207183955836085
0.0006046510366880907   -0.004745125000481695   -0.00031323551895215553
0.000633461990487001   -0.00342901146948716   -0.0002898070032914747
0.000609367789814917   -0.004742250272843817   -0.0003092466909413805
-4.993599732851717e-06   -0.00342987483568046   -0.00028540480500277625
0.000635508956241589   -0.0034250063531562846   -0.0002908715958426954
0.000609367789814917   -0.004742250272843817   -0.0003092466909413805
0.000633461990487001   -0.00342901146948716   -0.0002898070032914747
-4.993599732851717e-06   -0.00342987483568046   -0.00028540480500277625
0.000609367789814917   -0.004742250272843817   -0.0003092466909413805
-6.728449322017331e-05   -0.004753014427323998   -0.0003072329700054051
-7.17126947644885e-05   -0.0047514185604878075   -0.00031207183955836085
-4.993599732851717e-06   -0.00342987483568046   -0.00028540480500277625
0.000609367789814917   -0.004742250272843817   -0.0003092466909413805
-7.17126947644885e-05   -0.0047514185604878075   -0.00031207183955836085
0.000633461990487001   -0.00342901146948716   -0.0002898070032914747
-4.993599732851717e-06   -0.00342987483568046   -0.00028540480500277625
-6.728449322017331e-05   -0.004753014427323998   -0.0003072329700054051
0.000635508956241589   -0.0034250063531562846   -0.0002908715958426954
-2.346947959537092e-06   -0.0034283984716593206   -0.0002835633086840232
-6.728449322017331e-05   -0.004753014427323998   -0.0003072329700054051
0.000609367789814917   -0.004742250272843817   -0.0003092466909413805
0.000635508956241589   -0.0034250063531562846   -0.0002908715958426954
0.0006115475624285771   -0.004738325061951173   -0.00030647404666596075
-2.346947959537092e-06   -0.0034283984716593206   -0.0002835633086840232
0.0006358580417995252   -0.0034179466906151747   -0.00029318243152814954
0.0006115475624285771   -0.004738325061951173   -0.00030647404666596075
0.000635508956241589   -0.0034250063531562846   -0.0002908715958426954
-2.346947959537092e-06   -0.0034283984716593206   -0.0002835633086840232
0.0006115475624285771   -0.004738325061951173   -0.00030647404666596075
-6.356197461820963e-05   -0.004754091838844044   -0.00030371639712069076
-6.728449322017331e-05   -0.004753014427323998   -0.0003072329700054051
-2.346947959537092e-06   -0.0034283984716593206   -0.0002835633086840232
0.0006115475624285771   -0.004738325061951173   -0.00030647404666596075
-6.728449322017331e-05   -0.004753014427323998   -0.0003072329700054051
0.000635508956241589   -0.0034250063531562846   -0.0002908715958426954
0.0006289433106862101   -0.0034309045125076026   -0.0002899375069296262
0.0005984665273769745   -0.004747811174051568   -0.00031846241788311476
0.0013366311742853889   -0.0034401863359654655   -0.00029484230681984
0.000633461990487001   -0.00342901146948716   -0.0002898070032914747
0.0005984665273769745   -0.004747811174051568   -0.00031846241788311476
0.0013288334841643056   -0.004745313704638578   -0.0003269842994365529
0.0013366311742853889   -0.0034401863359654655   -0.00029484230681984
0.0013403931106055528   -0.004738791566411003   -0.000322158885805709
0.000633461990487001   -0.00342901146948716   -0.0002898070032914747
0.0013381266004980578   -0.0034347350468587226   -0.00029916242114096445
0.0013403931106055528   -0.004738791566411003   -0.000322158885805709
0.0013366311742853889   -0.0034401863359654655   -0.00029484230681984
0.000633461990487001   -0.00342901146948716   -0.0002898070032914747
0.0013403931106055528   -0.004738791566411003   -0.000322158885805709
0.0006046510366880907   -0.004745125000481695   -0.00031323551895215553
0.0005984665273769745   -0.004747811174051568   -0.00031846241788311476
0.000633461990487001   -0.00342901146948716   -0.0002898070032914747
0.0013403931106055528   -0.004738791566411003   -0.000322158885805709
0.0005984665273769745   -0.004747811174051568   -0.00031846241788311476
0.0013366311742853889   -0.0034401863359654655   -0.00029484230681984
0.000633461990487001   -0.00342901146948716   -0.0002898070032914747
0.0006046510366880907   -0.004745125000481695   -0.00031323551895215553
0.0013381266004980578   -0.0034347350468587226   -0.00029916242114096445
0.000635508956241589   -0.0034250063531562846   -0.0002908715958426954
0.0006046510366880907   -0.004745125000481695   -0.00031323551895215553
0.0013403931106055528   -0.004738791566411003   -0.000322158885805709
0.0013381266004980578   -0.0034347350468587226   -0.00029916242114096445
0.00134742231017881   -0.0047337863126191305   -0.0003192312794398514
0.000635508956241589   -0.0034250063531562846   -0.0002908715958426954
0.0013371796557651622   -0.003428330839476618   -0.0003054330445808923
0.00134742231017881   -0.0047337863126191305   -0.0003192312794398514
0.0013381266004980578   -0.0034347350468587226   -0.00029916242114096445
0.000635508956241589   -0.0034250063531562846   -0.0002908715958426954
0.00134742231017881   -0.0047337863126191305   -0.0003192312794398514
0.000609367789814917   -0.004742250272843817   -0.0003092466909413805
0.0006046510366880907   -0.004745125000481695   -0.00031323551895215553
0.000635508956241589   -0.0034250063531562846   -0.0002908715958426954
0.00134742231017881   -0.0047337863126191305   -0.0003192312794398514
0.0006046510366880907   -0.004745125000481695   -0.00031323551895215553
0.0013381266004980578   -0.0034347350468587226   -0.00029916242114096445
0.000635508956241589   -0.0034250063531562846   -0.0002908715958426954
0.000609367789814917   -0.004742250272843817   -0.0003092466909413805
0.0013371796557651622   -0.003428330839476618   -0.0003054330445808923
0.0006358580417995252   -0.0034179466906151747   -0.00029318243152814954
0.000609367789814917   -0.004742250272843817   -0.0003092466909413805
0.00134742231017881   -0.0047337863126191305   -0.0003192312794398514
0.0013371796557651622   -0.003428330839476618   -0.0003054330445808923
0.0013511151519023446   -0.004726208067001867   -0.0003182345538841309
0.0006358580417995252   -0.0034179466906151747   -0.00029318243152814954
0.0013306280922446739   -0.0034166637059433475   -0.0003136397878625527
0.0013511151519023446   -0.004726208067001867   -0.0003182345538841309
0.0013371796557651622   -0.003428330839476618   -0.0003054330445808923
0.0006358580417995252   -0.0034179466906151747   -0.00029318243152814954
0.0013511151519023446   -0.004726208067001867   -0.0003182345538841309
0.0006115475624285771   -0.004738325061951173   -0.00030647404666596075
0.000609367789814917   -0.004742250272843817   -0.0003092466909413805
0.0006358580417995252   -0.0034179466906151747   -0.00029318243152814954
0.0013511151519023446   -0.004726208067001867   -0.0003182345538841309
0.000609367789814917   -0.004742250272843817   -0.0003092466909413805
0.0013371796557651622   -0.003428330839476618   -0.0003054330445808923
-0.0021313087490208273   -0.004763224332305777   -0.00036984947846814
-0.0021888384390999697   -0.006083678627627463   -0.0003653915280131759
-0.0014057159958374425   -0.004756277957115789   -0.00034422147771235353
-0.0021383677135611277   -0.004779105939755798   -0.00036083901528905356
-0.0021888384390999697   -0.006083678627627463   -0.0003653915280131759
-0.0014693349030220194   -0.006087394767693901   -0.0003468813913513867
-0.0014057159958374425   -0.004756277957115789   -0.00034422147771235353
-0.0014645163421347163   -0.006096907468570427   -0.0003440218231646927
-0.0021383677135611277   -0.004779105939755798   -0.00036083901528905356
-0.0014037745596639393   -0.00476803728271116   -0.00033647820625979036
-0.0014645163421347163   -0.006096907468570427   -0.0003440218231646927
-0.0014057159958374425   -0.004756277957115789   -0.00034422147771235353
-0.0021383677135611277   -0.004779105939755798   -0.00036083901528905356
-0.0014645163421347163   -0.006096907468570427   -0.0003440218231646927
-0.00218491138134294   -0.0060964633799893584   -0.0003653070540800415
-0.0021888384390999697   -0.006083678627627463   -0.0003653915280131759
-0.0021383677135611277   -0.004779105939755798   -0.00036083901528905356
-0.0014645163421347163   -0.006096907468570427   -0.0003440218231646927
-0.0021888384390999697   -0.006083678627627463   -0.0003653915280131759
-0.0014057159958374425   -0.004756277957115789   -0.00034422147771235353
-0.0021383677135611277   -0.004779105939755798   -0.00036083901528905356
-0.00218491138134294   -0.0060964633799893584   -0.0003653070540800415
-0.0014037745596639393   -0.00476803728271116   -0.00033647820625979036
-0.0021394810534817637   -0.004792253805317154   -0.00035368157690004315
-0.00218491138134294   -0.0060964633799893584   -0.0003653070540800415
-0.0014645163421347163   -0.006096907468570427   -0.0003440218231646927
-0.0014037745596639393   -0.00476803728271116   -0.00033647820625979036
-0.0014575513050147993   -0.006107648235538243   -0.00034245106176452185
-0.0021394810534817637   -0.004792253805317154   -0.00035368157690004315
-0.0014005030655547279   -0.004779045395868916   -0.00033002572646679
-0.0014575513050147993   -0.006107648235538243   -0.00034245106176452185
-0.0014037745596639393   -0.00476803728271116   -0.00033647820625979036
-0.0021394810534817637   -0.004792253805317154   -0.00035368157690004315
-0.0014575513050147993   -0.006107648235538243   -0.00034245106176452185
-0.0021771197881585865   -0.006109120772761945   -0.0003671436460597618
-0.00218491138134294   -0.0060964633799893584   -0.0003653070540800415
-0.0021394810534817637   -0.004792253805317154   -0.00035368157690004315
-0.0014575513050147993   -0.006107648235538243   -0.00034245106176452185
-0.00218491138134294   -0.0060964633799893584   -0.0003653070540800415
-0.0014037745596639393   -0.00476803728271116   -0.00033647820625979036
-0.0021394810534817637   -0.004792253805317154   -0.00035368157690004315
-0.0021771197881585865   -0.006109120772761945   -0.0003671436460597618
-0.0014005030655547279   -0.004779045395868916   -0.00033002572646679
-0.0021385853413596386   -0.0048067823468614925   -0.00034855167702790987
-0.0021771197881585865   -0.006109120772761945   -0.0003671436460597618
-0.0014575513050147993   -0.006107648235538243   -0.00034245106176452185
-0.0014005030655547279   -0.004779045395868916   -0.00033002572646679
-0.0014488591518253481   -0.0061203707788297125   -0.00034213360593011115
-0.0021385853413596386   -0.0048067823468614925   -0.00034855167702790987
-0.0013945426630850224   -0.004790156454540579   -0.00032475990513278723
-0.0014488591518253481   -0.0061203707788297125   -0.00034213360593011115
-0.0014005030655547279   -0.004779045395868916   -0.00033002572646679
-0.0021385853413596386   -0.0048067823468614925   -0.00034855167702790987
-0.0014488591518253481   -0.0061203707788297125   -0.00034213360593011115
-0.0021652291015607098   -0.0061256431269398805   -0.00037101688542581573
-0.0021771197881585865   -0.006109120772761945   -0.0003671436460597618
-0.0021385853413596386   -0.0048067823468614925   -0.00034855167702790987
-0.0014488591518253481   -0.0061203707788297125   -0.00034213360593011115
-0.0021771197881585865   -0.006109120772761945   -0.0003671436460597618
-0.0014005030655547279   -0.004779045395868916   -0.00033002572646679
-0.0014057159958374425   -0.004756277957115789   -0.00034422147771235353
-0.0014693349030220194   -0.006087394767693901   -0.0003468813913513867
-0.0007320165109878767   -0.0047519825525564755   -0.00032682198378824947
-0.0014037745596639393   -0.00476803728271116   -0.00033647820625979036
-0.0014693349030220194   -0.006087394767693901   -0.0003468813913513867
-0.0008094358850486025   -0.0060879853191029305   -0.000334633915575231
-0.0007320165109878767   -0.0047519825525564755   -0.00032682198378824947
-0.0008033595332319646   -0.006093326769414033   -0.00032925307980253903
-0.0014037745596639393   -0.00476803728271116   -0.00033647820625979036
-0.0007281461912278733   -0.004758983914915614   -0.00031984810006884597
-0.0008033595332319646   -0.006093326769414033   -0.00032925307980253903
-0.0007320165109878767   -0.0047519825525564755   -0.00032682198378824947
-0.0014037745596639393   -0.00476803728271116   -0.00033647820625979036
-0.0008033595332319646   -0.006093326769414033   -0.00032925307980253903
-0.0014645163421347163   -0.006096907468570427   -0.0003440218231646927
-0.0014693349030220194   -0.006087394767693901   -0.0003468813913513867
-0.0014037745596639393   -0.00476803728271116   -0.00033647820625979036
-0.0008033595332319646   -0.006093326769414033   -0.00032925307980253903
-0.0014693349030220194   -0.006087394767693901   -0.0003468813913513867
-0.0007320165109878767   -0.0047519825525564755   -0.00032682198378824947
-0.0014037745596639393   -0.00476803728271116   -0.00033647820625979036
-0.0014645163421347163   -0.006096907468570427   -0.0003440218231646927
-0.0007281461912278733   -0.004758983914915614   -0.00031984810006884597
-0.0014005030655547279   -0.004779045395868916   -0.00033002572646679
-0.0014645163421347163   -0.006096907468570427   -0.0003440218231646927
-0.0008033595332319646   -0.006093326769414033   -0.00032925307980253903
-0.0007281461912278733   -0.004758983914915614   -0.00031984810006884597
-0.0007966366957779879   -0.006100008243486605   -0.0003251603585013366
-0.0014005030655547279   -0.004779045395868916   -0.00033002572646679
-0.0007237281947898424   -0.004765520024244091   -0.0003141587562078347
-0.0007966366957779879   -0.006100008243486605   -0.0003251603585013366
-0.0007281461912278733   -0.004758983914915614   -0.00031984810006884597
-0.0014005030655547279   -0.004779045395868916   -0.00033002572646679
-0.0007966366957779879   -0.006100008243486605   -0.0003251603585013366
-0.0014575513050147993   -0.006107648235538243   -0.00034245106176452185
-0.0014645163421347163   -0.006096907468570427   -0.0003440218231646927
-0.0014005030655547279   -0.004779045395868916   -0.00033002572646679
-0.0007966366957779879   -0.006100008243486605   -0.0003251603585013366
-0.0014645163421347163   -0.006096907468570427   -0.0003440218231646927
-0.0007281461912278733   -0.004758983914915614   -0.00031984810006884597
-0.0014005030655547279   -0.004779045395868916   -0.00033002572646679
-0.0014575513050147993   -0.006107648235538243   -0.00034245106176452185
-0.0007237281947898424   -0.004765520024244091   -0.0003141587562078347
-0.0013945426630850224   -0.004790156454540579   -0.00032475990513278723
-0.0014575513050147993   -0.006107648235538243   -0.00034245106176452185
-0.0007966366957779879   -0.006100008243486605   -0.0003251603585013366
-0.0007237281947898424   -0.004765520024244091   -0.0003141587562078347
-0.0007894503167181342   -0.006108051000351793   -0.0003224051853842688
-0.0013945426630850224   -0.004790156454540579   -0.00032475990513278723
-0.0007186711070261128   -0.004771615085209015   -0.0003097918320606745
-0.0007894503167181342   -0.006108051000351793   -0.0003224051853842688
-0.0007237281947898424   -0.004765520024244091   -0.0003141587562078347
-0.0013945426630850224   -0.004790156454540579   -0.00032475990513278723
-0.0007894503167181342   -0.006108051000351793   -0.0003224051853842688
-0.0014488591518253481   -0.0061203707788297125   -0.00034213360593011115
-0.0014575513050147993   -0.006107648235538243   -0.00034245106176452185
-0.0013945426630850224   -0.004790156454540579   -0.00032475990513278723
-0.0007894503167181342   -0.006108051000351793   -0.0003224051853842688
-0.0014575513050147993   -0.006107648235538243   -0.00034245106176452185
-0.0007237281947898424   -0.004765520024244091   -0.0003141587562078347
-0.0007320165109878767   -0.0047519825525564755   -0.00032682198378824947
-0.0008094358850486025   -0.0060879853191029305   -0.000334633915575231
-7.662615502495736e-05   -0.004749316974332903   -0.0003181901700461079
-0.0007281461912278733   -0.004758983914915614   -0.00031984810006884597
-0.0008094358850486025   -0.0060879853191029305   -0.000334633915575231
-0.000168016435610825   -0.006084228294241311   -0.0003300549664197596
-7.662615502495736e-05   -0.004749316974332903   -0.0003181901700461079
-0.00016096298933820837   -0.006085202521707347   -0.0003222810601708188
-0.0007281461912278733   -0.004758983914915614   -0.00031984810006884597
-7.17126947644885e-05   -0.0047514185604878075   -0.00031207183955836085
-0.00016096298933820837   -0.006085202521707347   -0.0003222810601708188
-7.662615502495736e-05   -0.004749316974332903   -0.0003181901700461079
-0.0007281461912278733   -0.004758983914915614   -0.00031984810006884597
-0.00016096298933820837   -0.006085202521707347   -0.0003222810601708188
-0.0008033595332319646   -0.006093326769414033   -0.00032925307980253903
-0.0008094358850486025   -0.0060879853191029305   -0.000334633915575231
-0.0007281461912278733   -0.004758983914915614   -0.00031984810006884597
-0.00016096298933820837   -0.006085202521707347   -0.0003222810601708188
-0.0008094358850486025   -0.0060879853191029305   -0.000334633915575231
-7.662615502495736e-05   -0.004749316974332903   -0.0003181901700461079
-0.0007281461912278733   -0.004758983914915614   -0.00031984810006884597
-0.0008033595332319646   -0.006093326769414033   -0.00032925307980253903
-7.17126947644885e-05   -0.0047514185604878075   -0.00031207183955836085
-0.0007237281947898424   -0.004765520024244091   -0.0003141587562078347
-0.0008033595332319646   -0.006093326769414033   -0.00032925307980253903
-0.00016096298933820837   -0.006085202521707347   -0.0003222810601708188
-7.17126947644885e-05   -0.0047514185604878075   -0.00031207183955836085
-0.0001542417082087975   -0.006087429629289197   -0.00031579247240489235
-0.0007237281947898424   -0.004765520024244091   -0.0003141587562078347
-6.728449322017331e-05   -0.004753014427323998   -0.0003072329700054051
-0.0001542417082087975   -0.006087429629289197   -0.00031579247240489235
-7.17126947644885e-05   -0.0047514185604878075   -0.00031207183955836085
-0.0007237281947898424   -0.004765520024244091   -0.0003141587562078347
-0.0001542417082087975   -0.006087429629289197   -0.00031579247240489235
-0.0007966366957779879   -0.006100008243486605   -0.0003251603585013366
-0.0008033595332319646   -0.006093326769414033   -0.00032925307980253903
-0.0007237281947898424   -0.004765520024244091   -0.0003141587562078347
-0.0001542417082087975   -0.006087429629289197   -0.00031579247240489235
-0.0008033595332319646   -0.006093326769414033   -0.00032925307980253903
-7.17126947644885e-05   -0.0047514185604878075   -0.00031207183955836085
-0.0007237281947898424   -0.004765520024244091   -0.0003141587562078347
-0.0007966366957779879   -0.006100008243486605   -0.0003251603585013366
-6.728449322017331e-05   -0.004753014427323998   -0.0003072329700054051
-0.0007186711070261128   -0.004771615085209015   -0.0003097918320606745
-0.0007966366957779879   -0.006100008243486605   -0.0003251603585013366
-0.0001542417082087975   -0.006087429629289197   -0.00031579247240489235
-6.728449322017331e-05   -0.004753014427323998   -0.0003072329700054051
-0.0001483675443078368   -0.006090952074791946   -0.00031063066186191266
-0.0007186711070261128   -0.004771615085209015   -0.0003097918320606745
-6.356197461820963e-05   -0.004754091838844044   -0.00030371639712069076
-0.0001483675443078368   -0.006090952074791946   -0.00031063066186191266
-6.728449322017331e-05   -0.004753014427323998   -0.0003072329700054051
-0.0007186711070261128   -0.004771615085209015   -0.0003097918320606745
-0.0001483675443078368   -0.006090952074791946   -0.00031063066186191266
-0.0007894503167181342   -0.006108051000351793   -0.0003224051853842688
-0.0007966366957779879   -0.006100008243486605   -0.0003251603585013366
-0.0007186711070261128   -0.004771615085209015   -0.0003097918320606745
-0.0001483675443078368   -0.006090952074791946   -0.00031063066186191266
-0.0007966366957779879   -0.006100008243486605   -0.0003251603585013366
-6.728449322017331e-05   -0.004753014427323998   -0.0003072329700054051
-7.662615502495736e-05   -0.004749316974332903   -0.0003181901700461079
-0.000168016435610825   -0.006084228294241311   -0.0003300549664197596
0.0005984665273769745   -0.004747811174051568   -0.00031846241788311476
-7.17126947644885e-05   -0.0047514185604878075   -0.00031207183955836085
-0.000168016435610825   -0.006084228294241311   -0.0003300549664197596
0.0004919279681365491   -0.006075997331260947   -0.0003334299174078512
0.0005984665273769745   -0.004747811174051568   -0.00031846241788311476
0.000500784660191692   -0.0060725600325135486   -0.0003232802799268341
-7.17126947644885e-05   -0.0047514185604878075   -0.00031207183955836085
0.0006046510366880907   -0.004745125000481695   -0.00031323551895215553
0.000500784660191692   -0.0060725600325135486   -0.0003232802799268341
0.0005984665273769745   -0.004747811174051568   -0.00031846241788311476
-7.17126947644885e-05   -0.0047514185604878075   -0.00031207183955836085
0.000500784660191692   -0.0060725600325135486   -0.0003232802799268341
-0.00016096298933820837   -0.006085202521707347   -0.0003222810601708188
-0.000168016435610825   -0.006084228294241311   -0.0003300549664197596
-7.17126947644885e-05   -0.0047514185604878075   -0.00031207183955836085
0.000500784660191692   -0.0060725600325135486   -0.0003232802799268341
-0.000168016435610825   -0.006084228294241311   -0.0003300549664197596
0.0005984665273769745   -0.004747811174051568   -0.00031846241788311476
-7.17126947644885e-05   -0.0047514185604878075   -0.00031207183955836085
-0.00016096298933820837   -0.006085202521707347   -0.0003222810601708188
0.0006046510366880907   -0.004745125000481695   -0.00031323551895215553
-6.728449322017331e-05   -0.004753014427323998   -0.0003072329700054051
-0.00016096298933820837   -0.006085202521707347   -0.0003222810601708188
0.000500784660191692   -0.0060725600325135486   -0.0003232802799268341
0.0006046510366880907   -0.004745125000481695   -0.00031323551895215553
0.0005091449365356774   -0.0060707532572205365   -0.00031440809698819863
-6.728449322017331e-05   -0.004753014427323998   -0.0003072329700054051
0.000609367789814917   -0.004742250272843817   -0.0003092466909413805
0.0005091449365356774   -0.0060707532572205365   -0.00031440809698819863
0.0006046510366880907   -0.004745125000481695   -0.00031323551895215553
-6.728449322017331e-05   -0.004753014427323998   -0.0003072329700054051
0.0005091449365356774   -0.0060707532572205365   -0.00031440809698819863
-0.0001542417082087975   -0.006087429629289197   -0.00031579247240489235
-0.00016096298933820837   -0.006085202521707347   -0.0003222810601708188
-6.728449322017331e-05   -0.004753014427323998   -0.0003072329700054051
0.0005091449365356774   -0.0060707532572205365   -0.00031440809698819863
-0.00016096298933820837   -0.006085202521707347   -0.0003222810601708188
0.0006046510366880907   -0.004745125000481695   -0.00031323551895215553
-6.728449322017331e-05   -0.004753014427323998   -0.0003072329700054051
-0.0001542417082087975   -0.006087429629289197   -0.00031579247240489235
0.000609367789814917   -0.004742250272843817   -0.0003092466909413805
-6.356197461820963e-05   -0.004754091838844044   -0.00030371639712069076
-0.0001542417082087975   -0.006087429629289197   -0.00031579247240489235
0.0005091449365356774   -0.0060707532572205365   -0.00031440809698819863
0.000609367789814917   -0.004742250272843817   -0.0003092466909413805
0.000514138822553432   -0.006069811290009607   -0.0003067298862408985
-6.356197461820963e-05   -0.004754091838844044   -0.00030371639712069076
0.0006115475624285771   -0.004738325061951173   -0.00030647404666596075
0.000514138822553432   -0.006069811290009607   -0.0003067298862408985
0.000609367789814917   -0.004742250272843817   -0.0003092466909413805
-6.356197461820963e-05   -0.004754091838844044   -0.00030371639712069076
0.000514138822553432   -0.006069811290009607   -0.0003067298862408985
-0.0001483675443078368   -0.006090952074791946   -0.00031063066186191266
-0.0001542417082087975   -0.006087429629289197   -0.00031579247240489235
-6.356197461820963e-05   -0.004754091838844044   -0.00030371639712069076
0.000514138822553432   -0.006069811290009607   -0.0003067298862408985
-0.0001542417082087975   -0.006087429629289197   -0.00031579247240489235
0.000609367789814917   -0.004742250272843817   -0.0003092466909413805
0.0005984665273769745   -0.004747811174051568   -0.00031846241788311476
0.0004919279681365491   -0.006075997331260947   -0.0003334299174078512
0.0013288334841643056   -0.004745313704638578   -0.0003269842994365529
0.0006046510366880907   -0.004745125000481695   -0.00031323551895215553
0.0004919279681365491   -0.006075997331260947   -0.0003334299174078512
0.0011962564004160733   -0.006061944860972355   -0.00034534407120566824
0.0013288334841643056   -0.004745313704638578   -0.0003269842994365529
0.0012185292185831144   -0.006054458516224127   -0.0003317724355494258
0.0006046510366880907   -0.004745125000481695   -0.00031323551895215553
0.0013403931106055528   -0.004738791566411003   -0.000322158885805709
0.0012185292185831144   -0.006054458516224127   -0.0003317724355494258
0.0013288334841643056   -0.004745313704638578   -0.0003269842994365529
0.0006046510366880907   -0.004745125000481695   -0.00031323551895215553
0.0012185292185831144   -0.006054458516224127   -0.0003317724355494258
0.000500784660191692   -0.0060725600325135486   -0.0003232802799268341
0.0004919279681365491   -0.006075997331260947   -0.0003334299174078512
0.0006046510366880907   -0.004745125000481695   -0.00031323551895215553
0.0012185292185831144   -0.006054458516224127   -0.0003317724355494258
0.0004919279681365491   -0.006075997331260947   -0.0003334299174078512
0.0013288334841643056   -0.004745313704638578   -0.0003269842994365529
0.0006046510366880907   -0.004745125000481695   -0.00031323551895215553
0.000500784660191692   -0.0060725600325135486   -0.0003232802799268341
0.0013403931106055528   -0.004738791566411003   -0.000322158885805709
0.000609367789814917   -0.004742250272843817   -0.0003092466909413805
0.000500784660191692   -0.0060725600325135486   -0.0003232802799268341
0.0012185292185831144   -0.006054458516224127   -0.0003317724355494258
0.0013403931106055528   -0.004738791566411003   -0.000322158885805709
0.0012342719678478781   -0.0060508023217514025   -0.0003200382070512276
0.000609367789814917   -0.004742250272843817   -0.0003092466909413805
0.00134742231017881   -0.0047337863126191305   -0.0003192312794398514
0.0012342719678478781   -0.0060508023217514025   -0.0003200382070512276
0.0013403931106055528   -0.004738791566411003   -0.000322158885805709
0.000609367789814917   -0.004742250272843817   -0.0003092466909413805
0.0012342719678478781   -0.0060508023217514025   -0.0003200382070512276
0.0005091449365356774   -0.0060707532572205365   -0.00031440809698819863
0.000500784660191692   -0.0060725600325135486   -0.0003232802799268341
0.000609367789814917   -0.004742250272843817   -0.0003092466909413805
0.0012342719678478781   -0.0060508023217514025   -0.0003200382070512276
0.000500784660191692   -0.0060725600325135486   -0.0003232802799268341
0.0013403931106055528   -0.004738791566411003   -0.000322158885805709
0.000609367789814917   -0.004742250272843817   -0.0003092466909413805
0.0005091449365356774   -0.0060707532572205365   -0.00031440809698819863
0.00134742231017881   -0.0047337863126191305   -0.0003192312794398514
0.0006115475624285771   -0.004738325061951173   -0.00030647404666596075
0.0005091449365356774   -0.0060707532572205365   -0.00031440809698819863
0.0012342719678478781   -0.0060508023217514025   -0.0003200382070512276
0.00134742231017881   -0.0047337863126191305   -0.0003192312794398514
0.0012488280796066427   -0.006047132235401141   -0.0003102221477806495
0.0006115475624285771   -0.004738325061951173   -0.00030647404666596075
0.0013511151519023446   -0.004726208067001867   -0.0003182345538841309
0.0012488280796066427   -0.006047132235401141   -0.0003102221477806495
0.00134742231017881   -0.0047337863126191305   -0.0003192312794398514
0.0006115475624285771   -0.004738325061951173   -0.00030647404666596075
0.0012488280796066427   -0.006047132235401141   -0.0003102221477806495
0.000514138822553432   -0.006069811290009607   -0.0003067298862408985
0.0005091449365356774   -0.0060707532572205365   -0.00031440809698819863
0.0006115475624285771   -0.004738325061951173   -0.00030647404666596075
0.0012488280796066427   -0.006047132235401141   -0.0003102221477806495
0.0005091449365356774   -0.0060707532572205365   -0.00031440809698819863
0.00134742231017881   -0.0047337863126191305   -0.0003192312794398514
-0.0021888384390999697   -0.006083678627627463   -0.0003653915280131759
-0.002125110954891714   -0.007334171010898358   -0.0003508357887546075
-0.0014693349030220194   -0.006087394767693901   -0.0003468813913513867
-0.00218491138134294   -0.0060964633799893584   -0.0003653070540800415
-0.002125110954891714   -0.007334171010898358   -0.0003508357887546075
-0.001461816175555771   -0.0073484451651441   -0.00034002358391591595
-0.0014693349030220194   -0.006087394767693901   -0.0003468813913513867
-0.0014531268513811185   -0.007355428635383354   -0.0003418131620820718
-0.00218491138134294   -0.0060964633799893584   -0.0003653070540800415
-0.0014645163421347163   -0.006096907468570427   -0.0003440218231646927
-0.0014531268513811185   -0.007355428635383354   -0.0003418131620820718
-0.0014693349030220194   -0.006087394767693901   -0.0003468813913513867
-0.00218491138134294   -0.0060964633799893584   -0.0003653070540800415
-0.0014531268513811185   -0.007355428635383354   -0.0003418131620820718
-0.0021093585866460937   -0.007343619747418002   -0.0003594693535847694
-0.002125110954891714   -0.007334171010898358   -0.0003508357887546075
-0.00218491138134294   -0.0060964633799893584   -0.0003653070540800415
-0.0014531268513811185   -0.007355428635383354   -0.0003418131620820718
-0.002125110954891714   -0.007334171010898358   -0.0003508357887546075
-0.0014693349030220194   -0.006087394767693901   -0.0003468813913513867
-0.00218491138134294   -0.0060964633799893584   -0.0003653070540800415
-0.0021093585866460937   -0.007343619747418002   -0.0003594693535847694
-0.0014645163421347163   -0.006096907468570427   -0.0003440218231646927
-0.0021771197881585865   -0.006109120772761945   -0.0003671436460597618
-0.0021093585866460937   -0.007343619747418002   -0.0003594693535847694
-0.0014531268513811185   -0.007355428635383354   -0.0003418131620820718
-0.0014645163421347163   -0.006096907468570427   -0.0003440218231646927
-0.0014415419871012176   -0.0073656234964296005   -0.0003448856908430349
-0.0021771197881585865   -0.006109120772761945   -0.0003671436460597618
-0.0014575513050147993   -0.006107648235538243   -0.00034245106176452185
-0.0014415419871012176   -0.0073656234964296005   -0.0003448856908430349
-0.0014645163421347163   -0.006096907468570427   -0.0003440218231646927
-0.0021771197881585865   -0.006109120772761945   -0.0003671436460597618
-0.0014415419871012176   -0.0073656234964296005   -0.0003448856908430349
-0.0020917610385602376   -0.0073555344154596575   -0.0003701138971570518
-0.0021093585866460937   -0.007343619747418002   -0.0003594693535847694
-0.0021771197881585865   -0.006109120772761945   -0.0003671436460597618
-0.0014415419871012176   -0.0073656234964296005   -0.0003448856908430349
-0.0021093585866460937   -0.007343619747418002   -0.0003594693535847694
-0.0014645163421347163   -0.006096907468570427   -0.0003440218231646927
-0.0021771197881585865   -0.006109120772761945   -0.0003671436460597618
-0.0020917610385602376   -0.0073555344154596575   -0.0003701138971570518
-0.0014575513050147993   -0.006107648235538243   -0.00034245106176452185
-0.0021652291015607098   -0.0061256431269398805   -0.00037101688542581573
-0.0020917610385602376   -0.0073555344154596575   -0.0003701138971570518
-0.0014415419871012176   -0.0073656234964296005   -0.0003448856908430349
-0.0014575513050147993   -0.006107648235538243   -0.00034245106176452185
-0.001429192830569889   -0.007379663915189053   -0.0003492663929560679
-0.0021652291015607098   -0.0061256431269398805   -0.00037101688542581573
-0.0014488591518253481   -0.0061203707788297125   -0.00034213360593011115
-0.001429192830569889   -0.007379663915189053   -0.0003492663929560679
-0.0014575513050147993   -0.006107648235538243   -0.00034245106176452185
-0.0021652291015607098   -0.0061256431269398805   -0.00037101688542581573
-0.001429192830569889   -0.007379663915189053   -0.0003492663929560679
-0.002068074552405042   -0.007373833885313402   -0.0003828259618766859
-0.0020917610385602376   -0.0073555344154596575   -0.0003701138971570518
-0.0021652291015607098   -0.0061256431269398805   -0.00037101688542581573
-0.001429192830569889   -0.007379663915189053   -0.0003492663929560679
-0.0020917610385602376   -0.0073555344154596575   -0.0003701138971570518
-0.0014575513050147993   -0.006107648235538243   -0.00034245106176452185
-0.0014693349030220194   -0.006087394767693901   -0.0003468813913513867
-0.001461816175555771   -0.0073484451651441   -0.00034002358391591595
-0.0008094358850486025   -0.0060879853191029305   -0.000334633915575231
-0.0014645163421347163   -0.006096907468570427   -0.0003440218231646927
-0.001461816175555771   -0.0073484451651441   -0.00034002358391591595
-0.0008651583346923132   -0.007353777716871508   -0.0003331812781005469
-0.0008094358850486025   -0.0060879853191029305   -0.000334633915575231
-0.0008557963379094094   -0.007357298039826154   -0.00032924824497022393
-0.0014645163421347163   -0.006096907468570427   -0.0003440218231646927
-0.0008033595332319646   -0.006093326769414033   -0.00032925307980253903
-0.0008557963379094094   -0.007357298039826154   -0.00032924824497022393
-0.0008094358850486025   -0.0060879853191029305   -0.000334633915575231
-0.0014645163421347163   -0.006096907468570427   -0.0003440218231646927
-0.0008557963379094094   -0.007357298039826154   -0.00032924824497022393
-0.0014531268513811185   -0.007355428635383354   -0.0003418131620820718
-0.001461816175555771   -0.0073484451651441   -0.00034002358391591595
-0.0014645163421347163   -0.006096907468570427   -0.0003440218231646927
-0.0008557963379094094   -0.007357298039826154   -0.00032924824497022393
-0.001461816175555771   -0.0073484451651441   -0.00034002358391591595
-0.0008094358850486025   -0.0060879853191029305   -0.000334633915575231
-0.0014645163421347163   -0.006096907468570427   -0.0003440218231646927
-0.0014531268513811185   -0.007355428635383354   -0.0003418131620820718
-0.0008033595332319646   -0.006093326769414033   -0.00032925307980253903
-0.0014575513050147993   -0.006107648235538243   -0.00034245106176452185
-0.0014531268513811185   -0.007355428635383354   -0.0003418131620820718
-0.0008557963379094094   -0.007357298039826154   -0.00032924824497022393
-0.0008033595332319646   -0.006093326769414033   -0.00032925307980253903
-0.0008457645045136163   -0.007363885130595305   -0.00032658015007506607
-0.0014575513050147993   -0.006107648235538243   -0.00034245106176452185
-0.0007966366957779879   -0.006100008243486605   -0.0003251603585013366
-0.0008457645045136163   -0.007363885130595305   -0.00032658015007506607
-0.0008033595332319646   -0.006093326769414033   -0.00032925307980253903
-0.0014575513050147993   -0.006107648235538243   -0.00034245106176452185
-0.0008457645045136163   -0.007363885130595305   -0.00032658015007506607
-0.0014415419871012176   -0.0073656234964296005   -0.0003448856908430349
-0.0014531268513811185   -0.007355428635383354   -0.0003418131620820718
-0.0014575513050147993   -0.006107648235538243   -0.00034245106176452185
-0.0008457645045136163   -0.007363885130595305   -0.00032658015007506607
-0.0014531268513811185   -0.007355428635383354   -0.0003418131620820718
-0.0008033595332319646   -0.006093326769414033   -0.00032925307980253903
-0.0014575513050147993   -0.006107648235538243   -0.00034245106176452185
-0.0014415419871012176   -0.0073656234964296005   -0.0003448856908430349
-0.0007966366957779879   -0.006100008243486605   -0.0003251603585013366
-0.0014488591518253481   -0.0061203707788297125   -0.00034213360593011115
-0.0014415419871012176   -0.0073656234964296005   -0.0003448856908430349
-0.0008457645045136163   -0.007363885130595305   -0.00032658015007506607
-0.0007966366957779879   -0.006100008243486605   -0.0003251603585013366
-0.0008354550299946149   -0.007373611830950647   -0.0003252468719473082
-0.0014488591518253481   -0.0061203707788297125   -0.00034213360593011115
-0.0007894503167181342   -0.006108051000351793   -0.0003224051853842688
-0.0008354550299946149   -0.007373611830950647   -0.0003252468719473082
-0.0007966366957779879   -0.006100008243486605   -0.0003251603585013366
-0.0014488591518253481   -0.0061203707788297125   -0.00034213360593011115
-0.0008354550299946149   -0.007373611830950647   -0.0003252468719473082
-0.001429192830569889   -0.007379663915189053   -0.0003492663929560679
-0.0014415419871012176   -0.0073656234964296005   -0.0003448856908430349
-0.0014488591518253481   -0.0061203707788297125   -0.00034213360593011115
-0.0008354550299946149   -0.007373611830950647   -0.0003252468719473082
-0.0014415419871012176   -0.0073656234964296005   -0.0003448856908430349
-0.0007966366957779879   -0.006100008243486605   -0.0003251603585013366
-0.0008094358850486025   -0.0060879853191029305   -0.000334633915575231
-0.0008651583346923132   -0.007353777716871508   -0.0003331812781005469
-0.000168016435610825   -0.006084228294241311   -0.0003300549664197596
-0.0008033595332319646   -0.006093326769414033   -0.00032925307980253903
-0.0008651583346923132   -0.007353777716871508   -0.0003331812781005469
-0.0002862287129624286   -0.007349060939169953   -0.0003325957912278693
-0.000168016435610825   -0.006084228294241311   -0.0003300549664197596
-0.0002758908976521161   -0.007348863589462274   -0.00032313639800357494
-0.0008033595332319646   -0.006093326769414033   -0.00032925307980253903
-0.00016096298933820837   -0.006085202521707347   -0.0003222810601708188
-0.0002758908976521161   -0.007348863589462274   -0.00032313639800357494
-0.000168016435610825   -0.006084228294241311   -0.0003300549664197596
-0.0008033595332319646   -0.006093326769414033   -0.00032925307980253903
-0.0002758908976521161   -0.007348863589462274   -0.00032313639800357494
-0.0008557963379094094   -0.007357298039826154   -0.00032924824497022393
-0.0008651583346923132   -0.007353777716871508   -0.0003331812781005469
-0.0008033595332319646   -0.006093326769414033   -0.00032925307980253903
-0.0002758908976521161   -0.007348863589462274   -0.00032313639800357494
-0.0008651583346923132   -0.007353777716871508   -0.0003331812781005469
-0.000168016435610825   -0.006084228294241311   -0.0003300549664197596
-0.0008033595332319646   -0.006093326769414033   -0.00032925307980253903
-0.0008557963379094094   -0.007357298039826154   -0.00032924824497022393
-0.00016096298933820837   -0.006085202521707347   -0.0003222810601708188
-0.0007966366957779879   -0.006100008243486605   -0.0003251603585013366
-0.0008557963379094094   -0.007357298039826154   -0.00032924824497022393
-0.0002758908976521161   -0.007348863589462274   -0.00032313639800357494
-0.00016096298933820837   -0.006085202521707347   -0.0003222810601708188
-0.0002657974790516581   -0.0073515391139826105   -0.0003149504851885241
-0.0007966366957779879   -0.006100008243486605   -0.0003251603585013366
-0.0001542417082087975   -0.006087429629289197   -0.00031579247240489235
-0.0002657974790516581   -0.0073515391139826105   -0.0003149504851885241
-0.00016096298933820837   -0.006085202521707347   -0.0003222810601708188
-0.0007966366957779879   -0.006100008243486605   -0.0003251603585013366
-0.0002657974790516581   -0.0073515391139826105   -0.0003149504851885241
-0.0008457645045136163   -0.007363885130595305   -0.00032658015007506607
-0.0008557963379094094   -0.007357298039826154   -0.00032924824497022393
-0.0007966366957779879   -0.006100008243486605   -0.0003251603585013366
-0.0002657974790516581   -0.0073515391139826105   -0.0003149504851885241
-0.0008557963379094094   -0.007357298039826154   -0.00032924824497022393
-0.00016096298933820837   -0.006085202521707347   -0.0003222810601708188
-0.0007966366957779879   -0.006100008243486605   -0.0003251603585013366
-0.0008457645045136163   -0.007363885130595305   -0.00032658015007506607
-0.0001542417082087975   -0.006087429629289197   -0.00031579247240489235
-0.0007894503167181342   -0.006108051000351793   -0.0003224051853842688
-0.0008457645045136163   -0.007363885130595305   -0.00032658015007506607
-0.0002657974790516581   -0.0073515391139826105   -0.0003149504851885241
-0.0001542417082087975   -0.006087429629289197   -0.00031579247240489235
-0.00025671444999277813   -0.007357283899938666   -0.000308079869382395
-0.0007894503167181342   -0.006108051000351793   -0.0003224051853842688
-0.0001483675443078368   -0.006090952074791946   -0.00031063066186191266
-0.00025671444999277813   -0.007357283899938666   -0.000308079869382395
-0.0001542417082087975   -0.006087429629289197   -0.00031579247240489235
-0.0007894503167181342   -0.006108051000351793   -0.0003224051853842688
-0.00025671444999277813   -0.007357283899938666   -0.000308079869382395
-0.0008354550299946149   -0.007373611830950647   -0.0003252468719473082
-0.0008457645045136163   -0.007363885130595305   -0.00032658015007506607
-0.0007894503167181342   -0.006108051000351793   -0.0003224051853842688
-0.00025671444999277813   -0.007357283899938666   -0.000308079869382395
-0.0008457645045136163   -0.007363885130595305   -0.00032658015007506607
-0.0001542417082087975   -0.006087429629289197   -0.00031579247240489235
-0.000168016435610825   -0.006084228294241311   -0.0003300549664197596
-0.0002862287129624286   -0.007349060939169953   -0.0003325957912278693
0.0004919279681365491   -0.006075997331260947   -0.0003334299174078512
-0.00016096298933820837   -0.006085202521707347   -0.0003222810601708188
-0.0002862287129624286   -0.007349060939169953   -0.0003325957912278693
0.00031118692865956003   -0.007334454327786285   -0.00033874794838725894
0.0004919279681365491   -0.006075997331260947   -0.0003334299174078512
0.0003238578364075058   -0.007330284444131993   -0.000323786082877511
-0.00016096298933820837   -0.006085202521707347   -0.0003222810601708188
0.000500784660191692   -0.0060725600325135486   -0.0003232802799268341
0.0003238578364075058   -0.007330284444131993   -0.000323786082877511
0.0004919279681365491   -0.006075997331260947   -0.0003334299174078512
-0.00016096298933820837   -0.006085202521707347   -0.0003222810601708188
0.0003238578364075058   -0.007330284444131993   -0.000323786082877511
-0.0002758908976521161   -0.007348863589462274   -0.00032313639800357494
-0.0002862287129624286   -0.007349060939169953   -0.0003325957912278693
-0.00016096298933820837   -0.006085202521707347   -0.0003222810601708188
0.0003238578364075058   -0.007330284444131993   -0.000323786082877511
-0.0002862287129624286   -0.007349060939169953   -0.0003325957912278693
0.0004919279681365491   -0.006075997331260947   -0.0003334299174078512
-0.00016096298933820837   -0.006085202521707347   -0.0003222810601708188
-0.0002758908976521161   -0.007348863589462274   -0.00032313639800357494
0.000500784660191692   -0.0060725600325135486   -0.0003232802799268341
-0.0001542417082087975   -0.006087429629289197   -0.00031579247240489235
-0.0002758908976521161   -0.007348863589462274   -0.00032313639800357494
0.0003238578364075058   -0.007330284444131993   -0.000323786082877511
0.000500784660191692   -0.0060725600325135486   -0.0003232802799268341
0.00033695717349676267   -0.0073294105155335245   -0.00031017178235746064
-0.0001542417082087975   -0.006087429629289197   -0.00031579247240489235
0.0005091449365356774   -0.0060707532572205365   -0.00031440809698819863
0.00033695717349676267   -0.0073294105155335245   -0.00031017178235746064
0.000500784660191692   -0.0060725600325135486   -0.0003232802799268341
-0.0001542417082087975   -0.006087429629289197   -0.00031579247240489235
0.00033695717349676267   -0.0073294105155335245   -0.00031017178235746064
-0.0002657974790516581   -0.0073515391139826105   -0.0003149504851885241
-0.0002758908976521161   -0.007348863589462274   -0.00032313639800357494
-0.0001542417082087975   -0.006087429629289197   -0.00031579247240489235
0.00033695717349676267   -0.0073294105155335245   -0.00031017178235746064
-0.0002758908976521161   -0.007348863589462274   -0.00032313639800357494
0.000500784660191692   -0.0060725600325135486   -0.0003232802799268341
-0.0001542417082087975   -0.006087429629289197   -0.00031579247240489235
-0.0002657974790516581   -0.0073515391139826105   -0.0003149504851885241
0.0005091449365356774   -0.0060707532572205365   -0.00031440809698819863
-0.0001483675443078368   -0.006090952074791946   -0.00031063066186191266
-0.0002657974790516581   -0.0073515391139826105   -0.0003149504851885241
0.00033695717349676267   -0.0073294105155335245   -0.00031017178235746064
0.0005091449365356774   -0.0060707532572205365   -0.00031440809698819863
0.0003458549591884816   -0.007331246814785186   -0.00029772498627780923
-0.0001483675443078368   -0.006090952074791946   -0.00031063066186191266
0.000514138822553432   -0.006069811290009607   -0.0003067298862408985
0.0003458549591884816   -0.007331246814785186   -0.00029772498627780923
0.0005091449365356774   -0.0060707532572205365   -0.00031440809698819863
-0.0001483675443078368   -0.006090952074791946   -0.00031063066186191266
0.0003458549591884816   -0.007331246814785186   -0.00029772498627780923
-0.00025671444999277813   -0.007357283899938666   -0.000308079869382395
-0.0002657974790516581   -0.0073515391139826105   -0.0003149504851885241
-0.0001483675443078368   -0.006090952074791946   -0.00031063066186191266
0.0003458549591884816   -0.007331246814785186   -0.00029772498627780923
-0.0002657974790516581   -0.0073515391139826105   -0.0003149504851885241
0.0005091449365356774   -0.0060707532572205365   -0.00031440809698819863
0.0004919279681365491   -0.006075997331260947   -0.0003334299174078512
0.00031118692865956003   -0.007334454327786285   -0.00033874794838725894
0.0011962564004160733   -0.006061944860972355   -0.00034534407120566824
0.000500784660191692   -0.0060725600325135486   -0.0003232802799268341
0.00031118692865956003   -0.007334454327786285   -0.00033874794838725894
0.0009433981307186201   -0.007309252452583684   -0.0003536298268412341
0.0011962564004160733   -0.006061944860972355   -0.00034534407120566824
0.0009772287370866624   -0.00730090703327318   -0.00033169731509015123
0.000500784660191692   -0.0060725600325135486   -0.0003232802799268341
0.0012185292185831144   -0.006054458516224127   -0.0003317724355494258
0.0009772287370866624   -0.00730090703327318   -0.00033169731509015123
0.0011962564004160733   -0.006061944860972355   -0.00034534407120566824
0.000500784660191692   -0.0060725600325135486   -0.0003232802799268341
0.0009772287370866624   -0.00730090703327318   -0.00033169731509015123
0.0003238578364075058   -0.007330284444131993   -0.000323786082877511
0.00031118692865956003   -0.007334454327786285   -0.00033874794838725894
0.000500784660191692   -0.0060725600325135486   -0.0003232802799268341
0.0009772287370866624   -0.00730090703327318   -0.00033169731509015123
0.00031118692865956003   -0.007334454327786285   -0.00033874794838725894
0.0011962564004160733   -0.006061944860972355   -0.00034534407120566824
0.000500784660191692   -0.0060725600325135486   -0.0003232802799268341
0.0003238578364075058   -0.007330284444131993   -0.000323786082877511
0.0012185292185831144   -0.006054458516224127   -0.0003317724355494258
0.0005091449365356774   -0.0060707532572205365   -0.00031440809698819863
0.0003238578364075058   -0.007330284444131993   -0.000323786082877511
0.0009772287370866624   -0.00730090703327318   -0.00033169731509015123
0.0012185292185831144   -0.006054458516224127   -0.0003317724355494258
0.0010025169782284758   -0.0072985201314014   -0.00031157292201200746
0.0005091449365356774   -0.0060707532572205365   -0.00031440809698819863
0.0012342719678478781   -0.0060508023217514025   -0.0003200382070512276
0.0010025169782284758   -0.0072985201314014   -0.00031157292201200746
0.0012185292185831144   -0.006054458516224127   -0.0003317724355494258
0.0005091449365356774   -0.0060707532572205365   -0.00031440809698819863
0.0010025169782284758   -0.0072985201314014   -0.00031157292201200746
0.00033695717349676267   -0.0073294105155335245   -0.00031017178235746064
0.0003238578364075058   -0.007330284444131993   -0.000323786082877511
0.0005091449365356774   -0.0060707532572205365   -0.00031440809698819863
0.0010025169782284758   -0.0072985201314014   -0.00031157292201200746
0.0003238578364075058   -0.007330284444131993   -0.000323786082877511
0.0012185292185831144   -0.006054458516224127   -0.0003317724355494258
0.0005091449365356774   -0.0060707532572205365   -0.00031440809698819863
0.00033695717349676267   -0.0073294105155335245   -0.00031017178235746064
0.0012342719678478781   -0.0060508023217514025   -0.0003200382070512276
0.000514138822553432   -0.006069811290009607   -0.0003067298862408985
0.00033695717349676267   -0.0073294105155335245   -0.00031017178235746064
0.0010025169782284758   -0.0072985201314014   -0.00031157292201200746
0.0012342719678478781   -0.0060508023217514025   -0.0003200382070512276
0.0010285852080728034   -0.007298586603102231   -0.0002933508192015582
0.000514138822553432   -0.006069811290009607   -0.0003067298862408985
0.0012488280796066427   -0.006047132235401141   -0.0003102221477806495
0.0010285852080728034   -0.007298586603102231   -0.0002933508192015582
0.0012342719678478781   -0.0060508023217514025   -0.0003200382070512276
0.000514138822553432   -0.006069811290009607   -0.0003067298862408985
0.0010285852080728034   -0.007298586603102231   -0.0002933508192015582
0.0003458549591884816   -0.007331246814785186   -0.00029772498627780923
0.00033695717349676267   -0.0073294105155335245   -0.00031017178235746064
0.000514138822553432   -0.006069811290009607   -0.0003067298862408985
0.0010285852080728034   -0.007298586603102231   -0.0002933508192015582
0.00033695717349676267   -0.0073294105155335245   -0.00031017178235746064
0.0012342719678478781   -0.0060508023217514025   -0.0003200382070512276
-0.002125110954891714   -0.007334171010898358   -0.0003508357887546075
-0.0019410626465598635   -0.008432540137202914   -0.000328293244237431
-0.001461816175555771   -0.0073484451651441   -0.00034002358391591595
-0.0021093585866460937   -0.007343619747418002   -0.0003594693535847694
-0.0019410626465598635   -0.008432540137202914   -0.000328293244237431
-0.0013848624562990076   -0.008457610828243926   -0.0003267882264263108
-0.001461816175555771   -0.0073484451651441   -0.00034002358391591595
-0.0013715064084380605   -0.008461191855785801   -0.0003328142246088051
-0.0021093585866460937   -0.007343619747418002   -0.0003594693535847694
-0.0014531268513811185   -0.007355428635383354   -0.0003418131620820718
-0.0013715064084380605   -0.008461191855785801   -0.0003328142246088051
-0.001461816175555771   -0.0073484451651441   -0.00034002358391591595
-0.0021093585866460937   -0.007343619747418002   -0.0003594693535847694
-0.0013715064084380605   -0.008461191855785801   -0.0003328142246088051
-0.0019127341588864942   -0.008437798115922067   -0.0003453983335303972
-0.0019410626465598635   -0.008432540137202914   -0.000328293244237431
-0.0021093585866460937   -0.007343619747418002   -0.0003594693535847694
-0.0013715064084380605   -0.008461191855785801   -0.0003328142246088051
-0.0019410626465598635   -0.008432540137202914   -0.000328293244237431
-0.001461816175555771   -0.0073484451651441   -0.00034002358391591595
-0.0021093585866460937   -0.007343619747418002   -0.0003594693535847694
-0.0019127341588864942   -0.008437798115922067   -0.0003453983335303972
-0.0014531268513811185   -0.007355428635383354   -0.0003418131620820718
-0.0020917610385602376   -0.0073555344154596575   -0.0003701138971570518
-0.0019127341588864942   -0.008437798115922067   -0.0003453983335303972
-0.0013715064084380605   -0.008461191855785801   -0.0003328142246088051
-0.0014531268513811185   -0.007355428635383354   -0.0003418131620820718
-0.0013547093691514166   -0.008469998539193994   -0.0003401055837124339
-0.0020917610385602376   -0.0073555344154596575   -0.0003701138971570518
-0.0014415419871012176   -0.0073656234964296005   -0.0003448856908430349
-0.0013547093691514166   -0.008469998539193994   -0.0003401055837124339
-0.0014531268513811185   -0.007355428635383354   -0.0003418131620820718
-0.0020917610385602376   -0.0073555344154596575   -0.0003701138971570518
-0.0013547093691514166   -0.008469998539193994   -0.0003401055837124339
-0.0018847435901692712   -0.008448143397487715   -0.0003645604485385358
-0.0019127341588864942   -0.008437798115922067   -0.0003453983335303972
-0.0020917610385602376   -0.0073555344154596575   -0.0003701138971570518
-0.0013547093691514166   -0.008469998539193994   -0.0003401055837124339
-0.0019127341588864942   -0.008437798115922067   -0.0003453983335303972
-0.0014531268513811185   -0.007355428635383354   -0.0003418131620820718
-0.0020917610385602376   -0.0073555344154596575   -0.0003701138971570518
-0.0018847435901692712   -0.008448143397487715   -0.0003645604485385358
-0.0014415419871012176   -0.0073656234964296005   -0.0003448856908430349
-0.002068074552405042   -0.007373833885313402   -0.0003828259618766859
-0.0018847435901692712   -0.008448143397487715   -0.0003645604485385358
-0.0013547093691514166   -0.008469998539193994   -0.0003401055837124339
-0.0014415419871012176   -0.0073656234964296005   -0.0003448856908430349
-0.0013381867076790656   -0.00848453568403899   -0.0003486496238330377
-0.002068074552405042   -0.007373833885313402   -0.0003828259618766859
-0.001429192830569889   -0.007379663915189053   -0.0003492663929560679
-0.0013381867076790656   -0.00848453568403899   -0.0003486496238330377
-0.0014415419871012176   -0.0073656234964296005   -0.0003448856908430349
-0.002068074552405042   -0.007373833885313402   -0.0003828259618766859
-0.0013381867076790656   -0.00848453568403899   -0.0003486496238330377
-0.0018489652465989023   -0.008467436753987345   -0.000385762740952187
-0.0018847435901692712   -0.008448143397487715   -0.0003645604485385358
-0.002068074552405042   -0.007373833885313402   -0.0003828259618766859
-0.0013381867076790656   -0.00848453568403899   -0.0003486496238330377
-0.0018847435901692712   -0.008448143397487715   -0.0003645604485385358
-0.0014415419871012176   -0.0073656234964296005   -0.0003448856908430349
-0.001461816175555771   -0.0073484451651441   -0.00034002358391591595
-0.0013848624562990076   -0.008457610828243926   -0.0003267882264263108
-0.0008651583346923132   -0.007353777716871508   -0.0003331812781005469
-0.0014531268513811185   -0.007355428635383354   -0.0003418131620820718
-0.0013848624562990076   -0.008457610828243926   -0.0003267882264263108
-0.000899982076905491   -0.00846884539885682   -0.0003263464876626869
-0.0008651583346923132   -0.007353777716871508   -0.0003331812781005469
-0.0008863742331361585   -0.008469940851435771   -0.000323524812258894
-0.0014531268513811185   -0.007355428635383354   -0.0003418131620820718
-0.0008557963379094094   -0.007357298039826154   -0.00032924824497022393
-0.0008863742331361585   -0.008469940851435771   -0.000323524812258894
-0.0008651583346923132   -0.007353777716871508   -0.0003331812781005469
-0.0014531268513811185   -0.007355428635383354   -0.0003418131620820718
-0.0008863742331361585   -0.008469940851435771   -0.000323524812258894
-0.0013715064084380605   -0.008461191855785801   -0.0003328142246088051
-0.0013848624562990076   -0.008457610828243926   -0.0003267882264263108
-0.0014531268513811185   -0.007355428635383354   -0.0003418131620820718
-0.0008863742331361585   -0.008469940851435771   -0.000323524812258894
-0.0013848624562990076   -0.008457610828243926   -0.0003267882264263108
-0.0008651583346923132   -0.007353777716871508   -0.0003331812781005469
-0.0014531268513811185   -0.007355428635383354   -0.0003418131620820718
-0.0013715064084380605   -0.008461191855785801   -0.0003328142246088051
-0.0008557963379094094   -0.007357298039826154   -0.00032924824497022393
-0.0014415419871012176   -0.0073656234964296005   -0.0003448856908430349
-0.0013715064084380605   -0.008461191855785801   -0.0003328142246088051
-0.0008863742331361585   -0.008469940851435771   -0.000323524812258894
-0.0008557963379094094   -0.007357298039826154   -0.00032924824497022393
-0.0008722919783783831   -0.008475723831909322   -0.0003219304980554869
-0.0014415419871012176   -0.0073656234964296005   -0.0003448856908430349
-0.0008457645045136163   -0.007363885130595305   -0.00032658015007506607
-0.0008722919783783831   -0.008475723831909322   -0.0003219304980554869
-0.0008557963379094094   -0.007357298039826154   -0.00032924824497022393
-0.0014415419871012176   -0.0073656234964296005   -0.0003448856908430349
-0.0008722919783783831   -0.008475723831909322   -0.0003219304980554869
-0.0013547093691514166   -0.008469998539193994   -0.0003401055837124339
-0.0013715064084380605   -0.008461191855785801   -0.0003328142246088051
-0.0014415419871012176   -0.0073656234964296005   -0.0003448856908430349
-0.0008722919783783831   -0.008475723831909322   -0.0003219304980554869
-0.0013715064084380605   -0.008461191855785801   -0.0003328142246088051
-0.0008557963379094094   -0.007357298039826154   -0.00032924824497022393
-0.0014415419871012176   -0.0073656234964296005   -0.0003448856908430349
-0.0013547093691514166   -0.008469998539193994   -0.0003401055837124339
-0.0008457645045136163   -0.007363885130595305   -0.00032658015007506607
-0.001429192830569889   -0.007379663915189053   -0.0003492663929560679
-0.0013547093691514166   -0.008469998539193994   -0.0003401055837124339
-0.0008722919783783831   -0.008475723831909322   -0.0003219304980554869
-0.0008457645045136163   -0.007363885130595305   -0.00032658015007506607
-0.0008582128060022957   -0.008486422872101152   -0.00032156315673466667
-0.001429192830569889   -0.007379663915189053   -0.0003492663929560679
-0.0008354550299946149   -0.007373611830950647   -0.0003252468719473082
-0.0008582128060022957   -0.008486422872101152   -0.00032156315673466667
-0.0008457645045136163   -0.007363885130595305   -0.00032658015007506607
-0.001429192830569889   -0.007379663915189053   -0.0003492663929560679
-0.0008582128060022957   -0.008486422872101152   -0.00032156315673466667
-0.0013381867076790656   -0.00848453568403899   -0.0003486496238330377
-0.0013547093691514166   -0.008469998539193994   -0.0003401055837124339
-0.001429192830569889   -0.007379663915189053   -0.0003492663929560679
-0.0008582128060022957   -0.008486422872101152   -0.00032156315673466667
-0.0013547093691514166   -0.008469998539193994   -0.0003401055837124339
-0.0008457645045136163   -0.007363885130595305   -0.00032658015007506607
-0.0008651583346923132   -0.007353777716871508   -0.0003331812781005469
-0.000899982076905491   -0.00846884539885682   -0.0003263464876626869
-0.0002862287129624286   -0.007349060939169953   -0.0003325957912278693
-0.0008557963379094094   -0.007357298039826154   -0.00032924824497022393
-0.000899982076905491   -0.00846884539885682   -0.0003263464876626869
-0.0004308545914047756   -0.008465800649875434   -0.0003302260418510737
-0.0002862287129624286   -0.007349060939169953   -0.0003325957912278693
-0.00041595929213208543   -0.00846406657235819   -0.0003188567943453152
-0.0008557963379094094   -0.007357298039826154   -0.00032924824497022393
-0.0002758908976521161   -0.007348863589462274   -0.00032313639800357494
-0.00041595929213208543   -0.00846406657235819   -0.0003188567943453152
-0.0002862287129624286   -0.007349060939169953   -0.0003325957912278693
-0.0008557963379094094   -0.007357298039826154   -0.00032924824497022393
-0.00041595929213208543   -0.00846406657235819   -0.0003188567943453152
-0.0008863742331361585   -0.008469940851435771   -0.000323524812258894
-0.000899982076905491   -0.00846884539885682   -0.0003263464876626869
-0.0008557963379094094   -0.007357298039826154   -0.00032924824497022393
-0.00041595929213208543   -0.00846406657235819   -0.0003188567943453152
-0.000899982076905491   -0.00846884539885682   -0.0003263464876626869
-0.0002862287129624286   -0.007349060939169953   -0.0003325957912278693
-0.0008557963379094094   -0.007357298039826154   -0.00032924824497022393
-0.0008863742331361585   -0.008469940851435771   -0.000323524812258894
-0.0002758908976521161   -0.007348863589462274   -0.00032313639800357494
-0.0008457645045136163   -0.007363885130595305   -0.00032658015007506607
-0.0008863742331361585   -0.008469940851435771   -0.000323524812258894
-0.00041595929213208543   -0.00846406657235819   -0.0003188567943453152
-0.0002758908976521161   -0.007348863589462274   -0.00032313639800357494
-0.0004014480176941395   -0.008466628218720629   -0.00030879804808719367
-0.0008457645045136163   -0.007363885130595305   -0.00032658015007506607
-0.0002657974790516581   -0.0073515391139826105   -0.0003149504851885241
-0.0004014480176941395   -0.008466628218720629   -0.00030879804808719367
-0.0002758908976521161   -0.007348863589462274   -0.00032313639800357494
-0.0008457645045136163   -0.007363885130595305   -0.00032658015007506607
-0.0004014480176941395   -0.008466628218720629   -0.00030879804808719367
-0.0008722919783783831   -0.008475723831909322   -0.0003219304980554869
-0.0008863742331361585   -0.008469940851435771   -0.000323524812258894
-0.0008457645045136163   -0.007363885130595305   -0.00032658015007506607
-0.0004014480176941395   -0.008466628218720629   -0.00030879804808719367
-0.0008863742331361585   -0.008469940851435771   -0.000323524812258894
-0.0002758908976521161   -0.007348863589462274   -0.00032313639800357494
-0.0008457645045136163   -0.007363885130595305   -0.00032658015007506607
-0.0008722919783783831   -0.008475723831909322   -0.0003219304980554869
-0.0002657974790516581   -0.0073515391139826105   -0.0003149504851885241
-0.0008354550299946149   -0.007373611830950647   -0.0003252468719473082
-0.0008722919783783831   -0.008475723831909322   -0.0003219304980554869
-0.0004014480176941395   -0.008466628218720629   -0.00030879804808719367
-0.0002657974790516581   -0.0073515391139826105   -0.0003149504851885241
-0.00038828643856938724   -0.008474008591666382   -0.0002999443991838054
-0.0008354550299946149   -0.007373611830950647   -0.0003252468719473082
-0.00025671444999277813   -0.007357283899938666   -0.000308079869382395
-0.00038828643856938724   -0.008474008591666382   -0.0002999443991838054
-0.0002657974790516581   -0.0073515391139826105   -0.0003149504851885241
-0.0008354550299946149   -0.007373611830950647   -0.0003252468719473082
-0.00038828643856938724   -0.008474008591666382   -0.0002999443991838054
-0.0008582128060022957   -0.008486422872101152   -0.00032156315673466667
-0.0008722919783783831   -0.008475723831909322   -0.0003219304980554869
-0.0008354550299946149   -0.007373611830950647   -0.0003252468719473082
-0.00038828643856938724   -0.008474008591666382   -0.0002999443991838054
-0.0008722919783783831   -0.008475723831909322   -0.0003219304980554869
-0.0002657974790516581   -0.0073515391139826105   -0.0003149504851885241
-0.0002862287129624286   -0.007349060939169953   -0.0003325957912278693
-0.0004308545914047756   -0.008465800649875434   -0.0003302260418510737
0.00031118692865956003   -0.007334454327786285   -0.00033874794838725894
-0.0002758908976521161   -0.007348863589462274   -0.00032313639800357494
-0.0004308545914047756   -0.008465800649875434   -0.0003302260418510737
5.783225228182979e-05   -0.008447945615723724   -0.0003391216357947341
0.00031118692865956003   -0.007334454327786285   -0.00033874794838725894
7.605704368470132e-05   -0.00844268766740096   -0.00031920425146112266
-0.0002758908976521161   -0.007348863589462274   -0.00032313639800357494
0.0003238578364075058   -0.007330284444131993   -0.000323786082877511
7.605704368470132e-05   -0.00844268766740096   -0.00031920425146112266
0.00031118692865956003   -0.007334454327786285   -0.00033874794838725894
-0.0002758908976521161   -0.007348863589462274   -0.00032313639800357494
7.605704368470132e-05   -0.00844268766740096   -0.00031920425146112266
-0.00041595929213208543   -0.00846406657235819   -0.0003188567943453152
-0.0004308545914047756   -0.008465800649875434   -0.0003302260418510737
-0.0002758908976521161   -0.007348863589462274   -0.00032313639800357494
7.605704368470132e-05   -0.00844268766740096   -0.00031920425146112266
-0.0004308545914047756   -0.008465800649875434   -0.0003302260418510737
0.00031118692865956003   -0.007334454327786285   -0.00033874794838725894
-0.0002758908976521161   -0.007348863589462274   -0.00032313639800357494
-0.00041595929213208543   -0.00846406657235819   -0.0003188567943453152
0.0003238578364075058   -0.007330284444131993   -0.000323786082877511
-0.0002657974790516581   -0.0073515391139826105   -0.0003149504851885241
-0.00041595929213208543   -0.00846406657235819   -0.0003188567943453152
7.605704368470132e-05   -0.00844268766740096   -0.00031920425146112266
0.0003238578364075058   -0.007330284444131993   -0.000323786082877511
9.543587553325536e-05   -0.008442225080498881   -0.0003009339109810429
-0.0002657974790516581   -0.0073515391139826105   -0.0003149504851885241
0.00033695717349676267   -0.0073294105155335245   -0.00031017178235746064
9.543587553325536e-05   -0.008442225080498881   -0.0003009339109810429
0.0003238578364075058   -0.007330284444131993   -0.000323786082877511
-0.0002657974790516581   -0.0073515391139826105   -0.0003149504851885241
9.543587553325536e-05   -0.008442225080498881   -0.0003009339109810429
-0.0004014480176941395   -0.008466628218720629   -0.00030879804808719367
-0.00041595929213208543   -0.00846406657235819   -0.0003188567943453152
-0.0002657974790516581   -0.0073515391139826105   -0.0003149504851885241
9.543587553325536e-05   -0.008442225080498881   -0.0003009339109810429
-0.00041595929213208543   -0.00846406657235819   -0.0003188567943453152
0.0003238578364075058   -0.007330284444131993   -0.000323786082877511
-0.0002657974790516581   -0.0073515391139826105   -0.0003149504851885241
-0.0004014480176941395   -0.008466628218720629   -0.00030879804808719367
0.00033695717349676267   -0.0073294105155335245   -0.00031017178235746064
-0.00025671444999277813   -0.007357283899938666   -0.000308079869382395
-0.0004014480176941395   -0.008466628218720629   -0.00030879804808719367
9.543587553325536e-05   -0.008442225080498881   -0.0003009339109810429
0.00033695717349676267   -0.0073294105155335245   -0.00031017178235746064
0.00010960462878719094   -0.008446314589407486   -0.0002837910080208703
-0.00025671444999277813   -0.007357283899938666   -0.000308079869382395
0.0003458549591884816   -0.007331246814785186   -0.00029772498627780923
0.00010960462878719094   -0.008446314589407486   -0.0002837910080208703
0.00033695717349676267   -0.0073294105155335245   -0.00031017178235746064
-0.00025671444999277813   -0.007357283899938666   -0.000308079869382395
0.00010960462878719094   -0.008446314589407486   -0.0002837910080208703
-0.00038828643856938724   -0.008474008591666382   -0.0002999443991838054
-0.0004014480176941395   -0.008466628218720629   -0.00030879804808719367
-0.00025671444999277813   -0.007357283899938666   -0.000308079869382395
0.00010960462878719094   -0.008446314589407486   -0.0002837910080208703
-0.0004014480176941395   -0.008466628218720629   -0.00030879804808719367
0.00033695717349676267   -0.0073294105155335245   -0.00031017178235746064
0.00031118692865956003   -0.007334454327786285   -0.00033874794838725894
5.783225228182979e-05   -0.008447945615723724   -0.0003391216357947341
0.0009433981307186201   -0.007309252452583684   -0.0003536298268412341
0.0003238578364075058   -0.007330284444131993   -0.000323786082877511
5.783225228182979e-05   -0.008447945615723724   -0.0003391216357947341
0.0005742026462681348   -0.00841366101394496   -0.00035730885054240476
0.0009433981307186201   -0.007309252452583684   -0.0003536298268412341
0.0006217250509322743   -0.008403710647426744   -0.00032674772736554736
0.0003238578364075058   -0.007330284444131993   -0.000323786082877511
0.0009772287370866624   -0.00730090703327318   -0.00033169731509015123
0.0006217250509322743   -0.008403710647426744   -0.00032674772736554736
0.0009433981307186201   -0.007309252452583684   -0.0003536298268412341
0.0003238578364075058   -0.007330284444131993   -0.000323786082877511
0.0006217250509322743   -0.008403710647426744   -0.00032674772736554736
7.605704368470132e-05   -0.00844268766740096   -0.00031920425146112266
5.783225228182979e-05   -0.008447945615723724   -0.0003391216357947341
0.0003238578364075058   -0.007330284444131993   -0.000323786082877511
0.0006217250509322743   -0.008403710647426744   -0.00032674772736554736
5.783225228182979e-05   -0.008447945615723724   -0.0003391216357947341
0.0009433981307186201   -0.007309252452583684   -0.0003536298268412341
0.0003238578364075058   -0.007330284444131993   -0.000323786082877511
7.605704368470132e-05   -0.00844268766740096   -0.00031920425146112266
0.0009772287370866624   -0.00730090703327318   -0.00033169731509015123
0.00033695717349676267   -0.0073294105155335245   -0.00031017178235746064
7.605704368470132e-05   -0.00844268766740096   -0.00031920425146112266
0.0006217250509322743   -0.008403710647426744   -0.00032674772736554736
0.0009772287370866624   -0.00730090703327318   -0.00033169731509015123
0.0006582613770875656   -0.008401982365146292   -0.0002982347384253926
0.00033695717349676267   -0.0073294105155335245   -0.00031017178235746064
0.0010025169782284758   -0.0072985201314014   -0.00031157292201200746
0.0006582613770875656   -0.008401982365146292   -0.0002982347384253926
0.0009772287370866624   -0.00730090703327318   -0.00033169731509015123
0.00033695717349676267   -0.0073294105155335245   -0.00031017178235746064
0.0006582613770875656   -0.008401982365146292   -0.0002982347384253926
9.543587553325536e-05   -0.008442225080498881   -0.0003009339109810429
7.605704368470132e-05   -0.00844268766740096   -0.00031920425146112266
0.00033695717349676267   -0.0073294105155335245   -0.00031017178235746064
0.0006582613770875656   -0.008401982365146292   -0.0002982347384253926
7.605704368470132e-05   -0.00844268766740096   -0.00031920425146112266
0.0009772287370866624   -0.00730090703327318   -0.00033169731509015123
0.00033695717349676267   -0.0073294105155335245   -0.00031017178235746064
9.543587553325536e-05   -0.008442225080498881   -0.0003009339109810429
0.0010025169782284758   -0.0072985201314014   -0.00031157292201200746
0.0003458549591884816   -0.007331246814785186   -0.00029772498627780923
9.543587553325536e-05   -0.008442225080498881   -0.0003009339109810429
0.0006582613770875656   -0.008401982365146292   -0.0002982347384253926
0.0010025169782284758   -0.0072985201314014   -0.00031157292201200746
0.0006967008478521866   -0.008405150160915155   -0.00027199230677686913
0.0003458549591884816   -0.007331246814785186   -0.00029772498627780923
0.0010285852080728034   -0.007298586603102231   -0.0002933508192015582
0.0006967008478521866   -0.008405150160915155   -0.00027199230677686913
0.0010025169782284758   -0.0072985201314014   -0.00031157292201200746
0.0003458549591884816   -0.007331246814785186   -0.00029772498627780923
0.0006967008478521866   -0.008405150160915155   -0.00027199230677686913
0.00010960462878719094   -0.008446314589407486   -0.0002837910080208703
9.543587553325536e-05   -0.008442225080498881   -0.0003009339109810429
0.0003458549591884816   -0.007331246814785186   -0.00029772498627780923
0.0006967008478521866   -0.008405150160915155   -0.00027199230677686913
9.543587553325536e-05   -0.008442225080498881   -0.0003009339109810429
0.0010025169782284758   -0.0072985201314014   -0.00031157292201200746
-0.0019410626465598635   -0.008432540137202914   -0.000328293244237431
-0.0016378832419622243   -0.00929100345287919   -0.00029881963894382013
-0.0013848624562990076   -0.008457610828243926   -0.0003267882264263108
-0.0019127341588864942   -0.008437798115922067   -0.0003453983335303972
-0.0016378832419622243   -0.00929100345287919   -0.00029881963894382013
-0.0012406429325197976   -0.009327360583148155   -0.0003095632943831698
-0.0013848624562990076   -0.008457610828243926   -0.0003267882264263108
-0.0012221671879337323   -0.009325749537175299   -0.000318795203328756
-0.0019127341588864942   -0.008437798115922067   -0.0003453983335303972
-0.0013715064084380605   -0.008461191855785801   -0.0003328142246088051
-0.0012221671879337323   -0.009325749537175299   -0.000318795203328756
-0.0013848624562990076   -0.008457610828243926   -0.0003267882264263108
-0.0019127341588864942   -0.008437798115922067   -0.0003453983335303972
-0.0012221671879337323   -0.009325749537175299   -0.000318795203328756
-0.001596921523941077   -0.009290151299602334   -0.0003236617555090456
-0.0016378832419622243   -0.00929100345287919   -0.00029881963894382013
-0.0019127341588864942   -0.008437798115922067   -0.0003453983335303972
-0.0012221671879337323   -0.009325749537175299   -0.000318795203328756
-0.0016378832419622243   -0.00929100345287919   -0.00029881963894382013
-0.0013848624562990076   -0.008457610828243926   -0.0003267882264263108
-0.0019127341588864942   -0.008437798115922067   -0.0003453983335303972
-0.001596921523941077   -0.009290151299602334   -0.0003236617555090456
-0.0013715064084380605   -0.008461191855785801   -0.0003328142246088051
-0.0018847435901692712   -0.008448143397487715   -0.0003645604485385358
-0.001596921523941077   -0.009290151299602334   -0.0003236617555090456
-0.0012221671879337323   -0.009325749537175299   -0.000318795203328756
-0.0013715064084380605   -0.008461191855785801   -0.0003328142246088051
-0.0012002568386270277   -0.009331442282673503   -0.00032928619757917826
-0.0018847435901692712   -0.008448143397487715   -0.0003645604485385358
-0.0013547093691514166   -0.008469998539193994   -0.0003401055837124339
-0.0012002568386270277   -0.009331442282673503   -0.00032928619757917826
-0.0013715064084380605   -0.008461191855785801   -0.0003328142246088051
-0.0018847435901692712   -0.008448143397487715   -0.0003645604485385358
-0.0012002568386270277   -0.009331442282673503   -0.00032928619757917826
-0.0015593485299163368   -0.00929711027564853   -0.00035029046197406486
-0.001596921523941077   -0.009290151299602334   -0.0003236617555090456
-0.0018847435901692712   -0.008448143397487715   -0.0003645604485385358
-0.0012002568386270277   -0.009331442282673503   -0.00032928619757917826
-0.001596921523941077   -0.009290151299602334   -0.0003236617555090456
-0.0013715064084380605   -0.008461191855785801   -0.0003328142246088051
-0.0018847435901692712   -0.008448143397487715   -0.0003645604485385358
-0.0015593485299163368   -0.00929711027564853   -0.00035029046197406486
-0.0013547093691514166   -0.008469998539193994   -0.0003401055837124339
-0.0018489652465989023   -0.008467436753987345   -0.000385762740952187
-0.0015593485299163368   -0.00929711027564853   -0.00035029046197406486
-0.0012002568386270277   -0.009331442282673503   -0.00032928619757917826
-0.0013547093691514166   -0.008469998539193994   -0.0003401055837124339
-0.0011803897882389659   -0.009344595833325404   -0.00034095948921599085
-0.0018489652465989023   -0.008467436753987345   -0.000385762740952187
-0.0013381867076790656   -0.00848453568403899   -0.0003486496238330377
-0.0011803897882389659   -0.009344595833325404   -0.00034095948921599085
-0.0013547093691514166   -0.008469998539193994   -0.0003401055837124339
-0.0018489652465989023   -0.008467436753987345   -0.000385762740952187
-0.0011803897882389659   -0.009344595833325404   -0.00034095948921599085
-0.001513395057852255   -0.009315092569831797   -0.00037862120138347613
-0.0015593485299163368   -0.00929711027564853   -0.00035029046197406486
-0.0018489652465989023   -0.008467436753987345   -0.000385762740952187
-0.0011803897882389659   -0.009344595833325404   -0.00034095948921599085
-0.0015593485299163368   -0.00929711027564853   -0.00035029046197406486
-0.0013547093691514166   -0.008469998539193994   -0.0003401055837124339
-0.0013848624562990076   -0.008457610828243926   -0.0003267882264263108
-0.0012406429325197976   -0.009327360583148155   -0.0003095632943831698
-0.000899982076905491   -0.00846884539885682   -0.0003263464876626869
-0.0013715064084380605   -0.008461191855785801   -0.0003328142246088051
-0.0012406429325197976   -0.009327360583148155   -0.0003095632943831698
-0.0009121032452364687   -0.009349696247988419   -0.000318013606239148
-0.000899982076905491   -0.00846884539885682   -0.0003263464876626869
-0.0008933140890923896   -0.00934684524949291   -0.0003152202095701549
-0.0013715064084380605   -0.008461191855785801   -0.0003328142246088051
-0.0008863742331361585   -0.008469940851435771   -0.000323524812258894
-0.0008933140890923896   -0.00934684524949291   -0.0003152202095701549
-0.000899982076905491   -0.00846884539885682   -0.0003263464876626869
-0.0013715064084380605   -0.008461191855785801   -0.0003328142246088051
-0.0008933140890923896   -0.00934684524949291   -0.0003152202095701549
-0.0012221671879337323   -0.009325749537175299   -0.000318795203328756
-0.0012406429325197976   -0.009327360583148155   -0.0003095632943831698
-0.0013715064084380605   -0.008461191855785801   -0.0003328142246088051
-0.0008933140890923896   -0.00934684524949291   -0.0003152202095701549
-0.0012406429325197976   -0.009327360583148155   -0.0003095632943831698
-0.000899982076905491   -0.00846884539885682   -0.0003263464876626869
-0.0013715064084380605   -0.008461191855785801   -0.0003328142246088051
-0.0012221671879337323   -0.009325749537175299   -0.000318795203328756
-0.0008863742331361585   -0.008469940851435771   -0.000323524812258894
-0.0013547093691514166   -0.008469998539193994   -0.0003401055837124339
-0.0012221671879337323   -0.009325749537175299   -0.000318795203328756
-0.0008933140890923896   -0.00934684524949291   -0.0003152202095701549
-0.0008863742331361585   -0.008469940851435771   -0.000323524812258894
-0.000874685542982845   -0.009350354718930278   -0.0003136620534672323
-0.0013547093691514166   -0.008469998539193994   -0.0003401055837124339
-0.0008722919783783831   -0.008475723831909322   -0.0003219304980554869
-0.000874685542982845   -0.009350354718930278   -0.0003136620534672323
-0.0008863742331361585   -0.008469940851435771   -0.000323524812258894
-0.0013547093691514166   -0.008469998539193994   -0.0003401055837124339
-0.000874685542982845   -0.009350354718930278   -0.0003136620534672323
-0.0012002568386270277   -0.009331442282673503   -0.00032928619757917826
-0.0012221671879337323   -0.009325749537175299   -0.000318795203328756
-0.0013547093691514166   -0.008469998539193994   -0.0003401055837124339
-0.000874685542982845   -0.009350354718930278   -0.0003136620534672323
-0.0012221671879337323   -0.009325749537175299   -0.000318795203328756
-0.0008863742331361585   -0.008469940851435771   -0.000323524812258894
-0.0013547093691514166   -0.008469998539193994   -0.0003401055837124339
-0.0012002568386270277   -0.009331442282673503   -0.00032928619757917826
-0.0008722919783783831   -0.008475723831909322   -0.0003219304980554869
-0.0013381867076790656   -0.00848453568403899   -0.0003486496238330377
-0.0012002568386270277   -0.009331442282673503   -0.00032928619757917826
-0.000874685542982845   -0.009350354718930278   -0.0003136620534672323
-0.0008722919783783831   -0.008475723831909322   -0.0003219304980554869
-0.0008574342323578725   -0.009360392229304824   -0.0003135795818933381
-0.0013381867076790656   -0.00848453568403899   -0.0003486496238330377
-0.0008582128060022957   -0.008486422872101152   -0.00032156315673466667
-0.0008574342323578725   -0.009360392229304824   -0.0003135795818933381
-0.0008722919783783831   -0.008475723831909322   -0.0003219304980554869
-0.0013381867076790656   -0.00848453568403899   -0.0003486496238330377
-0.0008574342323578725   -0.009360392229304824   -0.0003135795818933381
-0.0011803897882389659   -0.009344595833325404   -0.00034095948921599085
-0.0012002568386270277   -0.009331442282673503   -0.00032928619757917826
-0.0013381867076790656   -0.00848453568403899   -0.0003486496238330377
-0.0008574342323578725   -0.009360392229304824   -0.0003135795818933381
-0.0012002568386270277   -0.009331442282673503   -0.00032928619757917826
-0.0008722919783783831   -0.008475723831909322   -0.0003219304980554869
-0.000899982076905491   -0.00846884539885682   -0.0003263464876626869
-0.0009121032452364687   -0.009349696247988419   -0.000318013606239148
-0.0004308545914047756   -0.008465800649875434   -0.0003302260418510737
-0.0008863742331361585   -0.008469940851435771   -0.000323524812258894
-0.0009121032452364687   -0.009349696247988419   -0.000318013606239148
-0.0005970168304874935   -0.009359522782163612   -0.00032841775214854815
-0.0004308545914047756   -0.008465800649875434   -0.0003302260418510737
-0.0005758773910427422   -0.009355157345950457   -0.0003142096734472883
-0.0008863742331361585   -0.008469940851435771   -0.000323524812258894
-0.00041595929213208543   -0.00846406657235819   -0.0003188567943453152
-0.0005758773910427422   -0.009355157345950457   -0.0003142096734472883
-0.0004308545914047756   -0.008465800649875434   -0.0003302260418510737
-0.0008863742331361585   -0.008469940851435771   -0.000323524812258894
-0.0005758773910427422   -0.009355157345950457   -0.0003142096734472883
-0.0008933140890923896   -0.00934684524949291   -0.0003152202095701549
-0.0009121032452364687   -0.009349696247988419   -0.000318013606239148
-0.0008863742331361585   -0.008469940851435771   -0.000323524812258894
-0.0005758773910427422   -0.009355157345950457   -0.0003142096734472883
-0.0009121032452364687   -0.009349696247988419   -0.000318013606239148
-0.0004308545914047756   -0.008465800649875434   -0.0003302260418510737
-0.0008863742331361585   -0.008469940851435771   -0.000323524812258894
-0.0008933140890923896   -0.00934684524949291   -0.0003152202095701549
-0.00041595929213208543   -0.00846406657235819   -0.0003188567943453152
-0.0008722919783783831   -0.008475723831909322   -0.0003219304980554869
-0.0008933140890923896   -0.00934684524949291   -0.0003152202095701549
-0.0005758773910427422   -0.009355157345950457   -0.0003142096734472883
-0.00041595929213208543   -0.00846406657235819   -0.0003188567943453152
-0.0005556407738619081   -0.009356489529871266   -0.0003011383444863752
-0.0008722919783783831   -0.008475723831909322   -0.0003219304980554869
-0.0004014480176941395   -0.008466628218720629   -0.00030879804808719367
-0.0005556407738619081   -0.009356489529871266   -0.0003011383444863752
-0.00041595929213208543   -0.00846406657235819   -0.0003188567943453152
-0.0008722919783783831   -0.008475723831909322   -0.0003219304980554869
-0.0005556407738619081   -0.009356489529871266   -0.0003011383444863752
-0.000874685542982845   -0.009350354718930278   -0.0003136620534672323
-0.0008933140890923896   -0.00934684524949291   -0.0003152202095701549
-0.0008722919783783831   -0.008475723831909322   -0.0003219304980554869
-0.0005556407738619081   -0.009356489529871266   -0.0003011383444863752
-0.0008933140890923896   -0.00934684524949291   -0.0003152202095701549
-0.00041595929213208543   -0.00846406657235819   -0.0003188567943453152
-0.0008722919783783831   -0.008475723831909322   -0.0003219304980554869
-0.000874685542982845   -0.009350354718930278   -0.0003136620534672323
-0.0004014480176941395   -0.008466628218720629   -0.00030879804808719367
-0.0008582128060022957   -0.008486422872101152   -0.00032156315673466667
-0.000874685542982845   -0.009350354718930278   -0.0003136620534672323
-0.0005556407738619081   -0.009356489529871266   -0.0003011383444863752
-0.0004014480176941395   -0.008466628218720629   -0.00030879804808719367
-0.0005386442968333312   -0.009364436877558157   -0.00028981057123983727
-0.0008582128060022957   -0.008486422872101152   -0.00032156315673466667
-0.00038828643856938724   -0.008474008591666382   -0.0002999443991838054
-0.0005386442968333312   -0.009364436877558157   -0.00028981057123983727
-0.0004014480176941395   -0.008466628218720629   -0.00030879804808719367
-0.0008582128060022957   -0.008486422872101152   -0.00032156315673466667
-0.0005386442968333312   -0.009364436877558157   -0.00028981057123983727
-0.0008574342323578725   -0.009360392229304824   -0.0003135795818933381
-0.000874685542982845   -0.009350354718930278   -0.0003136620534672323
-0.0008582128060022957   -0.008486422872101152   -0.00032156315673466667
-0.0005386442968333312   -0.009364436877558157   -0.00028981057123983727
-0.000874685542982845   -0.009350354718930278   -0.0003136620534672323
-0.0004014480176941395   -0.008466628218720629   -0.00030879804808719367
-0.0004308545914047756   -0.008465800649875434   -0.0003302260418510737
-0.0005970168304874935   -0.009359522782163612   -0.00032841775214854815
5.783225228182979e-05   -0.008447945615723724   -0.0003391216357947341
-0.00041595929213208543   -0.00846406657235819   -0.0003188567943453152
-0.0005970168304874935   -0.009359522782163612   -0.00032841775214854815
-0.0002649382649954629   -0.009352949190077708   -0.00034102918234114025
5.783225228182979e-05   -0.008447945615723724   -0.0003391216357947341
-0.00023779057494474365   -0.009346036578524545   -0.0003157964270026343
-0.00041595929213208543   -0.00846406657235819   -0.0003188567943453152
7.605704368470132e-05   -0.00844268766740096   -0.00031920425146112266
-0.00023779057494474365   -0.009346036578524545   -0.0003157964270026343
5.783225228182979e-05   -0.008447945615723724   -0.0003391216357947341
-0.00041595929213208543   -0.00846406657235819   -0.0003188567943453152
-0.00023779057494474365   -0.009346036578524545   -0.0003157964270026343
-0.0005758773910427422   -0.009355157345950457   -0.0003142096734472883
-0.0005970168304874935   -0.009359522782163612   -0.00032841775214854815
-0.00041595929213208543   -0.00846406657235819   -0.0003188567943453152
-0.00023779057494474365   -0.009346036578524545   -0.0003157964270026343
-0.0005970168304874935   -0.009359522782163612   -0.00032841775214854815
5.783225228182979e-05   -0.008447945615723724   -0.0003391216357947341
-0.00041595929213208543   -0.00846406657235819   -0.0003188567943453152
-0.0005758773910427422   -0.009355157345950457   -0.0003142096734472883
7.605704368470132e-05   -0.00844268766740096   -0.00031920425146112266
-0.0004014480176941395   -0.008466628218720629   -0.00030879804808719367
-0.0005758773910427422   -0.009355157345950457   -0.0003142096734472883
-0.00023779057494474365   -0.009346036578524545   -0.0003157964270026343
7.605704368470132e-05   -0.00844268766740096   -0.00031920425146112266
-0.0002096441874585571   -0.009345050361271893   -0.0002917529265555339
-0.0004014480176941395   -0.008466628218720629   -0.00030879804808719367
9.543587553325536e-05   -0.008442225080498881   -0.0003009339109810429
-0.0002096441874585571   -0.009345050361271893   -0.0002917529265555339
7.605704368470132e-05   -0.00844268766740096   -0.00031920425146112266
-0.0004014480176941395   -0.008466628218720629   -0.00030879804808719367
-0.0002096441874585571   -0.009345050361271893   -0.0002917529265555339
-0.0005556407738619081   -0.009356489529871266   -0.0003011383444863752
-0.0005758773910427422   -0.009355157345950457   -0.0003142096734472883
-0.0004014480176941395   -0.008466628218720629   -0.00030879804808719367
-0.0002096441874585571   -0.009345050361271893   -0.0002917529265555339
-0.0005758773910427422   -0.009355157345950457   -0.0003142096734472883
7.605704368470132e-05   -0.00844268766740096   -0.00031920425146112266
-0.0004014480176941395   -0.008466628218720629   -0.00030879804808719367
-0.0005556407738619081   -0.009356489529871266   -0.0003011383444863752
9.543587553325536e-05   -0.008442225080498881   -0.0003009339109810429
-0.00038828643856938724   -0.008474008591666382   -0.0002999443991838054
-0.0005556407738619081   -0.009356489529871266   -0.0003011383444863752
-0.0002096441874585571   -0.009345050361271893   -0.0002917529265555339
9.543587553325536e-05   -0.008442225080498881   -0.0003009339109810429
-0.00018903082862841903   -0.00935109322492199   -0.0002697167043109273
-0.00038828643856938724   -0.008474008591666382   -0.0002999443991838054
0.00010960462878719094   -0.008446314589407486   -0.0002837910080208703
-0.00018903082862841903   -0.00935109322492199   -0.0002697167043109273
9.543587553325536e-05   -0.008442225080498881   -0.0003009339109810429
-0.00038828643856938724   -0.008474008591666382   -0.0002999443991838054
-0.00018903082862841903   -0.00935109322492199   -0.0002697167043109273
-0.0005386442968333312   -0.009364436877558157   -0.00028981057123983727
-0.0005556407738619081   -0.009356489529871266   -0.0003011383444863752
-0.00038828643856938724   -0.008474008591666382   -0.0002999443991838054
-0.00018903082862841903   -0.00935109322492199   -0.0002697167043109273
-0.0005556407738619081   -0.009356489529871266   -0.0003011383444863752
9.543587553325536e-05   -0.008442225080498881   -0.0003009339109810429
5.783225228182979e-05   -0.008447945615723724   -0.0003391216357947341
-0.0002649382649954629   -0.009352949190077708   -0.00034102918234114025
0.0005742026462681348   -0.00841366101394496   -0.00035730885054240476
7.605704368470132e-05   -0.00844268766740096   -0.00031920425146112266
-0.0002649382649954629   -0.009352949190077708   -0.00034102918234114025
8.658744736081035e-05   -0.009319790296515739   -0.00036563973878804665
0.0005742026462681348   -0.00841366101394496   -0.00035730885054240476
0.0001528454402422273   -0.009305141844730622   -0.00032457337732295927
7.605704368470132e-05   -0.00844268766740096   -0.00031920425146112266
0.0006217250509322743   -0.008403710647426744   -0.00032674772736554736
0.0001528454402422273   -0.009305141844730622   -0.00032457337732295927
0.0005742026462681348   -0.00841366101394496   -0.00035730885054240476
7.605704368470132e-05   -0.00844268766740096   -0.00031920425146112266
0.0001528454402422273   -0.009305141844730622   -0.00032457337732295927
-0.00023779057494474365   -0.009346036578524545   -0.0003157964270026343
-0.0002649382649954629   -0.009352949190077708   -0.00034102918234114025
7.605704368470132e-05   -0.00844268766740096   -0.00031920425146112266
0.0001528454402422273   -0.009305141844730622   -0.00032457337732295927
-0.0002649382649954629   -0.009352949190077708   -0.00034102918234114025
0.0005742026462681348   -0.00841366101394496   -0.00035730885054240476
7.605704368470132e-05   -0.00844268766740096   -0.00031920425146112266
-0.00023779057494474365   -0.009346036578524545   -0.0003157964270026343
0.0006217250509322743   -0.008403710647426744   -0.00032674772736554736
9.543587553325536e-05   -0.008442225080498881   -0.0003009339109810429
-0.00023779057494474365   -0.009346036578524545   -0.0003157964270026343
0.0001528454402422273   -0.009305141844730622   -0.00032457337732295927
0.0006217250509322743   -0.008403710647426744   -0.00032674772736554736
0.00020474973691743837   -0.009302368033531508   -0.000285763925818317
9.543587553325536e-05   -0.008442225080498881   -0.0003009339109810429
0.0006582613770875656   -0.008401982365146292   -0.0002982347384253926
0.00020474973691743837   -0.009302368033531508   -0.000285763925818317
0.0006217250509322743   -0.008403710647426744   -0.00032674772736554736
9.543587553325536e-05   -0.008442225080498881   -0.0003009339109810429
0.00020474973691743837   -0.009302368033531508   -0.000285763925818317
-0.0002096441874585571   -0.009345050361271893   -0.0002917529265555339
-0.00023779057494474365   -0.009346036578524545   -0.0003157964270026343
9.543587553325536e-05   -0.008442225080498881   -0.0003009339109810429
0.00020474973691743837   -0.009302368033531508   -0.000285763925818317
-0.00023779057494474365   -0.009346036578524545   -0.0003157964270026343
0.0006217250509322743   -0.008403710647426744   -0.00032674772736554736
9.543587553325536e-05   -0.008442225080498881   -0.0003009339109810429
-0.0002096441874585571   -0.009345050361271893   -0.0002917529265555339
0.0006582613770875656   -0.008401982365146292   -0.0002982347384253926
0.00010960462878719094   -0.008446314589407486   -0.0002837910080208703
-0.0002096441874585571   -0.009345050361271893   -0.0002917529265555339
0.00020474973691743837   -0.009302368033531508   -0.000285763925818317
0.0006582613770875656   -0.008401982365146292   -0.0002982347384253926
0.0002594436102967038   -0.009305664969045082   -0.00025001794808035863
0.00010960462878719094   -0.008446314589407486   -0.0002837910080208703
0.0006967008478521866   -0.008405150160915155   -0.00027199230677686913
0.0002594436102967038   -0.009305664969045082   -0.00025001794808035863
0.0006582613770875656   -0.008401982365146292   -0.0002982347384253926
0.00010960462878719094   -0.008446314589407486   -0.0002837910080208703
0.0002594436102967038   -0.009305664969045082   -0.00025001794808035863
-0.00018903082862841903   -0.00935109322492199   -0.0002697167043109273
-0.0002096441874585571   -0.009345050361271893   -0.0002917529265555339
0.00010960462878719094   -0.008446314589407486   -0.0002837910080208703
0.0002594436102967038   -0.009305664969045082   -0.00025001794808035863
-0.0002096441874585571   -0.009345050361271893   -0.0002917529265555339
0.0006582613770875656   -0.008401982365146292   -0.0002982347384253926
-0.0016378832419622243   -0.00929100345287919   -0.00029881963894382013
-0.0012282272965984228   -0.009806657188465778   -0.00026384360096671356
-0.0012406429325197976   -0.009327360583148155   -0.0003095632943831698
-0.001596921523941077   -0.009290151299602334   -0.0003236617555090456
-0.0012282272965984228   -0.009806657188465778   -0.00026384360096671356
-0.0010367494855010443   -0.009852038692300119   -0.00029027245365462315
-0.0012406429325197976   -0.009327360583148155   -0.0003095632943831698
-0.00101396510655756   -0.009843682368789837   -0.0003003117961848197
-0.001596921523941077   -0.009290151299602334   -0.0003236617555090456
-0.0012221671879337323   -0.009325749537175299   -0.000318795203328756
-0.00101396510655756   -0.009843682368789837   -0.0003003117961848197
-0.0012406429325197976   -0.009327360583148155   -0.0003095632943831698
-0.001596921523941077   -0.009290151299602334   -0.0003236617555090456
-0.00101396510655756   -0.009843682368789837   -0.0003003117961848197
-0.0011779301862315222   -0.0097971614710206   -0.00029349714978254703
-0.0012282272965984228   -0.009806657188465778   -0.00026384360096671356
-0.001596921523941077   -0.009290151299602334   -0.0003236617555090456
-0.00101396510655756   -0.009843682368789837   -0.0003003117961848197
-0.0012282272965984228   -0.009806657188465778   -0.00026384360096671356
-0.0012406429325197976   -0.009327360583148155   -0.0003095632943831698
-0.001596921523941077   -0.009290151299602334   -0.0003236617555090456
-0.0011779301862315222   -0.0097971614710206   -0.00029349714978254703
-0.0012221671879337323   -0.009325749537175299   -0.000318795203328756
-0.0015593485299163368   -0.00929711027564853   -0.00035029046197406486
-0.0011779301862315222   -0.0097971614710206   -0.00029349714978254703
-0.00101396510655756   -0.009843682368789837   -0.0003003117961848197
-0.0012221671879337323   -0.009325749537175299   -0.000318795203328756
-0.0009884287013734762   -0.009844907702133901   -0.00031046700611620545
-0.0015593485299163368   -0.00929711027564853   -0.00035029046197406486
-0.0012002568386270277   -0.009331442282673503   -0.00032928619757917826
-0.0009884287013734762   -0.009844907702133901   -0.00031046700611620545
-0.0012221671879337323   -0.009325749537175299   -0.000318795203328756
-0.0015593485299163368   -0.00929711027564853   -0.00035029046197406486
-0.0009884287013734762   -0.009844907702133901   -0.00031046700611620545
-0.0011346077943701401   -0.009798887062407594   -0.00032310810901352543
-0.0011779301862315222   -0.0097971614710206   -0.00029349714978254703
-0.0015593485299163368   -0.00929711027564853   -0.00035029046197406486
-0.0009884287013734762   -0.009844907702133901   -0.00031046700611620545
-0.0011779301862315222   -0.0097971614710206   -0.00029349714978254703
-0.0012221671879337323   -0.009325749537175299   -0.000318795203328756
-0.0015593485299163368   -0.00929711027564853   -0.00035029046197406486
-0.0011346077943701401   -0.009798887062407594   -0.00032310810901352543
-0.0012002568386270277   -0.009331442282673503   -0.00032928619757917826
-0.001513395057852255   -0.009315092569831797   -0.00037862120138347613
-0.0011346077943701401   -0.009798887062407594   -0.00032310810901352543
-0.0009884287013734762   -0.009844907702133901   -0.00031046700611620545
-0.0012002568386270277   -0.009331442282673503   -0.00032928619757917826
-0.0009648721950448925   -0.00985579720205482   -0.00032077869156703305
-0.001513395057852255   -0.009315092569831797   -0.00037862120138347613
-0.0011803897882389659   -0.009344595833325404   -0.00034095948921599085
-0.0009648721950448925   -0.00985579720205482   -0.00032077869156703305
-0.0012002568386270277   -0.009331442282673503   -0.00032928619757917826
-0.001513395057852255   -0.009315092569831797   -0.00037862120138347613
-0.0009648721950448925   -0.00985579720205482   -0.00032077869156703305
-0.0010829850748651972   -0.009812565753406263   -0.00035333411868434833
-0.0011346077943701401   -0.009798887062407594   -0.00032310810901352543
-0.001513395057852255   -0.009315092569831797   -0.00037862120138347613
-0.0009648721950448925   -0.00985579720205482   -0.00032077869156703305
-0.0011346077943701401   -0.009798887062407594   -0.00032310810901352543
-0.0012002568386270277   -0.009331442282673503   -0.00032928619757917826
-0.0012406429325197976   -0.009327360583148155   -0.0003095632943831698
-0.0010367494855010443   -0.009852038692300119   -0.00029027245365462315
-0.0009121032452364687   -0.009349696247988419   -0.000318013606239148
-0.0012221671879337323   -0.009325749537175299   -0.000318795203328756
-0.0010367494855010443   -0.009852038692300119   -0.00029027245365462315
-0.000893334328780549   -0.009894624006560876   -0.0003134238573633987
-0.0009121032452364687   -0.009349696247988419   -0.000318013606239148
-0.0008695877610633639   -0.009885892969262339   -0.00030724534485126456
-0.0012221671879337323   -0.009325749537175299   -0.000318795203328756
-0.0008933140890923896   -0.00934684524949291   -0.0003152202095701549
-0.0008695877610633639   -0.009885892969262339   -0.00030724534485126456
-0.0009121032452364687   -0.009349696247988419   -0.000318013606239148
-0.0012221671879337323   -0.009325749537175299   -0.000318795203328756
-0.0008695877610633639   -0.009885892969262339   -0.00030724534485126456
-0.00101396510655756   -0.009843682368789837   -0.0003003117961848197
-0.0010367494855010443   -0.009852038692300119   -0.00029027245365462315
-0.0012221671879337323   -0.009325749537175299   -0.000318795203328756
-0.0008695877610633639   -0.009885892969262339   -0.00030724534485126456
-0.0010367494855010443   -0.009852038692300119   -0.00029027245365462315
-0.0009121032452364687   -0.009349696247988419   -0.000318013606239148
-0.0012221671879337323   -0.009325749537175299   -0.000318795203328756
-0.00101396510655756   -0.009843682368789837   -0.0003003117961848197
-0.0008933140890923896   -0.00934684524949291   -0.0003152202095701549
-0.0012002568386270277   -0.009331442282673503   -0.00032928619757917826
-0.00101396510655756   -0.009843682368789837   -0.0003003117961848197
-0.0008695877610633639   -0.009885892969262339   -0.00030724534485126456
-0.0008933140890923896   -0.00934684524949291   -0.0003152202095701549
-0.0008464924177640717   -0.009886341189447362   -0.0003010106298763981
-0.0012002568386270277   -0.009331442282673503   -0.00032928619757917826
-0.000874685542982845   -0.009350354718930278   -0.0003136620534672323
-0.0008464924177640717   -0.009886341189447362   -0.0003010106298763981
-0.0008933140890923896   -0.00934684524949291   -0.0003152202095701549
-0.0012002568386270277   -0.009331442282673503   -0.00032928619757917826
-0.0008464924177640717   -0.009886341189447362   -0.0003010106298763981
-0.0009884287013734762   -0.009844907702133901   -0.00031046700611620545
-0.00101396510655756   -0.009843682368789837   -0.0003003117961848197
-0.0012002568386270277   -0.009331442282673503   -0.00032928619757917826
-0.0008464924177640717   -0.009886341189447362   -0.0003010106298763981
-0.00101396510655756   -0.009843682368789837   -0.0003003117961848197
-0.0008933140890923896   -0.00934684524949291   -0.0003152202095701549
-0.0012002568386270277   -0.009331442282673503   -0.00032928619757917826
-0.0009884287013734762   -0.009844907702133901   -0.00031046700611620545
-0.000874685542982845   -0.009350354718930278   -0.0003136620534672323
-0.0011803897882389659   -0.009344595833325404   -0.00034095948921599085
-0.0009884287013734762   -0.009844907702133901   -0.00031046700611620545
-0.0008464924177640717   -0.009886341189447362   -0.0003010106298763981
-0.000874685542982845   -0.009350354718930278   -0.0003136620534672323
-0.0008225202210025483   -0.009895814594937971   -0.0002950726238699814
-0.0011803897882389659   -0.009344595833325404   -0.00034095948921599085
-0.0008574342323578725   -0.009360392229304824   -0.0003135795818933381
-0.0008225202210025483   -0.009895814594937971   -0.0002950726238699814
-0.000874685542982845   -0.009350354718930278   -0.0003136620534672323
-0.0011803897882389659   -0.009344595833325404   -0.00034095948921599085
-0.0008225202210025483   -0.009895814594937971   -0.0002950726238699814
-0.0009648721950448925   -0.00985579720205482   -0.00032077869156703305
-0.0009884287013734762   -0.009844907702133901   -0.00031046700611620545
-0.0011803897882389659   -0.009344595833325404   -0.00034095948921599085
-0.0008225202210025483   -0.009895814594937971   -0.0002950726238699814
-0.0009884287013734762   -0.009844907702133901   -0.00031046700611620545
-0.000874685542982845   -0.009350354718930278   -0.0003136620534672323
-0.0009121032452364687   -0.009349696247988419   -0.000318013606239148
-0.000893334328780549   -0.009894624006560876   -0.0003134238573633987
-0.0005970168304874935   -0.009359522782163612   -0.00032841775214854815
-0.0008933140890923896   -0.00934684524949291   -0.0003152202095701549
-0.000893334328780549   -0.009894624006560876   -0.0003134238573633987
-0.0007612321487878631   -0.009942878619153567   -0.00033934432734705896
-0.0005970168304874935   -0.009359522782163612   -0.00032841775214854815
-0.0007323115899965034   -0.009934975236177989   -0.0003161016522742792
-0.0008933140890923896   -0.00934684524949291   -0.0003152202095701549
-0.0005758773910427422   -0.009355157345950457   -0.0003142096734472883
-0.0007323115899965034   -0.009934975236177989   -0.0003161016522742792
-0.0005970168304874935   -0.009359522782163612   -0.00032841775214854815
-0.0008933140890923896   -0.00934684524949291   -0.0003152202095701549
-0.0007323115899965034   -0.009934975236177989   -0.0003161016522742792
-0.0008695877610633639   -0.009885892969262339   -0.00030724534485126456
-0.000893334328780549   -0.009894624006560876   -0.0003134238573633987
-0.0008933140890923896   -0.00934684524949291   -0.0003152202095701549
-0.0007323115899965034   -0.009934975236177989   -0.0003161016522742792
-0.000893334328780549   -0.009894624006560876   -0.0003134238573633987
-0.0005970168304874935   -0.009359522782163612   -0.00032841775214854815
-0.0008933140890923896   -0.00934684524949291   -0.0003152202095701549
-0.0008695877610633639   -0.009885892969262339   -0.00030724534485126456
-0.0005758773910427422   -0.009355157345950457   -0.0003142096734472883
-0.000874685542982845   -0.009350354718930278   -0.0003136620534672323
-0.0008695877610633639   -0.009885892969262339   -0.00030724534485126456
-0.0007323115899965034   -0.009934975236177989   -0.0003161016522742792
-0.0005758773910427422   -0.009355157345950457   -0.0003142096734472883
-0.000705302131347838   -0.009934904890565938   -0.0002928108118846451
-0.000874685542982845   -0.009350354718930278   -0.0003136620534672323
-0.0005556407738619081   -0.009356489529871266   -0.0003011383444863752
-0.000705302131347838   -0.009934904890565938   -0.0002928108118846451
-0.0005758773910427422   -0.009355157345950457   -0.0003142096734472883
-0.000874685542982845   -0.009350354718930278   -0.0003136620534672323
-0.000705302131347838   -0.009934904890565938   -0.0002928108118846451
-0.0008464924177640717   -0.009886341189447362   -0.0003010106298763981
-0.0008695877610633639   -0.009885892969262339   -0.00030724534485126456
-0.000874685542982845   -0.009350354718930278   -0.0003136620534672323
-0.000705302131347838   -0.009934904890565938   -0.0002928108118846451
-0.0008695877610633639   -0.009885892969262339   -0.00030724534485126456
-0.0005758773910427422   -0.009355157345950457   -0.0003142096734472883
-0.000874685542982845   -0.009350354718930278   -0.0003136620534672323
-0.0008464924177640717   -0.009886341189447362   -0.0003010106298763981
-0.0005556407738619081   -0.009356489529871266   -0.0003011383444863752
-0.0008574342323578725   -0.009360392229304824   -0.0003135795818933381
-0.0008464924177640717   -0.009886341189447362   -0.0003010106298763981
-0.000705302131347838   -0.009934904890565938   -0.0002928108118846451
-0.0005556407738619081   -0.009356489529871266   -0.0003011383444863752
-0.0006765776410234046   -0.009942336946444657   -0.00026968325291085117
-0.0008574342323578725   -0.009360392229304824   -0.0003135795818933381
-0.0005386442968333312   -0.009364436877558157   -0.00028981057123983727
-0.0006765776410234046   -0.009942336946444657   -0.00026968325291085117
-0.0005556407738619081   -0.009356489529871266   -0.0003011383444863752
-0.0008574342323578725   -0.009360392229304824   -0.0003135795818933381
-0.0006765776410234046   -0.009942336946444657   -0.00026968325291085117
-0.0008225202210025483   -0.009895814594937971   -0.0002950726238699814
-0.0008464924177640717   -0.009886341189447362   -0.0003010106298763981
-0.0008574342323578725   -0.009360392229304824   -0.0003135795818933381
-0.0006765776410234046   -0.009942336946444657   -0.00026968325291085117
-0.0008464924177640717   -0.009886341189447362   -0.0003010106298763981
-0.0005556407738619081   -0.009356489529871266   -0.0003011383444863752
-0.0005970168304874935   -0.009359522782163612   -0.00032841775214854815
-0.0007612321487878631   -0.009942878619153567   -0.00033934432734705896
-0.0002649382649954629   -0.009352949190077708   -0.00034102918234114025
-0.0005758773910427422   -0.009355157345950457   -0.0003142096734472883
-0.0007612321487878631   -0.009942878619153567   -0.00033934432734705896
-0.000631212790245117   -0.01   -0.00036090235798975055
-0.0002649382649954629   -0.009352949190077708   -0.00034102918234114025
-0.0005943720969585871   -0.01   -0.00032430347997911577
-0.0005758773910427422   -0.009355157345950457   -0.0003142096734472883
-0.00023779057494474365   -0.009346036578524545   -0.0003157964270026343
-0.0005943720969585871   -0.01   -0.00032430347997911577
-0.0002649382649954629   -0.009352949190077708   -0.00034102918234114025
-0.0005758773910427422   -0.009355157345950457   -0.0003142096734472883
-0.0005943720969585871   -0.01   -0.00032430347997911577
-0.0007323115899965034   -0.009934975236177989   -0.0003161016522742792
-0.0007612321487878631   -0.009942878619153567   -0.00033934432734705896
-0.0005758773910427422   -0.009355157345950457   -0.0003142096734472883
-0.0005943720969585871   -0.01   -0.00032430347997911577
-0.0007612321487878631   -0.009942878619153567   -0.00033934432734705896
-0.0002649382649954629   -0.009352949190077708   -0.00034102918234114025
-0.0005758773910427422   -0.009355157345950457   -0.0003142096734472883
-0.0007323115899965034   -0.009934975236177989   -0.0003161016522742792
-0.00023779057494474365   -0.009346036578524545   -0.0003157964270026343
-0.0005556407738619081   -0.009356489529871266   -0.0003011383444863752
-0.0007323115899965034   -0.009934975236177989   -0.0003161016522742792
-0.0005943720969585871   -0.01   -0.00032430347997911577
-0.00023779057494474365   -0.009346036578524545   -0.0003157964270026343
-0.0005569787059891338   -0.01   -0.0002872834022123509
-0.0005556407738619081   -0.009356489529871266   -0.0003011383444863752
-0.0002096441874585571   -0.009345050361271893   -0.0002917529265555339
-0.0005569787059891338   -0.01   -0.0002872834022123509
-0.00023779057494474365   -0.009346036578524545   -0.0003157964270026343
-0.0005556407738619081   -0.009356489529871266   -0.0003011383444863752
-0.0005569787059891338   -0.01   -0.0002872834022123509
-0.000705302131347838   -0.009934904890565938   -0.0002928108118846451
-0.0007323115899965034   -0.009934975236177989   -0.0003161016522742792
-0.0005556407738619081   -0.009356489529871266   -0.0003011383444863752
-0.0005569787059891338   -0.01   -0.0002872834022123509
-0.0007323115899965034   -0.009934975236177989   -0.0003161016522742792
-0.00023779057494474365   -0.009346036578524545   -0.0003157964270026343
-0.0005556407738619081   -0.009356489529871266   -0.0003011383444863752
-0.000705302131347838   -0.009934904890565938   -0.0002928108118846451
-0.0002096441874585571   -0.009345050361271893   -0.0002917529265555339
-0.0005386442968333312   -0.009364436877558157   -0.00028981057123983727
-0.000705302131347838   -0.009934904890565938   -0.0002928108118846451
-0.0005569787059891338   -0.01   -0.0002872834022123509
-0.0002096441874585571   -0.009345050361271893   -0.0002917529265555339
-0.0005208993696718956   -0.01   -0.0002507852354876941
-0.0005386442968333312   -0.009364436877558157   -0.00028981057123983727
-0.00018903082862841903   -0.00935109322492199   -0.0002697167043109273
-0.0005208993696718956   -0.01   -0.0002507852354876941
-0.0002096441874585571   -0.009345050361271893   -0.0002917529265555339
-0.0005386442968333312   -0.009364436877558157   -0.00028981057123983727
-0.0005208993696718956   -0.01   -0.0002507852354876941
-0.0006765776410234046   -0.009942336946444657   -0.00026968325291085117
-0.000705302131347838   -0.009934904890565938   -0.0002928108118846451
-0.0005386442968333312   -0.009364436877558157   -0.00028981057123983727
-0.0005208993696718956   -0.01   -0.0002507852354876941
-0.000705302131347838   -0.009934904890565938   -0.0002928108118846451
-0.0002096441874585571   -0.009345050361271893   -0.0002917529265555339
-0.0002649382649954629   -0.009352949190077708   -0.00034102918234114025
-0.000631212790245117   -0.01   -0.00036090235798975055
8.658744736081035e-05   -0.009319790296515739   -0.00036563973878804665
-0.00023779057494474365   -0.009346036578524545   -0.0003157964270026343
-0.000631212790245117   -0.01   -0.00036090235798975055
-0.0005327729907871283   -0.01   -0.0003869993402920331
8.658744736081035e-05   -0.009319790296515739   -0.00036563973878804665
-0.00045269873999987157   -0.01   -0.000333368613869944
-0.00023779057494474365   -0.009346036578524545   -0.0003157964270026343
0.0001528454402422273   -0.009305141844730622   -0.00032457337732295927
-0.00045269873999987157   -0.01   -0.000333368613869944
8.658744736081035e-05   -0.009319790296515739   -0.00036563973878804665
-0.00023779057494474365   -0.009346036578524545   -0.0003157964270026343
-0.00045269873999987157   -0.01   -0.000333368613869944
-0.0005943720969585871   -0.01   -0.00032430347997911577
-0.000631212790245117   -0.01   -0.00036090235798975055
-0.00023779057494474365   -0.009346036578524545   -0.0003157964270026343
-0.00045269873999987157   -0.01   -0.000333368613869944
-0.000631212790245117   -0.01   -0.00036090235798975055
8.658744736081035e-05   -0.009319790296515739   -0.00036563973878804665
-0.00023779057494474365   -0.009346036578524545   -0.0003157964270026343
-0.0005943720969585871   -0.01   -0.00032430347997911577
0.0001528454402422273   -0.009305141844730622   -0.00032457337732295927
-0.0002096441874585571   -0.009345050361271893   -0.0002917529265555339
-0.0005943720969585871   -0.01   -0.00032430347997911577
-0.00045269873999987157   -0.01   -0.000333368613869944
0.0001528454402422273   -0.009305141844730622   -0.00032457337732295927
-0.0003888715553330762   -0.01   -0.00028210276159783396
-0.0002096441874585571   -0.009345050361271893   -0.0002917529265555339
0.00020474973691743837   -0.009302368033531508   -0.000285763925818317
-0.0003888715553330762   -0.01   -0.00028210276159783396
0.0001528454402422273   -0.009305141844730622   -0.00032457337732295927
-0.0002096441874585571   -0.009345050361271893   -0.0002917529265555339
-0.0003888715553330762   -0.01   -0.00028210276159783396
-0.0005569787059891338   -0.01   -0.0002872834022123509
-0.0005943720969585871   -0.01   -0.00032430347997911577
-0.0002096441874585571   -0.009345050361271893   -0.0002917529265555339
-0.0003888715553330762   -0.01   -0.00028210276159783396
-0.0005943720969585871   -0.01   -0.00032430347997911577
0.0001528454402422273   -0.009305141844730622   -0.00032457337732295927
-0.0002096441874585571   -0.009345050361271893   -0.0002917529265555339
-0.0005569787059891338   -0.01   -0.0002872834022123509
0.00020474973691743837   -0.009302368033531508   -0.000285763925818317
-0.00018903082862841903   -0.00935109322492199   -0.0002697167043109273
-0.0005569787059891338   -0.01   -0.0002872834022123509
-0.0003888715553330762   -0.01   -0.00028210276159783396
0.00020474973691743837   -0.009302368033531508   -0.000285763925818317
-0.0003101491774689768   -0.01   -0.00022884951194658554
-0.00018903082862841903   -0.00935109322492199   -0.0002697167043109273
0.0002594436102967038   -0.009305664969045082   -0.00025001794808035863
-0.0003101491774689768   -0.01   -0.00022884951194658554
0.00020474973691743837   -0.009302368033531508   -0.000285763925818317
-0.00018903082862841903   -0.00935109322492199   -0.0002697167043109273
-0.0003101491774689768   -0.01   -0.00022884951194658554
-0.0005208993696718956   -0.01   -0.0002507852354876941
-0.0005569787059891338   -0.01   -0.0002872834022123509
-0.00018903082862841903   -0.00935109322492199   -0.0002697167043109273
-0.0003101491774689768   -0.01   -0.00022884951194658554
-0.0005569787059891338   -0.01   -0.0002872834022123509
0.00020474973691743837   -0.009302368033531508   -0.000285763925818317
-0.0012282272965984228   -0.009806657188465778   -0.00026384360096671356
-0.0007751788961180287   -0.009859315507468972   -0.0002264038093221005
-0.0010367494855010443   -0.009852038692300119   -0.00029027245365462315
-0.0011779301862315222   -0.0097971614710206   -0.00029349714978254703
-0.0007751788961180287   -0.009859315507468972   -0.0002264038093221005
-0.0008042601157529978   -0.00989547491552939   -0.0002605158499237612
-0.0010367494855010443   -0.009852038692300119   -0.00029027245365462315
-0.0007868007997981265   -0.009883926347188949   -0.0002738018846843093
-0.0011779301862315222   -0.0097971614710206   -0.00029349714978254703
-0.00101396510655756   -0.009843682368789837   -0.0003003117961848197
-0.0007868007997981265   -0.009883926347188949   -0.0002738018846843093
-0.0010367494855010443   -0.009852038692300119   -0.00029027245365462315
-0.0011779301862315222   -0.0097971614710206   -0.00029349714978254703
-0.0007868007997981265   -0.009883926347188949   -0.0002738018846843093
-0.0007290015544042398   -0.009844392785719329   -0.00025764595600613946
-0.0007751788961180287   -0.009859315507468972   -0.0002264038093221005
-0.0011779301862315222   -0.0097971614710206   -0.00029349714978254703
-0.0007868007997981265   -0.009883926347188949   -0.0002738018846843093
-0.0007751788961180287   -0.009859315507468972   -0.0002264038093221005
-0.0010367494855010443   -0.009852038692300119   -0.00029027245365462315
-0.0011779301862315222   -0.0097971614710206   -0.00029349714978254703
-0.0007290015544042398   -0.009844392785719329   -0.00025764595600613946
-0.00101396510655756   -0.009843682368789837   -0.0003003117961848197
-0.0011346077943701401   -0.009798887062407594   -0.00032310810901352543
-0.0007290015544042398   -0.009844392785719329   -0.00025764595600613946
-0.0007868007997981265   -0.009883926347188949   -0.0002738018846843093
-0.00101396510655756   -0.009843682368789837   -0.0003003117961848197
-0.0007661306630084573   -0.009880485873950474   -0.00028619123035594725
-0.0011346077943701401   -0.009798887062407594   -0.00032310810901352543
-0.0009884287013734762   -0.009844907702133901   -0.00031046700611620545
-0.0007661306630084573   -0.009880485873950474   -0.00028619123035594725
-0.00101396510655756   -0.009843682368789837   -0.0003003117961848197
-0.0011346077943701401   -0.009798887062407594   -0.00032310810901352543
-0.0007661306630084573   -0.009880485873950474   -0.00028619123035594725
-0.0006906324653100904   -0.009840731889687227   -0.00028778274065204213
-0.0007290015544042398   -0.009844392785719329   -0.00025764595600613946
-0.0011346077943701401   -0.009798887062407594   -0.00032310810901352543
-0.0007661306630084573   -0.009880485873950474   -0.00028619123035594725
-0.0007290015544042398   -0.009844392785719329   -0.00025764595600613946
-0.00101396510655756   -0.009843682368789837   -0.0003003117961848197
-0.0011346077943701401   -0.009798887062407594   -0.00032310810901352543
-0.0006906324653100904   -0.009840731889687227   -0.00028778274065204213
-0.0009884287013734762   -0.009844907702133901   -0.00031046700611620545
-0.0010829850748651972   -0.009812565753406263   -0.00035333411868434833
-0.0006906324653100904   -0.009840731889687227   -0.00028778274065204213
-0.0007661306630084573   -0.009880485873950474   -0.00028619123035594725
-0.0009884287013734762   -0.009844907702133901   -0.00031046700611620545
-0.00074853764978121   -0.009885240605540215   -0.0002976329925596426
-0.0010829850748651972   -0.009812565753406263   -0.00035333411868434833
-0.0009648721950448925   -0.00985579720205482   -0.00032077869156703305
-0.00074853764978121   -0.009885240605540215   -0.0002976329925596426
-0.0009884287013734762   -0.009844907702133901   -0.00031046700611620545
-0.0010829850748651972   -0.009812565753406263   -0.00035333411868434833
-0.00074853764978121   -0.009885240605540215   -0.0002976329925596426
-0.0006467880292462919   -0.00984662239204988   -0.000316708861887223
-0.0006906324653100904   -0.009840731889687227   -0.00028778274065204213
-0.0010829850748651972   -0.009812565753406263   -0.00035333411868434833
-0.00074853764978121   -0.009885240605540215   -0.0002976329925596426
-0.0006906324653100904   -0.009840731889687227   -0.00028778274065204213
-0.0009884287013734762   -0.009844907702133901   -0.00031046700611620545
-0.0010367494855010443   -0.009852038692300119   -0.00029027245365462315
-0.0008042601157529978   -0.00989547491552939   -0.0002605158499237612
-0.000893334328780549   -0.009894624006560876   -0.0003134238573633987
-0.00101396510655756   -0.009843682368789837   -0.0003003117961848197
-0.0008042601157529978   -0.00989547491552939   -0.0002605158499237612
-0.000851073799700176   -0.009916469301601689   -0.0002875850106957025
-0.000893334328780549   -0.009894624006560876   -0.0003134238573633987
-0.0008357432071779305   -0.009906098748501313   -0.00028774041450677285
-0.00101396510655756   -0.009843682368789837   -0.0003003117961848197
-0.0008695877610633639   -0.009885892969262339   -0.00030724534485126456
-0.0008357432071779305   -0.009906098748501313   -0.00028774041450677285
-0.000893334328780549   -0.009894624006560876   -0.0003134238573633987
-0.00101396510655756   -0.009843682368789837   -0.0003003117961848197
-0.0008357432071779305   -0.009906098748501313   -0.00028774041450677285
-0.0007868007997981265   -0.009883926347188949   -0.0002738018846843093
-0.0008042601157529978   -0.00989547491552939   -0.0002605158499237612
-0.00101396510655756   -0.009843682368789837   -0.0003003117961848197
-0.0008357432071779305   -0.009906098748501313   -0.00028774041450677285
-0.0008042601157529978   -0.00989547491552939   -0.0002605158499237612
-0.000893334328780549   -0.009894624006560876   -0.0003134238573633987
-0.00101396510655756   -0.009843682368789837   -0.0003003117961848197
-0.0007868007997981265   -0.009883926347188949   -0.0002738018846843093
-0.0008695877610633639   -0.009885892969262339   -0.00030724534485126456
-0.0009884287013734762   -0.009844907702133901   -0.00031046700611620545
-0.0007868007997981265   -0.009883926347188949   -0.0002738018846843093
-0.0008357432071779305   -0.009906098748501313   -0.00028774041450677285
-0.0008695877610633639   -0.009885892969262339   -0.00030724534485126456
-0.0008187293742733196   -0.009903062010242053   -0.00028673506496163046
-0.0009884287013734762   -0.009844907702133901   -0.00031046700611620545
-0.0008464924177640717   -0.009886341189447362   -0.0003010106298763981
-0.0008187293742733196   -0.009903062010242053   -0.00028673506496163046
-0.0008695877610633639   -0.009885892969262339   -0.00030724534485126456
-0.0009884287013734762   -0.009844907702133901   -0.00031046700611620545
-0.0008187293742733196   -0.009903062010242053   -0.00028673506496163046
-0.0007661306630084573   -0.009880485873950474   -0.00028619123035594725
-0.0007868007997981265   -0.009883926347188949   -0.0002738018846843093
-0.0009884287013734762   -0.009844907702133901   -0.00031046700611620545
-0.0008187293742733196   -0.009903062010242053   -0.00028673506496163046
-0.0007868007997981265   -0.009883926347188949   -0.0002738018846843093
-0.0008695877610633639   -0.009885892969262339   -0.00030724534485126456
-0.0009884287013734762   -0.009844907702133901   -0.00031046700611620545
-0.0007661306630084573   -0.009880485873950474   -0.00028619123035594725
-0.0008464924177640717   -0.009886341189447362   -0.0003010106298763981
-0.0009648721950448925   -0.00985579720205482   -0.00032077869156703305
-0.0007661306630084573   -0.009880485873950474   -0.00028619123035594725
-0.0008187293742733196   -0.009903062010242053   -0.00028673506496163046
-0.0008464924177640717   -0.009886341189447362   -0.0003010106298763981
-0.0008014893148036708   -0.009907093889882063   -0.0002848157698909794
-0.0009648721950448925   -0.00985579720205482   -0.00032077869156703305
-0.0008225202210025483   -0.009895814594937971   -0.0002950726238699814
-0.0008014893148036708   -0.009907093889882063   -0.0002848157698909794
-0.0008464924177640717   -0.009886341189447362   -0.0003010106298763981
-0.0009648721950448925   -0.00985579720205482   -0.00032077869156703305
-0.0008014893148036708   -0.009907093889882063   -0.0002848157698909794
-0.00074853764978121   -0.009885240605540215   -0.0002976329925596426
-0.0007661306630084573   -0.009880485873950474   -0.00028619123035594725
-0.0009648721950448925   -0.00985579720205482   -0.00032077869156703305
-0.0008014893148036708   -0.009907093889882063   -0.0002848157698909794
-0.0007661306630084573   -0.009880485873950474   -0.00028619123035594725
-0.0008464924177640717   -0.009886341189447362   -0.0003010106298763981
-0.000893334328780549   -0.009894624006560876   -0.0003134238573633987
-0.000851073799700176   -0.009916469301601689   -0.0002875850106957025
-0.0007612321487878631   -0.009942878619153567   -0.00033934432734705896
-0.0008695877610633639   -0.009885892969262339   -0.00030724534485126456
-0.000851073799700176   -0.009916469301601689   -0.0002875850106957025
-0.0009022303786187269   -0.009923192324276782   -0.0003144460568879318
-0.0007612321487878631   -0.009942878619153567   -0.00033934432734705896
-0.0008863417765479807   -0.009913131010524946   -0.00030195698750588477
-0.0008695877610633639   -0.009885892969262339   -0.00030724534485126456
-0.0007323115899965034   -0.009934975236177989   -0.0003161016522742792
-0.0008863417765479807   -0.009913131010524946   -0.00030195698750588477
-0.0007612321487878631   -0.009942878619153567   -0.00033934432734705896
-0.0008695877610633639   -0.009885892969262339   -0.00030724534485126456
-0.0008863417765479807   -0.009913131010524946   -0.00030195698750588477
-0.0008357432071779305   -0.009906098748501313   -0.00028774041450677285
-0.000851073799700176   -0.009916469301601689   -0.0002875850106957025
-0.0008695877610633639   -0.009885892969262339   -0.00030724534485126456
-0.0008863417765479807   -0.009913131010524946   -0.00030195698750588477
-0.000851073799700176   -0.009916469301601689   -0.0002875850106957025
-0.0007612321487878631   -0.009942878619153567   -0.00033934432734705896
-0.0008695877610633639   -0.009885892969262339   -0.00030724534485126456
-0.0008357432071779305   -0.009906098748501313   -0.00028774041450677285
-0.0007323115899965034   -0.009934975236177989   -0.0003161016522742792
-0.0008464924177640717   -0.009886341189447362   -0.0003010106298763981
-0.0008357432071779305   -0.009906098748501313   -0.00028774041450677285
-0.0008863417765479807   -0.009913131010524946   -0.00030195698750588477
-0.0007323115899965034   -0.009934975236177989   -0.0003161016522742792
-0.0008674302281869067   -0.009910505448787223   -0.00028804930967237587
-0.0008464924177640717   -0.009886341189447362   -0.0003010106298763981
-0.000705302131347838   -0.009934904890565938   -0.0002928108118846451
-0.0008674302281869067   -0.009910505448787223   -0.00028804930967237587
-0.0007323115899965034   -0.009934975236177989   -0.0003161016522742792
-0.0008464924177640717   -0.009886341189447362   -0.0003010106298763981
-0.0008674302281869067   -0.009910505448787223   -0.00028804930967237587
-0.0008187293742733196   -0.009903062010242053   -0.00028673506496163046
-0.0008357432071779305   -0.009906098748501313   -0.00028774041450677285
-0.0008464924177640717   -0.009886341189447362   -0.0003010106298763981
-0.0008674302281869067   -0.009910505448787223   -0.00028804930967237587
-0.0008357432071779305   -0.009906098748501313   -0.00028774041450677285
-0.0007323115899965034   -0.009934975236177989   -0.0003161016522742792
-0.0008464924177640717   -0.009886341189447362   -0.0003010106298763981
-0.0008187293742733196   -0.009903062010242053   -0.00028673506496163046
-0.000705302131347838   -0.009934904890565938   -0.0002928108118846451
-0.0008225202210025483   -0.009895814594937971   -0.0002950726238699814
-0.0008187293742733196   -0.009903062010242053   -0.00028673506496163046
-0.0008674302281869067   -0.009910505448787223   -0.00028804930967237587
-0.000705302131347838   -0.009934904890565938   -0.0002928108118846451
-0.0008480722893262672   -0.009914321193829454   -0.00027332383604583766
-0.0008225202210025483   -0.009895814594937971   -0.0002950726238699814
-0.0006765776410234046   -0.009942336946444657   -0.00026968325291085117
-0.0008480722893262672   -0.009914321193829454   -0.00027332383604583766
-0.000705302131347838   -0.009934904890565938   -0.0002928108118846451
-0.0008225202210025483   -0.009895814594937971   -0.0002950726238699814
-0.0008480722893262672   -0.009914321193829454   -0.00027332383604583766
-0.0008014893148036708   -0.009907093889882063   -0.0002848157698909794
-0.0008187293742733196   -0.009903062010242053   -0.00028673506496163046
-0.0008225202210025483   -0.009895814594937971   -0.0002950726238699814
-0.0008480722893262672   -0.009914321193829454   -0.00027332383604583766
-0.0008187293742733196   -0.009903062010242053   -0.00028673506496163046
-0.000705302131347838   -0.009934904890565938   -0.0002928108118846451
-0.0007612321487878631   -0.009942878619153567   -0.00033934432734705896
-0.0009022303786187269   -0.009923192324276782   -0.0003144460568879318
-0.000631212790245117   -0.01   -0.00036090235798975055
-0.0007323115899965034   -0.009934975236177989   -0.0003161016522742792
-0.0009022303786187269   -0.009923192324276782   -0.0003144460568879318
-0.0009769556587001648   -0.009909947056141073   -0.0003405386542847517
-0.000631212790245117   -0.01   -0.00036090235798975055
-0.0009562693632497332   -0.009900130027678119   -0.0003158793134537508
-0.0007323115899965034   -0.009934975236177989   -0.0003161016522742792
-0.0005943720969585871   -0.01   -0.00032430347997911577
-0.0009562693632497332   -0.009900130027678119   -0.0003158793134537508
-0.000631212790245117   -0.01   -0.00036090235798975055
-0.0007323115899965034   -0.009934975236177989   -0.0003161016522742792
-0.0009562693632497332   -0.009900130027678119   -0.0003158793134537508
-0.0008863417765479807   -0.009913131010524946   -0.00030195698750588477
-0.0009022303786187269   -0.009923192324276782   -0.0003144460568879318
-0.0007323115899965034   -0.009934975236177989   -0.0003161016522742792
-0.0009562693632497332   -0.009900130027678119   -0.0003158793134537508
-0.0009022303786187269   -0.009923192324276782   -0.0003144460568879318
-0.000631212790245117   -0.01   -0.00036090235798975055
-0.0007323115899965034   -0.009934975236177989   -0.0003161016522742792
-0.0008863417765479807   -0.009913131010524946   -0.00030195698750588477
-0.0005943720969585871   -0.01   -0.00032430347997911577
-0.000705302131347838   -0.009934904890565938   -0.0002928108118846451
-0.0008863417765479807   -0.009913131010524946   -0.00030195698750588477
-0.0009562693632497332   -0.009900130027678119   -0.0003158793134537508
-0.0005943720969585871   -0.01   -0.00032430347997911577
-0.0009286239162508888   -0.009898333997730921   -0.00028958655567744247
-0.000705302131347838   -0.009934904890565938   -0.0002928108118846451
-0.0005569787059891338   -0.01   -0.0002872834022123509
-0.0009286239162508888   -0.009898333997730921   -0.00028958655567744247
-0.0005943720969585871   -0.01   -0.00032430347997911577
-0.000705302131347838   -0.009934904890565938   -0.0002928108118846451
-0.0009286239162508888   -0.009898333997730921   -0.00028958655567744247
-0.0008674302281869067   -0.009910505448787223   -0.00028804930967237587
-0.0008863417765479807   -0.009913131010524946   -0.00030195698750588477
-0.000705302131347838   -0.009934904890565938   -0.0002928108118846451
-0.0009286239162508888   -0.009898333997730921   -0.00028958655567744247
-0.0008863417765479807   -0.009913131010524946   -0.00030195698750588477
-0.0005943720969585871   -0.01   -0.00032430347997911577
-0.000705302131347838   -0.009934904890565938   -0.0002928108118846451
-0.0008674302281869067   -0.009910505448787223   -0.00028804930967237587
-0.0005569787059891338   -0.01   -0.0002872834022123509
-0.0006765776410234046   -0.009942336946444657   -0.00026968325291085117
-0.0008674302281869067   -0.009910505448787223   -0.00028804930967237587
-0.0009286239162508888   -0.009898333997730921   -0.00028958655567744247
-0.0005569787059891338   -0.01   -0.0002872834022123509
-0.0009031610403346821   -0.009903138210168893   -0.0002623978601365162
-0.0006765776410234046   -0.009942336946444657   -0.00026968325291085117
-0.0005208993696718956   -0.01   -0.0002507852354876941
-0.0009031610403346821   -0.009903138210168893   -0.0002623978601365162
-0.0005569787059891338   -0.01   -0.0002872834022123509
-0.0006765776410234046   -0.009942336946444657   -0.00026968325291085117
-0.0009031610403346821   -0.009903138210168893   -0.0002623978601365162
-0.0008480722893262672   -0.009914321193829454   -0.00027332383604583766
-0.0008674302281869067   -0.009910505448787223   -0.00028804930967237587
-0.0006765776410234046   -0.009942336946444657   -0.00026968325291085117
-0.0009031610403346821   -0.009903138210168893   -0.0002623978601365162
-0.0008674302281869067   -0.009910505448787223   -0.00028804930967237587
-0.0005569787059891338   -0.01   -0.0002872834022123509
-0.000631212790245117   -0.01   -0.00036090235798975055
-0.0009769556587001648   -0.009909947056141073   -0.0003405386542847517
-0.0005327729907871283   -0.01   -0.0003869993402920331
-0.0005943720969585871   -0.01   -0.00032430347997911577
-0.0009769556587001648   -0.009909947056141073   -0.0003405386542847517
-0.0011299903506691124   -0.009862155095487187   -0.0003692970057364141
-0.0005327729907871283   -0.01   -0.0003869993402920331
-0.0010712622316144805   -0.009853334822317966   -0.00032891661815873975
-0.0005943720969585871   -0.01   -0.00032430347997911577
-0.00045269873999987157   -0.01   -0.000333368613869944
-0.0010712622316144805   -0.009853334822317966   -0.00032891661815873975
-0.0005327729907871283   -0.01   -0.0003869993402920331
-0.0005943720969585871   -0.01   -0.00032430347997911577
-0.0010712622316144805   -0.009853334822317966   -0.00032891661815873975
-0.0009562693632497332   -0.009900130027678119   -0.0003158793134537508
-0.0009769556587001648   -0.009909947056141073   -0.0003405386542847517
-0.0005943720969585871   -0.01   -0.00032430347997911577
-0.0010712622316144805   -0.009853334822317966   -0.00032891661815873975
-0.0009769556587001648   -0.009909947056141073   -0.0003405386542847517
-0.0005327729907871283   -0.01   -0.0003869993402920331
-0.0005943720969585871   -0.01   -0.00032430347997911577
-0.0009562693632497332   -0.009900130027678119   -0.0003158793134537508
-0.00045269873999987157   -0.01   -0.000333368613869944
-0.0005569787059891338   -0.01   -0.0002872834022123509
-0.0009562693632497332   -0.009900130027678119   -0.0003158793134537508
-0.0010712622316144805   -0.009853334822317966   -0.00032891661815873975
-0.00045269873999987157   -0.01   -0.000333368613869944
-0.0010180710230061384   -0.009852490683921737   -0.00028616597280528816
-0.0005569787059891338   -0.01   -0.0002872834022123509
-0.0003888715553330762   -0.01   -0.00028210276159783396
-0.0010180710230061384   -0.009852490683921737   -0.00028616597280528816
-0.00045269873999987157   -0.01   -0.000333368613869944
-0.0005569787059891338   -0.01   -0.0002872834022123509
-0.0010180710230061384   -0.009852490683921737   -0.00028616597280528816
-0.0009286239162508888   -0.009898333997730921   -0.00028958655567744247
-0.0009562693632497332   -0.009900130027678119   -0.0003158793134537508
-0.0005569787059891338   -0.01   -0.0002872834022123509
-0.0010180710230061384   -0.009852490683921737   -0.00028616597280528816
-0.0009562693632497332   -0.009900130027678119   -0.0003158793134537508
-0.00045269873999987157   -0.01   -0.000333368613869944
-0.0005569787059891338   -0.01   -0.0002872834022123509
-0.0009286239162508888   -0.009898333997730921   -0.00028958655567744247
-0.0003888715553330762   -0.01   -0.00028210276159783396
-0.0005208993696718956   -0.01   -0.0002507852354876941
-0.0009286239162508888   -0.009898333997730921   -0.00028958655567744247
-0.0010180710230061384   -0.009852490683921737   -0.00028616597280528816
-0.0003888715553330762   -0.01   -0.00028210276159783396
-0.0009507535263746804   -0.009863918176697635   -0.0002417568584417246
-0.0005208993696718956   -0.01   -0.0002507852354876941
-0.0003101491774689768   -0.01   -0.00022884951194658554
-0.0009507535263746804   -0.009863918176697635   -0.0002417568584417246
-0.0003888715553330762   -0.01   -0.00028210276159783396
-0.0005208993696718956   -0.01   -0.0002507852354876941
-0.0009507535263746804   -0.009863918176697635   -0.0002417568584417246
-0.0009031610403346821   -0.009903138210168893   -0.0002623978601365162
-0.0009286239162508888   -0.009898333997730921   -0.00028958655567744247
-0.0005208993696718956   -0.01   -0.0002507852354876941
-0.0009507535263746804   -0.009863918176697635   -0.0002417568584417246
-0.0009286239162508888   -0.009898333997730921   -0.00028958655567744247
-0.0003888715553330762   -0.01   -0.00028210276159783396
-0.0007751788961180287   -0.009859315507468972   -0.0002264038093221005
-0.00036805449351611104   -0.009529384528249784   -0.00019410556154893818
-0.0008042601157529978   -0.00989547491552939   -0.0002605158499237612
-0.0007290015544042398   -0.009844392785719329   -0.00025764595600613946
-0.00036805449351611104   -0.009529384528249784   -0.00019410556154893818
-0.0006001559535653118   -0.009557632606315166   -0.00023059300034394709
-0.0008042601157529978   -0.00989547491552939   -0.0002605158499237612
-0.0005875783646539767   -0.009543593165919786   -0.00024266498022323368
-0.0007290015544042398   -0.009844392785719329   -0.00025764595600613946
-0.0007868007997981265   -0.009883926347188949   -0.0002738018846843093
-0.0005875783646539767   -0.009543593165919786   -0.00024266498022323368
-0.0008042601157529978   -0.00989547491552939   -0.0002605158499237612
-0.0007290015544042398   -0.009844392785719329   -0.00025764595600613946
-0.0005875783646539767   -0.009543593165919786   -0.00024266498022323368
-0.0003303719350545966   -0.009511838616276271   -0.00022172880782285494
-0.00036805449351611104   -0.009529384528249784   -0.00019410556154893818
-0.0007290015544042398   -0.009844392785719329   -0.00025764595600613946
-0.0005875783646539767   -0.009543593165919786   -0.00024266498022323368
-0.00036805449351611104   -0.009529384528249784   -0.00019410556154893818
-0.0008042601157529978   -0.00989547491552939   -0.0002605158499237612
-0.0007290015544042398   -0.009844392785719329   -0.00025764595600613946
-0.0003303719350545966   -0.009511838616276271   -0.00022172880782285494
-0.0007868007997981265   -0.009883926347188949   -0.0002738018846843093
-0.0006906324653100904   -0.009840731889687227   -0.00028778274065204213
-0.0003303719350545966   -0.009511838616276271   -0.00022172880782285494
-0.0005875783646539767   -0.009543593165919786   -0.00024266498022323368
-0.0007868007997981265   -0.009883926347188949   -0.0002738018846843093
-0.0005731887820910051   -0.00953666327541331   -0.0002537723307554126
-0.0006906324653100904   -0.009840731889687227   -0.00028778274065204213
-0.0007661306630084573   -0.009880485873950474   -0.00028619123035594725
-0.0005731887820910051   -0.00953666327541331   -0.0002537723307554126
-0.0007868007997981265   -0.009883926347188949   -0.0002738018846843093
-0.0006906324653100904   -0.009840731889687227   -0.00028778274065204213
-0.0005731887820910051   -0.00953666327541331   -0.0002537723307554126
-0.0003006974641467636   -0.009504450465422217   -0.00024792965569757905
-0.0003303719350545966   -0.009511838616276271   -0.00022172880782285494
-0.0006906324653100904   -0.009840731889687227   -0.00028778274065204213
-0.0005731887820910051   -0.00953666327541331   -0.0002537723307554126
-0.0003303719350545966   -0.009511838616276271   -0.00022172880782285494
-0.0007868007997981265   -0.009883926347188949   -0.0002738018846843093
-0.0006906324653100904   -0.009840731889687227   -0.00028778274065204213
-0.0003006974641467636   -0.009504450465422217   -0.00024792965569757905
-0.0007661306630084573   -0.009880485873950474   -0.00028619123035594725
-0.0006467880292462919   -0.00984662239204988   -0.000316708861887223
-0.0003006974641467636   -0.009504450465422217   -0.00024792965569757905
-0.0005731887820910051   -0.00953666327541331   -0.0002537723307554126
-0.0007661306630084573   -0.009880485873950474   -0.00028619123035594725
-0.0005622234141986524   -0.009536638576697246   -0.0002639536584984941
-0.0006467880292462919   -0.00984662239204988   -0.000316708861887223
-0.00074853764978121   -0.009885240605540215   -0.0002976329925596426
-0.0005622234141986524   -0.009536638576697246   -0.0002639536584984941
-0.0007661306630084573   -0.009880485873950474   -0.00028619123035594725
-0.0006467880292462919   -0.00984662239204988   -0.000316708861887223
-0.0005622234141986524   -0.009536638576697246   -0.0002639536584984941
-0.00026776858831882415   -0.009504909188752768   -0.00027265785910239083
-0.0003006974641467636   -0.009504450465422217   -0.00024792965569757905
-0.0006467880292462919   -0.00984662239204988   -0.000316708861887223
-0.0005622234141986524   -0.009536638576697246   -0.0002639536584984941
-0.0003006974641467636   -0.009504450465422217   -0.00024792965569757905
-0.0007661306630084573   -0.009880485873950474   -0.00028619123035594725
-0.0008042601157529978   -0.00989547491552939   -0.0002605158499237612
-0.0006001559535653118   -0.009557632606315166   -0.00023059300034394709
-0.000851073799700176   -0.009916469301601689   -0.0002875850106957025
-0.0007868007997981265   -0.009883926347188949   -0.0002738018846843093
-0.0006001559535653118   -0.009557632606315166   -0.00023059300034394709
-0.0008330600673441506   -0.009567259103208395   -0.0002599847455905811
-0.000851073799700176   -0.009916469301601689   -0.0002875850106957025
-0.0008226301279783801   -0.0095550426204875   -0.000260442955862811
-0.0007868007997981265   -0.009883926347188949   -0.0002738018846843093
-0.0008357432071779305   -0.009906098748501313   -0.00028774041450677285
-0.0008226301279783801   -0.0095550426204875   -0.000260442955862811
-0.000851073799700176   -0.009916469301601689   -0.0002875850106957025
-0.0007868007997981265   -0.009883926347188949   -0.0002738018846843093
-0.0008226301279783801   -0.0095550426204875   -0.000260442955862811
-0.0005875783646539767   -0.009543593165919786   -0.00024266498022323368
-0.0006001559535653118   -0.009557632606315166   -0.00023059300034394709
-0.0007868007997981265   -0.009883926347188949   -0.0002738018846843093
-0.0008226301279783801   -0.0095550426204875   -0.000260442955862811
-0.0006001559535653118   -0.009557632606315166   -0.00023059300034394709
-0.000851073799700176   -0.009916469301601689   -0.0002875850106957025
-0.0007868007997981265   -0.009883926347188949   -0.0002738018846843093
-0.0005875783646539767   -0.009543593165919786   -0.00024266498022323368
-0.0008357432071779305   -0.009906098748501313   -0.00028774041450677285
-0.0007661306630084573   -0.009880485873950474   -0.00028619123035594725
-0.0005875783646539767   -0.009543593165919786   -0.00024266498022323368
-0.0008226301279783801   -0.0095550426204875   -0.000260442955862811
-0.0008357432071779305   -0.009906098748501313   -0.00028774041450677285
-0.000811817027953079   -0.009549223731099307   -0.0002600044365324401
-0.0007661306630084573   -0.009880485873950474   -0.00028619123035594725
-0.0008187293742733196   -0.009903062010242053   -0.00028673506496163046
-0.000811817027953079   -0.009549223731099307   -0.0002600044365324401
-0.0008357432071779305   -0.009906098748501313   -0.00028774041450677285
-0.0007661306630084573   -0.009880485873950474   -0.00028619123035594725
-0.000811817027953079   -0.009549223731099307   -0.0002600044365324401
-0.0005731887820910051   -0.00953666327541331   -0.0002537723307554126
-0.0005875783646539767   -0.009543593165919786   -0.00024266498022323368
-0.0007661306630084573   -0.009880485873950474   -0.00028619123035594725
-0.000811817027953079   -0.009549223731099307   -0.0002600044365324401
-0.0005875783646539767   -0.009543593165919786   -0.00024266498022323368
-0.0008357432071779305   -0.009906098748501313   -0.00028774041450677285
-0.0007661306630084573   -0.009880485873950474   -0.00028619123035594725
-0.0005731887820910051   -0.00953666327541331   -0.0002537723307554126
-0.0008187293742733196   -0.009903062010242053   -0.00028673506496163046
-0.00074853764978121   -0.009885240605540215   -0.0002976329925596426
-0.0005731887820910051   -0.00953666327541331   -0.0002537723307554126
-0.000811817027953079   -0.009549223731099307   -0.0002600044365324401
-0.0008187293742733196   -0.009903062010242053   -0.00028673506496163046
-0.0008014205785384453   -0.009549552073244897   -0.00025867620066540335
-0.00074853764978121   -0.009885240605540215   -0.0002976329925596426
-0.0008014893148036708   -0.009907093889882063   -0.0002848157698909794
-0.0008014205785384453   -0.009549552073244897   -0.00025867620066540335
-0.0008187293742733196   -0.009903062010242053   -0.00028673506496163046
-0.00074853764978121   -0.009885240605540215   -0.0002976329925596426
-0.0008014205785384453   -0.009549552073244897   -0.00025867620066540335
-0.0005622234141986524   -0.009536638576697246   -0.0002639536584984941
-0.0005731887820910051   -0.00953666327541331   -0.0002537723307554126
-0.00074853764978121   -0.009885240605540215   -0.0002976329925596426
-0.0008014205785384453   -0.009549552073244897   -0.00025867620066540335
-0.0005731887820910051   -0.00953666327541331   -0.0002537723307554126
-0.0008187293742733196   -0.009903062010242053   -0.00028673506496163046
-0.000851073799700176   -0.009916469301601689   -0.0002875850106957025
-0.0008330600673441506   -0.009567259103208395   -0.0002599847455905811
-0.0009022303786187269   -0.009923192324276782   -0.0003144460568879318
-0.0008357432071779305   -0.009906098748501313   -0.00028774041450677285
-0.0008330600673441506   -0.009567259103208395   -0.0002599847455905811
-0.001064918648434749   -0.009557964285114027   -0.0002875852931406991
-0.0009022303786187269   -0.009923192324276782   -0.0003144460568879318
-0.0010545725800658106   -0.009547031792469619   -0.0002768736066722618
-0.0008357432071779305   -0.009906098748501313   -0.00028774041450677285
-0.0008863417765479807   -0.009913131010524946   -0.00030195698750588477
-0.0010545725800658106   -0.009547031792469619   -0.0002768736066722618
-0.0009022303786187269   -0.009923192324276782   -0.0003144460568879318
-0.0008357432071779305   -0.009906098748501313   -0.00028774041450677285
-0.0010545725800658106   -0.009547031792469619   -0.0002768736066722618
-0.0008226301279783801   -0.0095550426204875   -0.000260442955862811
-0.0008330600673441506   -0.009567259103208395   -0.0002599847455905811
-0.0008357432071779305   -0.009906098748501313   -0.00028774041450677285
-0.0010545725800658106   -0.009547031792469619   -0.0002768736066722618
-0.0008330600673441506   -0.009567259103208395   -0.0002599847455905811
-0.0009022303786187269   -0.009923192324276782   -0.0003144460568879318
-0.0008357432071779305   -0.009906098748501313   -0.00028774041450677285
-0.0008226301279783801   -0.0095550426204875   -0.000260442955862811
-0.0008863417765479807   -0.009913131010524946   -0.00030195698750588477
-0.0008187293742733196   -0.009903062010242053   -0.00028673506496163046
-0.0008226301279783801   -0.0095550426204875   -0.000260442955862811
-0.0010545725800658106   -0.009547031792469619   -0.0002768736066722618
-0.0008863417765479807   -0.009913131010524946   -0.00030195698750588477
-0.0010429671379239538   -0.009542407244167644   -0.00026528546435856595
-0.0008187293742733196   -0.009903062010242053   -0.00028673506496163046
-0.0008674302281869067   -0.009910505448787223   -0.00028804930967237587
-0.0010429671379239538   -0.009542407244167644   -0.00026528546435856595
-0.0008863417765479807   -0.009913131010524946   -0.00030195698750588477
-0.0008187293742733196   -0.009903062010242053   -0.00028673506496163046
-0.0010429671379239538   -0.009542407244167644   -0.00026528546435856595
-0.000811817027953079   -0.009549223731099307   -0.0002600044365324401
-0.0008226301279783801   -0.0095550426204875   -0.000260442955862811
-0.0008187293742733196   -0.009903062010242053   -0.00028673506496163046
-0.0010429671379239538   -0.009542407244167644   -0.00026528546435856595
-0.0008226301279783801   -0.0095550426204875   -0.000260442955862811
-0.0008863417765479807   -0.009913131010524946   -0.00030195698750588477
-0.0008187293742733196   -0.009903062010242053   -0.00028673506496163046
-0.000811817027953079   -0.009549223731099307   -0.0002600044365324401
-0.0008674302281869067   -0.009910505448787223   -0.00028804930967237587
-0.0008014893148036708   -0.009907093889882063   -0.0002848157698909794
-0.000811817027953079   -0.009549223731099307   -0.0002600044365324401
-0.0010429671379239538   -0.009542407244167644   -0.00026528546435856595
-0.0008674302281869067   -0.009910505448787223   -0.00028804930967237587
-0.0010313901712314703   -0.00954356823119583   -0.00025271535799537405
-0.0008014893148036708   -0.009907093889882063   -0.0002848157698909794
-0.0008480722893262672   -0.009914321193829454   -0.00027332383604583766
-0.0010313901712314703   -0.00954356823119583   -0.00025271535799537405
-0.0008674302281869067   -0.009910505448787223   -0.00028804930967237587
-0.0008014893148036708   -0.009907093889882063   -0.0002848157698909794
-0.0010313901712314703   -0.00954356823119583   -0.00025271535799537405
-0.0008014205785384453   -0.009549552073244897   -0.00025867620066540335
-0.000811817027953079   -0.009549223731099307   -0.0002600044365324401
-0.0008014893148036708   -0.009907093889882063   -0.0002848157698909794
-0.0010313901712314703   -0.00954356823119583   -0.00025271535799537405
-0.000811817027953079   -0.009549223731099307   -0.0002600044365324401
-0.0008674302281869067   -0.009910505448787223   -0.00028804930967237587
-0.0009022303786187269   -0.009923192324276782   -0.0003144460568879318
-0.001064918648434749   -0.009557964285114027   -0.0002875852931406991
-0.0009769556587001648   -0.009909947056141073   -0.0003405386542847517
-0.0008863417765479807   -0.009913131010524946   -0.00030195698750588477
-0.001064918648434749   -0.009557964285114027   -0.0002875852931406991
-0.0013181091181596598   -0.00952864918809094   -0.00031323651110350505
-0.0009769556587001648   -0.009909947056141073   -0.0003405386542847517
-0.001305230586099498   -0.009518942033782727   -0.00029152215942262474
-0.0008863417765479807   -0.009913131010524946   -0.00030195698750588477
-0.0009562693632497332   -0.009900130027678119   -0.0003158793134537508
-0.001305230586099498   -0.009518942033782727   -0.00029152215942262474
-0.0009769556587001648   -0.009909947056141073   -0.0003405386542847517
-0.0008863417765479807   -0.009913131010524946   -0.00030195698750588477
-0.001305230586099498   -0.009518942033782727   -0.00029152215942262474
-0.0010545725800658106   -0.009547031792469619   -0.0002768736066722618
-0.001064918648434749   -0.009557964285114027   -0.0002875852931406991
-0.0008863417765479807   -0.009913131010524946   -0.00030195698750588477
-0.001305230586099498   -0.009518942033782727   -0.00029152215942262474
-0.001064918648434749   -0.009557964285114027   -0.0002875852931406991
-0.0009769556587001648   -0.009909947056141073   -0.0003405386542847517
-0.0008863417765479807   -0.009913131010524946   -0.00030195698750588477
-0.0010545725800658106   -0.009547031792469619   -0.0002768736066722618
-0.0009562693632497332   -0.009900130027678119   -0.0003158793134537508
-0.0008674302281869067   -0.009910505448787223   -0.00028804930967237587
-0.0010545725800658106   -0.009547031792469619   -0.0002768736066722618
-0.001305230586099498   -0.009518942033782727   -0.00029152215942262474
-0.0009562693632497332   -0.009900130027678119   -0.0003158793134537508
-0.0012872444236776295   -0.009515507601346737   -0.0002690172055301386
-0.0008674302281869067   -0.009910505448787223   -0.00028804930967237587
-0.0009286239162508888   -0.009898333997730921   -0.00028958655567744247
-0.0012872444236776295   -0.009515507601346737   -0.0002690172055301386
-0.0009562693632497332   -0.009900130027678119   -0.0003158793134537508
-0.0008674302281869067   -0.009910505448787223   -0.00028804930967237587
-0.0012872444236776295   -0.009515507601346737   -0.0002690172055301386
-0.0010429671379239538   -0.009542407244167644   -0.00026528546435856595
-0.0010545725800658106   -0.009547031792469619   -0.0002768736066722618
-0.0008674302281869067   -0.009910505448787223   -0.00028804930967237587
-0.0012872444236776295   -0.009515507601346737   -0.0002690172055301386
-0.0010545725800658106   -0.009547031792469619   -0.0002768736066722618
-0.0009562693632497332   -0.009900130027678119   -0.0003158793134537508
-0.0008674302281869067   -0.009910505448787223   -0.00028804930967237587
-0.0010429671379239538   -0.009542407244167644   -0.00026528546435856595
-0.0009286239162508888   -0.009898333997730921   -0.00028958655567744247
-0.0008480722893262672   -0.009914321193829454   -0.00027332383604583766
-0.0010429671379239538   -0.009542407244167644   -0.00026528546435856595
-0.0012872444236776295   -0.009515507601346737   -0.0002690172055301386
-0.0009286239162508888   -0.009898333997730921   -0.00028958655567744247
-0.0012718997332806308   -0.009518333353344755   -0.0002451515196240362
-0.0008480722893262672   -0.009914321193829454   -0.00027332383604583766
-0.0009031610403346821   -0.009903138210168893   -0.0002623978601365162
-0.0012718997332806308   -0.009518333353344755   -0.0002451515196240362
-0.0009286239162508888   -0.009898333997730921   -0.00028958655567744247
-0.0008480722893262672   -0.009914321193829454   -0.00027332383604583766
-0.0012718997332806308   -0.009518333353344755   -0.0002451515196240362
-0.0010313901712314703   -0.00954356823119583   -0.00025271535799537405
-0.0010429671379239538   -0.009542407244167644   -0.00026528546435856595
-0.0008480722893262672   -0.009914321193829454   -0.00027332383604583766
-0.0012718997332806308   -0.009518333353344755   -0.0002451515196240362
-0.0010429671379239538   -0.009542407244167644   -0.00026528546435856595
-0.0009286239162508888   -0.009898333997730921   -0.00028958655567744247
-0.0009769556587001648   -0.009909947056141073   -0.0003405386542847517
-0.0013181091181596598   -0.00952864918809094   -0.00031323651110350505
-0.0011299903506691124   -0.009862155095487187   -0.0003692970057364141
-0.0009562693632497332   -0.009900130027678119   -0.0003158793134537508
-0.0013181091181596598   -0.00952864918809094   -0.00031323651110350505
-0.001643837303829777   -0.009480970678366086   -0.00033876583983091573
-0.0011299903506691124   -0.009862155095487187   -0.0003692970057364141
-0.0015992771020673813   -0.009470061561204104   -0.0003043855459531984
-0.0009562693632497332   -0.009900130027678119   -0.0003158793134537508
-0.0010712622316144805   -0.009853334822317966   -0.00032891661815873975
-0.0015992771020673813   -0.009470061561204104   -0.0003043855459531984
-0.0011299903506691124   -0.009862155095487187   -0.0003692970057364141
-0.0009562693632497332   -0.009900130027678119   -0.0003158793134537508
-0.0015992771020673813   -0.009470061561204104   -0.0003043855459531984
-0.001305230586099498   -0.009518942033782727   -0.00029152215942262474
-0.0013181091181596598   -0.00952864918809094   -0.00031323651110350505
-0.0009562693632497332   -0.009900130027678119   -0.0003158793134537508
-0.0015992771020673813   -0.009470061561204104   -0.0003043855459531984
-0.0013181091181596598   -0.00952864918809094   -0.00031323651110350505
-0.0011299903506691124   -0.009862155095487187   -0.0003692970057364141
-0.0009562693632497332   -0.009900130027678119   -0.0003158793134537508
-0.001305230586099498   -0.009518942033782727   -0.00029152215942262474
-0.0010712622316144805   -0.009853334822317966   -0.00032891661815873975
-0.0009286239162508888   -0.009898333997730921   -0.00028958655567744247
-0.001305230586099498   -0.009518942033782727   -0.00029152215942262474
-0.0015992771020673813   -0.009470061561204104   -0.0003043855459531984
-0.0010712622316144805   -0.009853334822317966   -0.00032891661815873975
-0.001559968888338892   -0.009466884970756675   -0.000268299727608749
-0.0009286239162508888   -0.009898333997730921   -0.00028958655567744247
-0.0010180710230061384   -0.009852490683921737   -0.00028616597280528816
-0.001559968888338892   -0.009466884970756675   -0.000268299727608749
-0.0010712622316144805   -0.009853334822317966   -0.00032891661815873975
-0.0009286239162508888   -0.009898333997730921   -0.00028958655567744247
-0.001559968888338892   -0.009466884970756675   -0.000268299727608749
-0.0012872444236776295   -0.009515507601346737   -0.0002690172055301386
-0.001305230586099498   -0.009518942033782727   -0.00029152215942262474
-0.0009286239162508888   -0.009898333997730921   -0.00028958655567744247
-0.001559968888338892   -0.009466884970756675   -0.000268299727608749
-0.001305230586099498   -0.009518942033782727   -0.00029152215942262474
-0.0010712622316144805   -0.009853334822317966   -0.00032891661815873975
-0.0009286239162508888   -0.009898333997730921   -0.00028958655567744247
-0.0012872444236776295   -0.009515507601346737   -0.0002690172055301386
-0.0010180710230061384   -0.009852490683921737   -0.00028616597280528816
-0.0009031610403346821   -0.009903138210168893   -0.0002623978601365162
-0.0012872444236776295   -0.009515507601346737   -0.0002690172055301386
-0.001559968888338892   -0.009466884970756675   -0.000268299727608749
-0.0010180710230061384   -0.009852490683921737   -0.00028616597280528816
-0.0015091048483474642   -0.009473285832316531   -0.00023082631194428868
-0.0009031610403346821   -0.009903138210168893   -0.0002623978601365162
-0.0009507535263746804   -0.009863918176697635   -0.0002417568584417246
-0.0015091048483474642   -0.009473285832316531   -0.00023082631194428868
-0.0010180710230061384   -0.009852490683921737   -0.00028616597280528816
-0.0009031610403346821   -0.009903138210168893   -0.0002623978601365162
-0.0015091048483474642   -0.009473285832316531   -0.00023082631194428868
-0.0012718997332806308   -0.009518333353344755   -0.0002451515196240362
-0.0012872444236776295   -0.009515507601346737   -0.0002690172055301386
-0.0009031610403346821   -0.009903138210168893   -0.0002623978601365162
-0.0015091048483474642   -0.009473285832316531   -0.00023082631194428868
-0.0012872444236776295   -0.009515507601346737   -0.0002690172055301386
-0.0010180710230061384   -0.009852490683921737   -0.00028616597280528816
-0.00036805449351611104   -0.009529384528249784   -0.00019410556154893818
-2.8358707207197465e-05   -0.008888232168605386   -0.00015926099493706987
-0.0006001559535653118   -0.009557632606315166   -0.00023059300034394709
-0.0003303719350545966   -0.009511838616276271   -0.00022172880782285494
-2.8358707207197465e-05   -0.008888232168605386   -0.00015926099493706987
-0.0004334437528864508   -0.008909699624150844   -0.00019531508515636855
-0.0006001559535653118   -0.009557632606315166   -0.00023059300034394709
-0.0004265168900237189   -0.008894932671268027   -0.0002051686345984896
-0.0003303719350545966   -0.009511838616276271   -0.00022172880782285494
-0.0005875783646539767   -0.009543593165919786   -0.00024266498022323368
-0.0004265168900237189   -0.008894932671268027   -0.0002051686345984896
-0.0006001559535653118   -0.009557632606315166   -0.00023059300034394709
-0.0003303719350545966   -0.009511838616276271   -0.00022172880782285494
-0.0004265168900237189   -0.008894932671268027   -0.0002051686345984896
-9.982553684294016e-07   -0.008870259393835138   -0.0001819408172295456
-2.8358707207197465e-05   -0.008888232168605386   -0.00015926099493706987
-0.0003303719350545966   -0.009511838616276271   -0.00022172880782285494
-0.0004265168900237189   -0.008894932671268027   -0.0002051686345984896
-2.8358707207197465e-05   -0.008888232168605386   -0.00015926099493706987
-0.0006001559535653118   -0.009557632606315166   -0.00023059300034394709
-0.0003303719350545966   -0.009511838616276271   -0.00022172880782285494
-9.982553684294016e-07   -0.008870259393835138   -0.0001819408172295456
-0.0005875783646539767   -0.009543593165919786   -0.00024266498022323368
-0.0003006974641467636   -0.009504450465422217   -0.00024792965569757905
-9.982553684294016e-07   -0.008870259393835138   -0.0001819408172295456
-0.0004265168900237189   -0.008894932671268027   -0.0002051686345984896
-0.0005875783646539767   -0.009543593165919786   -0.00024266498022323368
-0.0004184490225814081   -0.008886135211671874   -0.00021400456207713492
-0.0003006974641467636   -0.009504450465422217   -0.00024792965569757905
-0.0005731887820910051   -0.00953666327541331   -0.0002537723307554126
-0.0004184490225814081   -0.008886135211671874   -0.00021400456207713492
-0.0005875783646539767   -0.009543593165919786   -0.00024266498022323368
-0.0003006974641467636   -0.009504450465422217   -0.00024792965569757905
-0.0004184490225814081   -0.008886135211671874   -0.00021400456207713492
1.924013668652102e-05   -0.008860860720653764   -0.00020319530943256354
-9.982553684294016e-07   -0.008870259393835138   -0.0001819408172295456
-0.0003006974641467636   -0.009504450465422217   -0.00024792965569757905
-0.0004184490225814081   -0.008886135211671874   -0.00021400456207713492
-9.982553684294016e-07   -0.008870259393835138   -0.0001819408172295456
-0.0005875783646539767   -0.009543593165919786   -0.00024266498022323368
-0.0003006974641467636   -0.009504450465422217   -0.00024792965569757905
1.924013668652102e-05   -0.008860860720653764   -0.00020319530943256354
-0.0005731887820910051   -0.00953666327541331   -0.0002537723307554126
-0.00026776858831882415   -0.009504909188752768   -0.00027265785910239083
1.924013668652102e-05   -0.008860860720653764   -0.00020319530943256354
-0.0004184490225814081   -0.008886135211671874   -0.00021400456207713492
-0.0005731887820910051   -0.00953666327541331   -0.0002537723307554126
-0.00041360373697500513   -0.008883017352110471   -0.00022192457759058568
-0.00026776858831882415   -0.009504909188752768   -0.00027265785910239083
-0.0005622234141986524   -0.009536638576697246   -0.0002639536584984941
-0.00041360373697500513   -0.008883017352110471   -0.00022192457759058568
-0.0005731887820910051   -0.00953666327541331   -0.0002537723307554126
-0.00026776858831882415   -0.009504909188752768   -0.00027265785910239083
-0.00041360373697500513   -0.008883017352110471   -0.00022192457759058568
4.13978747374793e-05   -0.008857718055869114   -0.00022302561206438207
1.924013668652102e-05   -0.008860860720653764   -0.00020319530943256354
-0.00026776858831882415   -0.009504909188752768   -0.00027265785910239083
-0.00041360373697500513   -0.008883017352110471   -0.00022192457759058568
1.924013668652102e-05   -0.008860860720653764   -0.00020319530943256354
-0.0005731887820910051   -0.00953666327541331   -0.0002537723307554126
-0.0006001559535653118   -0.009557632606315166   -0.00023059300034394709
-0.0004334437528864508   -0.008909699624150844   -0.00019531508515636855
-0.0008330600673441506   -0.009567259103208395   -0.0002599847455905811
-0.0005875783646539767   -0.009543593165919786   -0.00024266498022323368
-0.0004334437528864508   -0.008909699624150844   -0.00019531508515636855
-0.0008287921438669007   -0.008913891833975913   -0.00022448673923637576
-0.0008330600673441506   -0.009567259103208395   -0.0002599847455905811
-0.000823831825609527   -0.008901343326638143   -0.00022458835134247514
-0.0005875783646539767   -0.009543593165919786   -0.00024266498022323368
-0.0008226301279783801   -0.0095550426204875   -0.000260442955862811
-0.000823831825609527   -0.008901343326638143   -0.00022458835134247514
-0.0008330600673441506   -0.009567259103208395   -0.0002599847455905811
-0.0005875783646539767   -0.009543593165919786   -0.00024266498022323368
-0.000823831825609527   -0.008901343326638143   -0.00022458835134247514
-0.0004265168900237189   -0.008894932671268027   -0.0002051686345984896
-0.0004334437528864508   -0.008909699624150844   -0.00019531508515636855
-0.0005875783646539767   -0.009543593165919786   -0.00024266498022323368
-0.000823831825609527   -0.008901343326638143   -0.00022458835134247514
-0.0004334437528864508   -0.008909699624150844   -0.00019531508515636855
-0.0008330600673441506   -0.009567259103208395   -0.0002599847455905811
-0.0005875783646539767   -0.009543593165919786   -0.00024266498022323368
-0.0004265168900237189   -0.008894932671268027   -0.0002051686345984896
-0.0008226301279783801   -0.0095550426204875   -0.000260442955862811
-0.0005731887820910051   -0.00953666327541331   -0.0002537723307554126
-0.0004265168900237189   -0.008894932671268027   -0.0002051686345984896
-0.000823831825609527   -0.008901343326638143   -0.00022458835134247514
-0.0008226301279783801   -0.0095550426204875   -0.000260442955862811
-0.0008187073900359422   -0.008894124676773937   -0.00022370760304498178
-0.0005731887820910051   -0.00953666327541331   -0.0002537723307554126
-0.000811817027953079   -0.009549223731099307   -0.0002600044365324401
-0.0008187073900359422   -0.008894124676773937   -0.00022370760304498178
-0.0008226301279783801   -0.0095550426204875   -0.000260442955862811
-0.0005731887820910051   -0.00953666327541331   -0.0002537723307554126
-0.0008187073900359422   -0.008894124676773937   -0.00022370760304498178
-0.0004184490225814081   -0.008886135211671874   -0.00021400456207713492
-0.0004265168900237189   -0.008894932671268027   -0.0002051686345984896
-0.0005731887820910051   -0.00953666327541331   -0.0002537723307554126
-0.0008187073900359422   -0.008894124676773937   -0.00022370760304498178
-0.0004265168900237189   -0.008894932671268027   -0.0002051686345984896
-0.0008226301279783801   -0.0095550426204875   -0.000260442955862811
-0.0005731887820910051   -0.00953666327541331   -0.0002537723307554126
-0.0004184490225814081   -0.008886135211671874   -0.00021400456207713492
-0.000811817027953079   -0.009549223731099307   -0.0002600044365324401
-0.0005622234141986524   -0.009536638576697246   -0.0002639536584984941
-0.0004184490225814081   -0.008886135211671874   -0.00021400456207713492
-0.0008187073900359422   -0.008894124676773937   -0.00022370760304498178
-0.000811817027953079   -0.009549223731099307   -0.0002600044365324401
-0.0008142345092037602   -0.00889216909447038   -0.0002219213753967904
-0.0005622234141986524   -0.009536638576697246   -0.0002639536584984941
-0.0008014205785384453   -0.009549552073244897   -0.00025867620066540335
-0.0008142345092037602   -0.00889216909447038   -0.0002219213753967904
-0.000811817027953079   -0.009549223731099307   -0.0002600044365324401
-0.0005622234141986524   -0.009536638576697246   -0.0002639536584984941
-0.0008142345092037602   -0.00889216909447038   -0.0002219213753967904
-0.00041360373697500513   -0.008883017352110471   -0.00022192457759058568
-0.0004184490225814081   -0.008886135211671874   -0.00021400456207713492
-0.0005622234141986524   -0.009536638576697246   -0.0002639536584984941
-0.0008142345092037602   -0.00889216909447038   -0.0002219213753967904
-0.0004184490225814081   -0.008886135211671874   -0.00021400456207713492
-0.000811817027953079   -0.009549223731099307   -0.0002600044365324401
-0.0008330600673441506   -0.009567259103208395   -0.0002599847455905811
-0.0008287921438669007   -0.008913891833975913   -0.00022448673923637576
-0.001064918648434749   -0.009557964285114027   -0.0002875852931406991
-0.0008226301279783801   -0.0095550426204875   -0.000260442955862811
-0.0008287921438669007   -0.008913891833975913   -0.00022448673923637576
-0.001218662949085951   -0.00890095720339928   -0.00025076486130213454
-0.001064918648434749   -0.009557964285114027   -0.0002875852931406991
-0.0012140582251590772   -0.00889017491859861   -0.0002413402943770514
-0.0008226301279783801   -0.0095550426204875   -0.000260442955862811
-0.0010545725800658106   -0.009547031792469619   -0.0002768736066722618
-0.0012140582251590772   -0.00889017491859861   -0.0002413402943770514
-0.001064918648434749   -0.009557964285114027   -0.0002875852931406991
-0.0008226301279783801   -0.0095550426204875   -0.000260442955862811
-0.0012140582251590772   -0.00889017491859861   -0.0002413402943770514
-0.000823831825609527   -0.008901343326638143   -0.00022458835134247514
-0.0008287921438669007   -0.008913891833975913   -0.00022448673923637576
-0.0008226301279783801   -0.0095550426204875   -0.000260442955862811
-0.0012140582251590772   -0.00889017491859861   -0.0002413402943770514
-0.0008287921438669007   -0.008913891833975913   -0.00022448673923637576
-0.001064918648434749   -0.009557964285114027   -0.0002875852931406991
-0.0008226301279783801   -0.0095550426204875   -0.000260442955862811
-0.000823831825609527   -0.008901343326638143   -0.00022458835134247514
-0.0010545725800658106   -0.009547031792469619   -0.0002768736066722618
-0.000811817027953079   -0.009549223731099307   -0.0002600044365324401
-0.000823831825609527   -0.008901343326638143   -0.00022458835134247514
-0.0012140582251590772   -0.00889017491859861   -0.0002413402943770514
-0.0010545725800658106   -0.009547031792469619   -0.0002768736066722618
-0.001208480246867148   -0.008884667659791555   -0.00023096105744927894
-0.000811817027953079   -0.009549223731099307   -0.0002600044365324401
-0.0010429671379239538   -0.009542407244167644   -0.00026528546435856595
-0.001208480246867148   -0.008884667659791555   -0.00023096105744927894
-0.0010545725800658106   -0.009547031792469619   -0.0002768736066722618
-0.000811817027953079   -0.009549223731099307   -0.0002600044365324401
-0.001208480246867148   -0.008884667659791555   -0.00023096105744927894
-0.0008187073900359422   -0.008894124676773937   -0.00022370760304498178
-0.000823831825609527   -0.008901343326638143   -0.00022458835134247514
-0.000811817027953079   -0.009549223731099307   -0.0002600044365324401
-0.001208480246867148   -0.008884667659791555   -0.00023096105744927894
-0.000823831825609527   -0.008901343326638143   -0.00022458835134247514
-0.0010545725800658106   -0.009547031792469619   -0.0002768736066722618
-0.000811817027953079   -0.009549223731099307   -0.0002600044365324401
-0.0008187073900359422   -0.008894124676773937   -0.00022370760304498178
-0.0010429671379239538   -0.009542407244167644   -0.00026528546435856595
-0.0008014205785384453   -0.009549552073244897   -0.00025867620066540335
-0.0008187073900359422   -0.008894124676773937   -0.00022370760304498178
-0.001208480246867148   -0.008884667659791555   -0.00023096105744927894
-0.0010429671379239538   -0.009542407244167644   -0.00026528546435856595
-0.0012031030208035092   -0.008884230403596441   -0.0002196549951222738
-0.0008014205785384453   -0.009549552073244897   -0.00025867620066540335
-0.0010313901712314703   -0.00954356823119583   -0.00025271535799537405
-0.0012031030208035092   -0.008884230403596441   -0.0002196549951222738
-0.0010429671379239538   -0.009542407244167644   -0.00026528546435856595
-0.0008014205785384453   -0.009549552073244897   -0.00025867620066540335
-0.0012031030208035092   -0.008884230403596441   -0.0002196549951222738
-0.0008142345092037602   -0.00889216909447038   -0.0002219213753967904
-0.0008187073900359422   -0.008894124676773937   -0.00022370760304498178
-0.0008014205785384453   -0.009549552073244897   -0.00025867620066540335
-0.0012031030208035092   -0.008884230403596441   -0.0002196549951222738
-0.0008187073900359422   -0.008894124676773937   -0.00022370760304498178
-0.0010429671379239538   -0.009542407244167644   -0.00026528546435856595
-0.001064918648434749   -0.009557964285114027   -0.0002875852931406991
-0.001218662949085951   -0.00890095720339928   -0.00025076486130213454
-0.0013181091181596598   -0.00952864918809094   -0.00031323651110350505
-0.0010545725800658106   -0.009547031792469619   -0.0002768736066722618
-0.001218662949085951   -0.00890095720339928   -0.00025076486130213454
-0.0016262472350132803   -0.008871251992625796   -0.000274181435138671
-0.0013181091181596598   -0.00952864918809094   -0.00031323651110350505
-0.0016200166686660814   -0.008862085234951338   -0.00025518385005068167
-0.0010545725800658106   -0.009547031792469619   -0.0002768736066722618
-0.001305230586099498   -0.009518942033782727   -0.00029152215942262474
-0.0016200166686660814   -0.008862085234951338   -0.00025518385005068167
-0.0013181091181596598   -0.00952864918809094   -0.00031323651110350505
-0.0010545725800658106   -0.009547031792469619   -0.0002768736066722618
-0.0016200166686660814   -0.008862085234951338   -0.00025518385005068167
-0.0012140582251590772   -0.00889017491859861   -0.0002413402943770514
-0.001218662949085951   -0.00890095720339928   -0.00025076486130213454
-0.0010545725800658106   -0.009547031792469619   -0.0002768736066722618
-0.0016200166686660814   -0.008862085234951338   -0.00025518385005068167
-0.001218662949085951   -0.00890095720339928   -0.00025076486130213454
-0.0013181091181596598   -0.00952864918809094   -0.00031323651110350505
-0.0010545725800658106   -0.009547031792469619   -0.0002768736066722618
-0.0012140582251590772   -0.00889017491859861   -0.0002413402943770514
-0.001305230586099498   -0.009518942033782727   -0.00029152215942262474
-0.0010429671379239538   -0.009542407244167644   -0.00026528546435856595
-0.0012140582251590772   -0.00889017491859861   -0.0002413402943770514
-0.0016200166686660814   -0.008862085234951338   -0.00025518385005068167
-0.001305230586099498   -0.009518942033782727   -0.00029152215942262474
-0.0016093328967000653   -0.008858128456268833   -0.00023538845054734027
-0.0010429671379239538   -0.009542407244167644   -0.00026528546435856595
-0.0012872444236776295   -0.009515507601346737   -0.0002690172055301386
-0.0016093328967000653   -0.008858128456268833   -0.00023538845054734027
-0.001305230586099498   -0.009518942033782727   -0.00029152215942262474
-0.0010429671379239538   -0.009542407244167644   -0.00026528546435856595
-0.0016093328967000653   -0.008858128456268833   -0.00023538845054734027
-0.001208480246867148   -0.008884667659791555   -0.00023096105744927894
-0.0012140582251590772   -0.00889017491859861   -0.0002413402943770514
-0.0010429671379239538   -0.009542407244167644   -0.00026528546435856595
-0.0016093328967000653   -0.008858128456268833   -0.00023538845054734027
-0.0012140582251590772   -0.00889017491859861   -0.0002413402943770514
-0.001305230586099498   -0.009518942033782727   -0.00029152215942262474
-0.0010429671379239538   -0.009542407244167644   -0.00026528546435856595
-0.001208480246867148   -0.008884667659791555   -0.00023096105744927894
-0.0012872444236776295   -0.009515507601346737   -0.0002690172055301386
-0.0010313901712314703   -0.00954356823119583   -0.00025271535799537405
-0.001208480246867148   -0.008884667659791555   -0.00023096105744927894
-0.0016093328967000653   -0.008858128456268833   -0.00023538845054734027
-0.0012872444236776295   -0.009515507601346737   -0.0002690172055301386
-0.0016009084756334435   -0.008859640184618557   -0.00021452514846629267
-0.0010313901712314703   -0.00954356823119583   -0.00025271535799537405
-0.0012718997332806308   -0.009518333353344755   -0.0002451515196240362
-0.0016009084756334435   -0.008859640184618557   -0.00021452514846629267
-0.0012872444236776295   -0.009515507601346737   -0.0002690172055301386
-0.0010313901712314703   -0.00954356823119583   -0.00025271535799537405
-0.0016009084756334435   -0.008859640184618557   -0.00021452514846629267
-0.0012031030208035092   -0.008884230403596441   -0.0002196549951222738
-0.001208480246867148   -0.008884667659791555   -0.00023096105744927894
-0.0010313901712314703   -0.00954356823119583   -0.00025271535799537405
-0.0016009084756334435   -0.008859640184618557   -0.00021452514846629267
-0.001208480246867148   -0.008884667659791555   -0.00023096105744927894
-0.0012872444236776295   -0.009515507601346737   -0.0002690172055301386
-0.0013181091181596598   -0.00952864918809094   -0.00031323651110350505
-0.0016262472350132803   -0.008871251992625796   -0.000274181435138671
-0.001643837303829777   -0.009480970678366086   -0.00033876583983091573
-0.001305230586099498   -0.009518942033782727   -0.00029152215942262474
-0.0016262472350132803   -0.008871251992625796   -0.000274181435138671
-0.0021010828977016875   -0.00882778647058189   -0.00029665113609623394
-0.001643837303829777   -0.009480970678366086   -0.00033876583983091573
-0.002067020101045783   -0.00881793421508822   -0.0002667666797137752
-0.001305230586099498   -0.009518942033782727   -0.00029152215942262474
-0.0015992771020673813   -0.009470061561204104   -0.0003043855459531984
-0.002067020101045783   -0.00881793421508822   -0.0002667666797137752
-0.001643837303829777   -0.009480970678366086   -0.00033876583983091573
-0.001305230586099498   -0.009518942033782727   -0.00029152215942262474
-0.002067020101045783   -0.00881793421508822   -0.0002667666797137752
-0.0016200166686660814   -0.008862085234951338   -0.00025518385005068167
-0.0016262472350132803   -0.008871251992625796   -0.000274181435138671
-0.001305230586099498   -0.009518942033782727   -0.00029152215942262474
-0.002067020101045783   -0.00881793421508822   -0.0002667666797137752
-0.0016262472350132803   -0.008871251992625796   -0.000274181435138671
-0.001643837303829777   -0.009480970678366086   -0.00033876583983091573
-0.001305230586099498   -0.009518942033782727   -0.00029152215942262474
-0.0016200166686660814   -0.008862085234951338   -0.00025518385005068167
-0.0015992771020673813   -0.009470061561204104   -0.0003043855459531984
-0.0012872444236776295   -0.009515507601346737   -0.0002690172055301386
-0.0016200166686660814   -0.008862085234951338   -0.00025518385005068167
-0.002067020101045783   -0.00881793421508822   -0.0002667666797137752
-0.0015992771020673813   -0.009470061561204104   -0.0003043855459531984
-0.0020378643449398782   -0.00881440043974459   -0.00023553688359888284
-0.0012872444236776295   -0.009515507601346737   -0.0002690172055301386
-0.001559968888338892   -0.009466884970756675   -0.000268299727608749
-0.0020378643449398782   -0.00881440043974459   -0.00023553688359888284
-0.0015992771020673813   -0.009470061561204104   -0.0003043855459531984
-0.0012872444236776295   -0.009515507601346737   -0.0002690172055301386
-0.0020378643449398782   -0.00881440043974459   -0.00023553688359888284
-0.0016093328967000653   -0.008858128456268833   -0.00023538845054734027
-0.0016200166686660814   -0.008862085234951338   -0.00025518385005068167
-0.0012872444236776295   -0.009515507601346737   -0.0002690172055301386
-0.0020378643449398782   -0.00881440043974459   -0.00023553688359888284
-0.0016200166686660814   -0.008862085234951338   -0.00025518385005068167
-0.0015992771020673813   -0.009470061561204104   -0.0003043855459531984
-0.0012872444236776295   -0.009515507601346737   -0.0002690172055301386
-0.0016093328967000653   -0.008858128456268833   -0.00023538845054734027
-0.001559968888338892   -0.009466884970756675   -0.000268299727608749
-0.0012718997332806308   -0.009518333353344755   -0.0002451515196240362
-0.0016093328967000653   -0.008858128456268833   -0.00023538845054734027
-0.0020378643449398782   -0.00881440043974459   -0.00023553688359888284
-0.001559968888338892   -0.009466884970756675   -0.000268299727608749
-0.001998758813741335   -0.008819124022378978   -0.0002031550800147871
-0.0012718997332806308   -0.009518333353344755   -0.0002451515196240362
-0.0015091048483474642   -0.009473285832316531   -0.00023082631194428868
-0.001998758813741335   -0.008819124022378978   -0.0002031550800147871
-0.001559968888338892   -0.009466884970756675   -0.000268299727608749
-0.0012718997332806308   -0.009518333353344755   -0.0002451515196240362
-0.001998758813741335   -0.008819124022378978   -0.0002031550800147871
-0.0016009084756334435   -0.008859640184618557   -0.00021452514846629267
-0.0016093328967000653   -0.008858128456268833   -0.00023538845054734027
-0.0012718997332806308   -0.009518333353344755   -0.0002451515196240362
-0.001998758813741335   -0.008819124022378978   -0.0002031550800147871
-0.0016093328967000653   -0.008858128456268833   -0.00023538845054734027
-0.001559968888338892   -0.009466884970756675   -0.000268299727608749
-2.8358707207197465e-05   -0.008888232168605386   -0.00015926099493706987
0.00023855441596781364   -0.007994263916538185   -0.00012090492890357124
-0.0004334437528864508   -0.008909699624150844   -0.00019531508515636855
-9.982553684294016e-07   -0.008870259393835138   -0.0001819408172295456
0.00023855441596781364   -0.007994263916538185   -0.00012090492890357124
-0.00030859721881512506   -0.008009119949031316   -0.00015542555507521325
-0.0004334437528864508   -0.008909699624150844   -0.00019531508515636855
-0.00030679372209209155   -0.007994420883639141   -0.00016255559222937073
-9.982553684294016e-07   -0.008870259393835138   -0.0001819408172295456
-0.0004265168900237189   -0.008894932671268027   -0.0002051686345984896
-0.00030679372209209155   -0.007994420883639141   -0.00016255559222937073
-0.0004334437528864508   -0.008909699624150844   -0.00019531508515636855
-9.982553684294016e-07   -0.008870259393835138   -0.0001819408172295456
-0.00030679372209209155   -0.007994420883639141   -0.00016255559222937073
0.0002559395357284751   -0.00797663428354444   -0.00013833546811161494
0.00023855441596781364   -0.007994263916538185   -0.00012090492890357124
-9.982553684294016e-07   -0.008870259393835138   -0.0001819408172295456
-0.00030679372209209155   -0.007994420883639141   -0.00016255559222937073
0.00023855441596781364   -0.007994263916538185   -0.00012090492890357124
-0.0004334437528864508   -0.008909699624150844   -0.00019531508515636855
-9.982553684294016e-07   -0.008870259393835138   -0.0001819408172295456
0.0002559395357284751   -0.00797663428354444   -0.00013833546811161494
-0.0004265168900237189   -0.008894932671268027   -0.0002051686345984896
1.924013668652102e-05   -0.008860860720653764   -0.00020319530943256354
0.0002559395357284751   -0.00797663428354444   -0.00013833546811161494
-0.00030679372209209155   -0.007994420883639141   -0.00016255559222937073
-0.0004265168900237189   -0.008894932671268027   -0.0002051686345984896
-0.00030444173997563916   -0.007984578271231764   -0.00016872363801150972
1.924013668652102e-05   -0.008860860720653764   -0.00020319530943256354
-0.0004184490225814081   -0.008886135211671874   -0.00021400456207713492
-0.00030444173997563916   -0.007984578271231764   -0.00016872363801150972
-0.0004265168900237189   -0.008894932671268027   -0.0002051686345984896
1.924013668652102e-05   -0.008860860720653764   -0.00020319530943256354
-0.00030444173997563916   -0.007984578271231764   -0.00016872363801150972
0.0002673582431485045   -0.007966045229462001   -0.00015439914793137277
0.0002559395357284751   -0.00797663428354444   -0.00013833546811161494
1.924013668652102e-05   -0.008860860720653764   -0.00020319530943256354
-0.00030444173997563916   -0.007984578271231764   -0.00016872363801150972
0.0002559395357284751   -0.00797663428354444   -0.00013833546811161494
-0.0004265168900237189   -0.008894932671268027   -0.0002051686345984896
1.924013668652102e-05   -0.008860860720653764   -0.00020319530943256354
0.0002673582431485045   -0.007966045229462001   -0.00015439914793137277
-0.0004184490225814081   -0.008886135211671874   -0.00021400456207713492
4.13978747374793e-05   -0.008857718055869114   -0.00022302561206438207
0.0002673582431485045   -0.007966045229462001   -0.00015439914793137277
-0.00030444173997563916   -0.007984578271231764   -0.00016872363801150972
-0.0004184490225814081   -0.008886135211671874   -0.00021400456207713492
-0.0003049086707135506   -0.007979231573340654   -0.00017399862205081916
4.13978747374793e-05   -0.008857718055869114   -0.00022302561206438207
-0.00041360373697500513   -0.008883017352110471   -0.00022192457759058568
-0.0003049086707135506   -0.007979231573340654   -0.00017399862205081916
-0.0004184490225814081   -0.008886135211671874   -0.00021400456207713492
4.13978747374793e-05   -0.008857718055869114   -0.00022302561206438207
-0.0003049086707135506   -0.007979231573340654   -0.00017399862205081916
0.00027954873654610494   -0.007960170066986915   -0.00016913147561311055
0.0002673582431485045   -0.007966045229462001   -0.00015439914793137277
4.13978747374793e-05   -0.008857718055869114   -0.00022302561206438207
-0.0003049086707135506   -0.007979231573340654   -0.00017399862205081916
0.0002673582431485045   -0.007966045229462001   -0.00015439914793137277
-0.0004184490225814081   -0.008886135211671874   -0.00021400456207713492
-0.0004334437528864508   -0.008909699624150844   -0.00019531508515636855
-0.00030859721881512506   -0.008009119949031316   -0.00015542555507521325
-0.0008287921438669007   -0.008913891833975913   -0.00022448673923637576
-0.0004265168900237189   -0.008894932671268027   -0.0002051686345984896
-0.00030859721881512506   -0.008009119949031316   -0.00015542555507521325
-0.0008379546404488792   -0.008009547969331125   -0.0001832151649934824
-0.0008287921438669007   -0.008913891833975913   -0.00022448673923637576
-0.0008378450784218337   -0.00799733404744764   -0.00018252309277024158
-0.0004265168900237189   -0.008894932671268027   -0.0002051686345984896
-0.000823831825609527   -0.008901343326638143   -0.00022458835134247514
-0.0008378450784218337   -0.00799733404744764   -0.00018252309277024158
-0.0008287921438669007   -0.008913891833975913   -0.00022448673923637576
-0.0004265168900237189   -0.008894932671268027   -0.0002051686345984896
-0.0008378450784218337   -0.00799733404744764   -0.00018252309277024158
-0.00030679372209209155   -0.007994420883639141   -0.00016255559222937073
-0.00030859721881512506   -0.008009119949031316   -0.00015542555507521325
-0.0004265168900237189   -0.008894932671268027   -0.0002051686345984896
-0.0008378450784218337   -0.00799733404744764   -0.00018252309277024158
-0.00030859721881512506   -0.008009119949031316   -0.00015542555507521325
-0.0008287921438669007   -0.008913891833975913   -0.00022448673923637576
-0.0004265168900237189   -0.008894932671268027   -0.0002051686345984896
-0.00030679372209209155   -0.007994420883639141   -0.00016255559222937073
-0.000823831825609527   -0.008901343326638143   -0.00022458835134247514
-0.0004184490225814081   -0.008886135211671874   -0.00021400456207713492
-0.00030679372209209155   -0.007994420883639141   -0.00016255559222937073
-0.0008378450784218337   -0.00799733404744764   -0.00018252309277024158
-0.000823831825609527   -0.008901343326638143   -0.00022458835134247514
-0.0008376885392585796   -0.007989389221124304   -0.0001808646891113824
-0.0004184490225814081   -0.008886135211671874   -0.00021400456207713492
-0.0008187073900359422   -0.008894124676773937   -0.00022370760304498178
-0.0008376885392585796   -0.007989389221124304   -0.0001808646891113824
-0.000823831825609527   -0.008901343326638143   -0.00022458835134247514
-0.0004184490225814081   -0.008886135211671874   -0.00021400456207713492
-0.0008376885392585796   -0.007989389221124304   -0.0001808646891113824
-0.00030444173997563916   -0.007984578271231764   -0.00016872363801150972
-0.00030679372209209155   -0.007994420883639141   -0.00016255559222937073
-0.0004184490225814081   -0.008886135211671874   -0.00021400456207713492
-0.0008376885392585796   -0.007989389221124304   -0.0001808646891113824
-0.00030679372209209155   -0.007994420883639141   -0.00016255559222937073
-0.000823831825609527   -0.008901343326638143   -0.00022458835134247514
-0.0004184490225814081   -0.008886135211671874   -0.00021400456207713492
-0.00030444173997563916   -0.007984578271231764   -0.00016872363801150972
-0.0008187073900359422   -0.008894124676773937   -0.00022370760304498178
-0.00041360373697500513   -0.008883017352110471   -0.00022192457759058568
-0.00030444173997563916   -0.007984578271231764   -0.00016872363801150972
-0.0008376885392585796   -0.007989389221124304   -0.0001808646891113824
-0.0008187073900359422   -0.008894124676773937   -0.00022370760304498178
-0.0008382190387850635   -0.007985724440614916   -0.00017830063581565338
-0.00041360373697500513   -0.008883017352110471   -0.00022192457759058568
-0.0008142345092037602   -0.00889216909447038   -0.0002219213753967904
-0.0008382190387850635   -0.007985724440614916   -0.00017830063581565338
-0.0008187073900359422   -0.008894124676773937   -0.00022370760304498178
-0.00041360373697500513   -0.008883017352110471   -0.00022192457759058568
-0.0008382190387850635   -0.007985724440614916   -0.00017830063581565338
-0.0003049086707135506   -0.007979231573340654   -0.00017399862205081916
-0.00030444173997563916   -0.007984578271231764   -0.00016872363801150972
-0.00041360373697500513   -0.008883017352110471   -0.00022192457759058568
-0.0008382190387850635   -0.007985724440614916   -0.00017830063581565338
-0.00030444173997563916   -0.007984578271231764   -0.00016872363801150972
-0.0008187073900359422   -0.008894124676773937   -0.00022370760304498178
-0.0008287921438669007   -0.008913891833975913   -0.00022448673923637576
-0.0008379546404488792   -0.008009547969331125   -0.0001832151649934824
-0.001218662949085951   -0.00890095720339928   -0.00025076486130213454
-0.000823831825609527   -0.008901343326638143   -0.00022458835134247514
-0.0008379546404488792   -0.008009547969331125   -0.0001832151649934824
-0.0013590091120035373   -0.00799609736588931   -0.00020734412229055538
-0.001218662949085951   -0.00890095720339928   -0.00025076486130213454
-0.001359315590174058   -0.007985998648375984   -0.00019893336473752863
-0.000823831825609527   -0.008901343326638143   -0.00022458835134247514
-0.0012140582251590772   -0.00889017491859861   -0.0002413402943770514
-0.001359315590174058   -0.007985998648375984   -0.00019893336473752863
-0.001218662949085951   -0.00890095720339928   -0.00025076486130213454
-0.000823831825609527   -0.008901343326638143   -0.00022458835134247514
-0.001359315590174058   -0.007985998648375984   -0.00019893336473752863
-0.0008378450784218337   -0.00799733404744764   -0.00018252309277024158
-0.0008379546404488792   -0.008009547969331125   -0.0001832151649934824
-0.000823831825609527   -0.008901343326638143   -0.00022458835134247514
-0.001359315590174058   -0.007985998648375984   -0.00019893336473752863
-0.0008379546404488792   -0.008009547969331125   -0.0001832151649934824
-0.001218662949085951   -0.00890095720339928   -0.00025076486130213454
-0.000823831825609527   -0.008901343326638143   -0.00022458835134247514
-0.0008378450784218337   -0.00799733404744764   -0.00018252309277024158
-0.0012140582251590772   -0.00889017491859861   -0.0002413402943770514
-0.0008187073900359422   -0.008894124676773937   -0.00022370760304498178
-0.0008378450784218337   -0.00799733404744764   -0.00018252309277024158
-0.001359315590174058   -0.007985998648375984   -0.00019893336473752863
-0.0012140582251590772   -0.00889017491859861   -0.0002413402943770514
-0.00135875278479003   -0.007980132258546326   -0.0001895805997220627
-0.0008187073900359422   -0.008894124676773937   -0.00022370760304498178
-0.001208480246867148   -0.008884667659791555   -0.00023096105744927894
-0.00135875278479003   -0.007980132258546326   -0.0001895805997220627
-0.0012140582251590772   -0.00889017491859861   -0.0002413402943770514
-0.0008187073900359422   -0.008894124676773937   -0.00022370760304498178
-0.00135875278479003   -0.007980132258546326   -0.0001895805997220627
-0.0008376885392585796   -0.007989389221124304   -0.0001808646891113824
-0.0008378450784218337   -0.00799733404744764   -0.00018252309277024158
-0.0008187073900359422   -0.008894124676773937   -0.00022370760304498178
-0.00135875278479003   -0.007980132258546326   -0.0001895805997220627
-0.0008378450784218337   -0.00799733404744764   -0.00018252309277024158
-0.0012140582251590772   -0.00889017491859861   -0.0002413402943770514
-0.0008187073900359422   -0.008894124676773937   -0.00022370760304498178
-0.0008376885392585796   -0.007989389221124304   -0.0001808646891113824
-0.001208480246867148   -0.008884667659791555   -0.00023096105744927894
-0.0008142345092037602   -0.00889216909447038   -0.0002219213753967904
-0.0008376885392585796   -0.007989389221124304   -0.0001808646891113824
-0.00135875278479003   -0.007980132258546326   -0.0001895805997220627
-0.001208480246867148   -0.008884667659791555   -0.00023096105744927894
-0.0013583716653049933   -0.007978434453870017   -0.000179310571378964
-0.0008142345092037602   -0.00889216909447038   -0.0002219213753967904
-0.0012031030208035092   -0.008884230403596441   -0.0002196549951222738
-0.0013583716653049933   -0.007978434453870017   -0.000179310571378964
-0.001208480246867148   -0.008884667659791555   -0.00023096105744927894
-0.0008142345092037602   -0.00889216909447038   -0.0002219213753967904
-0.0013583716653049933   -0.007978434453870017   -0.000179310571378964
-0.0008382190387850635   -0.007985724440614916   -0.00017830063581565338
-0.0008376885392585796   -0.007989389221124304   -0.0001808646891113824
-0.0008142345092037602   -0.00889216909447038   -0.0002219213753967904
-0.0013583716653049933   -0.007978434453870017   -0.000179310571378964
-0.0008376885392585796   -0.007989389221124304   -0.0001808646891113824
-0.001208480246867148   -0.008884667659791555   -0.00023096105744927894
-0.001218662949085951   -0.00890095720339928   -0.00025076486130213454
-0.0013590091120035373   -0.00799609736588931   -0.00020734412229055538
-0.0016262472350132803   -0.008871251992625796   -0.000274181435138671
-0.0012140582251590772   -0.00889017491859861   -0.0002413402943770514
-0.0013590091120035373   -0.00799609736588931   -0.00020734412229055538
-0.0018958518027408118   -0.007969193531678858   -0.00022795892781583778
-0.0016262472350132803   -0.008871251992625796   -0.000274181435138671
-0.0018949348699766476   -0.007961061289864449   -0.00021172220319980422
-0.0012140582251590772   -0.00889017491859861   -0.0002413402943770514
-0.0016200166686660814   -0.008862085234951338   -0.00025518385005068167
-0.0018949348699766476   -0.007961061289864449   -0.00021172220319980422
-0.0016262472350132803   -0.008871251992625796   -0.000274181435138671
-0.0012140582251590772   -0.00889017491859861   -0.0002413402943770514
-0.0018949348699766476   -0.007961061289864449   -0.00021172220319980422
-0.001359315590174058   -0.007985998648375984   -0.00019893336473752863
-0.0013590091120035373   -0.00799609736588931   -0.00020734412229055538
-0.0012140582251590772   -0.00889017491859861   -0.0002413402943770514
-0.0018949348699766476   -0.007961061289864449   -0.00021172220319980422
-0.0013590091120035373   -0.00799609736588931   -0.00020734412229055538
-0.0016262472350132803   -0.008871251992625796   -0.000274181435138671
-0.0012140582251590772   -0.00889017491859861   -0.0002413402943770514
-0.001359315590174058   -0.007985998648375984   -0.00019893336473752863
-0.0016200166686660814   -0.008862085234951338   -0.00025518385005068167
-0.001208480246867148   -0.008884667659791555   -0.00023096105744927894
-0.001359315590174058   -0.007985998648375984   -0.00019893336473752863
-0.0018949348699766476   -0.007961061289864449   -0.00021172220319980422
-0.0016200166686660814   -0.008862085234951338   -0.00025518385005068167
-0.0018900539499401327   -0.007957082548233706   -0.0001946891762568829
-0.001208480246867148   -0.008884667659791555   -0.00023096105744927894
-0.0016093328967000653   -0.008858128456268833   -0.00023538845054734027
-0.0018900539499401327   -0.007957082548233706   -0.0001946891762568829
-0.0016200166686660814   -0.008862085234951338   -0.00025518385005068167
-0.001208480246867148   -0.008884667659791555   -0.00023096105744927894
-0.0018900539499401327   -0.007957082548233706   -0.0001946891762568829
-0.00135875278479003   -0.007980132258546326   -0.0001895805997220627
-0.001359315590174058   -0.007985998648375984   -0.00019893336473752863
-0.001208480246867148   -0.008884667659791555   -0.00023096105744927894
-0.0018900539499401327   -0.007957082548233706   -0.0001946891762568829
-0.001359315590174058   -0.007985998648375984   -0.00019893336473752863
-0.0016200166686660814   -0.008862085234951338   -0.00025518385005068167
-0.001208480246867148   -0.008884667659791555   -0.00023096105744927894
-0.00135875278479003   -0.007980132258546326   -0.0001895805997220627
-0.0016093328967000653   -0.008858128456268833   -0.00023538845054734027
-0.0012031030208035092   -0.008884230403596441   -0.0002196549951222738
-0.00135875278479003   -0.007980132258546326   -0.0001895805997220627
-0.0018900539499401327   -0.007957082548233706   -0.0001946891762568829
-0.0016093328967000653   -0.008858128456268833   -0.00023538845054734027
-0.0018868801548435187   -0.00795763381049747   -0.00017665922194104377
-0.0012031030208035092   -0.008884230403596441   -0.0002196549951222738
-0.0016009084756334435   -0.008859640184618557   -0.00021452514846629267
-0.0018868801548435187   -0.00795763381049747   -0.00017665922194104377
-0.0016093328967000653   -0.008858128456268833   -0.00023538845054734027
-0.0012031030208035092   -0.008884230403596441   -0.0002196549951222738
-0.0018868801548435187   -0.00795763381049747   -0.00017665922194104377
-0.0013583716653049933   -0.007978434453870017   -0.000179310571378964
-0.00135875278479003   -0.007980132258546326   -0.0001895805997220627
-0.0012031030208035092   -0.008884230403596441   -0.0002196549951222738
-0.0018868801548435187   -0.00795763381049747   -0.00017665922194104377
-0.00135875278479003   -0.007980132258546326   -0.0001895805997220627
-0.0016093328967000653   -0.008858128456268833   -0.00023538845054734027
-0.0016262472350132803   -0.008871251992625796   -0.000274181435138671
-0.0018958518027408118   -0.007969193531678858   -0.00022795892781583778
-0.0021010828977016875   -0.00882778647058189   -0.00029665113609623394
-0.0016200166686660814   -0.008862085234951338   -0.00025518385005068167
-0.0018958518027408118   -0.007969193531678858   -0.00022795892781583778
-0.0024956686305940712   -0.007931388780718642   -0.0002469039550254825
-0.0021010828977016875   -0.00882778647058189   -0.00029665113609623394
-0.002471265571340991   -0.007923231762327598   -0.00022185217278448735
-0.0016200166686660814   -0.008862085234951338   -0.00025518385005068167
-0.002067020101045783   -0.00881793421508822   -0.0002667666797137752
-0.002471265571340991   -0.007923231762327598   -0.00022185217278448735
-0.0021010828977016875   -0.00882778647058189   -0.00029665113609623394
-0.0016200166686660814   -0.008862085234951338   -0.00025518385005068167
-0.002471265571340991   -0.007923231762327598   -0.00022185217278448735
-0.0018949348699766476   -0.007961061289864449   -0.00021172220319980422
-0.0018958518027408118   -0.007969193531678858   -0.00022795892781583778
-0.0016200166686660814   -0.008862085234951338   -0.00025518385005068167
-0.002471265571340991   -0.007923231762327598   -0.00022185217278448735
-0.0018958518027408118   -0.007969193531678858   -0.00022795892781583778
-0.0021010828977016875   -0.00882778647058189   -0.00029665113609623394
-0.0016200166686660814   -0.008862085234951338   -0.00025518385005068167
-0.0018949348699766476   -0.007961061289864449   -0.00021172220319980422
-0.002067020101045783   -0.00881793421508822   -0.0002667666797137752
-0.0016093328967000653   -0.008858128456268833   -0.00023538845054734027
-0.0018949348699766476   -0.007961061289864449   -0.00021172220319980422
-0.002471265571340991   -0.007923231762327598   -0.00022185217278448735
-0.002067020101045783   -0.00881793421508822   -0.0002667666797137752
-0.0024506562118711797   -0.007919952828980331   -0.00019543754198835244
-0.0016093328967000653   -0.008858128456268833   -0.00023538845054734027
-0.0020378643449398782   -0.00881440043974459   -0.00023553688359888284
-0.0024506562118711797   -0.007919952828980331   -0.00019543754198835244
-0.002067020101045783   -0.00881793421508822   -0.0002667666797137752
-0.0016093328967000653   -0.008858128456268833   -0.00023538845054734027
-0.0024506562118711797   -0.007919952828980331   -0.00019543754198835244
-0.0018900539499401327   -0.007957082548233706   -0.0001946891762568829
-0.0018949348699766476   -0.007961061289864449   -0.00021172220319980422
-0.0016093328967000653   -0.008858128456268833   -0.00023538845054734027
-0.0024506562118711797   -0.007919952828980331   -0.00019543754198835244
-0.0018949348699766476   -0.007961061289864449   -0.00021172220319980422
-0.002067020101045783   -0.00881793421508822   -0.0002667666797137752
-0.0016093328967000653   -0.008858128456268833   -0.00023538845054734027
-0.0018900539499401327   -0.007957082548233706   -0.0001946891762568829
-0.0020378643449398782   -0.00881440043974459   -0.00023553688359888284
-0.0016009084756334435   -0.008859640184618557   -0.00021452514846629267
-0.0018900539499401327   -0.007957082548233706   -0.0001946891762568829
-0.0024506562118711797   -0.007919952828980331   -0.00019543754198835244
-0.0020378643449398782   -0.00881440043974459   -0.00023553688359888284
-0.0024212727316109996   -0.007923761831568323   -0.0001678584049193597
-0.0016009084756334435   -0.008859640184618557   -0.00021452514846629267
-0.001998758813741335   -0.008819124022378978   -0.0002031550800147871
-0.0024212727316109996   -0.007923761831568323   -0.0001678584049193597
-0.0020378643449398782   -0.00881440043974459   -0.00023553688359888284
-0.0016009084756334435   -0.008859640184618557   -0.00021452514846629267
-0.0024212727316109996   -0.007923761831568323   -0.0001678584049193597
-0.0018868801548435187   -0.00795763381049747   -0.00017665922194104377
-0.0018900539499401327   -0.007957082548233706   -0.0001946891762568829
-0.0016009084756334435   -0.008859640184618557   -0.00021452514846629267
-0.0024212727316109996   -0.007923761831568323   -0.0001678584049193597
-0.0018900539499401327   -0.007957082548233706   -0.0001946891762568829
-0.0020378643449398782   -0.00881440043974459   -0.00023553688359888284
0.00023855441596781364   -0.007994263916538185   -0.00012090492890357124
0.00043102373913629763   -0.006898348626629876   -8.095621421781427e-05
-0.00030859721881512506   -0.008009119949031316   -0.00015542555507521325
0.0002559395357284751   -0.00797663428354444   -0.00013833546811161494
0.00043102373913629763   -0.006898348626629876   -8.095621421781427e-05
-0.00022819597110827219   -0.006906389457142536   -0.00011336937750156637
-0.00030859721881512506   -0.008009119949031316   -0.00015542555507521325
-0.00023062199962181333   -0.006892097186127271   -0.00011754819002942222
0.0002559395357284751   -0.00797663428354444   -0.00013833546811161494
-0.00030679372209209155   -0.007994420883639141   -0.00016255559222937073
-0.00023062199962181333   -0.006892097186127271   -0.00011754819002942222
-0.00030859721881512506   -0.008009119949031316   -0.00015542555507521325
0.0002559395357284751   -0.00797663428354444   -0.00013833546811161494
-0.00023062199962181333   -0.006892097186127271   -0.00011754819002942222
0.0004392656380654675   -0.006881353831125481   -9.302545837211203e-05
0.00043102373913629763   -0.006898348626629876   -8.095621421781427e-05
0.0002559395357284751   -0.00797663428354444   -0.00013833546811161494
-0.00023062199962181333   -0.006892097186127271   -0.00011754819002942222
0.00043102373913629763   -0.006898348626629876   -8.095621421781427e-05
-0.00030859721881512506   -0.008009119949031316   -0.00015542555507521325
0.0002559395357284751   -0.00797663428354444   -0.00013833546811161494
0.0004392656380654675   -0.006881353831125481   -9.302545837211203e-05
-0.00030679372209209155   -0.007994420883639141   -0.00016255559222937073
0.0002673582431485045   -0.007966045229462001   -0.00015439914793137277
0.0004392656380654675   -0.006881353831125481   -9.302545837211203e-05
-0.00023062199962181333   -0.006892097186127271   -0.00011754819002942222
-0.00030679372209209155   -0.007994420883639141   -0.00016255559222937073
-0.00023308961348622617   -0.0068815359949175765   -0.00012083494706669392
0.0002673582431485045   -0.007966045229462001   -0.00015439914793137277
-0.00030444173997563916   -0.007984578271231764   -0.00016872363801150972
-0.00023308961348622617   -0.0068815359949175765   -0.00012083494706669392
-0.00030679372209209155   -0.007994420883639141   -0.00016255559222937073
0.0002673582431485045   -0.007966045229462001   -0.00015439914793137277
-0.00023308961348622617   -0.0068815359949175765   -0.00012083494706669392
0.0004427645162248239   -0.006869905847747682   -0.00010377049255351928
0.0004392656380654675   -0.006881353831125481   -9.302545837211203e-05
0.0002673582431485045   -0.007966045229462001   -0.00015439914793137277
-0.00023308961348622617   -0.0068815359949175765   -0.00012083494706669392
0.0004392656380654675   -0.006881353831125481   -9.302545837211203e-05
-0.00030679372209209155   -0.007994420883639141   -0.00016255559222937073
0.0002673582431485045   -0.007966045229462001   -0.00015439914793137277
0.0004427645162248239   -0.006869905847747682   -0.00010377049255351928
-0.00030444173997563916   -0.007984578271231764   -0.00016872363801150972
0.00027954873654610494   -0.007960170066986915   -0.00016913147561311055
0.0004427645162248239   -0.006869905847747682   -0.00010377049255351928
-0.00023308961348622617   -0.0068815359949175765   -0.00012083494706669392
-0.00030444173997563916   -0.007984578271231764   -0.00016872363801150972
-0.00023790609027703487   -0.0068743191685428666   -0.0001232579586300237
0.00027954873654610494   -0.007960170066986915   -0.00016913147561311055
-0.0003049086707135506   -0.007979231573340654   -0.00017399862205081916
-0.00023790609027703487   -0.0068743191685428666   -0.0001232579586300237
-0.00030444173997563916   -0.007984578271231764   -0.00016872363801150972
0.00027954873654610494   -0.007960170066986915   -0.00016913147561311055
-0.00023790609027703487   -0.0068743191685428666   -0.0001232579586300237
0.00044585156198318474   -0.0068616566988926415   -0.00011325816571682165
0.0004427645162248239   -0.006869905847747682   -0.00010377049255351928
0.00027954873654610494   -0.007960170066986915   -0.00016913147561311055
-0.00023790609027703487   -0.0068743191685428666   -0.0001232579586300237
0.0004427645162248239   -0.006869905847747682   -0.00010377049255351928
-0.00030444173997563916   -0.007984578271231764   -0.00016872363801150972
-0.00030859721881512506   -0.008009119949031316   -0.00015542555507521325
-0.00022819597110827219   -0.006906389457142536   -0.00011336937750156637
-0.0008379546404488792   -0.008009547969331125   -0.0001832151649934824
-0.00030679372209209155   -0.007994420883639141   -0.00016255559222937073
-0.00022819597110827219   -0.006906389457142536   -0.00011336937750156637
-0.0008620743252942915   -0.006903237908836733   -0.0001392490096605798
-0.0008379546404488792   -0.008009547969331125   -0.0001832151649934824
-0.0008658813507844229   -0.006891604446467005   -0.00013756761233287246
-0.00030679372209209155   -0.007994420883639141   -0.00016255559222937073
-0.0008378450784218337   -0.00799733404744764   -0.00018252309277024158
-0.0008658813507844229   -0.006891604446467005   -0.00013756761233287246
-0.0008379546404488792   -0.008009547969331125   -0.0001832151649934824
-0.00030679372209209155   -0.007994420883639141   -0.00016255559222937073
-0.0008658813507844229   -0.006891604446467005   -0.00013756761233287246
-0.00023062199962181333   -0.006892097186127271   -0.00011754819002942222
-0.00022819597110827219   -0.006906389457142536   -0.00011336937750156637
-0.00030679372209209155   -0.007994420883639141   -0.00016255559222937073
-0.0008658813507844229   -0.006891604446467005   -0.00013756761233287246
-0.00022819597110827219   -0.006906389457142536   -0.00011336937750156637
-0.0008379546404488792   -0.008009547969331125   -0.0001832151649934824
-0.00030679372209209155   -0.007994420883639141   -0.00016255559222937073
-0.00023062199962181333   -0.006892097186127271   -0.00011754819002942222
-0.0008378450784218337   -0.00799733404744764   -0.00018252309277024158
-0.00030444173997563916   -0.007984578271231764   -0.00016872363801150972
-0.00023062199962181333   -0.006892097186127271   -0.00011754819002942222
-0.0008658813507844229   -0.006891604446467005   -0.00013756761233287246
-0.0008378450784218337   -0.00799733404744764   -0.00018252309277024158
-0.0008697448107332141   -0.0068831610415980155   -0.00013496008456560525
-0.00030444173997563916   -0.007984578271231764   -0.00016872363801150972
-0.0008376885392585796   -0.007989389221124304   -0.0001808646891113824
-0.0008697448107332141   -0.0068831610415980155   -0.00013496008456560525
-0.0008378450784218337   -0.00799733404744764   -0.00018252309277024158
-0.00030444173997563916   -0.007984578271231764   -0.00016872363801150972
-0.0008697448107332141   -0.0068831610415980155   -0.00013496008456560525
-0.00023308961348622617   -0.0068815359949175765   -0.00012083494706669392
-0.00023062199962181333   -0.006892097186127271   -0.00011754819002942222
-0.00030444173997563916   -0.007984578271231764   -0.00016872363801150972
-0.0008697448107332141   -0.0068831610415980155   -0.00013496008456560525
-0.00023062199962181333   -0.006892097186127271   -0.00011754819002942222
-0.0008378450784218337   -0.00799733404744764   -0.00018252309277024158
-0.00030444173997563916   -0.007984578271231764   -0.00016872363801150972
-0.00023308961348622617   -0.0068815359949175765   -0.00012083494706669392
-0.0008376885392585796   -0.007989389221124304   -0.0001808646891113824
-0.0003049086707135506   -0.007979231573340654   -0.00017399862205081916
-0.00023308961348622617   -0.0068815359949175765   -0.00012083494706669392
-0.0008697448107332141   -0.0068831610415980155   -0.00013496008456560525
-0.0008376885392585796   -0.007989389221124304   -0.0001808646891113824
-0.0008742733779469198   -0.006877957828213791   -0.00013148090753688934
-0.0003049086707135506   -0.007979231573340654   -0.00017399862205081916
-0.0008382190387850635   -0.007985724440614916   -0.00017830063581565338
-0.0008742733779469198   -0.006877957828213791   -0.00013148090753688934
-0.0008376885392585796   -0.007989389221124304   -0.0001808646891113824
-0.0003049086707135506   -0.007979231573340654   -0.00017399862205081916
-0.0008742733779469198   -0.006877957828213791   -0.00013148090753688934
-0.00023790609027703487   -0.0068743191685428666   -0.0001232579586300237
-0.00023308961348622617   -0.0068815359949175765   -0.00012083494706669392
-0.0003049086707135506   -0.007979231573340654   -0.00017399862205081916
-0.0008742733779469198   -0.006877957828213791   -0.00013148090753688934
-0.00023308961348622617   -0.0068815359949175765   -0.00012083494706669392
-0.0008376885392585796   -0.007989389221124304   -0.0001808646891113824
-0.0008379546404488792   -0.008009547969331125   -0.0001832151649934824
-0.0008620743252942915   -0.006903237908836733   -0.0001392490096605798
-0.0013590091120035373   -0.00799609736588931   -0.00020734412229055538
-0.0008378450784218337   -0.00799733404744764   -0.00018252309277024158
-0.0008620743252942915   -0.006903237908836733   -0.0001392490096605798
-0.001485685107570532   -0.006889804282645223   -0.0001610176918459362
-0.0013590091120035373   -0.00799609736588931   -0.00020734412229055538
-0.0014898895855702489   -0.006880522440903072   -0.00015352411115234695
-0.0008378450784218337   -0.00799733404744764   -0.00018252309277024158
-0.001359315590174058   -0.007985998648375984   -0.00019893336473752863
-0.0014898895855702489   -0.006880522440903072   -0.00015352411115234695
-0.0013590091120035373   -0.00799609736588931   -0.00020734412229055538
-0.0008378450784218337   -0.00799733404744764   -0.00018252309277024158
-0.0014898895855702489   -0.006880522440903072   -0.00015352411115234695
-0.0008658813507844229   -0.006891604446467005   -0.00013756761233287246
-0.0008620743252942915   -0.006903237908836733   -0.0001392490096605798
-0.0008378450784218337   -0.00799733404744764   -0.00018252309277024158
-0.0014898895855702489   -0.006880522440903072   -0.00015352411115234695
-0.0008620743252942915   -0.006903237908836733   -0.0001392490096605798
-0.0013590091120035373   -0.00799609736588931   -0.00020734412229055538
-0.0008378450784218337   -0.00799733404744764   -0.00018252309277024158
-0.0008658813507844229   -0.006891604446467005   -0.00013756761233287246
-0.001359315590174058   -0.007985998648375984   -0.00019893336473752863
-0.0008376885392585796   -0.007989389221124304   -0.0001808646891113824
-0.0008658813507844229   -0.006891604446467005   -0.00013756761233287246
-0.0014898895855702489   -0.006880522440903072   -0.00015352411115234695
-0.001359315590174058   -0.007985998648375984   -0.00019893336473752863
-0.001493304783736451   -0.006874401643644897   -0.00014512546985043142
-0.0008376885392585796   -0.007989389221124304   -0.0001808646891113824
-0.00135875278479003   -0.007980132258546326   -0.0001895805997220627
-0.001493304783736451   -0.006874401643644897   -0.00014512546985043142
-0.001359315590174058   -0.007985998648375984   -0.00019893336473752863
-0.0008376885392585796   -0.007989389221124304   -0.0001808646891113824
-0.001493304783736451   -0.006874401643644897   -0.00014512546985043142
-0.0008697448107332141   -0.0068831610415980155   -0.00013496008456560525
-0.0008658813507844229   -0.006891604446467005   -0.00013756761233287246
-0.0008376885392585796   -0.007989389221124304   -0.0001808646891113824
-0.001493304783736451   -0.006874401643644897   -0.00014512546985043142
-0.0008658813507844229   -0.006891604446467005   -0.00013756761233287246
-0.001359315590174058   -0.007985998648375984   -0.00019893336473752863
-0.0008376885392585796   -0.007989389221124304   -0.0001808646891113824
-0.0008697448107332141   -0.0068831610415980155   -0.00013496008456560525
-0.00135875278479003   -0.007980132258546326   -0.0001895805997220627
-0.0008382190387850635   -0.007985724440614916   -0.00017830063581565338
-0.0008697448107332141   -0.0068831610415980155   -0.00013496008456560525
-0.001493304783736451   -0.006874401643644897   -0.00014512546985043142
-0.00135875278479003   -0.007980132258546326   -0.0001895805997220627
-0.0014968416356182848   -0.0068714251936102646   -0.00013584529272906473
-0.0008382190387850635   -0.007985724440614916   -0.00017830063581565338
-0.0013583716653049933   -0.007978434453870017   -0.000179310571378964
-0.0014968416356182848   -0.0068714251936102646   -0.00013584529272906473
-0.00135875278479003   -0.007980132258546326   -0.0001895805997220627
-0.0008382190387850635   -0.007985724440614916   -0.00017830063581565338
-0.0014968416356182848   -0.0068714251936102646   -0.00013584529272906473
-0.0008742733779469198   -0.006877957828213791   -0.00013148090753688934
-0.0008697448107332141   -0.0068831610415980155   -0.00013496008456560525
-0.0008382190387850635   -0.007985724440614916   -0.00017830063581565338
-0.0014968416356182848   -0.0068714251936102646   -0.00013584529272906473
-0.0008697448107332141   -0.0068831610415980155   -0.00013496008456560525
-0.00135875278479003   -0.007980132258546326   -0.0001895805997220627
-0.0013590091120035373   -0.00799609736588931   -0.00020734412229055538
-0.001485685107570532   -0.006889804282645223   -0.0001610176918459362
-0.0018958518027408118   -0.007969193531678858   -0.00022795892781583778
-0.001359315590174058   -0.007985998648375984   -0.00019893336473752863
-0.001485685107570532   -0.006889804282645223   -0.0001610176918459362
-0.0021240747173729025   -0.006866318360733209   -0.0001788413409541893
-0.0018958518027408118   -0.007969193531678858   -0.00022795892781583778
-0.0021273794731089504   -0.006859288736677431   -0.0001654469983116651
-0.001359315590174058   -0.007985998648375984   -0.00019893336473752863
-0.0018949348699766476   -0.007961061289864449   -0.00021172220319980422
-0.0021273794731089504   -0.006859288736677431   -0.0001654469983116651
-0.0018958518027408118   -0.007969193531678858   -0.00022795892781583778
-0.001359315590174058   -0.007985998648375984   -0.00019893336473752863
-0.0021273794731089504   -0.006859288736677431   -0.0001654469983116651
-0.0014898895855702489   -0.006880522440903072   -0.00015352411115234695
-0.001485685107570532   -0.006889804282645223   -0.0001610176918459362
-0.001359315590174058   -0.007985998648375984   -0.00019893336473752863
-0.0021273794731089504   -0.006859288736677431   -0.0001654469983116651
-0.001485685107570532   -0.006889804282645223   -0.0001610176918459362
-0.0018958518027408118   -0.007969193531678858   -0.00022795892781583778
-0.001359315590174058   -0.007985998648375984   -0.00019893336473752863
-0.0014898895855702489   -0.006880522440903072   -0.00015352411115234695
-0.0018949348699766476   -0.007961061289864449   -0.00021172220319980422
-0.00135875278479003   -0.007980132258546326   -0.0001895805997220627
-0.0014898895855702489   -0.006880522440903072   -0.00015352411115234695
-0.0021273794731089504   -0.006859288736677431   -0.0001654469983116651
-0.0018949348699766476   -0.007961061289864449   -0.00021172220319980422
-0.0021272125144335867   -0.006855299781970092   -0.00015127122338667173
-0.00135875278479003   -0.007980132258546326   -0.0001895805997220627
-0.0018900539499401327   -0.007957082548233706   -0.0001946891762568829
-0.0021272125144335867   -0.006855299781970092   -0.00015127122338667173
-0.0018949348699766476   -0.007961061289864449   -0.00021172220319980422
-0.00135875278479003   -0.007980132258546326   -0.0001895805997220627
-0.0021272125144335867   -0.006855299781970092   -0.00015127122338667173
-0.001493304783736451   -0.006874401643644897   -0.00014512546985043142
-0.0014898895855702489   -0.006880522440903072   -0.00015352411115234695
-0.00135875278479003   -0.007980132258546326   -0.0001895805997220627
-0.0021272125144335867   -0.006855299781970092   -0.00015127122338667173
-0.0014898895855702489   -0.006880522440903072   -0.00015352411115234695
-0.0018949348699766476   -0.007961061289864449   -0.00021172220319980422
-0.00135875278479003   -0.007980132258546326   -0.0001895805997220627
-0.001493304783736451   -0.006874401643644897   -0.00014512546985043142
-0.0018900539499401327   -0.007957082548233706   -0.0001946891762568829
-0.0013583716653049933   -0.007978434453870017   -0.000179310571378964
-0.001493304783736451   -0.006874401643644897   -0.00014512546985043142
-0.0021272125144335867   -0.006855299781970092   -0.00015127122338667173
-0.0018900539499401327   -0.007957082548233706   -0.0001946891762568829
-0.0021281704386498772   -0.00685475367142023   -0.0001361434866225168
-0.0013583716653049933   -0.007978434453870017   -0.000179310571378964
-0.0018868801548435187   -0.00795763381049747   -0.00017665922194104377
-0.0021281704386498772   -0.00685475367142023   -0.0001361434866225168
-0.0018900539499401327   -0.007957082548233706   -0.0001946891762568829
-0.0013583716653049933   -0.007978434453870017   -0.000179310571378964
-0.0021281704386498772   -0.00685475367142023   -0.0001361434866225168
-0.0014968416356182848   -0.0068714251936102646   -0.00013584529272906473
-0.001493304783736451   -0.006874401643644897   -0.00014512546985043142
-0.0013583716653049933   -0.007978434453870017   -0.000179310571378964
-0.0021281704386498772   -0.00685475367142023   -0.0001361434866225168
-0.001493304783736451   -0.006874401643644897   -0.00014512546985043142
-0.0018900539499401327   -0.007957082548233706   -0.0001946891762568829
-0.0018958518027408118   -0.007969193531678858   -0.00022795892781583778
-0.0021240747173729025   -0.006866318360733209   -0.0001788413409541893
-0.0024956686305940712   -0.007931388780718642   -0.0002469039550254825
-0.0018949348699766476   -0.007961061289864449   -0.00021172220319980422
-0.0021240747173729025   -0.006866318360733209   -0.0001788413409541893
-0.002821229091367637   -0.006834812137018166   -0.0001941057182847542
-0.0024956686305940712   -0.007931388780718642   -0.0002469039550254825
-0.002805806415567876   -0.0068283827861024705   -0.00017425355962351127
-0.0018949348699766476   -0.007961061289864449   -0.00021172220319980422
-0.002471265571340991   -0.007923231762327598   -0.00022185217278448735
-0.002805806415567876   -0.0068283827861024705   -0.00017425355962351127
-0.0024956686305940712   -0.007931388780718642   -0.0002469039550254825
-0.0018949348699766476   -0.007961061289864449   -0.00021172220319980422
-0.002805806415567876   -0.0068283827861024705   -0.00017425355962351127
-0.0021273794731089504   -0.006859288736677431   -0.0001654469983116651
-0.0021240747173729025   -0.006866318360733209   -0.0001788413409541893
-0.0018949348699766476   -0.007961061289864449   -0.00021172220319980422
-0.002805806415567876   -0.0068283827861024705   -0.00017425355962351127
-0.0021240747173729025   -0.006866318360733209   -0.0001788413409541893
-0.0024956686305940712   -0.007931388780718642   -0.0002469039550254825
-0.0018949348699766476   -0.007961061289864449   -0.00021172220319980422
-0.0021273794731089504   -0.006859288736677431   -0.0001654469983116651
-0.002471265571340991   -0.007923231762327598   -0.00022185217278448735
-0.0018900539499401327   -0.007957082548233706   -0.0001946891762568829
-0.0021273794731089504   -0.006859288736677431   -0.0001654469983116651
-0.002805806415567876   -0.0068283827861024705   -0.00017425355962351127
-0.002471265571340991   -0.007923231762327598   -0.00022185217278448735
-0.0027929301701951196   -0.006825308255833346   -0.0001530226549037678
-0.0018900539499401327   -0.007957082548233706   -0.0001946891762568829
-0.0024506562118711797   -0.007919952828980331   -0.00019543754198835244
-0.0027929301701951196   -0.006825308255833346   -0.0001530226549037678
-0.002471265571340991   -0.007923231762327598   -0.00022185217278448735
-0.0018900539499401327   -0.007957082548233706   -0.0001946891762568829
-0.0027929301701951196   -0.006825308255833346   -0.0001530226549037678
-0.0021272125144335867   -0.006855299781970092   -0.00015127122338667173
-0.0021273794731089504   -0.006859288736677431   -0.0001654469983116651
-0.0018900539499401327   -0.007957082548233706   -0.0001946891762568829
-0.0027929301701951196   -0.006825308255833346   -0.0001530226549037678
-0.0021273794731089504   -0.006859288736677431   -0.0001654469983116651
-0.002471265571340991   -0.007923231762327598   -0.00022185217278448735
-0.0018900539499401327   -0.007957082548233706   -0.0001946891762568829
-0.0021272125144335867   -0.006855299781970092   -0.00015127122338667173
-0.0024506562118711797   -0.007919952828980331   -0.00019543754198835244
-0.0018868801548435187   -0.00795763381049747   -0.00017665922194104377
-0.0021272125144335867   -0.006855299781970092   -0.00015127122338667173
-0.0027929301701951196   -0.006825308255833346   -0.0001530226549037678
-0.0024506562118711797   -0.007919952828980331   -0.00019543754198835244
-0.0027724280155350025   -0.006827971596549757   -0.00013058926815868552
-0.0018868801548435187   -0.00795763381049747   -0.00017665922194104377
-0.0024212727316109996   -0.007923761831568323   -0.0001678584049193597
-0.0027724280155350025   -0.006827971596549757   -0.00013058926815868552
-0.0024506562118711797   -0.007919952828980331   -0.00019543754198835244
-0.0018868801548435187   -0.00795763381049747   -0.00017665922194104377
-0.0027724280155350025   -0.006827971596549757   -0.00013058926815868552
-0.0021281704386498772   -0.00685475367142023   -0.0001361434866225168
-0.0021272125144335867   -0.006855299781970092   -0.00015127122338667173
-0.0018868801548435187   -0.00795763381049747   -0.00017665922194104377
-0.0027724280155350025   -0.006827971596549757   -0.00013058926815868552
-0.0021272125144335867   -0.006855299781970092   -0.00015127122338667173
-0.0024506562118711797   -0.007919952828980331   -0.00019543754198835244
0.00043102373913629763   -0.006898348626629876   -8.095621421781427e-05
0.0005471244695432931   -0.005649650102280583   -4.248859407099624e-05
-0.00022819597110827219   -0.006906389457142536   -0.00011336937750156637
0.0004392656380654675   -0.006881353831125481   -9.302545837211203e-05
0.0005471244695432931   -0.005649650102280583   -4.248859407099624e-05
-0.00019425987137519936   -0.005650701990045302   -7.227439346460239e-05
-0.00022819597110827219   -0.006906389457142536   -0.00011336937750156637
-0.00019999709186495945   -0.005636994034356349   -7.334631582725177e-05
0.0004392656380654675   -0.006881353831125481   -9.302545837211203e-05
-0.00023062199962181333   -0.006892097186127271   -0.00011754819002942222
-0.00019999709186495945   -0.005636994034356349   -7.334631582725177e-05
-0.00022819597110827219   -0.006906389457142536   -0.00011336937750156637
0.0004392656380654675   -0.006881353831125481   -9.302545837211203e-05
-0.00019999709186495945   -0.005636994034356349   -7.334631582725177e-05
0.0005470760566210795   -0.005633467129034697   -4.90490493598844e-05
0.0005471244695432931   -0.005649650102280583   -4.248859407099624e-05
0.0004392656380654675   -0.006881353831125481   -9.302545837211203e-05
-0.00019999709186495945   -0.005636994034356349   -7.334631582725177e-05
0.0005471244695432931   -0.005649650102280583   -4.248859407099624e-05
-0.00022819597110827219   -0.006906389457142536   -0.00011336937750156637
0.0004392656380654675   -0.006881353831125481   -9.302545837211203e-05
0.0005470760566210795   -0.005633467129034697   -4.90490493598844e-05
-0.00023062199962181333   -0.006892097186127271   -0.00011754819002942222
0.0004427645162248239   -0.006869905847747682   -0.00010377049255351928
0.0005470760566210795   -0.005633467129034697   -4.90490493598844e-05
-0.00019999709186495945   -0.005636994034356349   -7.334631582725177e-05
-0.00023062199962181333   -0.006892097186127271   -0.00011754819002942222
-0.00020638881647651837   -0.0056258282361257815   -7.3594309430577e-05
0.0004427645162248239   -0.006869905847747682   -0.00010377049255351928
-0.00023308961348622617   -0.0068815359949175765   -0.00012083494706669392
-0.00020638881647651837   -0.0056258282361257815   -7.3594309430577e-05
-0.00023062199962181333   -0.006892097186127271   -0.00011754819002942222
0.0004427645162248239   -0.006869905847747682   -0.00010377049255351928
-0.00020638881647651837   -0.0056258282361257815   -7.3594309430577e-05
0.0005434805188569505   -0.0056212960650975224   -5.4288655884141275e-05
0.0005470760566210795   -0.005633467129034697   -4.90490493598844e-05
0.0004427645162248239   -0.006869905847747682   -0.00010377049255351928
-0.00020638881647651837   -0.0056258282361257815   -7.3594309430577e-05
0.0005470760566210795   -0.005633467129034697   -4.90490493598844e-05
-0.00023062199962181333   -0.006892097186127271   -0.00011754819002942222
0.0004427645162248239   -0.006869905847747682   -0.00010377049255351928
0.0005434805188569505   -0.0056212960650975224   -5.4288655884141275e-05
-0.00023308961348622617   -0.0068815359949175765   -0.00012083494706669392
0.00044585156198318474   -0.0068616566988926415   -0.00011325816571682165
0.0005434805188569505   -0.0056212960650975224   -5.4288655884141275e-05
-0.00020638881647651837   -0.0056258282361257815   -7.3594309430577e-05
-0.00023308961348622617   -0.0068815359949175765   -0.00012083494706669392
-0.00021463916529586486   -0.0056168640609316   -7.298588774270463e-05
0.00044585156198318474   -0.0068616566988926415   -0.00011325816571682165
-0.00023790609027703487   -0.0068743191685428666   -0.0001232579586300237
-0.00021463916529586486   -0.0056168640609316   -7.298588774270463e-05
-0.00023308961348622617   -0.0068815359949175765   -0.00012083494706669392
0.00044585156198318474   -0.0068616566988926415   -0.00011325816571682165
-0.00021463916529586486   -0.0056168640609316   -7.298588774270463e-05
0.0005381522457349189   -0.0056107744277148364   -5.829998984579761e-05
0.0005434805188569505   -0.0056212960650975224   -5.4288655884141275e-05
0.00044585156198318474   -0.0068616566988926415   -0.00011325816571682165
-0.00021463916529586486   -0.0056168640609316   -7.298588774270463e-05
0.0005434805188569505   -0.0056212960650975224   -5.4288655884141275e-05
-0.00023308961348622617   -0.0068815359949175765   -0.00012083494706669392
-0.00022819597110827219   -0.006906389457142536   -0.00011336937750156637
-0.00019425987137519936   -0.005650701990045302   -7.227439346460239e-05
-0.0008620743252942915   -0.006903237908836733   -0.0001392490096605798
-0.00023062199962181333   -0.006892097186127271   -0.00011754819002942222
-0.00019425987137519936   -0.005650701990045302   -7.227439346460239e-05
-0.0009023908677520663   -0.005644259118632511   -9.59333873942753e-05
-0.0008620743252942915   -0.006903237908836733   -0.0001392490096605798
-0.0009091423396934887   -0.005633265614748974   -9.313433087063961e-05
-0.00023062199962181333   -0.006892097186127271   -0.00011754819002942222
-0.0008658813507844229   -0.006891604446467005   -0.00013756761233287246
-0.0009091423396934887   -0.005633265614748974   -9.313433087063961e-05
-0.0008620743252942915   -0.006903237908836733   -0.0001392490096605798
-0.00023062199962181333   -0.006892097186127271   -0.00011754819002942222
-0.0009091423396934887   -0.005633265614748974   -9.313433087063961e-05
-0.00019999709186495945   -0.005636994034356349   -7.334631582725177e-05
-0.00019425987137519936   -0.005650701990045302   -7.227439346460239e-05
-0.00023062199962181333   -0.006892097186127271   -0.00011754819002942222
-0.0009091423396934887   -0.005633265614748974   -9.313433087063961e-05
-0.00019425987137519936   -0.005650701990045302   -7.227439346460239e-05
-0.0008620743252942915   -0.006903237908836733   -0.0001392490096605798
-0.00023062199962181333   -0.006892097186127271   -0.00011754819002942222
-0.00019999709186495945   -0.005636994034356349   -7.334631582725177e-05
-0.0008658813507844229   -0.006891604446467005   -0.00013756761233287246
-0.00023308961348622617   -0.0068815359949175765   -0.00012083494706669392
-0.00019999709186495945   -0.005636994034356349   -7.334631582725177e-05
-0.0009091423396934887   -0.005633265614748974   -9.313433087063961e-05
-0.0008658813507844229   -0.006891604446467005   -0.00013756761233287246
-0.000916051197117125   -0.005624339311524263   -8.946868342016931e-05
-0.00023308961348622617   -0.0068815359949175765   -0.00012083494706669392
-0.0008697448107332141   -0.0068831610415980155   -0.00013496008456560525
-0.000916051197117125   -0.005624339311524263   -8.946868342016931e-05
-0.0008658813507844229   -0.006891604446467005   -0.00013756761233287246
-0.00023308961348622617   -0.0068815359949175765   -0.00012083494706669392
-0.000916051197117125   -0.005624339311524263   -8.946868342016931e-05
-0.00020638881647651837   -0.0056258282361257815   -7.3594309430577e-05
-0.00019999709186495945   -0.005636994034356349   -7.334631582725177e-05
-0.00023308961348622617   -0.0068815359949175765   -0.00012083494706669392
-0.000916051197117125   -0.005624339311524263   -8.946868342016931e-05
-0.00019999709186495945   -0.005636994034356349   -7.334631582725177e-05
-0.0008658813507844229   -0.006891604446467005   -0.00013756761233287246
-0.00023308961348622617   -0.0068815359949175765   -0.00012083494706669392
-0.00020638881647651837   -0.0056258282361257815   -7.3594309430577e-05
-0.0008697448107332141   -0.0068831610415980155   -0.00013496008456560525
-0.00023790609027703487   -0.0068743191685428666   -0.0001232579586300237
-0.00020638881647651837   -0.0056258282361257815   -7.3594309430577e-05
-0.000916051197117125   -0.005624339311524263   -8.946868342016931e-05
-0.0008697448107332141   -0.0068831610415980155   -0.00013496008456560525
-0.0009235968240237191   -0.005617589095309188   -8.498663376206532e-05
-0.00023790609027703487   -0.0068743191685428666   -0.0001232579586300237
-0.0008742733779469198   -0.006877957828213791   -0.00013148090753688934
-0.0009235968240237191   -0.005617589095309188   -8.498663376206532e-05
-0.0008697448107332141   -0.0068831610415980155   -0.00013496008456560525
-0.00023790609027703487   -0.0068743191685428666   -0.0001232579586300237
-0.0009235968240237191   -0.005617589095309188   -8.498663376206532e-05
-0.00021463916529586486   -0.0056168640609316   -7.298588774270463e-05
-0.00020638881647651837   -0.0056258282361257815   -7.3594309430577e-05
-0.00023790609027703487   -0.0068743191685428666   -0.0001232579586300237
-0.0009235968240237191   -0.005617589095309188   -8.498663376206532e-05
-0.00020638881647651837   -0.0056258282361257815   -7.3594309430577e-05
-0.0008697448107332141   -0.0068831610415980155   -0.00013496008456560525
-0.0008620743252942915   -0.006903237908836733   -0.0001392490096605798
-0.0009023908677520663   -0.005644259118632511   -9.59333873942753e-05
-0.001485685107570532   -0.006889804282645223   -0.0001610176918459362
-0.0008658813507844229   -0.006891604446467005   -0.00013756761233287246
-0.0009023908677520663   -0.005644259118632511   -9.59333873942753e-05
-0.0015985975933655592   -0.005631401447624903   -0.00011537773985289224
-0.001485685107570532   -0.006889804282645223   -0.0001610176918459362
-0.001605659055367692   -0.005622848172382745   -0.00010874324530444513
-0.0008658813507844229   -0.006891604446467005   -0.00013756761233287246
-0.0014898895855702489   -0.006880522440903072   -0.00015352411115234695
-0.001605659055367692   -0.005622848172382745   -0.00010874324530444513
-0.001485685107570532   -0.006889804282645223   -0.0001610176918459362
-0.0008658813507844229   -0.006891604446467005   -0.00013756761233287246
-0.001605659055367692   -0.005622848172382745   -0.00010874324530444513
-0.0009091423396934887   -0.005633265614748974   -9.313433087063961e-05
-0.0009023908677520663   -0.005644259118632511   -9.59333873942753e-05
-0.0008658813507844229   -0.006891604446467005   -0.00013756761233287246
-0.001605659055367692   -0.005622848172382745   -0.00010874324530444513
-0.0009023908677520663   -0.005644259118632511   -9.59333873942753e-05
-0.001485685107570532   -0.006889804282645223   -0.0001610176918459362
-0.0008658813507844229   -0.006891604446467005   -0.00013756761233287246
-0.0009091423396934887   -0.005633265614748974   -9.313433087063961e-05
-0.0014898895855702489   -0.006880522440903072   -0.00015352411115234695
-0.0008697448107332141   -0.0068831610415980155   -0.00013496008456560525
-0.0009091423396934887   -0.005633265614748974   -9.313433087063961e-05
-0.001605659055367692   -0.005622848172382745   -0.00010874324530444513
-0.0014898895855702489   -0.006880522440903072   -0.00015352411115234695
-0.001612012611733538   -0.005616347767122388   -0.00010126541299038724
-0.0008697448107332141   -0.0068831610415980155   -0.00013496008456560525
-0.001493304783736451   -0.006874401643644897   -0.00014512546985043142
-0.001612012611733538   -0.005616347767122388   -0.00010126541299038724
-0.0014898895855702489   -0.006880522440903072   -0.00015352411115234695
-0.0008697448107332141   -0.0068831610415980155   -0.00013496008456560525
-0.001612012611733538   -0.005616347767122388   -0.00010126541299038724
-0.000916051197117125   -0.005624339311524263   -8.946868342016931e-05
-0.0009091423396934887   -0.005633265614748974   -9.313433087063961e-05
-0.0008697448107332141   -0.0068831610415980155   -0.00013496008456560525
-0.001612012611733538   -0.005616347767122388   -0.00010126541299038724
-0.0009091423396934887   -0.005633265614748974   -9.313433087063961e-05
-0.0014898895855702489   -0.006880522440903072   -0.00015352411115234695
-0.0008697448107332141   -0.0068831610415980155   -0.00013496008456560525
-0.000916051197117125   -0.005624339311524263   -8.946868342016931e-05
-0.001493304783736451   -0.006874401643644897   -0.00014512546985043142
-0.0008742733779469198   -0.006877957828213791   -0.00013148090753688934
-0.000916051197117125   -0.005624339311524263   -8.946868342016931e-05
-0.001612012611733538   -0.005616347767122388   -0.00010126541299038724
-0.001493304783736451   -0.006874401643644897   -0.00014512546985043142
-0.001618433546744979   -0.005611904143480266   -9.297275717349542e-05
-0.0008742733779469198   -0.006877957828213791   -0.00013148090753688934
-0.0014968416356182848   -0.0068714251936102646   -0.00013584529272906473
-0.001618433546744979   -0.005611904143480266   -9.297275717349542e-05
-0.001493304783736451   -0.006874401643644897   -0.00014512546985043142
-0.0008742733779469198   -0.006877957828213791   -0.00013148090753688934
-0.001618433546744979   -0.005611904143480266   -9.297275717349542e-05
-0.0009235968240237191   -0.005617589095309188   -8.498663376206532e-05
-0.000916051197117125   -0.005624339311524263   -8.946868342016931e-05
-0.0008742733779469198   -0.006877957828213791   -0.00013148090753688934
-0.001618433546744979   -0.005611904143480266   -9.297275717349542e-05
-0.000916051197117125   -0.005624339311524263   -8.946868342016931e-05
-0.001493304783736451   -0.006874401643644897   -0.00014512546985043142
-0.001485685107570532   -0.006889804282645223   -0.0001610176918459362
-0.0015985975933655592   -0.005631401447624903   -0.00011537773985289224
-0.0021240747173729025   -0.006866318360733209   -0.0001788413409541893
-0.0014898895855702489   -0.006880522440903072   -0.00015352411115234695
-0.0015985975933655592   -0.005631401447624903   -0.00011537773985289224
-0.0023088247985082132   -0.005611872456568349   -0.00013071144231402768
-0.0021240747173729025   -0.006866318360733209   -0.0001788413409541893
-0.0023152787123524527   -0.005605751586233374   -0.00012020701457171151
-0.0014898895855702489   -0.006880522440903072   -0.00015352411115234695
-0.0021273794731089504   -0.006859288736677431   -0.0001654469983116651
-0.0023152787123524527   -0.005605751586233374   -0.00012020701457171151
-0.0021240747173729025   -0.006866318360733209   -0.0001788413409541893
-0.0014898895855702489   -0.006880522440903072   -0.00015352411115234695
-0.0023152787123524527   -0.005605751586233374   -0.00012020701457171151
-0.001605659055367692   -0.005622848172382745   -0.00010874324530444513
-0.0015985975933655592   -0.005631401447624903   -0.00011537773985289224
-0.0014898895855702489   -0.006880522440903072   -0.00015352411115234695
-0.0023152787123524527   -0.005605751586233374   -0.00012020701457171151
-0.0015985975933655592   -0.005631401447624903   -0.00011537773985289224
-0.0021240747173729025   -0.006866318360733209   -0.0001788413409541893
-0.0014898895855702489   -0.006880522440903072   -0.00015352411115234695
-0.001605659055367692   -0.005622848172382745   -0.00010874324530444513
-0.0021273794731089504   -0.006859288736677431   -0.0001654469983116651
-0.001493304783736451   -0.006874401643644897   -0.00014512546985043142
-0.001605659055367692   -0.005622848172382745   -0.00010874324530444513
-0.0023152787123524527   -0.005605751586233374   -0.00012020701457171151
-0.0021273794731089504   -0.006859288736677431   -0.0001654469983116651
-0.002318799162780747   -0.00560150333242034   -0.00010896490322168012
-0.001493304783736451   -0.006874401643644897   -0.00014512546985043142
-0.0021272125144335867   -0.006855299781970092   -0.00015127122338667173
-0.002318799162780747   -0.00560150333242034   -0.00010896490322168012
-0.0021273794731089504   -0.006859288736677431   -0.0001654469983116651
-0.001493304783736451   -0.006874401643644897   -0.00014512546985043142
-0.002318799162780747   -0.00560150333242034   -0.00010896490322168012
-0.001612012611733538   -0.005616347767122388   -0.00010126541299038724
-0.001605659055367692   -0.005622848172382745   -0.00010874324530444513
-0.001493304783736451   -0.006874401643644897   -0.00014512546985043142
-0.002318799162780747   -0.00560150333242034   -0.00010896490322168012
-0.001605659055367692   -0.005622848172382745   -0.00010874324530444513
-0.0021273794731089504   -0.006859288736677431   -0.0001654469983116651
-0.001493304783736451   -0.006874401643644897   -0.00014512546985043142
-0.001612012611733538   -0.005616347767122388   -0.00010126541299038724
-0.0021272125144335867   -0.006855299781970092   -0.00015127122338667173
-0.0014968416356182848   -0.0068714251936102646   -0.00013584529272906473
-0.001612012611733538   -0.005616347767122388   -0.00010126541299038724
-0.002318799162780747   -0.00560150333242034   -0.00010896490322168012
-0.0021272125144335867   -0.006855299781970092   -0.00015127122338667173
-0.002322868243268404   -0.005599509504141949   -9.683649650557918e-05
-0.0014968416356182848   -0.0068714251936102646   -0.00013584529272906473
-0.0021281704386498772   -0.00685475367142023   -0.0001361434866225168
-0.002322868243268404   -0.005599509504141949   -9.683649650557918e-05
-0.0021272125144335867   -0.006855299781970092   -0.00015127122338667173
-0.0014968416356182848   -0.0068714251936102646   -0.00013584529272906473
-0.002322868243268404   -0.005599509504141949   -9.683649650557918e-05
-0.001618433546744979   -0.005611904143480266   -9.297275717349542e-05
-0.001612012611733538   -0.005616347767122388   -0.00010126541299038724
-0.0014968416356182848   -0.0068714251936102646   -0.00013584529272906473
-0.002322868243268404   -0.005599509504141949   -9.683649650557918e-05
-0.001612012611733538   -0.005616347767122388   -0.00010126541299038724
-0.0021272125144335867   -0.006855299781970092   -0.00015127122338667173
-0.0021240747173729025   -0.006866318360733209   -0.0001788413409541893
-0.0023088247985082132   -0.005611872456568349   -0.00013071144231402768
-0.002821229091367637   -0.006834812137018166   -0.0001941057182847542
-0.0021273794731089504   -0.006859288736677431   -0.0001654469983116651
-0.0023088247985082132   -0.005611872456568349   -0.00013071144231402768
-0.003072935114717555   -0.005587177921373282   -0.00014255075089471435
-0.002821229091367637   -0.006834812137018166   -0.0001941057182847542
-0.003065679758712787   -0.005582236682452994   -0.00012814619596421506
-0.0021273794731089504   -0.006859288736677431   -0.0001654469983116651
-0.002805806415567876   -0.0068283827861024705   -0.00017425355962351127
-0.003065679758712787   -0.005582236682452994   -0.00012814619596421506
-0.002821229091367637   -0.006834812137018166   -0.0001941057182847542
-0.0021273794731089504   -0.006859288736677431   -0.0001654469983116651
-0.003065679758712787   -0.005582236682452994   -0.00012814619596421506
-0.0023152787123524527   -0.005605751586233374   -0.00012020701457171151
-0.0023088247985082132   -0.005611872456568349   -0.00013071144231402768
-0.0021273794731089504   -0.006859288736677431   -0.0001654469983116651
-0.003065679758712787   -0.005582236682452994   -0.00012814619596421506
-0.0023088247985082132   -0.005611872456568349   -0.00013071144231402768
-0.002821229091367637   -0.006834812137018166   -0.0001941057182847542
-0.0021273794731089504   -0.006859288736677431   -0.0001654469983116651
-0.0023152787123524527   -0.005605751586233374   -0.00012020701457171151
-0.002805806415567876   -0.0068283827861024705   -0.00017425355962351127
-0.0021272125144335867   -0.006855299781970092   -0.00015127122338667173
-0.0023152787123524527   -0.005605751586233374   -0.00012020701457171151
-0.003065679758712787   -0.005582236682452994   -0.00012814619596421506
-0.002805806415567876   -0.0068283827861024705   -0.00017425355962351127
-0.0030597393640433767   -0.005579057269669467   -0.00011238662671678965
-0.0021272125144335867   -0.006855299781970092   -0.00015127122338667173
-0.0027929301701951196   -0.006825308255833346   -0.0001530226549037678
-0.0030597393640433767   -0.005579057269669467   -0.00011238662671678965
-0.002805806415567876   -0.0068283827861024705   -0.00017425355962351127
-0.0021272125144335867   -0.006855299781970092   -0.00015127122338667173
-0.0030597393640433767   -0.005579057269669467   -0.00011238662671678965
-0.002318799162780747   -0.00560150333242034   -0.00010896490322168012
-0.0023152787123524527   -0.005605751586233374   -0.00012020701457171151
-0.0021272125144335867   -0.006855299781970092   -0.00015127122338667173
-0.0030597393640433767   -0.005579057269669467   -0.00011238662671678965
-0.0023152787123524527   -0.005605751586233374   -0.00012020701457171151
-0.002805806415567876   -0.0068283827861024705   -0.00017425355962351127
-0.0021272125144335867   -0.006855299781970092   -0.00015127122338667173
-0.002318799162780747   -0.00560150333242034   -0.00010896490322168012
-0.0027929301701951196   -0.006825308255833346   -0.0001530226549037678
-0.0021281704386498772   -0.00685475367142023   -0.0001361434866225168
-0.002318799162780747   -0.00560150333242034   -0.00010896490322168012
-0.0030597393640433767   -0.005579057269669467   -0.00011238662671678965
-0.0027929301701951196   -0.006825308255833346   -0.0001530226549037678
-0.00304743159650671   -0.005580106094655444   -9.542404512123266e-05
-0.0021281704386498772   -0.00685475367142023   -0.0001361434866225168
-0.0027724280155350025   -0.006827971596549757   -0.00013058926815868552
-0.00304743159650671   -0.005580106094655444   -9.542404512123266e-05
-0.0027929301701951196   -0.006825308255833346   -0.0001530226549037678
-0.0021281704386498772   -0.00685475367142023   -0.0001361434866225168
-0.00304743159650671   -0.005580106094655444   -9.542404512123266e-05
-0.002322868243268404   -0.005599509504141949   -9.683649650557918e-05
-0.002318799162780747   -0.00560150333242034   -0.00010896490322168012
-0.0021281704386498772   -0.00685475367142023   -0.0001361434866225168
-0.00304743159650671   -0.005580106094655444   -9.542404512123266e-05
-0.002318799162780747   -0.00560150333242034   -0.00010896490322168012
-0.0027929301701951196   -0.006825308255833346   -0.0001530226549037678
0.0005471244695432931   -0.005649650102280583   -4.248859407099624e-05
0.0005840666846790846   -0.00429723041023598   -9.05408211777121e-06
-0.00019425987137519936   -0.005650701990045302   -7.227439346460239e-05
0.0005470760566210795   -0.005633467129034697   -4.90490493598844e-05
0.0005840666846790846   -0.00429723041023598   -9.05408211777121e-06
-0.00020842834782104912   -0.004291367369402618   -3.528515865017676e-05
-0.00019425987137519936   -0.005650701990045302   -7.227439346460239e-05
-0.0002167198361162995   -0.004278435173322801   -3.3126168856273325e-05
0.0005470760566210795   -0.005633467129034697   -4.90490493598844e-05
-0.00019999709186495945   -0.005636994034356349   -7.334631582725177e-05
-0.0002167198361162995   -0.004278435173322801   -3.3126168856273325e-05
-0.00019425987137519936   -0.005650701990045302   -7.227439346460239e-05
0.0005470760566210795   -0.005633467129034697   -4.90490493598844e-05
-0.0002167198361162995   -0.004278435173322801   -3.3126168856273325e-05
0.0005764162705475753   -0.004281980770157316   -9.825517831961691e-06
0.0005840666846790846   -0.00429723041023598   -9.05408211777121e-06
0.0005470760566210795   -0.005633467129034697   -4.90490493598844e-05
-0.0002167198361162995   -0.004278435173322801   -3.3126168856273325e-05
0.0005840666846790846   -0.00429723041023598   -9.05408211777121e-06
-0.00019425987137519936   -0.005650701990045302   -7.227439346460239e-05
0.0005470760566210795   -0.005633467129034697   -4.90490493598844e-05
0.0005764162705475753   -0.004281980770157316   -9.825517831961691e-06
-0.00019999709186495945   -0.005636994034356349   -7.334631582725177e-05
0.0005434805188569505   -0.0056212960650975224   -5.4288655884141275e-05
0.0005764162705475753   -0.004281980770157316   -9.825517831961691e-06
-0.0002167198361162995   -0.004278435173322801   -3.3126168856273325e-05
-0.00019999709186495945   -0.005636994034356349   -7.334631582725177e-05
-0.0002263019915100987   -0.004266683990114058   -3.0190905244025042e-05
0.0005434805188569505   -0.0056212960650975224   -5.4288655884141275e-05
-0.00020638881647651837   -0.0056258282361257815   -7.3594309430577e-05
-0.0002263019915100987   -0.004266683990114058   -3.0190905244025042e-05
-0.00019999709186495945   -0.005636994034356349   -7.334631582725177e-05
0.0005434805188569505   -0.0056212960650975224   -5.4288655884141275e-05
-0.0002263019915100987   -0.004266683990114058   -3.0190905244025042e-05
0.0005661324047522929   -0.004269041737291166   -9.03059675099048e-06
0.0005764162705475753   -0.004281980770157316   -9.825517831961691e-06
0.0005434805188569505   -0.0056212960650975224   -5.4288655884141275e-05
-0.0002263019915100987   -0.004266683990114058   -3.0190905244025042e-05
0.0005764162705475753   -0.004281980770157316   -9.825517831961691e-06
-0.00019999709186495945   -0.005636994034356349   -7.334631582725177e-05
0.0005434805188569505   -0.0056212960650975224   -5.4288655884141275e-05
0.0005661324047522929   -0.004269041737291166   -9.03059675099048e-06
-0.00020638881647651837   -0.0056258282361257815   -7.3594309430577e-05
0.0005381522457349189   -0.0056107744277148364   -5.829998984579761e-05
0.0005661324047522929   -0.004269041737291166   -9.03059675099048e-06
-0.0002263019915100987   -0.004266683990114058   -3.0190905244025042e-05
-0.00020638881647651837   -0.0056258282361257815   -7.3594309430577e-05
-0.0002372781441191005   -0.004255929698557836   -2.6288645214768e-05
0.0005381522457349189   -0.0056107744277148364   -5.829998984579761e-05
-0.00021463916529586486   -0.0056168640609316   -7.298588774270463e-05
-0.0002372781441191005   -0.004255929698557836   -2.6288645214768e-05
-0.00020638881647651837   -0.0056258282361257815   -7.3594309430577e-05
0.0005381522457349189   -0.0056107744277148364   -5.829998984579761e-05
-0.0002372781441191005   -0.004255929698557836   -2.6288645214768e-05
0.0005523408351678818   -0.004255853087099104   -6.734063043517675e-06
0.0005661324047522929   -0.004269041737291166   -9.03059675099048e-06
0.0005381522457349189   -0.0056107744277148364   -5.829998984579761e-05
-0.0002372781441191005   -0.004255929698557836   -2.6288645214768e-05
0.0005661324047522929   -0.004269041737291166   -9.03059675099048e-06
-0.00020638881647651837   -0.0056258282361257815   -7.3594309430577e-05
-0.00019425987137519936   -0.005650701990045302   -7.227439346460239e-05
-0.00020842834782104912   -0.004291367369402618   -3.528515865017676e-05
-0.0009023908677520663   -0.005644259118632511   -9.59333873942753e-05
-0.00019999709186495945   -0.005636994034356349   -7.334631582725177e-05
-0.00020842834782104912   -0.004291367369402618   -3.528515865017676e-05
-0.0009590499686247914   -0.00428339274660621   -5.652873110615776e-05
-0.0009023908677520663   -0.005644259118632511   -9.59333873942753e-05
-0.0009678014260403976   -0.0042730011537755325   -5.248128058461548e-05
-0.00019999709186495945   -0.005636994034356349   -7.334631582725177e-05
-0.0009091423396934887   -0.005633265614748974   -9.313433087063961e-05
-0.0009678014260403976   -0.0042730011537755325   -5.248128058461548e-05
-0.0009023908677520663   -0.005644259118632511   -9.59333873942753e-05
-0.00019999709186495945   -0.005636994034356349   -7.334631582725177e-05
-0.0009678014260403976   -0.0042730011537755325   -5.248128058461548e-05
-0.0002167198361162995   -0.004278435173322801   -3.3126168856273325e-05
-0.00020842834782104912   -0.004291367369402618   -3.528515865017676e-05
-0.00019999709186495945   -0.005636994034356349   -7.334631582725177e-05
-0.0009678014260403976   -0.0042730011537755325   -5.248128058461548e-05
-0.00020842834782104912   -0.004291367369402618   -3.528515865017676e-05
-0.0009023908677520663   -0.005644259118632511   -9.59333873942753e-05
-0.00019999709186495945   -0.005636994034356349   -7.334631582725177e-05
-0.0002167198361162995   -0.004278435173322801   -3.3126168856273325e-05
-0.0009091423396934887   -0.005633265614748974   -9.313433087063961e-05
-0.00020638881647651837   -0.0056258282361257815   -7.3594309430577e-05
-0.0002167198361162995   -0.004278435173322801   -3.3126168856273325e-05
-0.0009678014260403976   -0.0042730011537755325   -5.248128058461548e-05
-0.0009091423396934887   -0.005633265614748974   -9.313433087063961e-05
-0.0009767837215762275   -0.004263516145114805   -4.767829078617062e-05
-0.00020638881647651837   -0.0056258282361257815   -7.3594309430577e-05
-0.000916051197117125   -0.005624339311524263   -8.946868342016931e-05
-0.0009767837215762275   -0.004263516145114805   -4.767829078617062e-05
-0.0009091423396934887   -0.005633265614748974   -9.313433087063961e-05
-0.00020638881647651837   -0.0056258282361257815   -7.3594309430577e-05
-0.0009767837215762275   -0.004263516145114805   -4.767829078617062e-05
-0.0002263019915100987   -0.004266683990114058   -3.0190905244025042e-05
-0.0002167198361162995   -0.004278435173322801   -3.3126168856273325e-05
-0.00020638881647651837   -0.0056258282361257815   -7.3594309430577e-05
-0.0009767837215762275   -0.004263516145114805   -4.767829078617062e-05
-0.0002167198361162995   -0.004278435173322801   -3.3126168856273325e-05
-0.0009091423396934887   -0.005633265614748974   -9.313433087063961e-05
-0.00020638881647651837   -0.0056258282361257815   -7.3594309430577e-05
-0.0002263019915100987   -0.004266683990114058   -3.0190905244025042e-05
-0.000916051197117125   -0.005624339311524263   -8.946868342016931e-05
-0.00021463916529586486   -0.0056168640609316   -7.298588774270463e-05
-0.0002263019915100987   -0.004266683990114058   -3.0190905244025042e-05
-0.0009767837215762275   -0.004263516145114805   -4.767829078617062e-05
-0.000916051197117125   -0.005624339311524263   -8.946868342016931e-05
-0.0009863911555661228   -0.004255133050179927   -4.212381501123082e-05
-0.00021463916529586486   -0.0056168640609316   -7.298588774270463e-05
-0.0009235968240237191   -0.005617589095309188   -8.498663376206532e-05
-0.0009863911555661228   -0.004255133050179927   -4.212381501123082e-05
-0.000916051197117125   -0.005624339311524263   -8.946868342016931e-05
-0.00021463916529586486   -0.0056168640609316   -7.298588774270463e-05
-0.0009863911555661228   -0.004255133050179927   -4.212381501123082e-05
-0.0002372781441191005   -0.004255929698557836   -2.6288645214768e-05
-0.0002263019915100987   -0.004266683990114058   -3.0190905244025042e-05
-0.00021463916529586486   -0.0056168640609316   -7.298588774270463e-05
-0.0009863911555661228   -0.004255133050179927   -4.212381501123082e-05
-0.0002263019915100987   -0.004266683990114058   -3.0190905244025042e-05
-0.000916051197117125   -0.005624339311524263   -8.946868342016931e-05
-0.0009023908677520663   -0.005644259118632511   -9.59333873942753e-05
-0.0009590499686247914   -0.00428339274660621   -5.652873110615776e-05
-0.0015985975933655592   -0.005631401447624903   -0.00011537773985289224
-0.0009091423396934887   -0.005633265614748974   -9.313433087063961e-05
-0.0009590499686247914   -0.00428339274660621   -5.652873110615776e-05
-0.001696865841976863   -0.004273307129662432   -7.400180266083322e-05
-0.0015985975933655592   -0.005631401447624903   -0.00011537773985289224
-0.0017056686276526272   -0.0042652072592731325   -6.81123795494766e-05
-0.0009091423396934887   -0.005633265614748974   -9.313433087063961e-05
-0.001605659055367692   -0.005622848172382745   -0.00010874324530444513
-0.0017056686276526272   -0.0042652072592731325   -6.81123795494766e-05
-0.0015985975933655592   -0.005631401447624903   -0.00011537773985289224
-0.0009091423396934887   -0.005633265614748974   -9.313433087063961e-05
-0.0017056686276526272   -0.0042652072592731325   -6.81123795494766e-05
-0.0009678014260403976   -0.0042730011537755325   -5.248128058461548e-05
-0.0009590499686247914   -0.00428339274660621   -5.652873110615776e-05
-0.0009091423396934887   -0.005633265614748974   -9.313433087063961e-05
-0.0017056686276526272   -0.0042652072592731325   -6.81123795494766e-05
-0.0009590499686247914   -0.00428339274660621   -5.652873110615776e-05
-0.0015985975933655592   -0.005631401447624903   -0.00011537773985289224
-0.0009091423396934887   -0.005633265614748974   -9.313433087063961e-05
-0.0009678014260403976   -0.0042730011537755325   -5.248128058461548e-05
-0.001605659055367692   -0.005622848172382745   -0.00010874324530444513
-0.000916051197117125   -0.005624339311524263   -8.946868342016931e-05
-0.0009678014260403976   -0.0042730011537755325   -5.248128058461548e-05
-0.0017056686276526272   -0.0042652072592731325   -6.81123795494766e-05
-0.001605659055367692   -0.005622848172382745   -0.00010874324530444513
-0.0017138692787120081   -0.004258044900886852   -6.149250413954904e-05
-0.000916051197117125   -0.005624339311524263   -8.946868342016931e-05
-0.001612012611733538   -0.005616347767122388   -0.00010126541299038724
-0.0017138692787120081   -0.004258044900886852   -6.149250413954904e-05
-0.001605659055367692   -0.005622848172382745   -0.00010874324530444513
-0.000916051197117125   -0.005624339311524263   -8.946868342016931e-05
-0.0017138692787120081   -0.004258044900886852   -6.149250413954904e-05
-0.0009767837215762275   -0.004263516145114805   -4.767829078617062e-05
-0.0009678014260403976   -0.0042730011537755325   -5.248128058461548e-05
-0.000916051197117125   -0.005624339311524263   -8.946868342016931e-05
-0.0017138692787120081   -0.004258044900886852   -6.149250413954904e-05
-0.0009678014260403976   -0.0042730011537755325   -5.248128058461548e-05
-0.001605659055367692   -0.005622848172382745   -0.00010874324530444513
-0.000916051197117125   -0.005624339311524263   -8.946868342016931e-05
-0.0009767837215762275   -0.004263516145114805   -4.767829078617062e-05
-0.001612012611733538   -0.005616347767122388   -0.00010126541299038724
-0.0009235968240237191   -0.005617589095309188   -8.498663376206532e-05
-0.0009767837215762275   -0.004263516145114805   -4.767829078617062e-05
-0.0017138692787120081   -0.004258044900886852   -6.149250413954904e-05
-0.001612012611733538   -0.005616347767122388   -0.00010126541299038724
-0.0017221003370078715   -0.004251832425935533   -5.417471789319602e-05
-0.0009235968240237191   -0.005617589095309188   -8.498663376206532e-05
-0.001618433546744979   -0.005611904143480266   -9.297275717349542e-05
-0.0017221003370078715   -0.004251832425935533   -5.417471789319602e-05
-0.001612012611733538   -0.005616347767122388   -0.00010126541299038724
-0.0009235968240237191   -0.005617589095309188   -8.498663376206532e-05
-0.0017221003370078715   -0.004251832425935533   -5.417471789319602e-05
-0.0009863911555661228   -0.004255133050179927   -4.212381501123082e-05
-0.0009767837215762275   -0.004263516145114805   -4.767829078617062e-05
-0.0009235968240237191   -0.005617589095309188   -8.498663376206532e-05
-0.0017221003370078715   -0.004251832425935533   -5.417471789319602e-05
-0.0009767837215762275   -0.004263516145114805   -4.767829078617062e-05
-0.001612012611733538   -0.005616347767122388   -0.00010126541299038724
-0.0015985975933655592   -0.005631401447624903   -0.00011537773985289224
-0.001696865841976863   -0.004273307129662432   -7.400180266083322e-05
-0.0023088247985082132   -0.005611872456568349   -0.00013071144231402768
-0.001605659055367692   -0.005622848172382745   -0.00010874324530444513
-0.001696865841976863   -0.004273307129662432   -7.400180266083322e-05
-0.002448365067359346   -0.004259333579590194   -8.754626666528693e-05
-0.0023088247985082132   -0.005611872456568349   -0.00013071144231402768
-0.002456748924681681   -0.0042536371708241675   -7.983924461866786e-05
-0.001605659055367692   -0.005622848172382745   -0.00010874324530444513
-0.0023152787123524527   -0.005605751586233374   -0.00012020701457171151
-0.002456748924681681   -0.0042536371708241675   -7.983924461866786e-05
-0.0023088247985082132   -0.005611872456568349   -0.00013071144231402768
-0.001605659055367692   -0.005622848172382745   -0.00010874324530444513
-0.002456748924681681   -0.0042536371708241675   -7.983924461866786e-05
-0.0017056686276526272   -0.0042652072592731325   -6.81123795494766e-05
-0.001696865841976863   -0.004273307129662432   -7.400180266083322e-05
-0.001605659055367692   -0.005622848172382745   -0.00010874324530444513
-0.002456748924681681   -0.0042536371708241675   -7.983924461866786e-05
-0.001696865841976863   -0.004273307129662432   -7.400180266083322e-05
-0.0023088247985082132   -0.005611872456568349   -0.00013071144231402768
-0.001605659055367692   -0.005622848172382745   -0.00010874324530444513
-0.0017056686276526272   -0.0042652072592731325   -6.81123795494766e-05
-0.0023152787123524527   -0.005605751586233374   -0.00012020701457171151
-0.001612012611733538   -0.005616347767122388   -0.00010126541299038724
-0.0017056686276526272   -0.0042652072592731325   -6.81123795494766e-05
-0.002456748924681681   -0.0042536371708241675   -7.983924461866786e-05
-0.0023152787123524527   -0.005605751586233374   -0.00012020701457171151
-0.002462836728867112   -0.004248644491462575   -7.150519539056975e-05
-0.001612012611733538   -0.005616347767122388   -0.00010126541299038724
-0.002318799162780747   -0.00560150333242034   -0.00010896490322168012
-0.002462836728867112   -0.004248644491462575   -7.150519539056975e-05
-0.0023152787123524527   -0.005605751586233374   -0.00012020701457171151
-0.001612012611733538   -0.005616347767122388   -0.00010126541299038724
-0.002462836728867112   -0.004248644491462575   -7.150519539056975e-05
-0.0017138692787120081   -0.004258044900886852   -6.149250413954904e-05
-0.0017056686276526272   -0.0042652072592731325   -6.81123795494766e-05
-0.001612012611733538   -0.005616347767122388   -0.00010126541299038724
-0.002462836728867112   -0.004248644491462575   -7.150519539056975e-05
-0.0017056686276526272   -0.0042652072592731325   -6.81123795494766e-05
-0.0023152787123524527   -0.005605751586233374   -0.00012020701457171151
-0.001612012611733538   -0.005616347767122388   -0.00010126541299038724
-0.0017138692787120081   -0.004258044900886852   -6.149250413954904e-05
-0.002318799162780747   -0.00560150333242034   -0.00010896490322168012
-0.001618433546744979   -0.005611904143480266   -9.297275717349542e-05
-0.0017138692787120081   -0.004258044900886852   -6.149250413954904e-05
-0.002462836728867112   -0.004248644491462575   -7.150519539056975e-05
-0.002318799162780747   -0.00560150333242034   -0.00010896490322168012
-0.002468940789758389   -0.004244675911890991   -6.239555290409705e-05
-0.001618433546744979   -0.005611904143480266   -9.297275717349542e-05
-0.002322868243268404   -0.005599509504141949   -9.683649650557918e-05
-0.002468940789758389   -0.004244675911890991   -6.239555290409705e-05
-0.002318799162780747   -0.00560150333242034   -0.00010896490322168012
-0.001618433546744979   -0.005611904143480266   -9.297275717349542e-05
-0.002468940789758389   -0.004244675911890991   -6.239555290409705e-05
-0.0017221003370078715   -0.004251832425935533   -5.417471789319602e-05
-0.0017138692787120081   -0.004258044900886852   -6.149250413954904e-05
-0.001618433546744979   -0.005611904143480266   -9.297275717349542e-05
-0.002468940789758389   -0.004244675911890991   -6.239555290409705e-05
-0.0017138692787120081   -0.004258044900886852   -6.149250413954904e-05
-0.002318799162780747   -0.00560150333242034   -0.00010896490322168012
-0.0023088247985082132   -0.005611872456568349   -0.00013071144231402768
-0.002448365067359346   -0.004259333579590194   -8.754626666528693e-05
-0.003072935114717555   -0.005587177921373282   -0.00014255075089471435
-0.0023152787123524527   -0.005605751586233374   -0.00012020701457171151
-0.002448365067359346   -0.004259333579590194   -8.754626666528693e-05
-0.0032474678229106424   -0.0042422362353497995   -9.681323017790208e-05
-0.003072935114717555   -0.005587177921373282   -0.00014255075089471435
-0.003247202891818065   -0.004238130299440877   -8.780889984869696e-05
-0.0023152787123524527   -0.005605751586233374   -0.00012020701457171151
-0.003065679758712787   -0.005582236682452994   -0.00012814619596421506
-0.003247202891818065   -0.004238130299440877   -8.780889984869696e-05
-0.003072935114717555   -0.005587177921373282   -0.00014255075089471435
-0.0023152787123524527   -0.005605751586233374   -0.00012020701457171151
-0.003247202891818065   -0.004238130299440877   -8.780889984869696e-05
-0.002456748924681681   -0.0042536371708241675   -7.983924461866786e-05
-0.002448365067359346   -0.004259333579590194   -8.754626666528693e-05
-0.0023152787123524527   -0.005605751586233374   -0.00012020701457171151
-0.003247202891818065   -0.004238130299440877   -8.780889984869696e-05
-0.002448365067359346   -0.004259333579590194   -8.754626666528693e-05
-0.003072935114717555   -0.005587177921373282   -0.00014255075089471435
-0.0023152787123524527   -0.005605751586233374   -0.00012020701457171151
-0.002456748924681681   -0.0042536371708241675   -7.983924461866786e-05
-0.003065679758712787   -0.005582236682452994   -0.00012814619596421506
-0.002318799162780747   -0.00560150333242034   -0.00010896490322168012
-0.002456748924681681   -0.0042536371708241675   -7.983924461866786e-05
-0.003247202891818065   -0.004238130299440877   -8.780889984869696e-05
-0.003065679758712787   -0.005582236682452994   -0.00012814619596421506
-0.0032471887119452725   -0.0042342588239167355   -7.756142424071561e-05
-0.002318799162780747   -0.00560150333242034   -0.00010896490322168012
-0.0030597393640433767   -0.005579057269669467   -0.00011238662671678965
-0.0032471887119452725   -0.0042342588239167355   -7.756142424071561e-05
-0.003065679758712787   -0.005582236682452994   -0.00012814619596421506
-0.002318799162780747   -0.00560150333242034   -0.00010896490322168012
-0.0032471887119452725   -0.0042342588239167355   -7.756142424071561e-05
-0.002462836728867112   -0.004248644491462575   -7.150519539056975e-05
-0.002456748924681681   -0.0042536371708241675   -7.983924461866786e-05
-0.002318799162780747   -0.00560150333242034   -0.00010896490322168012
-0.0032471887119452725   -0.0042342588239167355   -7.756142424071561e-05
-0.002456748924681681   -0.0042536371708241675   -7.983924461866786e-05
-0.003065679758712787   -0.005582236682452994   -0.00012814619596421506
-0.002318799162780747   -0.00560150333242034   -0.00010896490322168012
-0.002462836728867112   -0.004248644491462575   -7.150519539056975e-05
-0.0030597393640433767   -0.005579057269669467   -0.00011238662671678965
-0.002322868243268404   -0.005599509504141949   -9.683649650557918e-05
-0.002462836728867112   -0.004248644491462575   -7.150519539056975e-05
-0.0032471887119452725   -0.0042342588239167355   -7.756142424071561e-05
-0.0030597393640433767   -0.005579057269669467   -0.00011238662671678965
-0.003242260500631139   -0.004233007382435067   -6.620725211138216e-05
-0.002322868243268404   -0.005599509504141949   -9.683649650557918e-05
-0.00304743159650671   -0.005580106094655444   -9.542404512123266e-05
-0.003242260500631139   -0.004233007382435067   -6.620725211138216e-05
-0.0030597393640433767   -0.005579057269669467   -0.00011238662671678965
-0.002322868243268404   -0.005599509504141949   -9.683649650557918e-05
-0.003242260500631139   -0.004233007382435067   -6.620725211138216e-05
-0.002468940789758389   -0.004244675911890991   -6.239555290409705e-05
-0.002462836728867112   -0.004248644491462575   -7.150519539056975e-05
-0.002322868243268404   -0.005599509504141949   -9.683649650557918e-05
-0.003242260500631139   -0.004233007382435067   -6.620725211138216e-05
-0.002462836728867112   -0.004248644491462575   -7.150519539056975e-05
-0.0030597393640433767   -0.005579057269669467   -0.00011238662671678965
0.0005840666846790846   -0.00429723041023598   -9.05408211777121e-06
0.0005359866156232858   -0.002888483910569673   1.4192914481352641e-05
-0.00020842834782104912   -0.004291367369402618   -3.528515865017676e-05
0.0005764162705475753   -0.004281980770157316   -9.825517831961691e-06
0.0005359866156232858   -0.002888483910569673   1.4192914481352641e-05
-0.0002712082369338947   -0.0028762959134386768   -5.494284550374232e-06
-0.00020842834782104912   -0.004291367369402618   -3.528515865017676e-05
-0.00028162725480829453   -0.0028648873367076435   -2.156035888230102e-07
0.0005764162705475753   -0.004281980770157316   -9.825517831961691e-06
-0.0002167198361162995   -0.004278435173322801   -3.3126168856273325e-05
-0.00028162725480829453   -0.0028648873367076435   -2.156035888230102e-07
-0.00020842834782104912   -0.004291367369402618   -3.528515865017676e-05
0.0005764162705475753   -0.004281980770157316   -9.825517831961691e-06
-0.00028162725480829453   -0.0028648873367076435   -2.156035888230102e-07
0.0005203918554143232   -0.002874187287007636   2.0066612341739073e-05
0.0005359866156232858   -0.002888483910569673   1.4192914481352641e-05
0.0005764162705475753   -0.004281980770157316   -9.825517831961691e-06
-0.00028162725480829453   -0.0028648873367076435   -2.156035888230102e-07
0.0005359866156232858   -0.002888483910569673   1.4192914481352641e-05
-0.00020842834782104912   -0.004291367369402618   -3.528515865017676e-05
0.0005764162705475753   -0.004281980770157316   -9.825517831961691e-06
0.0005203918554143232   -0.002874187287007636   2.0066612341739073e-05
-0.0002167198361162995   -0.004278435173322801   -3.3126168856273325e-05
0.0005661324047522929   -0.004269041737291166   -9.03059675099048e-06
0.0005203918554143232   -0.002874187287007636   2.0066612341739073e-05
-0.00028162725480829453   -0.0028648873367076435   -2.156035888230102e-07
-0.0002167198361162995   -0.004278435173322801   -3.3126168856273325e-05
-0.0002939510198529438   -0.0028530228426347786   6.109622282303474e-06
0.0005661324047522929   -0.004269041737291166   -9.03059675099048e-06
-0.0002263019915100987   -0.004266683990114058   -3.0190905244025042e-05
-0.0002939510198529438   -0.0028530228426347786   6.109622282303474e-06
-0.0002167198361162995   -0.004278435173322801   -3.3126168856273325e-05
0.0005661324047522929   -0.004269041737291166   -9.03059675099048e-06
-0.0002939510198529438   -0.0028530228426347786   6.109622282303474e-06
0.000502262926602059   -0.0028604140071823722   2.9133862229377964e-05
0.0005203918554143232   -0.002874187287007636   2.0066612341739073e-05
0.0005661324047522929   -0.004269041737291166   -9.03059675099048e-06
-0.0002939510198529438   -0.0028530228426347786   6.109622282303474e-06
0.0005203918554143232   -0.002874187287007636   2.0066612341739073e-05
-0.0002167198361162995   -0.004278435173322801   -3.3126168856273325e-05
0.0005661324047522929   -0.004269041737291166   -9.03059675099048e-06
0.000502262926602059   -0.0028604140071823722   2.9133862229377964e-05
-0.0002263019915100987   -0.004266683990114058   -3.0190905244025042e-05
0.0005523408351678818   -0.004255853087099104   -6.734063043517675e-06
0.000502262926602059   -0.0028604140071823722   2.9133862229377964e-05
-0.0002939510198529438   -0.0028530228426347786   6.109622282303474e-06
-0.0002263019915100987   -0.004266683990114058   -3.0190905244025042e-05
-0.000306858208487507   -0.0028405845631641695   1.3489044384261322e-05
0.0005523408351678818   -0.004255853087099104   -6.734063043517675e-06
-0.0002372781441191005   -0.004255929698557836   -2.6288645214768e-05
-0.000306858208487507   -0.0028405845631641695   1.3489044384261322e-05
-0.0002263019915100987   -0.004266683990114058   -3.0190905244025042e-05
0.0005523408351678818   -0.004255853087099104   -6.734063043517675e-06
-0.000306858208487507   -0.0028405845631641695   1.3489044384261322e-05
0.0004800436465010204   -0.0028433294192767534   3.922073425591547e-05
0.000502262926602059   -0.0028604140071823722   2.9133862229377964e-05
0.0005523408351678818   -0.004255853087099104   -6.734063043517675e-06
-0.000306858208487507   -0.0028405845631641695   1.3489044384261322e-05
0.000502262926602059   -0.0028604140071823722   2.9133862229377964e-05
-0.0002263019915100987   -0.004266683990114058   -3.0190905244025042e-05
-0.00020842834782104912   -0.004291367369402618   -3.528515865017676e-05
-0.0002712082369338947   -0.0028762959134386768   -5.494284550374232e-06
-0.0009590499686247914   -0.00428339274660621   -5.652873110615776e-05
-0.0002167198361162995   -0.004278435173322801   -3.3126168856273325e-05
-0.0002712082369338947   -0.0028762959134386768   -5.494284550374232e-06
-0.0010289265033299809   -0.002873084457345434   -2.3959988672921423e-05
-0.0009590499686247914   -0.00428339274660621   -5.652873110615776e-05
-0.0010386112479600132   -0.0028635170021163946   -1.871008657714675e-05
-0.0002167198361162995   -0.004278435173322801   -3.3126168856273325e-05
-0.0009678014260403976   -0.0042730011537755325   -5.248128058461548e-05
-0.0010386112479600132   -0.0028635170021163946   -1.871008657714675e-05
-0.0009590499686247914   -0.00428339274660621   -5.652873110615776e-05
-0.0002167198361162995   -0.004278435173322801   -3.3126168856273325e-05
-0.0010386112479600132   -0.0028635170021163946   -1.871008657714675e-05
-0.00028162725480829453   -0.0028648873367076435   -2.156035888230102e-07
-0.0002712082369338947   -0.0028762959134386768   -5.494284550374232e-06
-0.0002167198361162995   -0.004278435173322801   -3.3126168856273325e-05
-0.0010386112479600132   -0.0028635170021163946   -1.871008657714675e-05
-0.0002712082369338947   -0.0028762959134386768   -5.494284550374232e-06
-0.0009590499686247914   -0.00428339274660621   -5.652873110615776e-05
-0.0002167198361162995   -0.004278435173322801   -3.3126168856273325e-05
-0.00028162725480829453   -0.0028648873367076435   -2.156035888230102e-07
-0.0009678014260403976   -0.0042730011537755325   -5.248128058461548e-05
-0.0002263019915100987   -0.004266683990114058   -3.0190905244025042e-05
-0.00028162725480829453   -0.0028648873367076435   -2.156035888230102e-07
-0.0010386112479600132   -0.0028635170021163946   -1.871008657714675e-05
-0.0009678014260403976   -0.0042730011537755325   -5.248128058461548e-05
-0.0010486961856254887   -0.002853633601268576   -1.2874632058022961e-05
-0.0002263019915100987   -0.004266683990114058   -3.0190905244025042e-05
-0.0009767837215762275   -0.004263516145114805   -4.767829078617062e-05
-0.0010486961856254887   -0.002853633601268576   -1.2874632058022961e-05
-0.0009678014260403976   -0.0042730011537755325   -5.248128058461548e-05
-0.0002263019915100987   -0.004266683990114058   -3.0190905244025042e-05
-0.0010486961856254887   -0.002853633601268576   -1.2874632058022961e-05
-0.0002939510198529438   -0.0028530228426347786   6.109622282303474e-06
-0.00028162725480829453   -0.0028648873367076435   -2.156035888230102e-07
-0.0002263019915100987   -0.004266683990114058   -3.0190905244025042e-05
-0.0010486961856254887   -0.002853633601268576   -1.2874632058022961e-05
-0.00028162725480829453   -0.0028648873367076435   -2.156035888230102e-07
-0.0009678014260403976   -0.0042730011537755325   -5.248128058461548e-05
-0.0002263019915100987   -0.004266683990114058   -3.0190905244025042e-05
-0.0002939510198529438   -0.0028530228426347786   6.109622282303474e-06
-0.0009767837215762275   -0.004263516145114805   -4.767829078617062e-05
-0.0002372781441191005   -0.004255929698557836   -2.6288645214768e-05
-0.0002939510198529438   -0.0028530228426347786   6.109622282303474e-06
-0.0010486961856254887   -0.002853633601268576   -1.2874632058022961e-05
-0.0009767837215762275   -0.004263516145114805   -4.767829078617062e-05
-0.0010592622171456518   -0.002843704003821457   -6.3514209018993256e-06
-0.0002372781441191005   -0.004255929698557836   -2.6288645214768e-05
-0.0009863911555661228   -0.004255133050179927   -4.212381501123082e-05
-0.0010592622171456518   -0.002843704003821457   -6.3514209018993256e-06
-0.0009767837215762275   -0.004263516145114805   -4.767829078617062e-05
-0.0002372781441191005   -0.004255929698557836   -2.6288645214768e-05
-0.0010592622171456518   -0.002843704003821457   -6.3514209018993256e-06
-0.000306858208487507   -0.0028405845631641695   1.3489044384261322e-05
-0.0002939510198529438   -0.0028530228426347786   6.109622282303474e-06
-0.0002372781441191005   -0.004255929698557836   -2.6288645214768e-05
-0.0010592622171456518   -0.002843704003821457   -6.3514209018993256e-06
-0.0002939510198529438   -0.0028530228426347786   6.109622282303474e-06
-0.0009767837215762275   -0.004263516145114805   -4.767829078617062e-05
-0.0009590499686247914   -0.00428339274660621   -5.652873110615776e-05
-0.0010289265033299809   -0.002873084457345434   -2.3959988672921423e-05
-0.001696865841976863   -0.004273307129662432   -7.400180266083322e-05
-0.0009678014260403976   -0.0042730011537755325   -5.248128058461548e-05
-0.0010289265033299809   -0.002873084457345434   -2.3959988672921423e-05
-0.001777151993892331   -0.002872110137699582   -4.033275904111307e-05
-0.001696865841976863   -0.004273307129662432   -7.400180266083322e-05
-0.0017865414952977323   -0.0028640026497427982   -3.5034887686240497e-05
-0.0009678014260403976   -0.0042730011537755325   -5.248128058461548e-05
-0.0017056686276526272   -0.0042652072592731325   -6.81123795494766e-05
-0.0017865414952977323   -0.0028640026497427982   -3.5034887686240497e-05
-0.001696865841976863   -0.004273307129662432   -7.400180266083322e-05
-0.0009678014260403976   -0.0042730011537755325   -5.248128058461548e-05
-0.0017865414952977323   -0.0028640026497427982   -3.5034887686240497e-05
-0.0010386112479600132   -0.0028635170021163946   -1.871008657714675e-05
-0.0010289265033299809   -0.002873084457345434   -2.3959988672921423e-05
-0.0009678014260403976   -0.0042730011537755325   -5.248128058461548e-05
-0.0017865414952977323   -0.0028640026497427982   -3.5034887686240497e-05
-0.0010289265033299809   -0.002873084457345434   -2.3959988672921423e-05
-0.001696865841976863   -0.004273307129662432   -7.400180266083322e-05
-0.0009678014260403976   -0.0042730011537755325   -5.248128058461548e-05
-0.0010386112479600132   -0.0028635170021163946   -1.871008657714675e-05
-0.0017056686276526272   -0.0042652072592731325   -6.81123795494766e-05
-0.0009767837215762275   -0.004263516145114805   -4.767829078617062e-05
-0.0010386112479600132   -0.0028635170021163946   -1.871008657714675e-05
-0.0017865414952977323   -0.0028640026497427982   -3.5034887686240497e-05
-0.0017056686276526272   -0.0042652072592731325   -6.81123795494766e-05
-0.0017954936982468115   -0.0028558603209108222   -2.921408606672672e-05
-0.0009767837215762275   -0.004263516145114805   -4.767829078617062e-05
-0.0017138692787120081   -0.004258044900886852   -6.149250413954904e-05
-0.0017954936982468115   -0.0028558603209108222   -2.921408606672672e-05
-0.0017056686276526272   -0.0042652072592731325   -6.81123795494766e-05
-0.0009767837215762275   -0.004263516145114805   -4.767829078617062e-05
-0.0017954936982468115   -0.0028558603209108222   -2.921408606672672e-05
-0.0010486961856254887   -0.002853633601268576   -1.2874632058022961e-05
-0.0010386112479600132   -0.0028635170021163946   -1.871008657714675e-05
-0.0009767837215762275   -0.004263516145114805   -4.767829078617062e-05
-0.0017954936982468115   -0.0028558603209108222   -2.921408606672672e-05
-0.0010386112479600132   -0.0028635170021163946   -1.871008657714675e-05
-0.0017056686276526272   -0.0042652072592731325   -6.81123795494766e-05
-0.0009767837215762275   -0.004263516145114805   -4.767829078617062e-05
-0.0010486961856254887   -0.002853633601268576   -1.2874632058022961e-05
-0.0017138692787120081   -0.004258044900886852   -6.149250413954904e-05
-0.0009863911555661228   -0.004255133050179927   -4.212381501123082e-05
-0.0010486961856254887   -0.002853633601268576   -1.2874632058022961e-05
-0.0017954936982468115   -0.0028558603209108222   -2.921408606672672e-05
-0.0017138692787120081   -0.004258044900886852   -6.149250413954904e-05
-0.001804363111470754   -0.0028476192886723655   -2.288979262802936e-05
-0.0009863911555661228   -0.004255133050179927   -4.212381501123082e-05
-0.0017221003370078715   -0.004251832425935533   -5.417471789319602e-05
-0.001804363111470754   -0.0028476192886723655   -2.288979262802936e-05
-0.0017138692787120081   -0.004258044900886852   -6.149250413954904e-05
-0.0009863911555661228   -0.004255133050179927   -4.212381501123082e-05
-0.001804363111470754   -0.0028476192886723655   -2.288979262802936e-05
-0.0010592622171456518   -0.002843704003821457   -6.3514209018993256e-06
-0.0010486961856254887   -0.002853633601268576   -1.2874632058022961e-05
-0.0009863911555661228   -0.004255133050179927   -4.212381501123082e-05
-0.001804363111470754   -0.0028476192886723655   -2.288979262802936e-05
-0.0010486961856254887   -0.002853633601268576   -1.2874632058022961e-05
-0.0017138692787120081   -0.004258044900886852   -6.149250413954904e-05
-0.001696865841976863   -0.004273307129662432   -7.400180266083322e-05
-0.001777151993892331   -0.002872110137699582   -4.033275904111307e-05
-0.002448365067359346   -0.004259333579590194   -8.754626666528693e-05
-0.0017056686276526272   -0.0042652072592731325   -6.81123795494766e-05
-0.001777151993892331   -0.002872110137699582   -4.033275904111307e-05
-0.002541483803148396   -0.0028673581635808862   -5.345198466095313e-05
-0.002448365067359346   -0.004259333579590194   -8.754626666528693e-05
-0.0025504303197723638   -0.0028612066685183477   -4.816955937472009e-05
-0.0017056686276526272   -0.0042652072592731325   -6.81123795494766e-05
-0.002456748924681681   -0.0042536371708241675   -7.983924461866786e-05
-0.0025504303197723638   -0.0028612066685183477   -4.816955937472009e-05
-0.002448365067359346   -0.004259333579590194   -8.754626666528693e-05
-0.0017056686276526272   -0.0042652072592731325   -6.81123795494766e-05
-0.0025504303197723638   -0.0028612066685183477   -4.816955937472009e-05
-0.0017865414952977323   -0.0028640026497427982   -3.5034887686240497e-05
-0.001777151993892331   -0.002872110137699582   -4.033275904111307e-05
-0.0017056686276526272   -0.0042652072592731325   -6.81123795494766e-05
-0.0025504303197723638   -0.0028612066685183477   -4.816955937472009e-05
-0.001777151993892331   -0.002872110137699582   -4.033275904111307e-05
-0.002448365067359346   -0.004259333579590194   -8.754626666528693e-05
-0.0017056686276526272   -0.0042652072592731325   -6.81123795494766e-05
-0.0017865414952977323   -0.0028640026497427982   -3.5034887686240497e-05
-0.002456748924681681   -0.0042536371708241675   -7.983924461866786e-05
-0.0017138692787120081   -0.004258044900886852   -6.149250413954904e-05
-0.0017865414952977323   -0.0028640026497427982   -3.5034887686240497e-05
-0.0025504303197723638   -0.0028612066685183477   -4.816955937472009e-05
-0.002456748924681681   -0.0042536371708241675   -7.983924461866786e-05
-0.0025578663414043256   -0.0028547574271220897   -4.248391775602176e-05
-0.0017138692787120081   -0.004258044900886852   -6.149250413954904e-05
-0.002462836728867112   -0.004248644491462575   -7.150519539056975e-05
-0.0025578663414043256   -0.0028547574271220897   -4.248391775602176e-05
-0.002456748924681681   -0.0042536371708241675   -7.983924461866786e-05
-0.0017138692787120081   -0.004258044900886852   -6.149250413954904e-05
-0.0025578663414043256   -0.0028547574271220897   -4.248391775602176e-05
-0.0017954936982468115   -0.0028558603209108222   -2.921408606672672e-05
-0.0017865414952977323   -0.0028640026497427982   -3.5034887686240497e-05
-0.0017138692787120081   -0.004258044900886852   -6.149250413954904e-05
-0.0025578663414043256   -0.0028547574271220897   -4.248391775602176e-05
-0.0017865414952977323   -0.0028640026497427982   -3.5034887686240497e-05
-0.002456748924681681   -0.0042536371708241675   -7.983924461866786e-05
-0.0017138692787120081   -0.004258044900886852   -6.149250413954904e-05
-0.0017954936982468115   -0.0028558603209108222   -2.921408606672672e-05
-0.002462836728867112   -0.004248644491462575   -7.150519539056975e-05
-0.0017221003370078715   -0.004251832425935533   -5.417471789319602e-05
-0.0017954936982468115   -0.0028558603209108222   -2.921408606672672e-05
-0.0025578663414043256   -0.0028547574271220897   -4.248391775602176e-05
-0.002462836728867112   -0.004248644491462575   -7.150519539056975e-05
-0.0025648862088104595   -0.0028482350667074184   -3.6249804037003255e-05
-0.0017221003370078715   -0.004251832425935533   -5.417471789319602e-05
-0.002468940789758389   -0.004244675911890991   -6.239555290409705e-05
-0.0025648862088104595   -0.0028482350667074184   -3.6249804037003255e-05
-0.002462836728867112   -0.004248644491462575   -7.150519539056975e-05
-0.0017221003370078715   -0.004251832425935533   -5.417471789319602e-05
-0.0025648862088104595   -0.0028482350667074184   -3.6249804037003255e-05
-0.001804363111470754   -0.0028476192886723655   -2.288979262802936e-05
-0.0017954936982468115   -0.0028558603209108222   -2.921408606672672e-05
-0.0017221003370078715   -0.004251832425935533   -5.417471789319602e-05
-0.0025648862088104595   -0.0028482350667074184   -3.6249804037003255e-05
-0.0017954936982468115   -0.0028558603209108222   -2.921408606672672e-05
-0.002462836728867112   -0.004248644491462575   -7.150519539056975e-05
-0.002448365067359346   -0.004259333579590194   -8.754626666528693e-05
-0.002541483803148396   -0.0028673581635808862   -5.345198466095313e-05
-0.0032474678229106424   -0.0042422362353497995   -9.681323017790208e-05
-0.002456748924681681   -0.0042536371708241675   -7.983924461866786e-05
-0.002541483803148396   -0.0028673581635808862   -5.345198466095313e-05
-0.003345223876800148   -0.0028591143660459915   -6.21325610250331e-05
-0.0032474678229106424   -0.0042422362353497995   -9.681323017790208e-05
-0.003350014414419346   -0.0028543992575767695   -5.770818292624344e-05
-0.002456748924681681   -0.0042536371708241675   -7.983924461866786e-05
-0.003247202891818065   -0.004238130299440877   -8.780889984869696e-05
-0.003350014414419346   -0.0028543992575767695   -5.770818292624344e-05
-0.0032474678229106424   -0.0042422362353497995   -9.681323017790208e-05
-0.002456748924681681   -0.0042536371708241675   -7.983924461866786e-05
-0.003350014414419346   -0.0028543992575767695   -5.770818292624344e-05
-0.0025504303197723638   -0.0028612066685183477   -4.816955937472009e-05
-0.002541483803148396   -0.0028673581635808862   -5.345198466095313e-05
-0.002456748924681681   -0.0042536371708241675   -7.983924461866786e-05
-0.003350014414419346   -0.0028543992575767695   -5.770818292624344e-05
-0.002541483803148396   -0.0028673581635808862   -5.345198466095313e-05
-0.0032474678229106424   -0.0042422362353497995   -9.681323017790208e-05
-0.002456748924681681   -0.0042536371708241675   -7.983924461866786e-05
-0.0025504303197723638   -0.0028612066685183477   -4.816955937472009e-05
-0.003247202891818065   -0.004238130299440877   -8.780889984869696e-05
-0.002462836728867112   -0.004248644491462575   -7.150519539056975e-05
-0.0025504303197723638   -0.0028612066685183477   -4.816955937472009e-05
-0.003350014414419346   -0.0028543992575767695   -5.770818292624344e-05
-0.003247202891818065   -0.004238130299440877   -8.780889984869696e-05
-0.003354395323111783   -0.002848876114381546   -5.235963841590713e-05
-0.002462836728867112   -0.004248644491462575   -7.150519539056975e-05
-0.0032471887119452725   -0.0042342588239167355   -7.756142424071561e-05
-0.003354395323111783   -0.002848876114381546   -5.235963841590713e-05
-0.003247202891818065   -0.004238130299440877   -8.780889984869696e-05
-0.002462836728867112   -0.004248644491462575   -7.150519539056975e-05
-0.003354395323111783   -0.002848876114381546   -5.235963841590713e-05
-0.0025578663414043256   -0.0028547574271220897   -4.248391775602176e-05
-0.0025504303197723638   -0.0028612066685183477   -4.816955937472009e-05
-0.002462836728867112   -0.004248644491462575   -7.150519539056975e-05
-0.003354395323111783   -0.002848876114381546   -5.235963841590713e-05
-0.0025504303197723638   -0.0028612066685183477   -4.816955937472009e-05
-0.003247202891818065   -0.004238130299440877   -8.780889984869696e-05
-0.002462836728867112   -0.004248644491462575   -7.150519539056975e-05
-0.0025578663414043256   -0.0028547574271220897   -4.248391775602176e-05
-0.0032471887119452725   -0.0042342588239167355   -7.756142424071561e-05
-0.002468940789758389   -0.004244675911890991   -6.239555290409705e-05
-0.0025578663414043256   -0.0028547574271220897   -4.248391775602176e-05
-0.003354395323111783   -0.002848876114381546   -5.235963841590713e-05
-0.0032471887119452725   -0.0042342588239167355   -7.756142424071561e-05
-0.003355654690687685   -0.002844368500491212   -4.628171746536867e-05
-0.002468940789758389   -0.004244675911890991   -6.239555290409705e-05
-0.003242260500631139   -0.004233007382435067   -6.620725211138216e-05
-0.003355654690687685   -0.002844368500491212   -4.628171746536867e-05
-0.0032471887119452725   -0.0042342588239167355   -7.756142424071561e-05
-0.002468940789758389   -0.004244675911890991   -6.239555290409705e-05
-0.003355654690687685   -0.002844368500491212   -4.628171746536867e-05
-0.0025648862088104595   -0.0028482350667074184   -3.6249804037003255e-05
-0.0025578663414043256   -0.0028547574271220897   -4.248391775602176e-05
-0.002468940789758389   -0.004244675911890991   -6.239555290409705e-05
-0.003355654690687685   -0.002844368500491212   -4.628171746536867e-05
-0.0025578663414043256   -0.0028547574271220897   -4.248391775602176e-05
-0.0032471887119452725   -0.0042342588239167355   -7.756142424071561e-05
0.0005359866156232858   -0.002888483910569673   1.4192914481352641e-05
0.0003835131561159036   -0.001465885734944842   1.6188459979904224e-05
-0.0002712082369338947   -0.0028762959134386768   -5.494284550374232e-06
0.0005203918554143232   -0.002874187287007636   2.0066612341739073e-05
0.0003835131561159036   -0.001465885734944842   1.6188459979904224e-05
-0.0003788733435002478   -0.0014493573616674662   1.2308322887374493e-05
-0.0002712082369338947   -0.0028762959134386768   -5.494284550374232e-06
-0.000389569537769104   -0.001444842804611718   2.0152527131015866e-05
0.0005203918554143232   -0.002874187287007636   2.0066612341739073e-05
-0.00028162725480829453   -0.0028648873367076435   -2.156035888230102e-07
-0.000389569537769104   -0.001444842804611718   2.0152527131015866e-05
-0.0002712082369338947   -0.0028762959134386768   -5.494284550374232e-06
0.0005203918554143232   -0.002874187287007636   2.0066612341739073e-05
-0.000389569537769104   -0.001444842804611718   2.0152527131015866e-05
0.00034980003979164545   -0.0014501288043787077   3.51133289446903e-05
0.0003835131561159036   -0.001465885734944842   1.6188459979904224e-05
0.0005203918554143232   -0.002874187287007636   2.0066612341739073e-05
-0.000389569537769104   -0.001444842804611718   2.0152527131015866e-05
0.0003835131561159036   -0.001465885734944842   1.6188459979904224e-05
-0.0002712082369338947   -0.0028762959134386768   -5.494284550374232e-06
0.0005203918554143232   -0.002874187287007636   2.0066612341739073e-05
0.00034980003979164545   -0.0014501288043787077   3.51133289446903e-05
-0.00028162725480829453   -0.0028648873367076435   -2.156035888230102e-07
0.000502262926602059   -0.0028604140071823722   2.9133862229377964e-05
0.00034980003979164545   -0.0014501288043787077   3.51133289446903e-05
-0.000389569537769104   -0.001444842804611718   2.0152527131015866e-05
-0.00028162725480829453   -0.0028648873367076435   -2.156035888230102e-07
-0.00040419994953791563   -0.0014348638533772146   2.984262372123959e-05
0.000502262926602059   -0.0028604140071823722   2.9133862229377964e-05
-0.0002939510198529438   -0.0028530228426347786   6.109622282303474e-06
-0.00040419994953791563   -0.0014348638533772146   2.984262372123959e-05
-0.00028162725480829453   -0.0028648873367076435   -2.156035888230102e-07
0.000502262926602059   -0.0028604140071823722   2.9133862229377964e-05
-0.00040419994953791563   -0.0014348638533772146   2.984262372123959e-05
0.00033031432600026087   -0.0014381565342973224   4.891715115692656e-05
0.00034980003979164545   -0.0014501288043787077   3.51133289446903e-05
0.000502262926602059   -0.0028604140071823722   2.9133862229377964e-05
-0.00040419994953791563   -0.0014348638533772146   2.984262372123959e-05
0.00034980003979164545   -0.0014501288043787077   3.51133289446903e-05
-0.00028162725480829453   -0.0028648873367076435   -2.156035888230102e-07
0.000502262926602059   -0.0028604140071823722   2.9133862229377964e-05
0.00033031432600026087   -0.0014381565342973224   4.891715115692656e-05
-0.0002939510198529438   -0.0028530228426347786   6.109622282303474e-06
0.0004800436465010204   -0.0028433294192767534   3.922073425591547e-05
0.00033031432600026087   -0.0014381565342973224   4.891715115692656e-05
-0.00040419994953791563   -0.0014348638533772146   2.984262372123959e-05
-0.0002939510198529438   -0.0028530228426347786   6.109622282303474e-06
-0.00041675209279556187   -0.0014244826353519368   3.833808903162817e-05
0.0004800436465010204   -0.0028433294192767534   3.922073425591547e-05
-0.000306858208487507   -0.0028405845631641695   1.3489044384261322e-05
-0.00041675209279556187   -0.0014244826353519368   3.833808903162817e-05
-0.0002939510198529438   -0.0028530228426347786   6.109622282303474e-06
0.0004800436465010204   -0.0028433294192767534   3.922073425591547e-05
-0.00041675209279556187   -0.0014244826353519368   3.833808903162817e-05
0.00030492944983311537   -0.0014190027412668777   6.487283891722918e-05
0.00033031432600026087   -0.0014381565342973224   4.891715115692656e-05
0.0004800436465010204   -0.0028433294192767534   3.922073425591547e-05
-0.00041675209279556187   -0.0014244826353519368   3.833808903162817e-05
0.00033031432600026087   -0.0014381565342973224   4.891715115692656e-05
-0.0002939510198529438   -0.0028530228426347786   6.109622282303474e-06
-0.0002712082369338947   -0.0028762959134386768   -5.494284550374232e-06
-0.0003788733435002478   -0.0014493573616674662   1.2308322887374493e-05
-0.0010289265033299809   -0.002873084457345434   -2.3959988672921423e-05
-0.00028162725480829453   -0.0028648873367076435   -2.156035888230102e-07
-0.0003788733435002478   -0.0014493573616674662   1.2308322887374493e-05
-0.0010972612092017527   -0.0014725551090912661   -1.078742264812881e-06
-0.0010289265033299809   -0.002873084457345434   -2.3959988672921423e-05
-0.0011076182749918582   -0.0014642862208011406   4.684804385991615e-06
-0.00028162725480829453   -0.0028648873367076435   -2.156035888230102e-07
-0.0010386112479600132   -0.0028635170021163946   -1.871008657714675e-05
-0.0011076182749918582   -0.0014642862208011406   4.684804385991615e-06
-0.0010289265033299809   -0.002873084457345434   -2.3959988672921423e-05
-0.00028162725480829453   -0.0028648873367076435   -2.156035888230102e-07
-0.0011076182749918582   -0.0014642862208011406   4.684804385991615e-06
-0.000389569537769104   -0.001444842804611718   2.0152527131015866e-05
-0.0003788733435002478   -0.0014493573616674662   1.2308322887374493e-05
-0.00028162725480829453   -0.0028648873367076435   -2.156035888230102e-07
-0.0011076182749918582   -0.0014642862208011406   4.684804385991615e-06
-0.0003788733435002478   -0.0014493573616674662   1.2308322887374493e-05
-0.0010289265033299809   -0.002873084457345434   -2.3959988672921423e-05
-0.00028162725480829453   -0.0028648873367076435   -2.156035888230102e-07
-0.000389569537769104   -0.001444842804611718   2.0152527131015866e-05
-0.0010386112479600132   -0.0028635170021163946   -1.871008657714675e-05
-0.0002939510198529438   -0.0028530228426347786   6.109622282303474e-06
-0.000389569537769104   -0.001444842804611718   2.0152527131015866e-05
-0.0011076182749918582   -0.0014642862208011406   4.684804385991615e-06
-0.0010386112479600132   -0.0028635170021163946   -1.871008657714675e-05
-0.0011187349169232079   -0.0014545977900968527   1.0923079465561595e-05
-0.0002939510198529438   -0.0028530228426347786   6.109622282303474e-06
-0.0010486961856254887   -0.002853633601268576   -1.2874632058022961e-05
-0.0011187349169232079   -0.0014545977900968527   1.0923079465561595e-05
-0.0010386112479600132   -0.0028635170021163946   -1.871008657714675e-05
-0.0002939510198529438   -0.0028530228426347786   6.109622282303474e-06
-0.0011187349169232079   -0.0014545977900968527   1.0923079465561595e-05
-0.00040419994953791563   -0.0014348638533772146   2.984262372123959e-05
-0.000389569537769104   -0.001444842804611718   2.0152527131015866e-05
-0.0002939510198529438   -0.0028530228426347786   6.109622282303474e-06
-0.0011187349169232079   -0.0014545977900968527   1.0923079465561595e-05
-0.000389569537769104   -0.001444842804611718   2.0152527131015866e-05
-0.0010386112479600132   -0.0028635170021163946   -1.871008657714675e-05
-0.0002939510198529438   -0.0028530228426347786   6.109622282303474e-06
-0.00040419994953791563   -0.0014348638533772146   2.984262372123959e-05
-0.0010486961856254887   -0.002853633601268576   -1.2874632058022961e-05
-0.000306858208487507   -0.0028405845631641695   1.3489044384261322e-05
-0.00040419994953791563   -0.0014348638533772146   2.984262372123959e-05
-0.0011187349169232079   -0.0014545977900968527   1.0923079465561595e-05
-0.0010486961856254887   -0.002853633601268576   -1.2874632058022961e-05
-0.0011295298302087154   -0.0014439751139943243   1.7885385620356325e-05
-0.000306858208487507   -0.0028405845631641695   1.3489044384261322e-05
-0.0010592622171456518   -0.002843704003821457   -6.3514209018993256e-06
-0.0011295298302087154   -0.0014439751139943243   1.7885385620356325e-05
-0.0010486961856254887   -0.002853633601268576   -1.2874632058022961e-05
-0.000306858208487507   -0.0028405845631641695   1.3489044384261322e-05
-0.0011295298302087154   -0.0014439751139943243   1.7885385620356325e-05
-0.00041675209279556187   -0.0014244826353519368   3.833808903162817e-05
-0.00040419994953791563   -0.0014348638533772146   2.984262372123959e-05
-0.000306858208487507   -0.0028405845631641695   1.3489044384261322e-05
-0.0011295298302087154   -0.0014439751139943243   1.7885385620356325e-05
-0.00040419994953791563   -0.0014348638533772146   2.984262372123959e-05
-0.0010486961856254887   -0.002853633601268576   -1.2874632058022961e-05
-0.0010289265033299809   -0.002873084457345434   -2.3959988672921423e-05
-0.0010972612092017527   -0.0014725551090912661   -1.078742264812881e-06
-0.001777151993892331   -0.002872110137699582   -4.033275904111307e-05
-0.0010386112479600132   -0.0028635170021163946   -1.871008657714675e-05
-0.0010972612092017527   -0.0014725551090912661   -1.078742264812881e-06
-0.0018301361211160105   -0.0014907263360539552   -1.6800491096246573e-05
-0.001777151993892331   -0.002872110137699582   -4.033275904111307e-05
-0.0018396613125036525   -0.0014821345675992436   -1.2163210241878201e-05
-0.0010386112479600132   -0.0028635170021163946   -1.871008657714675e-05
-0.0017865414952977323   -0.0028640026497427982   -3.5034887686240497e-05
-0.0018396613125036525   -0.0014821345675992436   -1.2163210241878201e-05
-0.001777151993892331   -0.002872110137699582   -4.033275904111307e-05
-0.0010386112479600132   -0.0028635170021163946   -1.871008657714675e-05
-0.0018396613125036525   -0.0014821345675992436   -1.2163210241878201e-05
-0.0011076182749918582   -0.0014642862208011406   4.684804385991615e-06
-0.0010972612092017527   -0.0014725551090912661   -1.078742264812881e-06
-0.0010386112479600132   -0.0028635170021163946   -1.871008657714675e-05
-0.0018396613125036525   -0.0014821345675992436   -1.2163210241878201e-05
-0.0010972612092017527   -0.0014725551090912661   -1.078742264812881e-06
-0.001777151993892331   -0.002872110137699582   -4.033275904111307e-05
-0.0010386112479600132   -0.0028635170021163946   -1.871008657714675e-05
-0.0011076182749918582   -0.0014642862208011406   4.684804385991615e-06
-0.0017865414952977323   -0.0028640026497427982   -3.5034887686240497e-05
-0.0010486961856254887   -0.002853633601268576   -1.2874632058022961e-05
-0.0011076182749918582   -0.0014642862208011406   4.684804385991615e-06
-0.0018396613125036525   -0.0014821345675992436   -1.2163210241878201e-05
-0.0017865414952977323   -0.0028640026497427982   -3.5034887686240497e-05
-0.0018489351746827705   -0.001472904286457148   -7.441673988319326e-06
-0.0010486961856254887   -0.002853633601268576   -1.2874632058022961e-05
-0.0017954936982468115   -0.0028558603209108222   -2.921408606672672e-05
-0.0018489351746827705   -0.001472904286457148   -7.441673988319326e-06
-0.0017865414952977323   -0.0028640026497427982   -3.5034887686240497e-05
-0.0010486961856254887   -0.002853633601268576   -1.2874632058022961e-05
-0.0018489351746827705   -0.001472904286457148   -7.441673988319326e-06
-0.0011187349169232079   -0.0014545977900968527   1.0923079465561595e-05
-0.0011076182749918582   -0.0014642862208011406   4.684804385991615e-06
-0.0010486961856254887   -0.002853633601268576   -1.2874632058022961e-05
-0.0018489351746827705   -0.001472904286457148   -7.441673988319326e-06
-0.0011076182749918582   -0.0014642862208011406   4.684804385991615e-06
-0.0017865414952977323   -0.0028640026497427982   -3.5034887686240497e-05
-0.0010486961856254887   -0.002853633601268576   -1.2874632058022961e-05
-0.0011187349169232079   -0.0014545977900968527   1.0923079465561595e-05
-0.0017954936982468115   -0.0028558603209108222   -2.921408606672672e-05
-0.0010592622171456518   -0.002843704003821457   -6.3514209018993256e-06
-0.0011187349169232079   -0.0014545977900968527   1.0923079465561595e-05
-0.0018489351746827705   -0.001472904286457148   -7.441673988319326e-06
-0.0017954936982468115   -0.0028558603209108222   -2.921408606672672e-05
-0.0018576118514433927   -0.0014627886885550524   -2.1960880079416366e-06
-0.0010592622171456518   -0.002843704003821457   -6.3514209018993256e-06
-0.001804363111470754   -0.0028476192886723655   -2.288979262802936e-05
-0.0018576118514433927   -0.0014627886885550524   -2.1960880079416366e-06
-0.0017954936982468115   -0.0028558603209108222   -2.921408606672672e-05
-0.0010592622171456518   -0.002843704003821457   -6.3514209018993256e-06
-0.0018576118514433927   -0.0014627886885550524   -2.1960880079416366e-06
-0.0011295298302087154   -0.0014439751139943243   1.7885385620356325e-05
-0.0011187349169232079   -0.0014545977900968527   1.0923079465561595e-05
-0.0010592622171456518   -0.002843704003821457   -6.3514209018993256e-06
-0.0018576118514433927   -0.0014627886885550524   -2.1960880079416366e-06
-0.0011187349169232079   -0.0014545977900968527   1.0923079465561595e-05
-0.0017954936982468115   -0.0028558603209108222   -2.921408606672672e-05
-0.001777151993892331   -0.002872110137699582   -4.033275904111307e-05
-0.0018301361211160105   -0.0014907263360539552   -1.6800491096246573e-05
-0.002541483803148396   -0.0028673581635808862   -5.345198466095313e-05
-0.0017865414952977323   -0.0028640026497427982   -3.5034887686240497e-05
-0.0018301361211160105   -0.0014907263360539552   -1.6800491096246573e-05
-0.0025888465993639275   -0.00149834672153971   -3.11053077719058e-05
-0.002541483803148396   -0.0028673581635808862   -5.345198466095313e-05
-0.002597476982903118   -0.0014909013334780136   -2.758291010851705e-05
-0.0017865414952977323   -0.0028640026497427982   -3.5034887686240497e-05
-0.0025504303197723638   -0.0028612066685183477   -4.816955937472009e-05
-0.002597476982903118   -0.0014909013334780136   -2.758291010851705e-05
-0.002541483803148396   -0.0028673581635808862   -5.345198466095313e-05
-0.0017865414952977323   -0.0028640026497427982   -3.5034887686240497e-05
-0.002597476982903118   -0.0014909013334780136   -2.758291010851705e-05
-0.0018396613125036525   -0.0014821345675992436   -1.2163210241878201e-05
-0.0018301361211160105   -0.0014907263360539552   -1.6800491096246573e-05
-0.0017865414952977323   -0.0028640026497427982   -3.5034887686240497e-05
-0.002597476982903118   -0.0014909013334780136   -2.758291010851705e-05
-0.0018301361211160105   -0.0014907263360539552   -1.6800491096246573e-05
-0.002541483803148396   -0.0028673581635808862   -5.345198466095313e-05
-0.0017865414952977323   -0.0028640026497427982   -3.5034887686240497e-05
-0.0018396613125036525   -0.0014821345675992436   -1.2163210241878201e-05
-0.0025504303197723638   -0.0028612066685183477   -4.816955937472009e-05
-0.0017954936982468115   -0.0028558603209108222   -2.921408606672672e-05
-0.0018396613125036525   -0.0014821345675992436   -1.2163210241878201e-05
-0.002597476982903118   -0.0014909013334780136   -2.758291010851705e-05
-0.0025504303197723638   -0.0028612066685183477   -4.816955937472009e-05
-0.0026051774586237125   -0.0014825797694158047   -2.406958271123199e-05
-0.0017954936982468115   -0.0028558603209108222   -2.921408606672672e-05
-0.0025578663414043256   -0.0028547574271220897   -4.248391775602176e-05
-0.0026051774586237125   -0.0014825797694158047   -2.406958271123199e-05
-0.0025504303197723638   -0.0028612066685183477   -4.816955937472009e-05
-0.0017954936982468115   -0.0028558603209108222   -2.921408606672672e-05
-0.0026051774586237125   -0.0014825797694158047   -2.406958271123199e-05
-0.0018489351746827705   -0.001472904286457148   -7.441673988319326e-06
-0.0018396613125036525   -0.0014821345675992436   -1.2163210241878201e-05
-0.0017954936982468115   -0.0028558603209108222   -2.921408606672672e-05
-0.0026051774586237125   -0.0014825797694158047   -2.406958271123199e-05
-0.0018396613125036525   -0.0014821345675992436   -1.2163210241878201e-05
-0.0025504303197723638   -0.0028612066685183477   -4.816955937472009e-05
-0.0017954936982468115   -0.0028558603209108222   -2.921408606672672e-05
-0.0018489351746827705   -0.001472904286457148   -7.441673988319326e-06
-0.0025578663414043256   -0.0028547574271220897   -4.248391775602176e-05
-0.001804363111470754   -0.0028476192886723655   -2.288979262802936e-05
-0.0018489351746827705   -0.001472904286457148   -7.441673988319326e-06
-0.0026051774586237125   -0.0014825797694158047   -2.406958271123199e-05
-0.0025578663414043256   -0.0028547574271220897   -4.248391775602176e-05
-0.0026121890816065718   -0.0014736174188963098   -2.0345178916590696e-05
-0.001804363111470754   -0.0028476192886723655   -2.288979262802936e-05
-0.0025648862088104595   -0.0028482350667074184   -3.6249804037003255e-05
-0.0026121890816065718   -0.0014736174188963098   -2.0345178916590696e-05
-0.0025578663414043256   -0.0028547574271220897   -4.248391775602176e-05
-0.001804363111470754   -0.0028476192886723655   -2.288979262802936e-05
-0.0026121890816065718   -0.0014736174188963098   -2.0345178916590696e-05
-0.0018576118514433927   -0.0014627886885550524   -2.1960880079416366e-06
-0.0018489351746827705   -0.001472904286457148   -7.441673988319326e-06
-0.001804363111470754   -0.0028476192886723655   -2.288979262802936e-05
-0.0026121890816065718   -0.0014736174188963098   -2.0345178916590696e-05
-0.0018489351746827705   -0.001472904286457148   -7.441673988319326e-06
-0.0025578663414043256   -0.0028547574271220897   -4.248391775602176e-05
-0.002541483803148396   -0.0028673581635808862   -5.345198466095313e-05
-0.0025888465993639275   -0.00149834672153971   -3.11053077719058e-05
-0.003345223876800148   -0.0028591143660459915   -6.21325610250331e-05
-0.0025504303197723638   -0.0028612066685183477   -4.816955937472009e-05
-0.0025888465993639275   -0.00149834672153971   -3.11053077719058e-05
-0.0033775487340796766   -0.0014989335174866952   -4.227455073670729e-05
-0.003345223876800148   -0.0028591143660459915   -6.21325610250331e-05
-0.003384725822660088   -0.001491830821095802   -4.048799941770391e-05
-0.0025504303197723638   -0.0028612066685183477   -4.816955937472009e-05
-0.003350014414419346   -0.0028543992575767695   -5.770818292624344e-05
-0.003384725822660088   -0.001491830821095802   -4.048799941770391e-05
-0.003345223876800148   -0.0028591143660459915   -6.21325610250331e-05
-0.0025504303197723638   -0.0028612066685183477   -4.816955937472009e-05
-0.003384725822660088   -0.001491830821095802   -4.048799941770391e-05
-0.002597476982903118   -0.0014909013334780136   -2.758291010851705e-05
-0.0025888465993639275   -0.00149834672153971   -3.11053077719058e-05
-0.0025504303197723638   -0.0028612066685183477   -4.816955937472009e-05
-0.003384725822660088   -0.001491830821095802   -4.048799941770391e-05
-0.0025888465993639275   -0.00149834672153971   -3.11053077719058e-05
-0.003345223876800148   -0.0028591143660459915   -6.21325610250331e-05
-0.0025504303197723638   -0.0028612066685183477   -4.816955937472009e-05
-0.002597476982903118   -0.0014909013334780136   -2.758291010851705e-05
-0.003350014414419346   -0.0028543992575767695   -5.770818292624344e-05
-0.0025578663414043256   -0.0028547574271220897   -4.248391775602176e-05
-0.002597476982903118   -0.0014909013334780136   -2.758291010851705e-05
-0.003384725822660088   -0.001491830821095802   -4.048799941770391e-05
-0.003350014414419346   -0.0028543992575767695   -5.770818292624344e-05
-0.0033911561644494126   -0.0014839361843308734   -3.834767813462278e-05
-0.0025578663414043256   -0.0028547574271220897   -4.248391775602176e-05
-0.003354395323111783   -0.002848876114381546   -5.235963841590713e-05
-0.0033911561644494126   -0.0014839361843308734   -3.834767813462278e-05
-0.003350014414419346   -0.0028543992575767695   -5.770818292624344e-05
-0.0025578663414043256   -0.0028547574271220897   -4.248391775602176e-05
-0.0033911561644494126   -0.0014839361843308734   -3.834767813462278e-05
-0.0026051774586237125   -0.0014825797694158047   -2.406958271123199e-05
-0.002597476982903118   -0.0014909013334780136   -2.758291010851705e-05
-0.0025578663414043256   -0.0028547574271220897   -4.248391775602176e-05
-0.0033911561644494126   -0.0014839361843308734   -3.834767813462278e-05
-0.002597476982903118   -0.0014909013334780136   -2.758291010851705e-05
-0.003350014414419346   -0.0028543992575767695   -5.770818292624344e-05
-0.0025578663414043256   -0.0028547574271220897   -4.248391775602176e-05
-0.0026051774586237125   -0.0014825797694158047   -2.406958271123199e-05
-0.003354395323111783   -0.002848876114381546   -5.235963841590713e-05
-0.0025648862088104595   -0.0028482350667074184   -3.6249804037003255e-05
-0.0026051774586237125   -0.0014825797694158047   -2.406958271123199e-05
-0.0033911561644494126   -0.0014839361843308734   -3.834767813462278e-05
-0.003354395323111783   -0.002848876114381546   -5.235963841590713e-05
-0.003396256778671293   -0.001475617390582821   -3.6182474724874876e-05
-0.0025648862088104595   -0.0028482350667074184   -3.6249804037003255e-05
-0.003355654690687685   -0.002844368500491212   -4.628171746536867e-05
-0.003396256778671293   -0.001475617390582821   -3.6182474724874876e-05
-0.003354395323111783   -0.002848876114381546   -5.235963841590713e-05
-0.0025648862088104595   -0.0028482350667074184   -3.6249804037003255e-05
-0.003396256778671293   -0.001475617390582821   -3.6182474724874876e-05
-0.0026121890816065718   -0.0014736174188963098   -2.0345178916590696e-05
-0.0026051774586237125   -0.0014825797694158047   -2.406958271123199e-05
-0.0025648862088104595   -0.0028482350667074184   -3.6249804037003255e-05
-0.003396256778671293   -0.001475617390582821   -3.6182474724874876e-05
-0.0026051774586237125   -0.0014825797694158047   -2.406958271123199e-05
-0.003354395323111783   -0.002848876114381546   -5.235963841590713e-05
0.0003835131561159036   -0.001465885734944842   1.6188459979904224e-05
0.0   0.0   0.0
-0.0003788733435002478   -0.0014493573616674662   1.2308322887374493e-05
0.00034980003979164545   -0.0014501288043787077   3.51133289446903e-05
0.0   0.0   0.0
-0.00046547421693991423   -0.00013516912637263605   1.389587562030247e-07
-0.0003788733435002478   -0.0014493573616674662   1.2308322887374493e-05
-0.0004936517583107438   -0.00010849269604171434   1.791690194899577e-05
0.00034980003979164545   -0.0014501288043787077   3.51133289446903e-05
-0.000389569537769104   -0.001444842804611718   2.0152527131015866e-05
-0.0004936517583107438   -0.00010849269604171434   1.791690194899577e-05
-0.0003788733435002478   -0.0014493573616674662   1.2308322887374493e-05
0.00034980003979164545   -0.0014501288043787077   3.51133289446903e-05
-0.0004936517583107438   -0.00010849269604171434   1.791690194899577e-05
0.0   0.0   0.0
0.0   0.0   0.0
0.00034980003979164545   -0.0014501288043787077   3.51133289446903e-05
-0.0004936517583107438   -0.00010849269604171434   1.791690194899577e-05
0.0   0.0   0.0
-0.0003788733435002478   -0.0014493573616674662   1.2308322887374493e-05
0.00034980003979164545   -0.0014501288043787077   3.51133289446903e-05
0.0   0.0   0.0
-0.000389569537769104   -0.001444842804611718   2.0152527131015866e-05
0.00033031432600026087   -0.0014381565342973224   4.891715115692656e-05
0.0   0.0   0.0
-0.0004936517583107438   -0.00010849269604171434   1.791690194899577e-05
-0.000389569537769104   -0.001444842804611718   2.0152527131015866e-05
-0.0005118527584940572   -9.609641358550914e-05   2.8753324761151023e-05
0.00033031432600026087   -0.0014381565342973224   4.891715115692656e-05
-0.00040419994953791563   -0.0014348638533772146   2.984262372123959e-05
-0.0005118527584940572   -9.609641358550914e-05   2.8753324761151023e-05
-0.000389569537769104   -0.001444842804611718   2.0152527131015866e-05
0.00033031432600026087   -0.0014381565342973224   4.891715115692656e-05
-0.0005118527584940572   -9.609641358550914e-05   2.8753324761151023e-05
0.0   0.0   0.0
0.0   0.0   0.0
0.00033031432600026087   -0.0014381565342973224   4.891715115692656e-05
-0.0005118527584940572   -9.609641358550914e-05   2.8753324761151023e-05
0.0   0.0   0.0
-0.000389569537769104   -0.001444842804611718   2.0152527131015866e-05
0.00033031432600026087   -0.0014381565342973224   4.891715115692656e-05
0.0   0.0   0.0
-0.00040419994953791563   -0.0014348638533772146   2.984262372123959e-05
0.00030492944983311537   -0.0014190027412668777   6.487283891722918e-05
0.0   0.0   0.0
-0.0005118527584940572   -9.609641358550914e-05   2.8753324761151023e-05
-0.00040419994953791563   -0.0014348638533772146   2.984262372123959e-05
-0.0005371573524488168   -7.93405715507763e-05   4.130174802990503e-05
0.00030492944983311537   -0.0014190027412668777   6.487283891722918e-05
-0.00041675209279556187   -0.0014244826353519368   3.833808903162817e-05
-0.0005371573524488168   -7.93405715507763e-05   4.130174802990503e-05
-0.00040419994953791563   -0.0014348638533772146   2.984262372123959e-05
0.00030492944983311537   -0.0014190027412668777   6.487283891722918e-05
-0.0005371573524488168   -7.93405715507763e-05   4.130174802990503e-05
0.0   0.0   0.0
0.0   0.0   0.0
0.00030492944983311537   -0.0014190027412668777   6.487283891722918e-05
-0.0005371573524488168   -7.93405715507763e-05   4.130174802990503e-05
0.0   0.0   0.0
-0.00040419994953791563   -0.0014348638533772146   2.984262372123959e-05
-0.0003788733435002478   -0.0014493573616674662   1.2308322887374493e-05
-0.00046547421693991423   -0.00013516912637263605   1.389587562030247e-07
-0.0010972612092017527   -0.0014725551090912661   -1.078742264812881e-06
-0.000389569537769104   -0.001444842804611718   2.0152527131015866e-05
-0.00046547421693991423   -0.00013516912637263605   1.389587562030247e-07
-0.0011263867268196462   -0.00018334922979665677   6.050101709332589e-06
-0.0010972612092017527   -0.0014725551090912661   -1.078742264812881e-06
-0.0011415859621079375   -0.00016974770477823622   1.1392886968648475e-05
-0.000389569537769104   -0.001444842804611718   2.0152527131015866e-05
-0.0011076182749918582   -0.0014642862208011406   4.684804385991615e-06
-0.0011415859621079375   -0.00016974770477823622   1.1392886968648475e-05
-0.0010972612092017527   -0.0014725551090912661   -1.078742264812881e-06
-0.000389569537769104   -0.001444842804611718   2.0152527131015866e-05
-0.0011415859621079375   -0.00016974770477823622   1.1392886968648475e-05
-0.0004936517583107438   -0.00010849269604171434   1.791690194899577e-05
-0.00046547421693991423   -0.00013516912637263605   1.389587562030247e-07
-0.000389569537769104   -0.001444842804611718   2.0152527131015866e-05
-0.0011415859621079375   -0.00016974770477823622   1.1392886968648475e-05
-0.00046547421693991423   -0.00013516912637263605   1.389587562030247e-07
-0.0010972612092017527   -0.0014725551090912661   -1.078742264812881e-06
-0.000389569537769104   -0.001444842804611718   2.0152527131015866e-05
-0.0004936517583107438   -0.00010849269604171434   1.791690194899577e-05
-0.0011076182749918582   -0.0014642862208011406   4.684804385991615e-06
-0.00040419994953791563   -0.0014348638533772146   2.984262372123959e-05
-0.0004936517583107438   -0.00010849269604171434   1.791690194899577e-05
-0.0011415859621079375   -0.00016974770477823622   1.1392886968648475e-05
-0.0011076182749918582   -0.0014642862208011406   4.684804385991615e-06
-0.0011569610628719257   -0.00015357290425683706   2.0367439281741838e-05
-0.00040419994953791563   -0.0014348638533772146   2.984262372123959e-05
-0.0011187349169232079   -0.0014545977900968527   1.0923079465561595e-05
-0.0011569610628719257   -0.00015357290425683706   2.0367439281741838e-05
-0.0011076182749918582   -0.0014642862208011406   4.684804385991615e-06
-0.00040419994953791563   -0.0014348638533772146   2.984262372123959e-05
-0.0011569610628719257   -0.00015357290425683706   2.0367439281741838e-05
-0.0005118527584940572   -9.609641358550914e-05   2.8753324761151023e-05
-0.0004936517583107438   -0.00010849269604171434   1.791690194899577e-05
-0.00040419994953791563   -0.0014348638533772146   2.984262372123959e-05
-0.0011569610628719257   -0.00015357290425683706   2.0367439281741838e-05
-0.0004936517583107438   -0.00010849269604171434   1.791690194899577e-05
-0.0011076182749918582   -0.0014642862208011406   4.684804385991615e-06
-0.00040419994953791563   -0.0014348638533772146   2.984262372123959e-05
-0.0005118527584940572   -9.609641358550914e-05   2.8753324761151023e-05
-0.0011187349169232079   -0.0014545977900968527   1.0923079465561595e-05
-0.00041675209279556187   -0.0014244826353519368   3.833808903162817e-05
-0.0005118527584940572   -9.609641358550914e-05   2.8753324761151023e-05
-0.0011569610628719257   -0.00015357290425683706   2.0367439281741838e-05
-0.0011187349169232079   -0.0014545977900968527   1.0923079465561595e-05
-0.0011749225532960493   -0.00013427947244168121   2.933259958062611e-05
-0.00041675209279556187   -0.0014244826353519368   3.833808903162817e-05
-0.0011295298302087154   -0.0014439751139943243   1.7885385620356325e-05
-0.0011749225532960493   -0.00013427947244168121   2.933259958062611e-05
-0.0011187349169232079   -0.0014545977900968527   1.0923079465561595e-05
-0.00041675209279556187   -0.0014244826353519368   3.833808903162817e-05
-0.0011749225532960493   -0.00013427947244168121   2.933259958062611e-05
-0.0005371573524488168   -7.93405715507763e-05   4.130174802990503e-05
-0.0005118527584940572   -9.609641358550914e-05   2.8753324761151023e-05
-0.00041675209279556187   -0.0014244826353519368   3.833808903162817e-05
-0.0011749225532960493   -0.00013427947244168121   2.933259958062611e-05
-0.0005118527584940572   -9.609641358550914e-05   2.8753324761151023e-05
-0.0011187349169232079   -0.0014545977900968527   1.0923079465561595e-05
-0.0010972612092017527   -0.0014725551090912661   -1.078742264812881e-06
-0.0011263867268196462   -0.00018334922979665677   6.050101709332589e-06
-0.0018301361211160105   -0.0014907263360539552   -1.6800491096246573e-05
-0.0011076182749918582   -0.0014642862208011406   4.684804385991615e-06
-0.0011263867268196462   -0.00018334922979665677   6.050101709332589e-06
-0.0018470301338353475   -0.00020036006553216415   -1.7113100254282995e-06
-0.0018301361211160105   -0.0014907263360539552   -1.6800491096246573e-05
-0.0018566433079652475   -0.00019084827214047297   1.2951779053811618e-07
-0.0011076182749918582   -0.0014642862208011406   4.684804385991615e-06
-0.0018396613125036525   -0.0014821345675992436   -1.2163210241878201e-05
-0.0018566433079652475   -0.00019084827214047297   1.2951779053811618e-07
-0.0018301361211160105   -0.0014907263360539552   -1.6800491096246573e-05
-0.0011076182749918582   -0.0014642862208011406   4.684804385991615e-06
-0.0018566433079652475   -0.00019084827214047297   1.2951779053811618e-07
-0.0011415859621079375   -0.00016974770477823622   1.1392886968648475e-05
-0.0011263867268196462   -0.00018334922979665677   6.050101709332589e-06
-0.0011076182749918582   -0.0014642862208011406   4.684804385991615e-06
-0.0018566433079652475   -0.00019084827214047297   1.2951779053811618e-07
-0.0011263867268196462   -0.00018334922979665677   6.050101709332589e-06
-0.0018301361211160105   -0.0014907263360539552   -1.6800491096246573e-05
-0.0011076182749918582   -0.0014642862208011406   4.684804385991615e-06
-0.0011415859621079375   -0.00016974770477823622   1.1392886968648475e-05
-0.0018396613125036525   -0.0014821345675992436   -1.2163210241878201e-05
-0.0011187349169232079   -0.0014545977900968527   1.0923079465561595e-05
-0.0011415859621079375   -0.00016974770477823622   1.1392886968648475e-05
-0.0018566433079652475   -0.00019084827214047297   1.2951779053811618e-07
-0.0018396613125036525   -0.0014821345675992436   -1.2163210241878201e-05
-0.0018667093493090134   -0.00017926340357945692   3.1531363492909643e-06
-0.0011187349169232079   -0.0014545977900968527   1.0923079465561595e-05
-0.0018489351746827705   -0.001472904286457148   -7.441673988319326e-06
-0.0018667093493090134   -0.00017926340357945692   3.1531363492909643e-06
-0.0018396613125036525   -0.0014821345675992436   -1.2163210241878201e-05
-0.0011187349169232079   -0.0014545977900968527   1.0923079465561595e-05
-0.0018667093493090134   -0.00017926340357945692   3.1531363492909643e-06
-0.0011569610628719257   -0.00015357290425683706   2.0367439281741838e-05
-0.0011415859621079375   -0.00016974770477823622   1.1392886968648475e-05
-0.0011187349169232079   -0.0014545977900968527   1.0923079465561595e-05
-0.0018667093493090134   -0.00017926340357945692   3.1531363492909643e-06
-0.0011415859621079375   -0.00016974770477823622   1.1392886968648475e-05
-0.0018396613125036525   -0.0014821345675992436   -1.2163210241878201e-05
-0.0011187349169232079   -0.0014545977900968527   1.0923079465561595e-05
-0.0011569610628719257   -0.00015357290425683706   2.0367439281741838e-05
-0.0018489351746827705   -0.001472904286457148   -7.441673988319326e-06
-0.0011295298302087154   -0.0014439751139943243   1.7885385620356325e-05
-0.0011569610628719257   -0.00015357290425683706   2.0367439281741838e-05
-0.0018667093493090134   -0.00017926340357945692   3.1531363492909643e-06
-0.0018489351746827705   -0.001472904286457148   -7.441673988319326e-06
-0.0018770346851808054   -0.00016426303461298373   7.156290872843762e-06
-0.0011295298302087154   -0.0014439751139943243   1.7885385620356325e-05
-0.0018576118514433927   -0.0014627886885550524   -2.1960880079416366e-06
-0.0018770346851808054   -0.00016426303461298373   7.156290872843762e-06
-0.0018489351746827705   -0.001472904286457148   -7.441673988319326e-06
-0.0011295298302087154   -0.0014439751139943243   1.7885385620356325e-05
-0.0018770346851808054   -0.00016426303461298373   7.156290872843762e-06
-0.0011749225532960493   -0.00013427947244168121   2.933259958062611e-05
-0.0011569610628719257   -0.00015357290425683706   2.0367439281741838e-05
-0.0011295298302087154   -0.0014439751139943243   1.7885385620356325e-05
-0.0018770346851808054   -0.00016426303461298373   7.156290872843762e-06
-0.0011569610628719257   -0.00015357290425683706   2.0367439281741838e-05
-0.0018489351746827705   -0.001472904286457148   -7.441673988319326e-06
-0.0018301361211160105   -0.0014907263360539552   -1.6800491096246573e-05
-0.0018470301338353475   -0.00020036006553216415   -1.7113100254282995e-06
-0.0025888465993639275   -0.00149834672153971   -3.11053077719058e-05
-0.0018396613125036525   -0.0014821345675992436   -1.2163210241878201e-05
-0.0018470301338353475   -0.00020036006553216415   -1.7113100254282995e-06
-0.0026028431758493347   -0.00020148672850801055   -1.5685582604085787e-05
-0.0025888465993639275   -0.00149834672153971   -3.11053077719058e-05
-0.0026094375453066744   -0.00019375664277833016   -1.4842944333503675e-05
-0.0018396613125036525   -0.0014821345675992436   -1.2163210241878201e-05
-0.002597476982903118   -0.0014909013334780136   -2.758291010851705e-05
-0.0026094375453066744   -0.00019375664277833016   -1.4842944333503675e-05
-0.0025888465993639275   -0.00149834672153971   -3.11053077719058e-05
-0.0018396613125036525   -0.0014821345675992436   -1.2163210241878201e-05
-0.0026094375453066744   -0.00019375664277833016   -1.4842944333503675e-05
-0.0018566433079652475   -0.00019084827214047297   1.2951779053811618e-07
-0.0018470301338353475   -0.00020036006553216415   -1.7113100254282995e-06
-0.0018396613125036525   -0.0014821345675992436   -1.2163210241878201e-05
-0.0026094375453066744   -0.00019375664277833016   -1.4842944333503675e-05
-0.0018470301338353475   -0.00020036006553216415   -1.7113100254282995e-06
-0.0025888465993639275   -0.00149834672153971   -3.11053077719058e-05
-0.0018396613125036525   -0.0014821345675992436   -1.2163210241878201e-05
-0.0018566433079652475   -0.00019084827214047297   1.2951779053811618e-07
-0.002597476982903118   -0.0014909013334780136   -2.758291010851705e-05
-0.0018489351746827705   -0.001472904286457148   -7.441673988319326e-06
-0.0018566433079652475   -0.00019084827214047297   1.2951779053811618e-07
-0.0026094375453066744   -0.00019375664277833016   -1.4842944333503675e-05
-0.002597476982903118   -0.0014909013334780136   -2.758291010851705e-05
-0.0026162935293078888   -0.00018462734867380845   -1.3952236533523905e-05
-0.0018489351746827705   -0.001472904286457148   -7.441673988319326e-06
-0.0026051774586237125   -0.0014825797694158047   -2.406958271123199e-05
-0.0026162935293078888   -0.00018462734867380845   -1.3952236533523905e-05
-0.002597476982903118   -0.0014909013334780136   -2.758291010851705e-05
-0.0018489351746827705   -0.001472904286457148   -7.441673988319326e-06
-0.0026162935293078888   -0.00018462734867380845   -1.3952236533523905e-05
-0.0018667093493090134   -0.00017926340357945692   3.1531363492909643e-06
-0.0018566433079652475   -0.00019084827214047297   1.2951779053811618e-07
-0.0018489351746827705   -0.001472904286457148   -7.441673988319326e-06
-0.0026162935293078888   -0.00018462734867380845   -1.3952236533523905e-05
-0.0018566433079652475   -0.00019084827214047297   1.2951779053811618e-07
-0.002597476982903118   -0.0014909013334780136   -2.758291010851705e-05
-0.0018489351746827705   -0.001472904286457148   -7.441673988319326e-06
-0.0018667093493090134   -0.00017926340357945692   3.1531363492909643e-06
-0.0026051774586237125   -0.0014825797694158047   -2.406958271123199e-05
-0.0018576118514433927   -0.0014627886885550524   -2.1960880079416366e-06
-0.0018667093493090134   -0.00017926340357945692   3.1531363492909643e-06
-0.0026162935293078888   -0.00018462734867380845   -1.3952236533523905e-05
-0.0026051774586237125   -0.0014825797694158047   -2.406958271123199e-05
-0.002622049145402177   -0.00017420852740255123   -1.301383760153263e-05
-0.0018576118514433927   -0.0014627886885550524   -2.1960880079416366e-06
-0.0026121890816065718   -0.0014736174188963098   -2.0345178916590696e-05
-0.002622049145402177   -0.00017420852740255123   -1.301383760153263e-05
-0.0026051774586237125   -0.0014825797694158047   -2.406958271123199e-05
-0.0018576118514433927   -0.0014627886885550524   -2.1960880079416366e-06
-0.002622049145402177   -0.00017420852740255123   -1.301383760153263e-05
-0.0018770346851808054   -0.00016426303461298373   7.156290872843762e-06
-0.0018667093493090134   -0.00017926340357945692   3.1531363492909643e-06
-0.0018576118514433927   -0.0014627886885550524   -2.1960880079416366e-06
-0.002622049145402177   -0.00017420852740255123   -1.301383760153263e-05
-0.0018667093493090134   -0.00017926340357945692   3.1531363492909643e-06
-0.0026051774586237125   -0.0014825797694158047   -2.406958271123199e-05
-0.0025888465993639275   -0.00149834672153971   -3.11053077719058e-05
-0.0026028431758493347   -0.00020148672850801055   -1.5685582604085787e-05
-0.0033775487340796766   -0.0014989335174866952   -4.227455073670729e-05
-0.002597476982903118   -0.0014909013334780136   -2.758291010851705e-05
-0.0026028431758493347   -0.00020148672850801055   -1.5685582604085787e-05
-0.0033816860686453724   -0.00020065431802363903   -2.9703859642665896e-05
-0.0033775487340796766   -0.0014989335174866952   -4.227455073670729e-05
-0.003386920333887851   -0.00019246277822247508   -2.9521113665634726e-05
-0.002597476982903118   -0.0014909013334780136   -2.758291010851705e-05
-0.003384725822660088   -0.001491830821095802   -4.048799941770391e-05
-0.003386920333887851   -0.00019246277822247508   -2.9521113665634726e-05
-0.0033775487340796766   -0.0014989335174866952   -4.227455073670729e-05
-0.002597476982903118   -0.0014909013334780136   -2.758291010851705e-05
-0.003386920333887851   -0.00019246277822247508   -2.9521113665634726e-05
-0.0026094375453066744   -0.00019375664277833016   -1.4842944333503675e-05
-0.0026028431758493347   -0.00020148672850801055   -1.5685582604085787e-05
-0.002597476982903118   -0.0014909013334780136   -2.758291010851705e-05
-0.003386920333887851   -0.00019246277822247508   -2.9521113665634726e-05
-0.0026028431758493347   -0.00020148672850801055   -1.5685582604085787e-05
-0.0033775487340796766   -0.0014989335174866952   -4.227455073670729e-05
-0.002597476982903118   -0.0014909013334780136   -2.758291010851705e-05
-0.0026094375453066744   -0.00019375664277833016   -1.4842944333503675e-05
-0.003384725822660088   -0.001491830821095802   -4.048799941770391e-05
-0.0026051774586237125   -0.0014825797694158047   -2.406958271123199e-05
-0.0026094375453066744   -0.00019375664277833016   -1.4842944333503675e-05
-0.003386920333887851   -0.00019246277822247508   -2.9521113665634726e-05
-0.003384725822660088   -0.001491830821095802   -4.048799941770391e-05
-0.003392618537226296   -0.00018392380135345035   -2.999632608745475e-05
-0.0026051774586237125   -0.0014825797694158047   -2.406958271123199e-05
-0.0033911561644494126   -0.0014839361843308734   -3.834767813462278e-05
-0.003392618537226296   -0.00018392380135345035   -2.999632608745475e-05
-0.003384725822660088   -0.001491830821095802   -4.048799941770391e-05
-0.0026051774586237125   -0.0014825797694158047   -2.406958271123199e-05
-0.003392618537226296   -0.00018392380135345035   -2.999632608745475e-05
-0.0026162935293078888   -0.00018462734867380845   -1.3952236533523905e-05
-0.0026094375453066744   -0.00019375664277833016   -1.4842944333503675e-05
-0.0026051774586237125   -0.0014825797694158047   -2.406958271123199e-05
-0.003392618537226296   -0.00018392380135345035   -2.999632608745475e-05
-0.0026094375453066744   -0.00019375664277833016   -1.4842944333503675e-05
-0.003384725822660088   -0.001491830821095802   -4.048799941770391e-05
-0.0026051774586237125   -0.0014825797694158047   -2.406958271123199e-05
-0.0026162935293078888   -0.00018462734867380845   -1.3952236533523905e-05
-0.0033911561644494126   -0.0014839361843308734   -3.834767813462278e-05
-0.0026121890816065718   -0.0014736174188963098   -2.0345178916590696e-05
-0.0026162935293078888   -0.00018462734867380845   -1.3952236533523905e-05
-0.003392618537226296   -0.00018392380135345035   -2.999632608745475e-05
-0.0033911561644494126   -0.0014839361843308734   -3.834767813462278e-05
-0.0033969963485467034   -0.0001743786418291652   -3.0417887520364388e-05
-0.0026121890816065718   -0.0014736174188963098   -2.0345178916590696e-05
-0.003396256778671293   -0.001475617390582821   -3.6182474724874876e-05
-0.0033969963485467034   -0.0001743786418291652   -3.0417887520364388e-05
-0.0033911561644494126   -0.0014839361843308734   -3.834767813462278e-05
-0.0026121890816065718   -0.0014736174188963098   -2.0345178916590696e-05
-0.0033969963485467034   -0.0001743786418291652   -3.0417887520364388e-05
-0.002622049145402177   -0.00017420852740255123   -1.301383760153263e-05
-0.0026162935293078888   -0.00018462734867380845   -1.3952236533523905e-05
-0.0026121890816065718   -0.0014736174188963098   -2.0345178916590696e-05
-0.0033969963485467034   -0.0001743786418291652   -3.0417887520364388e-05
-0.0026162935293078888   -0.00018462734867380845   -1.3952236533523905e-05
-0.0033911561644494126   -0.0014839361843308734   -3.834767813462278e-05
              </DataArray>   
          </PointData>  
       </Piece>  
   </UnstructuredGrid> 
</VTKFile> 
